<?xml version="1.0"?>
<VTKFile type="UnstructuredGrid" version="0.1" byte_order="LittleEndian">
<UnstructuredGrid>
<Piece NumberOfPoints="30578" NumberOfCells="10723">
<Points>
<DataArray type="Float64" NumberOfComponents="3" format="ascii">
-0.5 -0.5 0 -0.47439485679867832 -0.48072581506667478 0 -0.5 -0.44765434486020428 0 -0.5 -0.5 0 -0.47439485679867832 -0.48072581506667478 0 -0.43702443379937372 -0.49999999999999922 0 -0.47439485679867832 -0.48072581506667478 0 -0.45530669598391149 -0.47718009944797551 0 -0.43702443379937372 -0.49999999999999922 0 -0.47439485679867832 -0.48072581506667478 0 -0.45530669598391149 -0.47718009944797551 0 -0.4597353119515426 -0.45943449384344293 0 -0.45530669598391149 -0.47718009944797551 0 -0.44381084376742141 -0.47114793899167112 0 -0.4597353119515426 -0.45943449384344293 0 -0.45530669598391149 -0.47718009944797551 0 -0.44381084376742141 -0.47114793899167112 0 -0.43702443379937372 -0.49999999999999922 0 -0.44381084376742141 -0.47114793899167112 0 -0.43702443379937372 -0.49999999999999922 0 -0.45059725373546922 -0.44229587798334291 0 -0.4339166039271336 -0.43498117536117131 0 -0.43309128002320102 -0.45351235807576151 0 -0.44381084376742141 -0.47114793899167112 0 -0.45059725373546922 -0.44229587798334291 0 -0.4597353119515426 -0.45943449384344293 0 -0.44381084376742141 -0.47114793899167112 0 -0.45059725373546922 -0.44229587798334291 0 -0.43309128002320102 -0.45351235807576151 0 -0.44381084376742141 -0.47114793899167112 0 -0.45059725373546922 -0.44229587798334291 0 -0.4597353119515426 -0.45943449384344293 0 -0.47505511338101108 -0.44868394208069429 0 -0.46517432262153441 -0.43649963461163338 0 -0.45059725373546922 -0.44229587798334291 0 -0.4597353119515426 -0.45943449384344293 0 -0.46517432262153441 -0.43649963461163338 0 -0.47505511338101108 -0.44868394208069429 0 -0.47820614292347569 -0.42776699273468149 0 -0.46517432262153441 -0.43649963461163338 0 -0.47505511338101108 -0.44868394208069429 0 -0.47820614292347569 -0.42776699273468149 0 -0.47439485679867832 -0.48072581506667478 0 -0.47505511338101108 -0.44868394208069429 0 -0.5 -0.44765434486020428 0 -0.47439485679867832 -0.48072581506667478 0 -0.4597353119515426 -0.45943449384344293 0 -0.47505511338101108 -0.44868394208069429 0 -0.47505511338101108 -0.44868394208069429 0 -0.5 -0.44765434486020428 0 -0.47820614292347569 -0.42776699273468149 0 -0.5 -0.44765434486020428 0 -0.49656450065014057 -0.42151023988558672 0 -0.47820614292347569 -0.42776699273468149 0 -0.5 -0.44765434486020428 0 -0.49656450065014057 -0.42151023988558672 0 -0.50000000000000089 -0.37904661106745707 0 -0.49656450065014057 -0.42151023988558672 0 -0.48135717246594062 -0.40685004338866881 0 -0.47820614292347569 -0.42776699273468149 0 -0.49656450065014057 -0.42151023988558672 0 -0.48135717246594062 -0.40685004338866881 0 -0.48135717246594062 -0.40685004338866881 0 -0.47820614292347569 -0.42776699273468149 0 -0.48135717246594062 -0.40685004338866881 0 -0.47820614292347569 -0.42776699273468149 0 -0.45738366370351707 -0.41344381697501481 0 -0.49656450065014057 -0.42151023988558672 0 -0.48135717246594062 -0.40685004338866881 0 -0.50000000000000089 -0.37904661106745707 0 -0.50000000000000089 -0.37904661106745707 0 -0.48466894952205442 -0.38486603086372417 0 -0.48717439863114548 -0.36823452950912272 0 -0.48135717246594062 -0.40685004338866881 0 -0.50000000000000089 -0.37904661106745707 0 -0.48466894952205442 -0.38486603086372417 0 -0.48466894952205442 -0.38486603086372417 0 -0.48717439863114548 -0.36823452950912272 0 -0.50000000000000089 -0.37904661106745707 0 -0.48466894952205442 -0.38486603086372417 0 -0.48135717246594062 -0.40685004338866881 0 -0.48466894952205442 -0.38486603086372417 0 -0.46593083509403682 -0.39197871725165279 0 -0.48135717246594062 -0.40685004338866881 0 -0.48466894952205442 -0.38486603086372417 0 -0.48135717246594062 -0.40685004338866881 0 -0.46593083509403682 -0.39197871725165279 0 -0.48466894952205442 -0.38486603086372417 0 -0.47195833844942919 -0.37959069520904498 0 -0.46593083509403682 -0.39197871725165279 0 -0.48466894952205442 -0.38486603086372417 0 -0.46593083509403682 -0.39197871725165279 0 -0.48466894952205442 -0.38486603086372417 0 -0.47195833844942919 -0.37959069520904498 0 -0.48717439863114548 -0.36823452950912272 0 -0.46593083509403682 -0.39197871725165279 0 -0.44890944387521442 -0.39029302340116001 0 -0.45132291774153199 -0.37789636588759368 0 -0.47195833844942919 -0.37959069520904498 0 -0.46593083509403682 -0.39197871725165279 0 -0.45132291774153199 -0.37789636588759368 0 -0.46593083509403682 -0.39197871725165279 0 -0.45132291774153199 -0.37789636588759368 0 -0.48135717246594062 -0.40685004338866881 0 -0.46593083509403682 -0.39197871725165279 0 -0.45738366370351707 -0.41344381697501481 0 -0.46593083509403682 -0.39197871725165279 0 -0.44275815558040038 -0.40077469311046232 0 -0.45738366370351707 -0.41344381697501481 0 -0.46593083509403682 -0.39197871725165279 0 -0.44275815558040038 -0.40077469311046232 0 -0.46593083509403682 -0.39197871725165279 0 -0.44275815558040038 -0.40077469311046232 0 -0.44890944387521442 -0.39029302340116001 0 -0.44275815558040038 -0.40077469311046232 0 -0.44064580868350911 -0.39542861624611658 0 -0.44890944387521442 -0.39029302340116001 0 -0.44225344557501872 -0.38376649822575309 0 -0.45132291774153199 -0.37789636588759368 0 -0.43671500038902772 -0.36381401452353412 0 -0.44890944387521442 -0.39029302340116001 0 -0.44225344557501872 -0.38376649822575309 0 -0.45132291774153199 -0.37789636588759368 0 -0.44064580868350911 -0.39542861624611658 0 -0.44225344557501872 -0.38376649822575309 0 -0.43040194378266172 -0.3881600185019185 0 -0.44064580868350911 -0.39542861624611658 0 -0.44890944387521442 -0.39029302340116001 0 -0.44225344557501872 -0.38376649822575309 0 -0.47820614292347569 -0.42776699273468149 0 -0.46517432262153441 -0.43649963461163338 0 -0.45738366370351707 -0.41344381697501481 0 -0.45059725373546922 -0.44229587798334291 0 -0.45738366370351707 -0.41344381697501481 0 -0.45059725373546922 -0.44229587798334291 0 -0.46517432262153441 -0.43649963461163338 0 -0.45738366370351707 -0.41344381697501481 0 -0.44275815558040038 -0.40077469311046232 0 -0.45738366370351707 -0.41344381697501481 0 -0.44164244492799948 -0.42121090558557039 0 -0.45059725373546922 -0.44229587798334291 0 -0.45738366370351707 -0.41344381697501481 0 -0.44164244492799948 -0.42121090558557039 0 -0.45059725373546922 -0.44229587798334291 0 -0.44164244492799948 -0.42121090558557039 0 -0.4339166039271336 -0.43498117536117131 0 -0.4339166039271336 -0.43498117536117131 0 -0.42355654769347711 -0.414558964497861 0 -0.41671115160429401 -0.44095791049380378 0 -0.44164244492799948 -0.42121090558557039 0 -0.4339166039271336 -0.43498117536117131 0 -0.42355654769347711 -0.414558964497861 0 -0.44275815558040038 -0.40077469311046232 0 -0.44164244492799948 -0.42121090558557039 0 -0.42355654769347711 -0.414558964497861 0 -0.42355654769347711 -0.414558964497861 0 -0.41056920252370888 -0.3963363404412637 0 -0.40050668374064252 -0.41734442193795029 0 -0.42355654769347711 -0.414558964497861 0 -0.41671115160429401 -0.44095791049380378 0 -0.42355654769347711 -0.414558964497861 0 -0.40050668374064252 -0.41734442193795029 0 -0.41671115160429401 -0.44095791049380378 0 -0.44225344557501872 -0.38376649822575309 0 -0.43040194378266172 -0.3881600185019185 0 -0.43671500038902772 -0.36381401452353412 0 -0.43040194378266172 -0.3881600185019185 0 -0.43671500038902772 -0.36381401452353412 0 -0.44064580868350911 -0.39542861624611658 0 -0.42355654769347711 -0.414558964497861 0 -0.43040194378266172 -0.3881600185019185 0 -0.42355654769347711 -0.414558964497861 0 -0.43040194378266172 -0.3881600185019185 0 -0.44275815558040038 -0.40077469311046232 0 -0.44064580868350911 -0.39542861624611658 0 -0.42355654769347711 -0.414558964497861 0 -0.44064580868350911 -0.39542861624611658 0 -0.43040194378266172 -0.3881600185019185 0 -0.42355654769347711 -0.414558964497861 0 -0.43040194378266172 -0.3881600185019185 0 -0.41056920252370888 -0.3963363404412637 0 -0.43040194378266172 -0.3881600185019185 0 -0.4079689369259607 -0.37224253963894771 0 -0.43040194378266172 -0.3881600185019185 0 -0.41056920252370888 -0.3963363404412637 0 -0.4079689369259607 -0.37224253963894771 0 -0.41056920252370888 -0.3963363404412637 0 -0.39195929229331972 -0.37982250283040359 0 -0.4079689369259607 -0.37224253963894771 0 -0.41056920252370888 -0.3963363404412637 0 -0.39195929229331972 -0.37982250283040359 0 -0.39357845321732049 -0.39746174547711199 0 -0.41056920252370888 -0.3963363404412637 0 -0.39357845321732049 -0.39746174547711199 0 -0.40050668374064252 -0.41734442193795029 0 -0.39357845321732049 -0.39746174547711199 0 -0.38114412328536468 -0.40833987260765031 0 -0.36544727141479139 -0.39026932065168712 0 -0.39195929229331972 -0.37982250283040359 0 -0.37549160074202448 -0.3732971907138336 0 -0.36544727141479139 -0.39026932065168712 0 -0.39195929229331972 -0.37982250283040359 0 -0.39357845321732049 -0.39746174547711199 0 -0.36544727141479139 -0.39026932065168712 0 -0.40050668374064252 -0.41734442193795029 0 -0.3944977858259317 -0.43926335073686201 0 -0.41671115160429401 -0.44095791049380378 0 -0.40050668374064252 -0.41734442193795029 0 -0.38028594703985957 -0.42392304976487449 0 -0.3944977858259317 -0.43926335073686201 0 -0.39357845321732049 -0.39746174547711199 0 -0.40050668374064252 -0.41734442193795029 0 -0.38114412328536468 -0.40833987260765031 0 -0.40050668374064252 -0.41734442193795029 0 -0.38114412328536468 -0.40833987260765031 0 -0.38028594703985957 -0.42392304976487449 0 -0.38114412328536468 -0.40833987260765031 0 -0.38028594703985957 -0.42392304976487449 0 -0.36590226101420908 -0.41270082520662749 0 -0.38028594703985957 -0.42392304976487449 0 -0.3944977858259317 -0.43926335073686201 0 -0.3723601590800425 -0.44005613486137668 0 -0.3944977858259317 -0.43926335073686201 0 -0.38265619596279349 -0.45813348326120767 0 -0.3723601590800425 -0.44005613486137668 0 -0.40093272222703252 -0.45142790024540502 0 -0.3944977858259317 -0.43926335073686201 0 -0.38265619596279349 -0.45813348326120767 0 -0.40093272222703252 -0.45142790024540502 0 -0.3944977858259317 -0.43926335073686201 0 -0.41671115160429401 -0.44095791049380378 0 -0.38265619596279349 -0.45813348326120767 0 -0.40986575551511062 -0.46735685648974662 0 -0.38265619596279349 -0.45813348326120767 0 -0.39389470715733632 -0.47355095168427308 0 -0.40986575551511062 -0.46735685648974662 0 -0.40093272222703252 -0.45142790024540502 0 -0.38265619596279349 -0.45813348326120767 0 -0.40986575551511062 -0.46735685648974662 0 -0.38265619596279349 -0.45813348326120767 0 -0.38272382101637098 -0.47243968377412587 0 -0.39389470715733632 -0.47355095168427308 0 -0.38272382101637098 -0.47243968377412587 0 -0.38859428369766791 -0.48614630665141417 0 -0.36652141413456929 -0.48474993749143802 0 -0.38272382101637098 -0.47243968377412587 0 -0.38859428369766791 -0.48614630665141417 0 -0.39389470715733632 -0.47355095168427308 0 -0.37500484199342449 -0.5 0 -0.38859428369766791 -0.48614630665141417 0 -0.40140120367436599 -0.49999999999999611 0 -0.37500484199342449 -0.5 0 -0.38859428369766791 -0.48614630665141417 0 -0.36652141413456929 -0.48474993749143802 0 -0.38859428369766791 -0.48614630665141417 0 -0.40140120367436599 -0.49999999999999611 0 -0.40563347959473789 -0.48367842824487117 0 -0.40140120367436599 -0.49999999999999611 0 -0.40563347959473789 -0.48367842824487117 0 -0.40563347959473789 -0.48367842824487117 0 -0.39389470715733632 -0.47355095168427308 0 -0.40986575551511062 -0.46735685648974662 0 -0.38859428369766791 -0.48614630665141417 0 -0.40563347959473789 -0.48367842824487117 0 -0.39389470715733632 -0.47355095168427308 0 -0.40563347959473789 -0.48367842824487117 0 -0.40986575551511062 -0.46735685648974662 0 -0.42809744812538553 -0.47353695305504512 0 -0.40986575551511062 -0.46735685648974662 0 -0.4199949121527507 -0.4855396040697898 0 -0.42809744812538553 -0.47353695305504512 0 -0.40986575551511062 -0.46735685648974662 0 -0.40563347959473789 -0.48367842824487117 0 -0.4199949121527507 -0.4855396040697898 0 -0.40986575551511062 -0.46735685648974662 0 -0.40563347959473789 -0.48367842824487117 0 -0.4199949121527507 -0.4855396040697898 0 -0.41921281873686977 -0.5 0 -0.40140120367436599 -0.49999999999999611 0 -0.40563347959473789 -0.48367842824487117 0 -0.41921281873686977 -0.5 0 -0.4199949121527507 -0.4855396040697898 0 -0.41921281873686977 -0.5 0 -0.43702443379937372 -0.49999999999999922 0 -0.4199949121527507 -0.4855396040697898 0 -0.43702443379937372 -0.49999999999999922 0 -0.42809744812538553 -0.47353695305504512 0 -0.44381084376742141 -0.47114793899167112 0 -0.43702443379937372 -0.49999999999999922 0 -0.42809744812538553 -0.47353695305504512 0 -0.42809744812538553 -0.47353695305504512 0 -0.42194140881699782 -0.45884101952858919 0 -0.43309128002320102 -0.45351235807576151 0 -0.44381084376742141 -0.47114793899167112 0 -0.42809744812538553 -0.47353695305504512 0 -0.43309128002320102 -0.45351235807576151 0 -0.4339166039271336 -0.43498117536117131 0 -0.43309128002320102 -0.45351235807576151 0 -0.41671115160429401 -0.44095791049380378 0 -0.42194140881699782 -0.45884101952858919 0 -0.43309128002320102 -0.45351235807576151 0 -0.41671115160429401 -0.44095791049380378 0 -0.42194140881699782 -0.45884101952858919 0 -0.41671115160429401 -0.44095791049380378 0 -0.40986575551511062 -0.46735685648974662 0 -0.41671115160429401 -0.44095791049380378 0 -0.40986575551511062 -0.46735685648974662 0 -0.40093272222703252 -0.45142790024540502 0 -0.41671115160429401 -0.44095791049380378 0 -0.40986575551511062 -0.46735685648974662 0 -0.42809744812538553 -0.47353695305504512 0 -0.42194140881699782 -0.45884101952858919 0 -0.40986575551511062 -0.46735685648974662 0 -0.45828666285701658 -0.26028432573271792 0 -0.43487007995442373 -0.25384069753834382 0 -0.45658005330295048 -0.2439827770756183 0 -0.43864273500925549 -0.2751587481676856 0 -0.45828666285701658 -0.26028432573271792 0 -0.43487007995442373 -0.25384069753834382 0 -0.43864273500925549 -0.2751587481676856 0 -0.45645423860141388 -0.27827293425430932 0 -0.45828666285701658 -0.26028432573271792 0 -0.43864273500925549 -0.2751587481676856 0 -0.45828666285701658 -0.26028432573271792 0 -0.45645423860141388 -0.27827293425430932 0 -0.47869064668718631 -0.2683854874950159 0 -0.47091363495918082 -0.28947603344621109 0 -0.45645423860141388 -0.27827293425430932 0 -0.45828666285701658 -0.26028432573271792 0 -0.47869064668718631 -0.2683854874950159 0 -0.45828666285701658 -0.26028432573271792 0 -0.47793059070477772 -0.24540990329775009 0 -0.45828666285701658 -0.26028432573271792 0 -0.47869064668718631 -0.2683854874950159 0 -0.47793059070477772 -0.24540990329775009 0 -0.4872249908214738 -0.25598993182963242 0 -0.47869064668718631 -0.2683854874950159 0 -0.47793059070477772 -0.24540990329775009 0 -0.4872249908214738 -0.25598993182963242 0 -0.5 -0.25006354863638108 0 -0.5 -0.27586016112259643 0 -0.4872249908214738 -0.25598993182963242 0 -0.5 -0.25006354863638108 0 -0.49068252501969761 -0.24549971615663649 0 -0.4872249908214738 -0.25598993182963242 0 -0.5 -0.27586016112259643 0 -0.47869064668718631 -0.2683854874950159 0 -0.5 -0.27586016112259643 0 -0.47869064668718631 -0.2683854874950159 0 -0.48721788021035761 -0.2882082846164955 0 -0.47869064668718631 -0.2683854874950159 0 -0.47091363495918082 -0.28947603344621109 0 -0.48721788021035761 -0.2882082846164955 0 -0.47091363495918082 -0.28947603344621109 0 -0.48721788021035761 -0.2882082846164955 0 -0.48161809245015419 -0.30465866835107641 0 -0.5 -0.27586016112259643 0 -0.48721788021035761 -0.2882082846164955 0 -0.5 -0.3016567736088116 0 -0.48721788021035761 -0.2882082846164955 0 -0.5 -0.3016567736088116 0 -0.48161809245015419 -0.30465866835107641 0 -0.5 -0.3016567736088116 0 -0.48161809245015419 -0.30465866835107641 0 -0.5 -0.32745338609502678 0 -0.47091363495918082 -0.28947603344621109 0 -0.48161809245015419 -0.30465866835107641 0 -0.45879166701778518 -0.3036258058313378 0 -0.48161809245015419 -0.30465866835107641 0 -0.45879166701778518 -0.3036258058313378 0 -0.47638885418803739 -0.32253493654140952 0 -0.45645423860141388 -0.27827293425430932 0 -0.47091363495918082 -0.28947603344621109 0 -0.45879166701778518 -0.3036258058313378 0 -0.45645423860141388 -0.27827293425430932 0 -0.45879166701778518 -0.3036258058313378 0 -0.43905227881958647 -0.29505920944709452 0 -0.43864273500925549 -0.2751587481676856 0 -0.45645423860141388 -0.27827293425430932 0 -0.43905227881958647 -0.29505920944709452 0 -0.45879166701778518 -0.3036258058313378 0 -0.43905227881958647 -0.29505920944709452 0 -0.4399695753826649 -0.31139282438396382 0 -0.4399695753826649 -0.31139282438396382 0 -0.45223868162566522 -0.32343332413938758 0 -0.42808850906329299 -0.32433171173736591 0 -0.45879166701778518 -0.3036258058313378 0 -0.4399695753826649 -0.31139282438396382 0 -0.45223868162566522 -0.32343332413938758 0 -0.45223868162566522 -0.32343332413938758 0 -0.42808850906329299 -0.32433171173736591 0 -0.45223868162566522 -0.32343332413938758 0 -0.44207286924452832 -0.33783824796895978 0 -0.46140244920768408 -0.33754740415941759 0 -0.44207286924452832 -0.33783824796895978 0 -0.46140244920768408 -0.33754740415941759 0 -0.45117994904742642 -0.3486532256997657 0 -0.45223868162566522 -0.32343332413938758 0 -0.44207286924452832 -0.33783824796895978 0 -0.42808850906329299 -0.32433171173736591 0 -0.45879166701778518 -0.3036258058313378 0 -0.45223868162566522 -0.32343332413938758 0 -0.47638885418803739 -0.32253493654140952 0 -0.45223868162566522 -0.32343332413938758 0 -0.46140244920768408 -0.33754740415941759 0 -0.47638885418803739 -0.32253493654140952 0 -0.45223868162566522 -0.32343332413938758 0 -0.47638885418803739 -0.32253493654140952 0 -0.48161809245015419 -0.30465866835107641 0 -0.47638885418803739 -0.32253493654140952 0 -0.5 -0.32745338609502678 0 -0.47638885418803739 -0.32253493654140952 0 -0.5 -0.32745338609502678 0 -0.48104103145021149 -0.34129537751375599 0 -0.5 -0.32745338609502678 0 -0.48104103145021149 -0.34129537751375599 0 -0.5 -0.35324999858124201 0 -0.46140244920768408 -0.33754740415941759 0 -0.48104103145021149 -0.34129537751375599 0 -0.46549330969023639 -0.35152931309322771 0 -0.46140244920768408 -0.33754740415941759 0 -0.47638885418803739 -0.32253493654140952 0 -0.48104103145021149 -0.34129537751375599 0 -0.48104103145021149 -0.34129537751375599 0 -0.48025743214923627 -0.35616585996071459 0 -0.46549330969023639 -0.35152931309322771 0 -0.48025743214923627 -0.35616585996071459 0 -0.46757842097458802 -0.36652008110622503 0 -0.46549330969023639 -0.35152931309322771 0 -0.48025743214923627 -0.35616585996071459 0 -0.5 -0.35324999858124201 0 -0.48717439863114548 -0.36823452950912272 0 -0.48104103145021149 -0.34129537751375599 0 -0.48025743214923627 -0.35616585996071459 0 -0.5 -0.35324999858124201 0 -0.50000000000000089 -0.37904661106745707 0 -0.5 -0.35324999858124201 0 -0.48717439863114548 -0.36823452950912272 0 -0.47195833844942919 -0.37959069520904498 0 -0.48717439863114548 -0.36823452950912272 0 -0.46757842097458802 -0.36652008110622503 0 -0.48025743214923627 -0.35616585996071459 0 -0.48717439863114548 -0.36823452950912272 0 -0.46757842097458802 -0.36652008110622503 0 -0.45132291774153199 -0.37789636588759368 0 -0.46757842097458802 -0.36652008110622503 0 -0.45216690816074923 -0.36231126303824313 0 -0.47195833844942919 -0.37959069520904498 0 -0.45132291774153199 -0.37789636588759368 0 -0.46757842097458802 -0.36652008110622503 0 -0.46757842097458802 -0.36652008110622503 0 -0.46549330969023639 -0.35152931309322771 0 -0.45216690816074923 -0.36231126303824313 0 -0.46140244920768408 -0.33754740415941759 0 -0.46549330969023639 -0.35152931309322771 0 -0.45117994904742642 -0.3486532256997657 0 -0.46549330969023639 -0.35152931309322771 0 -0.45117994904742642 -0.3486532256997657 0 -0.45216690816074923 -0.36231126303824313 0 -0.44599028472907742 -0.35554349803526408 0 -0.45117994904742642 -0.3486532256997657 0 -0.45216690816074923 -0.36231126303824313 0 -0.44599028472907742 -0.35554349803526408 0 -0.45117994904742642 -0.3486532256997657 0 -0.44228407783080631 -0.34851364977492799 0 -0.44207286924452832 -0.33783824796895978 0 -0.44228407783080631 -0.34851364977492799 0 -0.43394442261003058 -0.34546672586134508 0 -0.44228407783080631 -0.34851364977492799 0 -0.43858436747801349 -0.35660488883003821 0 -0.43394442261003058 -0.34546672586134508 0 -0.44207286924452832 -0.33783824796895978 0 -0.45117994904742642 -0.3486532256997657 0 -0.44228407783080631 -0.34851364977492799 0 -0.44599028472907742 -0.35554349803526408 0 -0.44228407783080631 -0.34851364977492799 0 -0.43858436747801349 -0.35660488883003821 0 -0.44599028472907742 -0.35554349803526408 0 -0.43858436747801349 -0.35660488883003821 0 -0.43671500038902772 -0.36381401452353412 0 -0.43858436747801349 -0.35660488883003821 0 -0.43671500038902772 -0.36381401452353412 0 -0.44599028472907742 -0.35554349803526408 0 -0.45216690816074923 -0.36231126303824313 0 -0.43671500038902772 -0.36381401452353412 0 -0.45132291774153199 -0.37789636588759368 0 -0.43671500038902772 -0.36381401452353412 0 -0.45132291774153199 -0.37789636588759368 0 -0.45216690816074923 -0.36231126303824313 0 -0.43671500038902772 -0.36381401452353412 0 -0.43040194378266172 -0.3881600185019185 0 -0.43671500038902772 -0.36381401452353412 0 -0.4079689369259607 -0.37224253963894771 0 -0.43858436747801349 -0.35660488883003821 0 -0.43671500038902772 -0.36381401452353412 0 -0.41901032175007979 -0.34674631764622038 0 -0.43671500038902772 -0.36381401452353412 0 -0.41901032175007979 -0.34674631764622038 0 -0.43858436747801349 -0.35660488883003821 0 -0.43394442261003058 -0.34546672586134508 0 -0.41901032175007979 -0.34674631764622038 0 -0.41901032175007979 -0.34674631764622038 0 -0.4079689369259607 -0.37224253963894771 0 -0.40160491304204049 -0.35527610236370899 0 -0.43671500038902772 -0.36381401452353412 0 -0.41901032175007979 -0.34674631764622038 0 -0.4079689369259607 -0.37224253963894771 0 -0.4079689369259607 -0.37224253963894771 0 -0.38553593006925752 -0.3563250607759802 0 -0.4079689369259607 -0.37224253963894771 0 -0.38553593006925752 -0.3563250607759802 0 -0.40160491304204049 -0.35527610236370899 0 -0.39195929229331972 -0.37982250283040359 0 -0.4079689369259607 -0.37224253963894771 0 -0.38553593006925752 -0.3563250607759802 0 -0.39195929229331972 -0.37982250283040359 0 -0.37549160074202448 -0.3732971907138336 0 -0.38553593006925752 -0.3563250607759802 0 -0.37549160074202448 -0.3732971907138336 0 -0.38553593006925752 -0.3563250607759802 0 -0.38553593006925752 -0.3563250607759802 0 -0.36666079927166728 -0.34293209489202431 0 -0.38553593006925752 -0.3563250607759802 0 -0.39342078659019603 -0.34300184077244372 0 -0.38006824781918919 -0.33243312042550199 0 -0.38553593006925752 -0.3563250607759802 0 -0.38006824781918919 -0.33243312042550199 0 -0.36666079927166728 -0.34293209489202431 0 -0.38553593006925752 -0.3563250607759802 0 -0.39342078659019603 -0.34300184077244372 0 -0.41901032175007979 -0.34674631764622038 0 -0.40160491304204049 -0.35527610236370899 0 -0.39342078659019603 -0.34300184077244372 0 -0.38553593006925752 -0.3563250607759802 0 -0.40160491304204049 -0.35527610236370899 0 -0.39342078659019603 -0.34300184077244372 0 -0.41901032175007979 -0.34674631764622038 0 -0.40130564311113259 -0.32967862076890581 0 -0.39342078659019603 -0.34300184077244372 0 -0.40130564311113259 -0.32967862076890581 0 -0.39064670272592411 -0.32967160323888278 0 -0.39342078659019603 -0.34300184077244372 0 -0.40130564311113259 -0.32967862076890581 0 -0.39342078659019603 -0.34300184077244372 0 -0.39064670272592411 -0.32967160323888278 0 -0.39342078659019603 -0.34300184077244372 0 -0.38006824781918919 -0.33243312042550199 0 -0.38006824781918919 -0.33243312042550199 0 -0.38935907146989862 -0.31816186479418052 0 -0.37140736883531977 -0.32183989730859341 0 -0.38935907146989862 -0.31816186479418052 0 -0.38351210912712752 -0.30253866195360818 0 -0.37140736883531977 -0.32183989730859341 0 -0.39064670272592411 -0.32967160323888278 0 -0.38006824781918919 -0.33243312042550199 0 -0.38935907146989862 -0.31816186479418052 0 -0.38935907146989862 -0.31816186479418052 0 -0.401514660155255 -0.31819685637317691 0 -0.39554973675391708 -0.30949047449279188 0 -0.40130564311113259 -0.32967862076890581 0 -0.38935907146989862 -0.31816186479418052 0 -0.40130564311113259 -0.32967862076890581 0 -0.38935907146989862 -0.31816186479418052 0 -0.39962023335203928 -0.32539073298322901 0 -0.38935907146989862 -0.31816186479418052 0 -0.39962023335203928 -0.32539073298322901 0 -0.401514660155255 -0.31819685637317691 0 -0.40130564311113259 -0.32967862076890581 0 -0.39064670272592411 -0.32967160323888278 0 -0.38935907146989862 -0.31816186479418052 0 -0.40130564311113259 -0.32967862076890581 0 -0.39962023335203928 -0.32539073298322901 0 -0.4039383365009207 -0.3252300993353433 0 -0.39962023335203928 -0.32539073298322901 0 -0.4039383365009207 -0.3252300993353433 0 -0.39962023335203928 -0.32539073298322901 0 -0.4039383365009207 -0.3252300993353433 0 -0.401514660155255 -0.31819685637317691 0 -0.40130564311113259 -0.32967862076890581 0 -0.4039383365009207 -0.3252300993353433 0 -0.401514660155255 -0.31819685637317691 0 -0.4088463285069534 -0.31693695448250642 0 -0.4053668684804122 -0.3086126184714344 0 -0.4039383365009207 -0.3252300993353433 0 -0.401514660155255 -0.31819685637317691 0 -0.4088463285069534 -0.31693695448250642 0 -0.4039383365009207 -0.3252300993353433 0 -0.42808850906329299 -0.32433171173736591 0 -0.4088463285069534 -0.31693695448250642 0 -0.42808850906329299 -0.32433171173736591 0 -0.41503252140001728 -0.31110728079830707 0 -0.4039383365009207 -0.3252300993353433 0 -0.4088463285069534 -0.31693695448250642 0 -0.42808850906329299 -0.32433171173736591 0 -0.4039383365009207 -0.3252300993353433 0 -0.41609663568284688 -0.33258428014908531 0 -0.42808850906329299 -0.32433171173736591 0 -0.4039383365009207 -0.3252300993353433 0 -0.4088463285069534 -0.31693695448250642 0 -0.40130564311113259 -0.32967862076890581 0 -0.4039383365009207 -0.3252300993353433 0 -0.41609663568284688 -0.33258428014908531 0 -0.41901032175007979 -0.34674631764622038 0 -0.40130564311113259 -0.32967862076890581 0 -0.41609663568284688 -0.33258428014908531 0 -0.41901032175007979 -0.34674631764622038 0 -0.40130564311113259 -0.32967862076890581 0 -0.41901032175007979 -0.34674631764622038 0 -0.41609663568284688 -0.33258428014908531 0 -0.42777047674672519 -0.33763052508657909 0 -0.41609663568284688 -0.33258428014908531 0 -0.42777047674672519 -0.33763052508657909 0 -0.42808850906329299 -0.32433171173736591 0 -0.43394442261003058 -0.34546672586134508 0 -0.41901032175007979 -0.34674631764622038 0 -0.42777047674672519 -0.33763052508657909 0 -0.44207286924452832 -0.33783824796895978 0 -0.43394442261003058 -0.34546672586134508 0 -0.42777047674672519 -0.33763052508657909 0 -0.44207286924452832 -0.33783824796895978 0 -0.42777047674672519 -0.33763052508657909 0 -0.42808850906329299 -0.32433171173736591 0 -0.4399695753826649 -0.31139282438396382 0 -0.42808850906329299 -0.32433171173736591 0 -0.42349591428063971 -0.31031667424466408 0 -0.42808850906329299 -0.32433171173736591 0 -0.42349591428063971 -0.31031667424466408 0 -0.41503252140001728 -0.31110728079830707 0 -0.43905227881958647 -0.29505920944709452 0 -0.42349591428063971 -0.31031667424466408 0 -0.41899880716149451 -0.29003317060265321 0 -0.43905227881958647 -0.29505920944709452 0 -0.4399695753826649 -0.31139282438396382 0 -0.42349591428063971 -0.31031667424466408 0 -0.43864273500925549 -0.2751587481676856 0 -0.43905227881958647 -0.29505920944709452 0 -0.41899880716149451 -0.29003317060265321 0 -0.43864273500925549 -0.2751587481676856 0 -0.41899880716149451 -0.29003317060265321 0 -0.41649742047364408 -0.2919272257303569 0 -0.41502826726935188 -0.28951283527362931 0 -0.41151645216318689 -0.29124877083691719 0 -0.41899880716149451 -0.29003317060265321 0 -0.41649742047364408 -0.2919272257303569 0 -0.41502826726935188 -0.28951283527362931 0 -0.41899880716149451 -0.29003317060265321 0 -0.41649742047364408 -0.2919272257303569 0 -0.41899880716149451 -0.29003317060265321 0 -0.41502826726935188 -0.28951283527362931 0 -0.41310038927908221 -0.28484217392458988 0 -0.41310038927908221 -0.28484217392458988 0 -0.40629814920556201 -0.2872410904076857 0 -0.40433064532645308 -0.27892106023783952 0 -0.41502826726935188 -0.28951283527362931 0 -0.41310038927908221 -0.28484217392458988 0 -0.41151645216318689 -0.29124877083691719 0 -0.41310038927908221 -0.28484217392458988 0 -0.40629814920556201 -0.2872410904076857 0 -0.41151645216318689 -0.29124877083691719 0 -0.41649742047364408 -0.2919272257303569 0 -0.41151645216318689 -0.29124877083691719 0 -0.41283916949633909 -0.29890888486812428 0 -0.40629814920556201 -0.2872410904076857 0 -0.41151645216318689 -0.29124877083691719 0 -0.4052488046064433 -0.29379102377099447 0 -0.41151645216318689 -0.29124877083691719 0 -0.41283916949633909 -0.29890888486812428 0 -0.4052488046064433 -0.29379102377099447 0 -0.42349591428063971 -0.31031667424466408 0 -0.41899880716149451 -0.29003317060265321 0 -0.42349591428063971 -0.31031667424466408 0 -0.41649742047364408 -0.2919272257303569 0 -0.41283916949633909 -0.29890888486812428 0 -0.42349591428063971 -0.31031667424466408 0 -0.41899880716149451 -0.29003317060265321 0 -0.41649742047364408 -0.2919272257303569 0 -0.40711072979061191 -0.30081998795009107 0 -0.41283916949633909 -0.29890888486812428 0 -0.4052488046064433 -0.29379102377099447 0 -0.40711072979061191 -0.30081998795009107 0 -0.41283916949633909 -0.29890888486812428 0 -0.41256685577174013 -0.30556786269479153 0 -0.42349591428063971 -0.31031667424466408 0 -0.41283916949633909 -0.29890888486812428 0 -0.41256685577174013 -0.30556786269479153 0 -0.42349591428063971 -0.31031667424466408 0 -0.41503252140001728 -0.31110728079830707 0 -0.41256685577174013 -0.30556786269479153 0 -0.4088463285069534 -0.31693695448250642 0 -0.41503252140001728 -0.31110728079830707 0 -0.4053668684804122 -0.3086126184714344 0 -0.41503252140001728 -0.31110728079830707 0 -0.41256685577174013 -0.30556786269479153 0 -0.4053668684804122 -0.3086126184714344 0 -0.40711072979061191 -0.30081998795009107 0 -0.41256685577174013 -0.30556786269479153 0 -0.4053668684804122 -0.3086126184714344 0 -0.401514660155255 -0.31819685637317691 0 -0.4053668684804122 -0.3086126184714344 0 -0.39554973675391708 -0.30949047449279188 0 -0.4053668684804122 -0.3086126184714344 0 -0.39799597453689262 -0.29994237087155962 0 -0.39554973675391708 -0.30949047449279188 0 -0.40711072979061191 -0.30081998795009107 0 -0.4053668684804122 -0.3086126184714344 0 -0.39799597453689262 -0.29994237087155962 0 -0.40711072979061191 -0.30081998795009107 0 -0.39799597453689262 -0.29994237087155962 0 -0.4052488046064433 -0.29379102377099447 0 -0.39799597453689262 -0.29994237087155962 0 -0.39554973675391708 -0.30949047449279188 0 -0.38351210912712752 -0.30253866195360818 0 -0.38935907146989862 -0.31816186479418052 0 -0.39554973675391708 -0.30949047449279188 0 -0.38351210912712752 -0.30253866195360818 0 -0.38351210912712752 -0.30253866195360818 0 -0.3950660262777419 -0.28803976586637831 0 -0.37433096522584453 -0.28132989654828328 0 -0.39799597453689262 -0.29994237087155962 0 -0.38351210912712752 -0.30253866195360818 0 -0.3950660262777419 -0.28803976586637831 0 -0.39799597453689262 -0.29994237087155962 0 -0.3950660262777419 -0.28803976586637831 0 -0.4052488046064433 -0.29379102377099447 0 -0.40629814920556201 -0.2872410904076857 0 -0.3950660262777419 -0.28803976586637831 0 -0.4052488046064433 -0.29379102377099447 0 -0.40629814920556201 -0.2872410904076857 0 -0.3950660262777419 -0.28803976586637831 0 -0.40433064532645308 -0.27892106023783952 0 -0.40433064532645308 -0.27892106023783952 0 -0.39374553591587069 -0.27251425727467649 0 -0.41316010660589619 -0.2636986180010682 0 -0.39374553591587069 -0.27251425727467649 0 -0.41316010660589619 -0.2636986180010682 0 -0.3950660262777419 -0.28803976586637831 0 -0.40433064532645308 -0.27892106023783952 0 -0.39374553591587069 -0.27251425727467649 0 -0.39374553591587069 -0.27251425727467649 0 -0.37433096522584453 -0.28132989654828328 0 -0.3950660262777419 -0.28803976586637831 0 -0.39374553591587069 -0.27251425727467649 0 -0.37433096522584453 -0.28132989654828328 0 -0.39374553591587069 -0.27251425727467649 0 -0.37648826808451968 -0.27741199289956509 0 -0.37433096522584453 -0.28132989654828328 0 -0.39374553591587069 -0.27251425727467649 0 -0.37598097480723441 -0.26745556380373348 0 -0.38363075469537122 -0.26088114511686322 0 -0.39374553591587069 -0.27251425727467649 0 -0.37598097480723441 -0.26745556380373348 0 -0.37648826808451968 -0.27741199289956509 0 -0.37598097480723441 -0.26745556380373348 0 -0.37648826808451968 -0.27741199289956509 0 -0.37277902062147272 -0.27405557492128901 0 -0.37648826808451968 -0.27741199289956509 0 -0.37433096522584453 -0.28132989654828328 0 -0.38363075469537122 -0.26088114511686322 0 -0.37393540655460039 -0.25504906339868932 0 -0.38258347849844832 -0.24967798674395081 0 -0.37598097480723441 -0.26745556380373348 0 -0.38363075469537122 -0.26088114511686322 0 -0.37393540655460039 -0.25504906339868932 0 -0.38363075469537122 -0.26088114511686322 0 -0.3945867816951415 -0.25828321704239809 0 -0.38258347849844832 -0.24967798674395081 0 -0.3945867816951415 -0.25828321704239809 0 -0.3933004523496676 -0.24484402304582939 0 -0.38258347849844832 -0.24967798674395081 0 -0.39374553591587069 -0.27251425727467649 0 -0.3945867816951415 -0.25828321704239809 0 -0.41316010660589619 -0.2636986180010682 0 -0.3945867816951415 -0.25828321704239809 0 -0.41316010660589619 -0.2636986180010682 0 -0.40847937369743209 -0.24258689873782929 0 -0.39374553591587069 -0.27251425727467649 0 -0.38363075469537122 -0.26088114511686322 0 -0.3945867816951415 -0.25828321704239809 0 -0.41316010660589619 -0.2636986180010682 0 -0.42931567121415071 -0.25028064732030619 0 -0.40847937369743209 -0.24258689873782929 0 -0.41316010660589619 -0.2636986180010682 0 -0.40847937369743209 -0.24258689873782929 0 -0.41899880716149451 -0.29003317060265321 0 -0.41310038927908221 -0.28484217392458988 0 -0.41316010660589619 -0.2636986180010682 0 -0.41310038927908221 -0.28484217392458988 0 -0.40433064532645308 -0.27892106023783952 0 -0.41316010660589619 -0.2636986180010682 0 -0.41899880716149451 -0.29003317060265321 0 -0.41316010660589619 -0.2636986180010682 0 -0.42551969657153998 -0.27199364899169498 0 -0.41899880716149451 -0.29003317060265321 0 -0.41316010660589619 -0.2636986180010682 0 -0.43864273500925549 -0.2751587481676856 0 -0.42551969657153998 -0.27199364899169498 0 -0.43487007995442373 -0.25384069753834382 0 -0.43864273500925549 -0.2751587481676856 0 -0.41899880716149451 -0.29003317060265321 0 -0.42551969657153998 -0.27199364899169498 0 -0.41316010660589619 -0.2636986180010682 0 -0.43487007995442373 -0.25384069753834382 0 -0.41316010660589619 -0.2636986180010682 0 -0.42551969657153998 -0.27199364899169498 0 -0.43487007995442373 -0.25384069753834382 0 -0.41316010660589619 -0.2636986180010682 0 -0.43487007995442373 -0.25384069753834382 0 -0.42931567121415071 -0.25028064732030619 0 -0.32316489217708799 -0.25890650528201359 0 -0.32888695585781391 -0.26910619260742191 0 -0.31032083431566337 -0.26180085087236171 0 -0.32316489217708799 -0.25890650528201359 0 -0.32888695585781391 -0.26910619260742191 0 -0.33131030172746923 -0.25321851497678438 0 -0.32888695585781391 -0.26910619260742191 0 -0.31032083431566337 -0.26180085087236171 0 -0.32316489217708799 -0.25890650528201359 0 -0.33131030172746923 -0.25321851497678438 0 -0.32202724095639168 -0.2495658441092535 0 -0.32316489217708799 -0.25890650528201359 0 -0.31032083431566337 -0.26180085087236171 0 -0.32202724095639168 -0.2495658441092535 0 -0.31032083431566337 -0.26180085087236171 0 -0.32202724095639168 -0.2495658441092535 0 -0.31283906540333922 -0.25031215033235238 0 -0.31032083431566337 -0.26180085087236171 0 -0.32202724095639168 -0.2495658441092535 0 -0.31480478096024378 -0.27564718726691712 0 -0.32888695585781391 -0.26910619260742191 0 -0.31032083431566337 -0.26180085087236171 0 -0.31480478096024378 -0.27564718726691712 0 -0.32888695585781391 -0.26910619260742191 0 -0.32507396769595592 -0.29410449247197662 0 -0.32888695585781391 -0.26910619260742191 0 -0.3381311227387106 -0.26238754928509761 0 -0.34453036853746388 -0.27526151563856671 0 -0.32888695585781391 -0.26910619260742191 0 -0.34453036853746388 -0.27526151563856671 0 -0.33279411355556121 -0.28213246275860349 0 -0.32888695585781391 -0.26910619260742191 0 -0.34453036853746388 -0.27526151563856671 0 -0.34453036853746388 -0.27526151563856671 0 -0.34450588037081892 -0.28462367662190302 0 -0.33279411355556121 -0.28213246275860349 0 -0.32888695585781391 -0.26910619260742191 0 -0.33131030172746923 -0.25321851497678438 0 -0.32888695585781391 -0.26910619260742191 0 -0.3381311227387106 -0.26238754928509761 0 -0.33131030172746923 -0.25321851497678438 0 -0.3381311227387106 -0.26238754928509761 0 -0.34897267059429732 -0.25990550268967838 0 -0.3420777495351906 -0.24844208584564559 0 -0.3381311227387106 -0.26238754928509761 0 -0.33131030172746923 -0.25321851497678438 0 -0.3420777495351906 -0.24844208584564559 0 -0.34897267059429732 -0.25990550268967838 0 -0.35255150303394622 -0.24812522560144931 0 -0.3420777495351906 -0.24844208584564559 0 -0.34897267059429732 -0.25990550268967838 0 -0.35751050643918753 -0.2560897164936603 0 -0.35722060467742811 -0.26762499714769428 0 -0.34897267059429732 -0.25990550268967838 0 -0.35751050643918753 -0.2560897164936603 0 -0.35255150303394622 -0.24812522560144931 0 -0.35751050643918753 -0.2560897164936603 0 -0.363557814049559 -0.2486896754833777 0 -0.35255150303394622 -0.24812522560144931 0 -0.35751050643918753 -0.2560897164936603 0 -0.36561260290989678 -0.26128521942254013 0 -0.363557814049559 -0.2486896754833777 0 -0.35751050643918753 -0.2560897164936603 0 -0.36561260290989678 -0.26128521942254013 0 -0.35722060467742811 -0.26762499714769428 0 -0.37598097480723441 -0.26745556380373348 0 -0.36561260290989678 -0.26128521942254013 0 -0.37393540655460039 -0.25504906339868932 0 -0.36561260290989678 -0.26128521942254013 0 -0.37393540655460039 -0.25504906339868932 0 -0.363557814049559 -0.2486896754833777 0 -0.37277902062147272 -0.27405557492128901 0 -0.36654922363893422 -0.27215591673696138 0 -0.37433096522584453 -0.28132989654828328 0 -0.37648826808451968 -0.27741199289956509 0 -0.37277902062147272 -0.27405557492128901 0 -0.37433096522584453 -0.28132989654828328 0 -0.37598097480723441 -0.26745556380373348 0 -0.37277902062147272 -0.27405557492128901 0 -0.36654922363893422 -0.27215591673696138 0 -0.37598097480723441 -0.26745556380373348 0 -0.36561260290989678 -0.26128521942254013 0 -0.36654922363893422 -0.27215591673696138 0 -0.36561260290989678 -0.26128521942254013 0 -0.36654922363893422 -0.27215591673696138 0 -0.35722060467742811 -0.26762499714769428 0 -0.36654922363893422 -0.27215591673696138 0 -0.35722060467742811 -0.26762499714769428 0 -0.36017378121711419 -0.28141683866971062 0 -0.36654922363893422 -0.27215591673696138 0 -0.36017378121711419 -0.28141683866971062 0 -0.37433096522584453 -0.28132989654828328 0 -0.34453036853746388 -0.27526151563856671 0 -0.36017378121711419 -0.28141683866971062 0 -0.35722060467742811 -0.26762499714769428 0 -0.34453036853746388 -0.27526151563856671 0 -0.36017378121711419 -0.28141683866971062 0 -0.34453036853746388 -0.27526151563856671 0 -0.34450588037081892 -0.28462367662190302 0 -0.36017378121711419 -0.28141683866971062 0 -0.34897267059429732 -0.25990550268967838 0 -0.35722060467742811 -0.26762499714769428 0 -0.34453036853746388 -0.27526151563856671 0 -0.3381311227387106 -0.26238754928509761 0 -0.34897267059429732 -0.25990550268967838 0 -0.34453036853746388 -0.27526151563856671 0 -0.34450588037081892 -0.28462367662190302 0 -0.34891652205724832 -0.29286991805537971 0 -0.36017378121711419 -0.28141683866971062 0 -0.37433096522584453 -0.28132989654828328 0 -0.36105831684996031 -0.30543451277817618 0 -0.34891652205724832 -0.29286991805537971 0 -0.37433096522584453 -0.28132989654828328 0 -0.34891652205724832 -0.29286991805537971 0 -0.36017378121711419 -0.28141683866971062 0 -0.37433096522584453 -0.28132989654828328 0 -0.38351210912712752 -0.30253866195360818 0 -0.37433096522584453 -0.28132989654828328 0 -0.36105831684996031 -0.30543451277817618 0 -0.34891652205724832 -0.29286991805537971 0 -0.37433096522584453 -0.28132989654828328 0 -0.36105831684996031 -0.30543451277817618 0 -0.38351210912712752 -0.30253866195360818 0 -0.36105831684996031 -0.30543451277817618 0 -0.37140736883531977 -0.32183989730859341 0 -0.36105831684996031 -0.30543451277817618 0 -0.3496688877197569 -0.30429177800002122 0 -0.34586440994984541 -0.3145735322147622 0 -0.34891652205724832 -0.29286991805537971 0 -0.36105831684996031 -0.30543451277817618 0 -0.3496688877197569 -0.30429177800002122 0 -0.34891652205724832 -0.29286991805537971 0 -0.3496688877197569 -0.30429177800002122 0 -0.33956299038192078 -0.30735077663143923 0 -0.3496688877197569 -0.30429177800002122 0 -0.33956299038192078 -0.30735077663143923 0 -0.34586440994984541 -0.3145735322147622 0 -0.34891652205724832 -0.29286991805537971 0 -0.33956299038192078 -0.30735077663143923 0 -0.32350207888865212 -0.30440993956247547 0 -0.33956299038192078 -0.30735077663143923 0 -0.3301339810941622 -0.31110503031331638 0 -0.32350207888865212 -0.30440993956247547 0 -0.34891652205724832 -0.29286991805537971 0 -0.32350207888865212 -0.30440993956247547 0 -0.33956299038192078 -0.30735077663143923 0 -0.3301339810941622 -0.31110503031331638 0 -0.33675509785737662 -0.31655799101612769 0 -0.34891652205724832 -0.29286991805537971 0 -0.33611461648670682 -0.29143764798725502 0 -0.32350207888865212 -0.30440993956247547 0 -0.32888695585781391 -0.26910619260742191 0 -0.33279411355556121 -0.28213246275860349 0 -0.32507396769595592 -0.29410449247197662 0 -0.34450588037081892 -0.28462367662190302 0 -0.34891652205724832 -0.29286991805537971 0 -0.33611461648670682 -0.29143764798725502 0 -0.34450588037081892 -0.28462367662190302 0 -0.33611461648670682 -0.29143764798725502 0 -0.33279411355556121 -0.28213246275860349 0 -0.33279411355556121 -0.28213246275860349 0 -0.33070524953878982 -0.29012978506972142 0 -0.32507396769595592 -0.29410449247197662 0 -0.33611461648670682 -0.29143764798725502 0 -0.33279411355556121 -0.28213246275860349 0 -0.33070524953878982 -0.29012978506972142 0 -0.33611461648670682 -0.29143764798725502 0 -0.32742439802278828 -0.29462709162158601 0 -0.32350207888865212 -0.30440993956247547 0 -0.33611461648670682 -0.29143764798725502 0 -0.33070524953878982 -0.29012978506972142 0 -0.32742439802278828 -0.29462709162158601 0 -0.32507396769595592 -0.29410449247197662 0 -0.30234930147786221 -0.28905184696057518 0 -0.32507396769595592 -0.29410449247197662 0 -0.32350207888865212 -0.30440993956247547 0 -0.30234930147786221 -0.28905184696057518 0 -0.31480478096024378 -0.27564718726691712 0 -0.32507396769595592 -0.29410449247197662 0 -0.30234930147786221 -0.28905184696057518 0 -0.32888695585781391 -0.26910619260742191 0 -0.32507396769595592 -0.29410449247197662 0 -0.32507396769595592 -0.29410449247197662 0 -0.32742439802278828 -0.29462709162158601 0 -0.33070524953878982 -0.29012978506972142 0 -0.32507396769595592 -0.29410449247197662 0 -0.32742439802278828 -0.29462709162158601 0 -0.32302725724223008 -0.30752291379569302 0 -0.32350207888865212 -0.30440993956247547 0 -0.2999756881373381 -0.31509264677165549 0 -0.3301339810941622 -0.31110503031331638 0 -0.32302725724223008 -0.30752291379569302 0 -0.32422013968378288 -0.31561436227230438 0 -0.32302725724223008 -0.30752291379569302 0 -0.32350207888865212 -0.30440993956247547 0 -0.3301339810941622 -0.31110503031331638 0 -0.32302725724223008 -0.30752291379569302 0 -0.32350207888865212 -0.30440993956247547 0 -0.32507396769595592 -0.29410449247197662 0 -0.32742439802278828 -0.29462709162158601 0 -0.32350207888865212 -0.30440993956247547 0 -0.32507396769595592 -0.29410449247197662 0 -0.32350207888865212 -0.30440993956247547 0 -0.32302725724223008 -0.30752291379569302 0 -0.31656029902357641 -0.31849097864348519 0 -0.2999756881373381 -0.31509264677165549 0 -0.32265466046617669 -0.32198754646013139 0 -0.33127214989488979 -0.33008610863815152 0 -0.32872450059276898 -0.31896534214889599 0 -0.32265466046617669 -0.32198754646013139 0 -0.31892782856615448 -0.32825501756413727 0 -0.33127214989488979 -0.33008610863815152 0 -0.32265466046617669 -0.32198754646013139 0 -0.32422013968378288 -0.31561436227230438 0 -0.32872450059276898 -0.31896534214889599 0 -0.32302725724223008 -0.30752291379569302 0 -0.32422013968378288 -0.31561436227230438 0 -0.31656029902357641 -0.31849097864348519 0 -0.3301339810941622 -0.31110503031331638 0 -0.32422013968378288 -0.31561436227230438 0 -0.32872450059276898 -0.31896534214889599 0 -0.32265466046617669 -0.32198754646013139 0 -0.32422013968378288 -0.31561436227230438 0 -0.31656029902357641 -0.31849097864348519 0 -0.32265466046617669 -0.32198754646013139 0 -0.31656029902357641 -0.31849097864348519 0 -0.31892782856615448 -0.32825501756413727 0 -0.31656029902357641 -0.31849097864348519 0 -0.31892782856615448 -0.32825501756413727 0 -0.30936258926988919 -0.3261434941065412 0 -0.31892782856615448 -0.32825501756413727 0 -0.31208723605418232 -0.33616024018399832 0 -0.30936258926988919 -0.3261434941065412 0 -0.31892782856615448 -0.32825501756413727 0 -0.32183099473442811 -0.33958013728355868 0 -0.31208723605418232 -0.33616024018399832 0 -0.32183099473442811 -0.33958013728355868 0 -0.31234840654553953 -0.34764506024843322 0 -0.31208723605418232 -0.33616024018399832 0 -0.31892782856615448 -0.32825501756413727 0 -0.32183099473442811 -0.33958013728355868 0 -0.33127214989488979 -0.33008610863815152 0 -0.33127214989488979 -0.33008610863815152 0 -0.34778566847407638 -0.32953912900806931 0 -0.33412452318830171 -0.35434929914508079 0 -0.32183099473442811 -0.33958013728355868 0 -0.33127214989488979 -0.33008610863815152 0 -0.33412452318830171 -0.35434929914508079 0 -0.34778566847407638 -0.32953912900806931 0 -0.33412452318830171 -0.35434929914508079 0 -0.33127214989488979 -0.33008610863815152 0 -0.34035549841598117 -0.32426700585474 0 -0.34778566847407638 -0.32953912900806931 0 -0.34035549841598117 -0.32426700585474 0 -0.33427681169025408 -0.32246911191447869 0 -0.33675509785737662 -0.31655799101612769 0 -0.33127214989488979 -0.33008610863815152 0 -0.34035549841598117 -0.32426700585474 0 -0.33427681169025408 -0.32246911191447869 0 -0.33127214989488979 -0.33008610863815152 0 -0.33427681169025408 -0.32246911191447869 0 -0.32872450059276898 -0.31896534214889599 0 -0.33427681169025408 -0.32246911191447869 0 -0.32872450059276898 -0.31896534214889599 0 -0.33675509785737662 -0.31655799101612769 0 -0.3301339810941622 -0.31110503031331638 0 -0.32872450059276898 -0.31896534214889599 0 -0.33675509785737662 -0.31655799101612769 0 -0.33956299038192078 -0.30735077663143923 0 -0.33675509785737662 -0.31655799101612769 0 -0.34586440994984541 -0.3145735322147622 0 -0.34035549841598117 -0.32426700585474 0 -0.33675509785737662 -0.31655799101612769 0 -0.34586440994984541 -0.3145735322147622 0 -0.36105831684996031 -0.30543451277817618 0 -0.34778566847407638 -0.32953912900806931 0 -0.36105831684996031 -0.30543451277817618 0 -0.34586440994984541 -0.3145735322147622 0 -0.34778566847407638 -0.32953912900806931 0 -0.34035549841598117 -0.32426700585474 0 -0.34586440994984541 -0.3145735322147622 0 -0.34778566847407638 -0.32953912900806931 0 -0.34035549841598117 -0.32426700585474 0 -0.34778566847407638 -0.32953912900806931 0 -0.36105831684996031 -0.30543451277817618 0 -0.37140736883531977 -0.32183989730859341 0 -0.34778566847407638 -0.32953912900806931 0 -0.38006824781918919 -0.33243312042550199 0 -0.37140736883531977 -0.32183989730859341 0 -0.36666079927166728 -0.34293209489202431 0 -0.37140736883531977 -0.32183989730859341 0 -0.36666079927166728 -0.34293209489202431 0 -0.34778566847407638 -0.32953912900806931 0 -0.34778566847407638 -0.32953912900806931 0 -0.35170181166344461 -0.34709871950800919 0 -0.33412452318830171 -0.35434929914508079 0 -0.36666079927166728 -0.34293209489202431 0 -0.34778566847407638 -0.32953912900806931 0 -0.36666079927166728 -0.34293209489202431 0 -0.34778566847407638 -0.32953912900806931 0 -0.35170181166344461 -0.34709871950800919 0 -0.36666079927166728 -0.34293209489202431 0 -0.35170181166344461 -0.34709871950800919 0 -0.35823625571973289 -0.36157435498686258 0 -0.35170181166344461 -0.34709871950800919 0 -0.35823625571973289 -0.36157435498686258 0 -0.33412452318830171 -0.35434929914508079 0 -0.38553593006925752 -0.3563250607759802 0 -0.36666079927166728 -0.34293209489202431 0 -0.35823625571973289 -0.36157435498686258 0 -0.37549160074202448 -0.3732971907138336 0 -0.38553593006925752 -0.3563250607759802 0 -0.35823625571973289 -0.36157435498686258 0 -0.37549160074202448 -0.3732971907138336 0 -0.35823625571973289 -0.36157435498686258 0 -0.35302350150803719 -0.38208755235937009 0 -0.35823625571973289 -0.36157435498686258 0 -0.34413293857164062 -0.37054757780120701 0 -0.35302350150803719 -0.38208755235937009 0 -0.35823625571973289 -0.36157435498686258 0 -0.34413293857164062 -0.37054757780120701 0 -0.33412452318830171 -0.35434929914508079 0 -0.34413293857164062 -0.37054757780120701 0 -0.33412452318830171 -0.35434929914508079 0 -0.33519042443293379 -0.3802220457599616 0 -0.33412452318830171 -0.35434929914508079 0 -0.33519042443293379 -0.3802220457599616 0 -0.32046337790252549 -0.37915946928209171 0 -0.32183099473442811 -0.33958013728355868 0 -0.33412452318830171 -0.35434929914508079 0 -0.31234840654553953 -0.34764506024843322 0 -0.33412452318830171 -0.35434929914508079 0 -0.316806384823896 -0.36257585725837499 0 -0.31234840654553953 -0.34764506024843322 0 -0.316806384823896 -0.36257585725837499 0 -0.3002892316592175 -0.36914960035789463 0 -0.32046337790252549 -0.37915946928209171 0 -0.33412452318830171 -0.35434929914508079 0 -0.316806384823896 -0.36257585725837499 0 -0.32046337790252549 -0.37915946928209171 0 -0.33412452318830171 -0.35434929914508079 0 -0.32046337790252549 -0.37915946928209171 0 -0.3002892316592175 -0.36914960035789463 0 -0.32046337790252549 -0.37915946928209171 0 -0.3002892316592175 -0.36914960035789463 0 -0.31234840654553953 -0.34764506024843322 0 -0.29527517448125451 -0.36666176000398298 0 -0.316806384823896 -0.36257585725837499 0 -0.3002892316592175 -0.36914960035789463 0 -0.31234840654553953 -0.34764506024843322 0 -0.3002892316592175 -0.36914960035789463 0 -0.29527517448125451 -0.36666176000398298 0 -0.3002892316592175 -0.36914960035789463 0 -0.29403121103535113 -0.38030922419454549 0 -0.31234840654553953 -0.34764506024843322 0 -0.29527517448125451 -0.36666176000398298 0 -0.2976254313092957 -0.34087720338781918 0 -0.3002892316592175 -0.36914960035789463 0 -0.31234840654553953 -0.34764506024843322 0 -0.29527517448125451 -0.36666176000398298 0 -0.26926364122666091 -0.35375553660024128 0 -0.28048823453243299 -0.34080574413418752 0 -0.29527517448125451 -0.36666176000398298 0 -0.2976254313092957 -0.34087720338781918 0 -0.29527517448125451 -0.36666176000398298 0 -0.28048823453243299 -0.34080574413418752 0 -0.2976254313092957 -0.34087720338781918 0 -0.29527517448125451 -0.36666176000398298 0 -0.26926364122666091 -0.35375553660024128 0 -0.29527517448125451 -0.36666176000398298 0 -0.27994264201103719 -0.36323993691456841 0 -0.26926364122666091 -0.35375553660024128 0 -0.29527517448125451 -0.36666176000398298 0 -0.28588261091775702 -0.37268605543787447 0 -0.29403121103535113 -0.38030922419454549 0 -0.29527517448125451 -0.36666176000398298 0 -0.29403121103535113 -0.38030922419454549 0 -0.3002892316592175 -0.36914960035789463 0 -0.29527517448125451 -0.36666176000398298 0 -0.29403121103535113 -0.38030922419454549 0 -0.29527517448125451 -0.36666176000398298 0 -0.28588261091775702 -0.37268605543787447 0 -0.27994264201103719 -0.36323993691456841 0 -0.28588261091775702 -0.37268605543787447 0 -0.27994264201103719 -0.36323993691456841 0 -0.2742629371717063 -0.37916463673385931 0 -0.27994264201103719 -0.36323993691456841 0 -0.26568404082974961 -0.36651666061706623 0 -0.2742629371717063 -0.37916463673385931 0 -0.27994264201103719 -0.36323993691456841 0 -0.26568404082974961 -0.36651666061706623 0 -0.26017799311385281 -0.35268912854855933 0 -0.26568404082974961 -0.36651666061706623 0 -0.25909124390184018 -0.37475905286733341 0 -0.2742629371717063 -0.37916463673385931 0 -0.26568404082974961 -0.36651666061706623 0 -0.25909124390184018 -0.37475905286733341 0 -0.25494538795031141 -0.36273054802101118 0 -0.26568404082974961 -0.36651666061706623 0 -0.25494538795031141 -0.36273054802101118 0 -0.26017799311385281 -0.35268912854855933 0 -0.25909124390184018 -0.37475905286733341 0 -0.25494538795031141 -0.36273054802101118 0 -0.24748772700216881 -0.3717564301773445 0 -0.26017799311385281 -0.35268912854855933 0 -0.2404133442166683 -0.34213832018255058 0 -0.26926364122666091 -0.35375553660024128 0 -0.24325210797206609 -0.34084931319650169 0 -0.26017799311385281 -0.35268912854855933 0 -0.26926364122666091 -0.35375553660024128 0 -0.24325210797206609 -0.34084931319650169 0 -0.25494538795031141 -0.36273054802101118 0 -0.26017799311385281 -0.35268912854855933 0 -0.24808760514302669 -0.3536558827211943 0 -0.27994264201103719 -0.36323993691456841 0 -0.26017799311385281 -0.35268912854855933 0 -0.27994264201103719 -0.36323993691456841 0 -0.26017799311385281 -0.35268912854855933 0 -0.26926364122666091 -0.35375553660024128 0 -0.28048823453243299 -0.34080574413418752 0 -0.2621599680271573 -0.33226375772155409 0 -0.28106782808224812 -0.3236782022466056 0 -0.26926364122666091 -0.35375553660024128 0 -0.28048823453243299 -0.34080574413418752 0 -0.2621599680271573 -0.33226375772155409 0 -0.2621599680271573 -0.33226375772155409 0 -0.24518994726652291 -0.33234415230164399 0 -0.24308922262768951 -0.32099342612622928 0 -0.2621599680271573 -0.33226375772155409 0 -0.24325210797206609 -0.34084931319650169 0 -0.24518994726652291 -0.33234415230164399 0 -0.2621599680271573 -0.33226375772155409 0 -0.24325210797206609 -0.34084931319650169 0 -0.26926364122666091 -0.35375553660024128 0 -0.2621599680271573 -0.33226375772155409 0 -0.24325210797206609 -0.34084931319650169 0 -0.2621599680271573 -0.33226375772155409 0 -0.25915672867891859 -0.31415112243359272 0 -0.24308922262768951 -0.32099342612622928 0 -0.2621599680271573 -0.33226375772155409 0 -0.28106782808224812 -0.3236782022466056 0 -0.25915672867891859 -0.31415112243359272 0 -0.28106782808224812 -0.3236782022466056 0 -0.2709678639136075 -0.30238435136382452 0 -0.2621599680271573 -0.33226375772155409 0 -0.25915672867891859 -0.31415112243359272 0 -0.28106782808224812 -0.3236782022466056 0 -0.28106782808224812 -0.3236782022466056 0 -0.2999756881373381 -0.31509264677165549 0 -0.28453315598845252 -0.30841843357299598 0 -0.28106782808224812 -0.3236782022466056 0 -0.2976254313092957 -0.34087720338781918 0 -0.2999756881373381 -0.31509264677165549 0 -0.28106782808224812 -0.3236782022466056 0 -0.2999756881373381 -0.31509264677165549 0 -0.28048823453243299 -0.34080574413418752 0 -0.28106782808224812 -0.3236782022466056 0 -0.2976254313092957 -0.34087720338781918 0 -0.31234840654553953 -0.34764506024843322 0 -0.2976254313092957 -0.34087720338781918 0 -0.31208723605418232 -0.33616024018399832 0 -0.2976254313092957 -0.34087720338781918 0 -0.31208723605418232 -0.33616024018399832 0 -0.30936258926988919 -0.3261434941065412 0 -0.2976254313092957 -0.34087720338781918 0 -0.2999756881373381 -0.31509264677165549 0 -0.2976254313092957 -0.34087720338781918 0 -0.30936258926988919 -0.3261434941065412 0 -0.2999756881373381 -0.31509264677165549 0 -0.31656029902357641 -0.31849097864348519 0 -0.30936258926988919 -0.3261434941065412 0 -0.2999756881373381 -0.31509264677165549 0 -0.32350207888865212 -0.30440993956247547 0 -0.2999756881373381 -0.31509264677165549 0 -0.30234930147786221 -0.28905184696057518 0 -0.2999756881373381 -0.31509264677165549 0 -0.30234930147786221 -0.28905184696057518 0 -0.2999756881373381 -0.31509264677165549 0 -0.30234930147786221 -0.28905184696057518 0 -0.29239547880504652 -0.30127313523009702 0 -0.32350207888865212 -0.30440993956247547 0 -0.2999756881373381 -0.31509264677165549 0 -0.30234930147786221 -0.28905184696057518 0 -0.29006270545698909 -0.29189763306700739 0 -0.29239547880504652 -0.30127313523009702 0 -0.30234930147786221 -0.28905184696057518 0 -0.29006270545698909 -0.29189763306700739 0 -0.28742262680475061 -0.28573302172180548 0 -0.30234930147786221 -0.28905184696057518 0 -0.28742262680475061 -0.28573302172180548 0 -0.29006270545698909 -0.29189763306700739 0 -0.28742262680475061 -0.28573302172180548 0 -0.28158089536532038 -0.29680102193740848 0 -0.29006270545698909 -0.29189763306700739 0 -0.28158089536532038 -0.29680102193740848 0 -0.29239547880504652 -0.30127313523009702 0 -0.28158089536532038 -0.29680102193740848 0 -0.29239547880504652 -0.30127313523009702 0 -0.28453315598845252 -0.30841843357299598 0 -0.2999756881373381 -0.31509264677165549 0 -0.29239547880504652 -0.30127313523009702 0 -0.28453315598845252 -0.30841843357299598 0 -0.28106782808224812 -0.3236782022466056 0 -0.28453315598845252 -0.30841843357299598 0 -0.2709678639136075 -0.30238435136382452 0 -0.28158089536532038 -0.29680102193740848 0 -0.28453315598845252 -0.30841843357299598 0 -0.2709678639136075 -0.30238435136382452 0 -0.25915672867891859 -0.31415112243359272 0 -0.25718459078837252 -0.29759752524363881 0 -0.24047089863443691 -0.30798947189970438 0 -0.25915672867891859 -0.31415112243359272 0 -0.2709678639136075 -0.30238435136382452 0 -0.25718459078837252 -0.29759752524363881 0 -0.25718459078837252 -0.29759752524363881 0 -0.25108388684634803 -0.28956965662021522 0 -0.26792751193251091 -0.28139844079955562 0 -0.25108388684634803 -0.28956965662021522 0 -0.26792751193251091 -0.28139844079955562 0 -0.2484323970602714 -0.27706385987730509 0 -0.2709678639136075 -0.30238435136382452 0 -0.25718459078837252 -0.29759752524363881 0 -0.26792751193251091 -0.28139844079955562 0 -0.28742262680475061 -0.28573302172180548 0 -0.26792751193251091 -0.28139844079955562 0 -0.28158089536532038 -0.29680102193740848 0 -0.2709678639136075 -0.30238435136382452 0 -0.26792751193251091 -0.28139844079955562 0 -0.28742262680475061 -0.28573302172180548 0 -0.28158089536532038 -0.29680102193740848 0 -0.26792751193251091 -0.28139844079955562 0 -0.26792751193251091 -0.28139844079955562 0 -0.27965676560653041 -0.27550351800418249 0 -0.27506057922854799 -0.26523935036500679 0 -0.28742262680475061 -0.28573302172180548 0 -0.26792751193251091 -0.28139844079955562 0 -0.27965676560653041 -0.27550351800418249 0 -0.26792751193251091 -0.28139844079955562 0 -0.26170023695288303 -0.26848976391570201 0 -0.27506057922854799 -0.26523935036500679 0 -0.27965676560653041 -0.27550351800418249 0 -0.27506057922854799 -0.26523935036500679 0 -0.28821634446031208 -0.2696432591303618 0 -0.26792751193251091 -0.28139844079955562 0 -0.2484323970602714 -0.27706385987730509 0 -0.26792751193251091 -0.28139844079955562 0 -0.26170023695288303 -0.26848976391570201 0 -0.2484323970602714 -0.27706385987730509 0 -0.26170023695288303 -0.26848976391570201 0 -0.25309751137434572 -0.26289123234143091 0 -0.2484323970602714 -0.27706385987730509 0 -0.2565674865322034 -0.25340195958415102 0 -0.26524553468775469 -0.25886506807255583 0 -0.27383001930629169 -0.24744255459442921 0 -0.2565674865322034 -0.25340195958415102 0 -0.27383001930629169 -0.24744255459442921 0 -0.2565674865322034 -0.25340195958415102 0 -0.25309751137434572 -0.26289123234143091 0 -0.24233717299785959 -0.25960849866204011 0 -0.2565674865322034 -0.25340195958415102 0 -0.25309751137434572 -0.26289123234143091 0 -0.26524553468775469 -0.25886506807255583 0 -0.26170023695288303 -0.26848976391570201 0 -0.25309751137434572 -0.26289123234143091 0 -0.26524553468775469 -0.25886506807255583 0 -0.27506057922854799 -0.26523935036500679 0 -0.28942662192718172 -0.25357945894426132 0 -0.27383001930629169 -0.24744255459442921 0 -0.26524553468775469 -0.25886506807255583 0 -0.27506057922854799 -0.26523935036500679 0 -0.27383001930629169 -0.24744255459442921 0 -0.26170023695288303 -0.26848976391570201 0 -0.26524553468775469 -0.25886506807255583 0 -0.27506057922854799 -0.26523935036500679 0 -0.28942662192718172 -0.25357945894426132 0 -0.29569431645386429 -0.26311293363000732 0 -0.28821634446031208 -0.2696432591303618 0 -0.28942662192718172 -0.25357945894426132 0 -0.27383001930629169 -0.24744255459442921 0 -0.27506057922854799 -0.26523935036500679 0 -0.28942662192718172 -0.25357945894426132 0 -0.28821634446031208 -0.2696432591303618 0 -0.28942662192718172 -0.25357945894426132 0 -0.29569431645386429 -0.26311293363000732 0 -0.30502322454807101 -0.25971636329409542 0 -0.29569431645386429 -0.26311293363000732 0 -0.28821634446031208 -0.2696432591303618 0 -0.30425539613548452 -0.26814017253042433 0 -0.28742262680475061 -0.28573302172180548 0 -0.27965676560653041 -0.27550351800418249 0 -0.28821634446031208 -0.2696432591303618 0 -0.28742262680475061 -0.28573302172180548 0 -0.28821634446031208 -0.2696432591303618 0 -0.30425539613548452 -0.26814017253042433 0 -0.28742262680475061 -0.28573302172180548 0 -0.30425539613548452 -0.26814017253042433 0 -0.31480478096024378 -0.27564718726691712 0 -0.30234930147786221 -0.28905184696057518 0 -0.30425539613548452 -0.26814017253042433 0 -0.30234930147786221 -0.28905184696057518 0 -0.30425539613548452 -0.26814017253042433 0 -0.30234930147786221 -0.28905184696057518 0 -0.28742262680475061 -0.28573302172180548 0 -0.30425539613548452 -0.26814017253042433 0 -0.31480478096024378 -0.27564718726691712 0 -0.30425539613548452 -0.26814017253042433 0 -0.31032083431566337 -0.26180085087236171 0 -0.30425539613548452 -0.26814017253042433 0 -0.31032083431566337 -0.26180085087236171 0 -0.30502322454807101 -0.25971636329409542 0 -0.28942662192718172 -0.25357945894426132 0 -0.30538593138510828 -0.25573712372202267 0 -0.29948497002523827 -0.2483657822867901 0 -0.28942662192718172 -0.25357945894426132 0 -0.30502322454807101 -0.25971636329409542 0 -0.30538593138510828 -0.25573712372202267 0 -0.30425539613548452 -0.26814017253042433 0 -0.31032083431566337 -0.26180085087236171 0 -0.31032083431566337 -0.26180085087236171 0 -0.30502322454807101 -0.25971636329409542 0 -0.31032083431566337 -0.26180085087236171 0 -0.30502322454807101 -0.25971636329409542 0 -0.30538593138510828 -0.25573712372202267 0 -0.31283906540333922 -0.25031215033235238 0 -0.31032083431566337 -0.26180085087236171 0 -0.30538593138510828 -0.25573712372202267 0 -0.31283906540333922 -0.25031215033235238 0 -0.30538593138510828 -0.25573712372202267 0 -0.30623861516307299 -0.24935013043731349 0 -0.30502322454807101 -0.25971636329409542 0 -0.30538593138510828 -0.25573712372202267 0 -0.28942662192718172 -0.25357945894426132 0 -0.30502322454807101 -0.25971636329409542 0 -0.30538593138510828 -0.25573712372202267 0 -0.29948497002523827 -0.2483657822867901 0 -0.30623861516307299 -0.24935013043731349 0 -0.30425539613548452 -0.26814017253042433 0 -0.30502322454807101 -0.25971636329409542 0 -0.29569431645386429 -0.26311293363000732 0 -0.30425539613548452 -0.26814017253042433 0 -0.30502322454807101 -0.25971636329409542 0 -0.33143192801526428 -0.45396038638140679 0 -0.33152258580119082 -0.46633970128806979 0 -0.34296165509457921 -0.45730971557378147 0 -0.34069406563311189 -0.44566521365826578 0 -0.32492704317595772 -0.44077768091168912 0 -0.33812272201467081 -0.43047089330918592 0 -0.33143192801526428 -0.45396038638140679 0 -0.34069406563311189 -0.44566521365826578 0 -0.32492704317595772 -0.44077768091168912 0 -0.33143192801526428 -0.45396038638140679 0 -0.34296165509457921 -0.45730971557378147 0 -0.34069406563311189 -0.44566521365826578 0 -0.33143192801526428 -0.45396038638140679 0 -0.32492704317595772 -0.44077768091168912 0 -0.31987457796333868 -0.4551426725204325 0 -0.32492704317595772 -0.44077768091168912 0 -0.31987457796333868 -0.4551426725204325 0 -0.31015853372433788 -0.44544301337781073 0 -0.33152258580119082 -0.46633970128806979 0 -0.30592196819360068 -0.46328971004504182 0 -0.33152258580119082 -0.46633970128806979 0 -0.31987457796333868 -0.4551426725204325 0 -0.30592196819360068 -0.46328971004504182 0 -0.33152258580119082 -0.46633970128806979 0 -0.32094261384274558 -0.46854088973335889 0 -0.30592196819360068 -0.46328971004504182 0 -0.33143192801526428 -0.45396038638140679 0 -0.33152258580119082 -0.46633970128806979 0 -0.31987457796333868 -0.4551426725204325 0 -0.33152258580119082 -0.46633970128806979 0 -0.32094261384274558 -0.46854088973335889 0 -0.32966732857214198 -0.4835879285261328 0 -0.32094261384274558 -0.46854088973335889 0 -0.32966732857214198 -0.4835879285261328 0 -0.31208929727375578 -0.48491526738579699 0 -0.32221211863154181 -0.5 0 -0.32966732857214198 -0.4835879285261328 0 -0.31208929727375578 -0.48491526738579699 0 -0.32221211863154181 -0.5 0 -0.32966732857214198 -0.4835879285261328 0 -0.34860848031248309 -0.5 0 -0.32966732857214198 -0.4835879285261328 0 -0.34707385437868848 -0.48052394199199022 0 -0.34860848031248309 -0.5 0 -0.33152258580119082 -0.46633970128806979 0 -0.32966732857214198 -0.4835879285261328 0 -0.34707385437868848 -0.48052394199199022 0 -0.33152258580119082 -0.46633970128806979 0 -0.3571232034087809 -0.46938969253109791 0 -0.34707385437868848 -0.48052394199199022 0 -0.3571232034087809 -0.46938969253109791 0 -0.34707385437868848 -0.48052394199199022 0 -0.36652141413456929 -0.48474993749143802 0 -0.34707385437868848 -0.48052394199199022 0 -0.34860848031248309 -0.5 0 -0.36652141413456929 -0.48474993749143802 0 -0.37500484199342449 -0.5 0 -0.34860848031248309 -0.5 0 -0.36652141413456929 -0.48474993749143802 0 -0.38272382101637098 -0.47243968377412587 0 -0.3571232034087809 -0.46938969253109791 0 -0.36652141413456929 -0.48474993749143802 0 -0.38272382101637098 -0.47243968377412587 0 -0.3571232034087809 -0.46938969253109791 0 -0.38265619596279349 -0.45813348326120767 0 -0.38272382101637098 -0.47243968377412587 0 -0.3571232034087809 -0.46938969253109791 0 -0.38265619596279349 -0.45813348326120767 0 -0.3571232034087809 -0.46938969253109791 0 -0.35544663641047641 -0.4489101100326689 0 -0.38265619596279349 -0.45813348326120767 0 -0.35544663641047641 -0.4489101100326689 0 -0.34296165509457921 -0.45730971557378147 0 -0.3571232034087809 -0.46938969253109791 0 -0.35544663641047641 -0.4489101100326689 0 -0.33152258580119082 -0.46633970128806979 0 -0.3571232034087809 -0.46938969253109791 0 -0.33152258580119082 -0.46633970128806979 0 -0.34296165509457921 -0.45730971557378147 0 -0.3571232034087809 -0.46938969253109791 0 -0.34069406563311189 -0.44566521365826578 0 -0.35544663641047641 -0.4489101100326689 0 -0.35372302635176472 -0.43532257313283612 0 -0.34296165509457921 -0.45730971557378147 0 -0.34069406563311189 -0.44566521365826578 0 -0.35544663641047641 -0.4489101100326689 0 -0.35544663641047641 -0.4489101100326689 0 -0.3723601590800425 -0.44005613486137668 0 -0.35372302635176472 -0.43532257313283612 0 -0.38265619596279349 -0.45813348326120767 0 -0.35544663641047641 -0.4489101100326689 0 -0.3723601590800425 -0.44005613486137668 0 -0.38028594703985957 -0.42392304976487449 0 -0.3723601590800425 -0.44005613486137668 0 -0.36423780173753523 -0.4264797532188066 0 -0.3723601590800425 -0.44005613486137668 0 -0.36423780173753523 -0.4264797532188066 0 -0.35372302635176472 -0.43532257313283612 0 -0.38028594703985957 -0.42392304976487449 0 -0.36423780173753523 -0.4264797532188066 0 -0.36590226101420908 -0.41270082520662749 0 -0.36423780173753523 -0.4264797532188066 0 -0.36590226101420908 -0.41270082520662749 0 -0.35147677323475168 -0.42035333371671318 0 -0.36590226101420908 -0.41270082520662749 0 -0.35147677323475168 -0.42035333371671318 0 -0.35184044830027089 -0.40346733636007898 0 -0.35147677323475168 -0.42035333371671318 0 -0.35184044830027089 -0.40346733636007898 0 -0.33675831632547681 -0.41105613646481343 0 -0.35147677323475168 -0.42035333371671318 0 -0.35372302635176472 -0.43532257313283612 0 -0.33812272201467081 -0.43047089330918592 0 -0.34069406563311189 -0.44566521365826578 0 -0.35372302635176472 -0.43532257313283612 0 -0.33812272201467081 -0.43047089330918592 0 -0.36423780173753523 -0.4264797532188066 0 -0.35147677323475168 -0.42035333371671318 0 -0.35372302635176472 -0.43532257313283612 0 -0.37549160074202448 -0.3732971907138336 0 -0.36544727141479139 -0.39026932065168712 0 -0.37549160074202448 -0.3732971907138336 0 -0.36544727141479139 -0.39026932065168712 0 -0.35302350150803719 -0.38208755235937009 0 -0.36590226101420908 -0.41270082520662749 0 -0.36544727141479139 -0.39026932065168712 0 -0.35184044830027089 -0.40346733636007898 0 -0.38114412328536468 -0.40833987260765031 0 -0.36590226101420908 -0.41270082520662749 0 -0.36544727141479139 -0.39026932065168712 0 -0.35184044830027089 -0.40346733636007898 0 -0.35302350150803719 -0.38208755235937009 0 -0.34082557137486691 -0.39523504024196021 0 -0.36544727141479139 -0.39026932065168712 0 -0.35184044830027089 -0.40346733636007898 0 -0.35302350150803719 -0.38208755235937009 0 -0.34413293857164062 -0.37054757780120701 0 -0.35302350150803719 -0.38208755235937009 0 -0.33519042443293379 -0.3802220457599616 0 -0.35302350150803719 -0.38208755235937009 0 -0.33519042443293379 -0.3802220457599616 0 -0.34082557137486691 -0.39523504024196021 0 -0.33519042443293379 -0.3802220457599616 0 -0.32808226850220168 -0.39240284671641351 0 -0.3247168406287716 -0.38559411673624039 0 -0.33519042443293379 -0.3802220457599616 0 -0.34082557137486691 -0.39523504024196021 0 -0.32808226850220168 -0.39240284671641351 0 -0.34082557137486691 -0.39523504024196021 0 -0.32808226850220168 -0.39240284671641351 0 -0.33675831632547681 -0.41105613646481343 0 -0.32808226850220168 -0.39240284671641351 0 -0.33675831632547681 -0.41105613646481343 0 -0.3206477944579052 -0.41019310838576051 0 -0.35184044830027089 -0.40346733636007898 0 -0.34082557137486691 -0.39523504024196021 0 -0.33675831632547681 -0.41105613646481343 0 -0.32808226850220168 -0.39240284671641351 0 -0.31437491003333667 -0.39021680895226152 0 -0.3206477944579052 -0.41019310838576051 0 -0.32808226850220168 -0.39240284671641351 0 -0.3247168406287716 -0.38559411673624039 0 -0.31437491003333667 -0.39021680895226152 0 -0.31437491003333667 -0.39021680895226152 0 -0.32046337790252549 -0.37915946928209171 0 -0.30588070030683939 -0.38181824174751872 0 -0.3247168406287716 -0.38559411673624039 0 -0.31437491003333667 -0.39021680895226152 0 -0.32046337790252549 -0.37915946928209171 0 -0.31437491003333667 -0.39021680895226152 0 -0.32046337790252549 -0.37915946928209171 0 -0.33519042443293379 -0.3802220457599616 0 -0.3247168406287716 -0.38559411673624039 0 -0.32046337790252549 -0.37915946928209171 0 -0.32492704317595772 -0.44077768091168912 0 -0.33812272201467081 -0.43047089330918592 0 -0.32670905357880831 -0.42305010768611329 0 -0.35147677323475168 -0.42035333371671318 0 -0.33812272201467081 -0.43047089330918592 0 -0.33675831632547681 -0.41105613646481343 0 -0.33812272201467081 -0.43047089330918592 0 -0.33675831632547681 -0.41105613646481343 0 -0.32670905357880831 -0.42305010768611329 0 -0.33675831632547681 -0.41105613646481343 0 -0.3206477944579052 -0.41019310838576051 0 -0.32670905357880831 -0.42305010768611329 0 -0.3206477944579052 -0.41019310838576051 0 -0.31307232924124478 -0.42559811140412351 0 -0.32670905357880831 -0.42305010768611329 0 -0.32492704317595772 -0.44077768091168912 0 -0.31307232924124478 -0.42559811140412351 0 -0.31015853372433788 -0.44544301337781073 0 -0.32492704317595772 -0.44077768091168912 0 -0.31307232924124478 -0.42559811140412351 0 -0.32670905357880831 -0.42305010768611329 0 -0.31307232924124478 -0.42559811140412351 0 -0.29907098912325059 -0.43374406761790368 0 -0.29851577765410048 -0.41098608612968202 0 -0.31307232924124478 -0.42559811140412351 0 -0.29907098912325059 -0.43374406761790368 0 -0.31015853372433788 -0.44544301337781073 0 -0.3206477944579052 -0.41019310838576051 0 -0.31307232924124478 -0.42559811140412351 0 -0.29851577765410048 -0.41098608612968202 0 -0.3206477944579052 -0.41019310838576051 0 -0.29851577765410048 -0.41098608612968202 0 -0.29851577765410048 -0.41098608612968202 0 -0.27638376085029581 -0.41177906387360241 0 -0.29851577765410048 -0.41098608612968202 0 -0.28520748594282241 -0.3960441440340734 0 -0.27638376085029581 -0.41177906387360241 0 -0.29851577765410048 -0.41098608612968202 0 -0.28540276919059199 -0.42535658303670731 0 -0.27638376085029581 -0.41177906387360241 0 -0.29907098912325059 -0.43374406761790368 0 -0.29851577765410048 -0.41098608612968202 0 -0.28540276919059199 -0.42535658303670731 0 -0.28540276919059199 -0.42535658303670731 0 -0.27848929033898201 -0.43669604725877897 0 -0.28902284908971709 -0.44016681433255572 0 -0.29907098912325059 -0.43374406761790368 0 -0.28540276919059199 -0.42535658303670731 0 -0.28902284908971709 -0.44016681433255572 0 -0.3002892316592175 -0.36914960035789463 0 -0.32046337790252549 -0.37915946928209171 0 -0.30588070030683939 -0.38181824174751872 0 -0.3002892316592175 -0.36914960035789463 0 -0.29819443980788141 -0.38001079285233907 0 -0.30588070030683939 -0.38181824174751872 0 -0.3002892316592175 -0.36914960035789463 0 -0.29819443980788141 -0.38001079285233907 0 -0.29403121103535113 -0.38030922419454549 0 -0.31437491003333667 -0.39021680895226152 0 -0.30588070030683939 -0.38181824174751872 0 -0.30232780815510779 -0.39560758766926629 0 -0.29819443980788141 -0.38001079285233907 0 -0.30588070030683939 -0.38181824174751872 0 -0.29681739610749358 -0.387616864260033 0 -0.30588070030683939 -0.38181824174751872 0 -0.30232780815510779 -0.39560758766926629 0 -0.29681739610749358 -0.387616864260033 0 -0.31437491003333667 -0.39021680895226152 0 -0.3206477944579052 -0.41019310838576051 0 -0.30232780815510779 -0.39560758766926629 0 -0.3206477944579052 -0.41019310838576051 0 -0.29851577765410048 -0.41098608612968202 0 -0.30232780815510779 -0.39560758766926629 0 -0.30232780815510779 -0.39560758766926629 0 -0.28520748594282241 -0.3960441440340734 0 -0.29681739610749358 -0.387616864260033 0 -0.29851577765410048 -0.41098608612968202 0 -0.30232780815510779 -0.39560758766926629 0 -0.28520748594282241 -0.3960441440340734 0 -0.28520748594282241 -0.3960441440340734 0 -0.28484606126690931 -0.38205101510008821 0 -0.29403121103535113 -0.38030922419454549 0 -0.28520748594282241 -0.3960441440340734 0 -0.29403121103535113 -0.38030922419454549 0 -0.28520748594282241 -0.3960441440340734 0 -0.29681739610749358 -0.387616864260033 0 -0.29403121103535113 -0.38030922419454549 0 -0.28520748594282241 -0.3960441440340734 0 -0.28484606126690931 -0.38205101510008821 0 -0.2742629371717063 -0.37916463673385931 0 -0.28588261091775702 -0.37268605543787447 0 -0.28484606126690931 -0.38205101510008821 0 -0.2742629371717063 -0.37916463673385931 0 -0.28588261091775702 -0.37268605543787447 0 -0.28484606126690931 -0.38205101510008821 0 -0.29403121103535113 -0.38030922419454549 0 -0.29819443980788141 -0.38001079285233907 0 -0.29681739610749358 -0.387616864260033 0 -0.29403121103535113 -0.38030922419454549 0 -0.28520748594282241 -0.3960441440340734 0 -0.2742629371717063 -0.37916463673385931 0 -0.26755910350718881 -0.39582792531461569 0 -0.2742629371717063 -0.37916463673385931 0 -0.26755910350718881 -0.39582792531461569 0 -0.26281209396899169 -0.38517470131063508 0 -0.28520748594282241 -0.3960441440340734 0 -0.27638376085029581 -0.41177906387360241 0 -0.28520748594282241 -0.3960441440340734 0 -0.26755910350718881 -0.39582792531461569 0 -0.27638376085029581 -0.41177906387360241 0 -0.26755910350718881 -0.39582792531461569 0 -0.25033509129523179 -0.39094719032673231 0 -0.25487024651921952 -0.41254988102096568 0 -0.26755910350718881 -0.39582792531461569 0 -0.25033509129523179 -0.39094719032673231 0 -0.26281209396899169 -0.38517470131063508 0 -0.25909124390184018 -0.37475905286733341 0 -0.25033509129523179 -0.39094719032673231 0 -0.26281209396899169 -0.38517470131063508 0 -0.25909124390184018 -0.37475905286733341 0 -0.25033509129523179 -0.39094719032673231 0 -0.24748772700216881 -0.3717564301773445 0 -0.25909124390184018 -0.37475905286733341 0 -0.2742629371717063 -0.37916463673385931 0 -0.26281209396899169 -0.38517470131063508 0 -0.26911429951178012 -0.42474234074800371 0 -0.27848929033898201 -0.43669604725877897 0 -0.26690007516498948 -0.44242471351124879 0 -0.28540276919059199 -0.42535658303670731 0 -0.26911429951178012 -0.42474234074800371 0 -0.27848929033898201 -0.43669604725877897 0 -0.27638376085029581 -0.41177906387360241 0 -0.25487024651921952 -0.41254988102096568 0 -0.28540276919059199 -0.42535658303670731 0 -0.26911429951178012 -0.42474234074800371 0 -0.27638376085029581 -0.41177906387360241 0 -0.26911429951178012 -0.42474234074800371 0 -0.27638376085029581 -0.41177906387360241 0 -0.25487024651921952 -0.41254988102096568 0 -0.26755910350718881 -0.39582792531461569 0 -0.27638376085029581 -0.41177906387360241 0 -0.25487024651921952 -0.41254988102096568 0 -0.26911429951178012 -0.42474234074800371 0 -0.27638376085029581 -0.41177906387360241 0 -0.26911429951178012 -0.42474234074800371 0 -0.25908880606166329 -0.43064529781943001 0 -0.26690007516498948 -0.44242471351124879 0 -0.25487024651921952 -0.41254988102096568 0 -0.25908880606166329 -0.43064529781943001 0 -0.2468605885266735 -0.43014712497011809 0 -0.26911429951178012 -0.42474234074800371 0 -0.25487024651921952 -0.41254988102096568 0 -0.25908880606166329 -0.43064529781943001 0 -0.25908880606166329 -0.43064529781943001 0 -0.25479397652280911 -0.44050862113911837 0 -0.2468605885266735 -0.43014712497011809 0 -0.25479397652280911 -0.44050862113911837 0 -0.2546108597688766 -0.45375703833677078 0 -0.2450571310604201 -0.44414202720417628 0 -0.25479397652280911 -0.44050862113911837 0 -0.2546108597688766 -0.45375703833677078 0 -0.26690007516498948 -0.44242471351124879 0 -0.2546108597688766 -0.45375703833677078 0 -0.26838297633475061 -0.45652413347846638 0 -0.26690007516498948 -0.44242471351124879 0 -0.25908880606166329 -0.43064529781943001 0 -0.25479397652280911 -0.44050862113911837 0 -0.26690007516498948 -0.44242471351124879 0 -0.25109629719050858 -0.46406488014867903 0 -0.2546108597688766 -0.45375703833677078 0 -0.26079873433517492 -0.46936342421069649 0 -0.2546108597688766 -0.45375703833677078 0 -0.26838297633475061 -0.45652413347846638 0 -0.26079873433517492 -0.46936342421069649 0 -0.27799569035848881 -0.46687050799545499 0 -0.26838297633475061 -0.45652413347846638 0 -0.26079873433517492 -0.46936342421069649 0 -0.27799569035848881 -0.46687050799545499 0 -0.26838297633475061 -0.45652413347846638 0 -0.28160952204622303 -0.450204983338161 0 -0.26838297633475061 -0.45652413347846638 0 -0.26690007516498948 -0.44242471351124879 0 -0.28160952204622303 -0.450204983338161 0 -0.27848929033898201 -0.43669604725877897 0 -0.26690007516498948 -0.44242471351124879 0 -0.28160952204622303 -0.450204983338161 0 -0.29907098912325059 -0.43374406761790368 0 -0.28902284908971709 -0.44016681433255572 0 -0.29708038679871529 -0.44973292283788502 0 -0.27848929033898201 -0.43669604725877897 0 -0.28902284908971709 -0.44016681433255572 0 -0.28160952204622303 -0.450204983338161 0 -0.28902284908971709 -0.44016681433255572 0 -0.28160952204622303 -0.450204983338161 0 -0.29708038679871529 -0.44973292283788502 0 -0.27799569035848881 -0.46687050799545499 0 -0.29150619976335518 -0.46129715127825488 0 -0.29492343141974797 -0.47638763217473168 0 -0.27799569035848881 -0.46687050799545499 0 -0.28160952204622303 -0.450204983338161 0 -0.29150619976335518 -0.46129715127825488 0 -0.28160952204622303 -0.450204983338161 0 -0.29150619976335518 -0.46129715127825488 0 -0.29708038679871529 -0.44973292283788502 0 -0.29150619976335518 -0.46129715127825488 0 -0.30592196819360068 -0.46328971004504182 0 -0.29708038679871529 -0.44973292283788502 0 -0.31987457796333868 -0.4551426725204325 0 -0.30592196819360068 -0.46328971004504182 0 -0.31015853372433788 -0.44544301337781073 0 -0.29150619976335518 -0.46129715127825488 0 -0.30592196819360068 -0.46328971004504182 0 -0.29492343141974797 -0.47638763217473168 0 -0.29907098912325059 -0.43374406761790368 0 -0.31015853372433788 -0.44544301337781073 0 -0.29708038679871529 -0.44973292283788502 0 -0.30592196819360068 -0.46328971004504182 0 -0.31015853372433788 -0.44544301337781073 0 -0.29708038679871529 -0.44973292283788502 0 -0.31208929727375578 -0.48491526738579699 0 -0.29492343141974797 -0.47638763217473168 0 -0.29581575695060047 -0.5 0 -0.32221211863154181 -0.5 0 -0.31208929727375578 -0.48491526738579699 0 -0.29581575695060047 -0.5 0 -0.32094261384274558 -0.46854088973335889 0 -0.30592196819360068 -0.46328971004504182 0 -0.29492343141974797 -0.47638763217473168 0 -0.32094261384274558 -0.46854088973335889 0 -0.29492343141974797 -0.47638763217473168 0 -0.32094261384274558 -0.46854088973335889 0 -0.31208929727375578 -0.48491526738579699 0 -0.29492343141974797 -0.47638763217473168 0 -0.29492343141974797 -0.47638763217473168 0 -0.26890424899675031 -0.48423437461610452 0 -0.29492343141974797 -0.47638763217473168 0 -0.28441593737837417 -0.48860776134254891 0 -0.26890424899675031 -0.48423437461610452 0 -0.29492343141974797 -0.47638763217473168 0 -0.28441593737837417 -0.48860776134254891 0 -0.29581575695060047 -0.5 0 -0.28441593737837417 -0.48860776134254891 0 -0.29581575695060047 -0.5 0 -0.26941939526965919 -0.5 0 -0.28441593737837417 -0.48860776134254891 0 -0.26941939526965919 -0.5 0 -0.26890424899675031 -0.48423437461610452 0 -0.27799569035848881 -0.46687050799545499 0 -0.29492343141974797 -0.47638763217473168 0 -0.26890424899675031 -0.48423437461610452 0 -0.27799569035848881 -0.46687050799545499 0 -0.26890424899675031 -0.48423437461610452 0 -0.26079873433517492 -0.46936342421069649 0 -0.26890424899675031 -0.48423437461610452 0 -0.26079873433517492 -0.46936342421069649 0 -0.25379328426056558 -0.48205965705463422 0 -0.26079873433517492 -0.46936342421069649 0 -0.25379328426056558 -0.48205965705463422 0 -0.250874604213362 -0.47391739130808008 0 -0.25109629719050858 -0.46406488014867903 0 -0.26079873433517492 -0.46936342421069649 0 -0.250874604213362 -0.47391739130808008 0 -0.26941939526965919 -0.5 0 -0.26890424899675031 -0.48423437461610452 0 -0.2544134183364497 -0.49413622749019132 0 -0.26941939526965919 -0.5 0 -0.2544134183364497 -0.49413622749019132 0 -0.2430230335887178 -0.5 0 -0.26890424899675031 -0.48423437461610452 0 -0.2544134183364497 -0.49413622749019132 0 -0.24288506657375261 -0.49208111705747781 0 -0.26890424899675031 -0.48423437461610452 0 -0.25379328426056558 -0.48205965705463422 0 -0.24288506657375261 -0.49208111705747781 0 -0.26890424899675031 -0.48423437461610452 0 -0.24288506657375261 -0.49208111705747781 0 -0.2544134183364497 -0.49413622749019132 0 -0.2430230335887178 -0.5 0 -0.24783534725336881 -0.49436564577737419 0 -0.2544134183364497 -0.49413622749019132 0 -0.24783534725336881 -0.49436564577737419 0 -0.24288506657375261 -0.49208111705747781 0 -0.2430230335887178 -0.5 0 -0.24783534725336881 -0.49436564577737419 0 -0.24288506657375261 -0.49208111705747781 0 -0.24783534725336881 -0.49436564577737419 0 -0.24288506657375261 -0.49208111705747781 0 -0.24288506657375261 -0.49208111705747781 0 -0.24429345028001889 -0.4821559175287794 0 -0.23457410743521059 -0.47899140825596259 0 -0.25379328426056558 -0.48205965705463422 0 -0.24288506657375261 -0.49208111705747781 0 -0.24429345028001889 -0.4821559175287794 0 -0.25379328426056558 -0.48205965705463422 0 -0.250874604213362 -0.47391739130808008 0 -0.24429345028001889 -0.4821559175287794 0 -0.24429345028001889 -0.4821559175287794 0 -0.2443912550005416 -0.47194307759761112 0 -0.2395637252682277 -0.47605318874815389 0 -0.25109629719050858 -0.46406488014867903 0 -0.250874604213362 -0.47391739130808008 0 -0.2443912550005416 -0.47194307759761112 0 -0.250874604213362 -0.47391739130808008 0 -0.24429345028001889 -0.4821559175287794 0 -0.2443912550005416 -0.47194307759761112 0 -0.2443912550005416 -0.47194307759761112 0 -0.2395637252682277 -0.47605318874815389 0 -0.23499608835713959 -0.47112235161026261 0 -0.2395637252682277 -0.47605318874815389 0 -0.23499608835713959 -0.47112235161026261 0 -0.23457410743521059 -0.47899140825596259 0 -0.24429345028001889 -0.4821559175287794 0 -0.2395637252682277 -0.47605318874815389 0 -0.23457410743521059 -0.47899140825596259 0 -0.23457410743521059 -0.47899140825596259 0 -0.2250369990674011 -0.47003999804886298 0 -0.2204246459600448 -0.48171575006642248 0 -0.24288506657375261 -0.49208111705747781 0 -0.23457410743521059 -0.47899140825596259 0 -0.2204246459600448 -0.48171575006642248 0 -0.23499608835713959 -0.47112235161026261 0 -0.23457410743521059 -0.47899140825596259 0 -0.2250369990674011 -0.47003999804886298 0 -0.2430230335887178 -0.5 0 -0.24288506657375261 -0.49208111705747781 0 -0.21662667190777651 -0.49999999999999939 0 -0.24288506657375261 -0.49208111705747781 0 -0.21662667190777651 -0.49999999999999939 0 -0.24288506657375261 -0.49208111705747781 0 -0.2204246459600448 -0.48171575006642248 0 -0.24288506657375261 -0.49208111705747781 0 -0.2204246459600448 -0.48171575006642248 0 -0.21662667190777651 -0.49999999999999939 0 -0.2450571310604201 -0.44414202720417628 0 -0.23716380350122879 -0.45645441389937441 0 -0.23280677558438309 -0.43386548686292281 0 -0.2546108597688766 -0.45375703833677078 0 -0.2450571310604201 -0.44414202720417628 0 -0.23716380350122879 -0.45645441389937441 0 -0.25479397652280911 -0.44050862113911837 0 -0.2450571310604201 -0.44414202720417628 0 -0.2468605885266735 -0.43014712497011809 0 -0.25109629719050858 -0.46406488014867903 0 -0.2546108597688766 -0.45375703833677078 0 -0.23716380350122879 -0.45645441389937441 0 -0.25109629719050858 -0.46406488014867903 0 -0.2443912550005416 -0.47194307759761112 0 -0.23716380350122879 -0.45645441389937441 0 -0.2443912550005416 -0.47194307759761112 0 -0.23499608835713959 -0.47112235161026261 0 -0.23716380350122879 -0.45645441389937441 0 -0.2250369990674011 -0.47003999804886298 0 -0.21844010846223411 -0.44206575668227449 0 -0.2250369990674011 -0.47003999804886298 0 -0.23716380350122879 -0.45645441389937441 0 -0.21844010846223411 -0.44206575668227449 0 -0.23499608835713959 -0.47112235161026261 0 -0.2250369990674011 -0.47003999804886298 0 -0.23716380350122879 -0.45645441389937441 0 -0.23716380350122879 -0.45645441389937441 0 -0.21844010846223411 -0.44206575668227449 0 -0.23280677558438309 -0.43386548686292281 0 -0.21844010846223411 -0.44206575668227449 0 -0.21054881561508179 -0.46151962797655111 0 -0.19087809923939161 -0.44242625200982799 0 -0.2250369990674011 -0.47003999804886298 0 -0.21844010846223411 -0.44206575668227449 0 -0.21054881561508179 -0.46151962797655111 0 -0.21054881561508179 -0.46151962797655111 0 -0.19087809923939161 -0.44242625200982799 0 -0.1979642253463372 -0.47135038307536692 0 -0.19087809923939161 -0.44242625200982799 0 -0.1979642253463372 -0.47135038307536692 0 -0.17550380473262961 -0.46098501608431119 0 -0.2039060436575347 -0.48788306012054039 0 -0.21662667190777651 -0.49999999999999939 0 -0.191185415407293 -0.5 0 -0.2204246459600448 -0.48171575006642248 0 -0.2039060436575347 -0.48788306012054039 0 -0.21662667190777651 -0.49999999999999939 0 -0.2250369990674011 -0.47003999804886298 0 -0.2204246459600448 -0.48171575006642248 0 -0.21054881561508179 -0.46151962797655111 0 -0.2204246459600448 -0.48171575006642248 0 -0.2039060436575347 -0.48788306012054039 0 -0.1979642253463372 -0.47135038307536692 0 -0.2204246459600448 -0.48171575006642248 0 -0.1979642253463372 -0.47135038307536692 0 -0.2204246459600448 -0.48171575006642248 0 -0.21054881561508179 -0.46151962797655111 0 -0.1979642253463372 -0.47135038307536692 0 -0.2039060436575347 -0.48788306012054039 0 -0.1979642253463372 -0.47135038307536692 0 -0.18170511770794731 -0.48283447360099019 0 -0.2039060436575347 -0.48788306012054039 0 -0.191185415407293 -0.5 0 -0.18170511770794731 -0.48283447360099019 0 -0.191185415407293 -0.5 0 -0.16574415890680941 -0.5 0 -0.18170511770794731 -0.48283447360099019 0 -0.16574415890680941 -0.5 0 -0.18170511770794731 -0.48283447360099019 0 -0.1559270581970803 -0.47678838232572268 0 -0.18170511770794731 -0.48283447360099019 0 -0.17550380473262961 -0.46098501608431119 0 -0.1559270581970803 -0.47678838232572268 0 -0.1979642253463372 -0.47135038307536692 0 -0.18170511770794731 -0.48283447360099019 0 -0.17550380473262961 -0.46098501608431119 0 -0.1979642253463372 -0.47135038307536692 0 -0.17550380473262961 -0.46098501608431119 0 -0.19087809923939161 -0.44242625200982799 0 -0.17550380473262961 -0.46098501608431119 0 -0.16487953686040341 -0.43668708651363358 0 -0.17550380473262961 -0.46098501608431119 0 -0.15866236735209521 -0.45377864165300308 0 -0.16487953686040341 -0.43668708651363358 0 -0.17550380473262961 -0.46098501608431119 0 -0.15866236735209521 -0.45377864165300308 0 -0.1559270581970803 -0.47678838232572268 0 -0.15866236735209521 -0.45377864165300308 0 -0.14280129841846509 -0.46103953978105727 0 -0.1559270581970803 -0.47678838232572268 0 -0.15866236735209521 -0.45377864165300308 0 -0.14280129841846509 -0.46103953978105727 0 -0.1438484805828521 -0.43705968193712769 0 -0.15866236735209521 -0.45377864165300308 0 -0.1438484805828521 -0.43705968193712769 0 -0.16487953686040341 -0.43668708651363358 0 -0.14280129841846509 -0.46103953978105727 0 -0.13093011984253891 -0.44972195681556543 0 -0.1438484805828521 -0.43705968193712769 0 -0.13093011984253891 -0.44972195681556543 0 -0.1438484805828521 -0.43705968193712769 0 -0.123519809913229 -0.43733662075251151 0 -0.14280129841846509 -0.46103953978105727 0 -0.13093011984253891 -0.44972195681556543 0 -0.12704973474613379 -0.46277216333596533 0 -0.14280129841846509 -0.46103953978105727 0 -0.12704973474613379 -0.46277216333596533 0 -0.13010403334985379 -0.48000251283874379 0 -0.13010403334985379 -0.48000251283874379 0 -0.1403029024063259 -0.5 0 -0.1148616459058424 -0.5 0 -0.16574415890680941 -0.5 0 -0.1403029024063259 -0.5 0 -0.1559270581970803 -0.47678838232572268 0 -0.13010403334985379 -0.48000251283874379 0 -0.1403029024063259 -0.5 0 -0.1559270581970803 -0.47678838232572268 0 -0.14280129841846509 -0.46103953978105727 0 -0.13010403334985379 -0.48000251283874379 0 -0.1559270581970803 -0.47678838232572268 0 -0.13724659116883831 -0.38156720383825199 0 -0.13696324729183901 -0.40051159333262831 0 -0.1562511533772393 -0.40085091578326698 0 -0.13696324729183901 -0.40051159333262831 0 -0.14428023194946249 -0.41611080081516499 0 -0.1562511533772393 -0.40085091578326698 0 -0.13724659116883831 -0.38156720383825199 0 -0.1562511533772393 -0.40085091578326698 0 -0.1663441030446621 -0.37717300760659073 0 -0.13724659116883831 -0.38156720383825199 0 -0.11827115974421661 -0.40327967795429231 0 -0.13724659116883831 -0.38156720383825199 0 -0.13696324729183901 -0.40051159333262831 0 -0.11827115974421661 -0.40327967795429231 0 -0.13696324729183901 -0.40051159333262831 0 -0.12597911368703019 -0.41952469120143437 0 -0.14428023194946249 -0.41611080081516499 0 -0.13696324729183901 -0.40051159333262831 0 -0.12597911368703019 -0.41952469120143437 0 -0.11827115974421661 -0.40327967795429231 0 -0.12597911368703019 -0.41952469120143437 0 -0.1438484805828521 -0.43705968193712769 0 -0.123519809913229 -0.43733662075251151 0 -0.12597911368703019 -0.41952469120143437 0 -0.1438484805828521 -0.43705968193712769 0 -0.14428023194946249 -0.41611080081516499 0 -0.1438484805828521 -0.43705968193712769 0 -0.16487953686040341 -0.43668708651363358 0 -0.1579375607246061 -0.42228606781690858 0 -0.1438484805828521 -0.43705968193712769 0 -0.14428023194946249 -0.41611080081516499 0 -0.1579375607246061 -0.42228606781690858 0 -0.14428023194946249 -0.41611080081516499 0 -0.1579375607246061 -0.42228606781690858 0 -0.1562511533772393 -0.40085091578326698 0 -0.1717517290487513 -0.41486076781395709 0 -0.1579375607246061 -0.42228606781690858 0 -0.1562511533772393 -0.40085091578326698 0 -0.1717517290487513 -0.41486076781395709 0 -0.16487953686040341 -0.43668708651363358 0 -0.1579375607246061 -0.42228606781690858 0 -0.1717517290487513 -0.41486076781395709 0 -0.16487953686040341 -0.43668708651363358 0 -0.19087809923939161 -0.44242625200982799 0 -0.16487953686040341 -0.43668708651363358 0 -0.18049207608238291 -0.42812424827546058 0 -0.1717517290487513 -0.41486076781395709 0 -0.16487953686040341 -0.43668708651363358 0 -0.18049207608238291 -0.42812424827546058 0 -0.1717517290487513 -0.41486076781395709 0 -0.18680736564207029 -0.41498853585306777 0 -0.17862392123709919 -0.39303444911428059 0 -0.1717517290487513 -0.41486076781395709 0 -0.18049207608238291 -0.42812424827546058 0 -0.18680736564207029 -0.41498853585306777 0 -0.18680736564207029 -0.41498853585306777 0 -0.17862392123709919 -0.39303444911428059 0 -0.19656737959219739 -0.40219111980173922 0 -0.1717517290487513 -0.41486076781395709 0 -0.17862392123709919 -0.39303444911428059 0 -0.1717517290487513 -0.41486076781395709 0 -0.17862392123709919 -0.39303444911428059 0 -0.1562511533772393 -0.40085091578326698 0 -0.17862392123709919 -0.39303444911428059 0 -0.1562511533772393 -0.40085091578326698 0 -0.1663441030446621 -0.37717300760659073 0 -0.17862392123709919 -0.39303444911428059 0 -0.1663441030446621 -0.37717300760659073 0 -0.1854961134254472 -0.37120813041460421 0 -0.17862392123709919 -0.39303444911428059 0 -0.1854961134254472 -0.37120813041460421 0 -0.17862392123709919 -0.39303444911428059 0 -0.20527564977482679 -0.38624161667098289 0 -0.1854961134254472 -0.37120813041460421 0 -0.17862392123709919 -0.39303444911428059 0 -0.19656737959219739 -0.40219111980173922 0 -0.20527564977482679 -0.38624161667098289 0 -0.20527564977482679 -0.38624161667098289 0 -0.2118432178570665 -0.41409151531568628 0 -0.2281799985799623 -0.39436158075255778 0 -0.19656737959219739 -0.40219111980173922 0 -0.20527564977482679 -0.38624161667098289 0 -0.2118432178570665 -0.41409151531568628 0 -0.20527564977482679 -0.38624161667098289 0 -0.2118432178570665 -0.41409151531568628 0 -0.20527564977482679 -0.38624161667098289 0 -0.22195794658956111 -0.37463091785279867 0 -0.21168543115216709 -0.36681117402183649 0 -0.20527564977482679 -0.38624161667098289 0 -0.2281799985799623 -0.39436158075255778 0 -0.22195794658956111 -0.37463091785279867 0 -0.18049207608238291 -0.42812424827546058 0 -0.18680736564207029 -0.41498853585306777 0 -0.19899408631087909 -0.4269358685541359 0 -0.19087809923939161 -0.44242625200982799 0 -0.18049207608238291 -0.42812424827546058 0 -0.19899408631087909 -0.4269358685541359 0 -0.21844010846223411 -0.44206575668227449 0 -0.19087809923939161 -0.44242625200982799 0 -0.19899408631087909 -0.4269358685541359 0 -0.18680736564207029 -0.41498853585306777 0 -0.19656737959219739 -0.40219111980173922 0 -0.2118432178570665 -0.41409151531568628 0 -0.18680736564207029 -0.41498853585306777 0 -0.19899408631087909 -0.4269358685541359 0 -0.2118432178570665 -0.41409151531568628 0 -0.18680736564207029 -0.41498853585306777 0 -0.2118432178570665 -0.41409151531568628 0 -0.21844010846223411 -0.44206575668227449 0 -0.19899408631087909 -0.4269358685541359 0 -0.2118432178570665 -0.41409151531568628 0 -0.21844010846223411 -0.44206575668227449 0 -0.2118432178570665 -0.41409151531568628 0 -0.21844010846223411 -0.44206575668227449 0 -0.2118432178570665 -0.41409151531568628 0 -0.23280677558438309 -0.43386548686292281 0 -0.2118432178570665 -0.41409151531568628 0 -0.23335673218814301 -0.41332069816832789 0 -0.2281799985799623 -0.39436158075255778 0 -0.2118432178570665 -0.41409151531568628 0 -0.23335673218814301 -0.41332069816832789 0 -0.2118432178570665 -0.41409151531568628 0 -0.23280677558438309 -0.43386548686292281 0 -0.23335673218814301 -0.41332069816832789 0 -0.25487024651921952 -0.41254988102096568 0 -0.23335673218814301 -0.41332069816832789 0 -0.25487024651921952 -0.41254988102096568 0 -0.23335673218814301 -0.41332069816832789 0 -0.24168551714563921 -0.4027948375671459 0 -0.25487024651921952 -0.41254988102096568 0 -0.23335673218814301 -0.41332069816832789 0 -0.2468605885266735 -0.43014712497011809 0 -0.23280677558438309 -0.43386548686292281 0 -0.23335673218814301 -0.41332069816832789 0 -0.2468605885266735 -0.43014712497011809 0 -0.2450571310604201 -0.44414202720417628 0 -0.23280677558438309 -0.43386548686292281 0 -0.2468605885266735 -0.43014712497011809 0 -0.2281799985799623 -0.39436158075255778 0 -0.2359431282162788 -0.37698905115118858 0 -0.22195794658956111 -0.37463091785279867 0 -0.25033509129523179 -0.39094719032673231 0 -0.2281799985799623 -0.39436158075255778 0 -0.24168551714563921 -0.4027948375671459 0 -0.25033509129523179 -0.39094719032673231 0 -0.25487024651921952 -0.41254988102096568 0 -0.24168551714563921 -0.4027948375671459 0 -0.23335673218814301 -0.41332069816832789 0 -0.2281799985799623 -0.39436158075255778 0 -0.24168551714563921 -0.4027948375671459 0 -0.25033509129523179 -0.39094719032673231 0 -0.2359431282162788 -0.37698905115118858 0 -0.24748772700216881 -0.3717564301773445 0 -0.25033509129523179 -0.39094719032673231 0 -0.2281799985799623 -0.39436158075255778 0 -0.2359431282162788 -0.37698905115118858 0 -0.25494538795031141 -0.36273054802101118 0 -0.24748772700216881 -0.3717564301773445 0 -0.24521251836493849 -0.35951647641646678 0 -0.24748772700216881 -0.3717564301773445 0 -0.24521251836493849 -0.35951647641646678 0 -0.23939899228441261 -0.3655962622813349 0 -0.23939899228441261 -0.3655962622813349 0 -0.23024759562621139 -0.36380396142485888 0 -0.23761117654761921 -0.35850429625613017 0 -0.24521251836493849 -0.35951647641646678 0 -0.23939899228441261 -0.3655962622813349 0 -0.23761117654761921 -0.35850429625613017 0 -0.2359431282162788 -0.37698905115118858 0 -0.23939899228441261 -0.3655962622813349 0 -0.23024759562621139 -0.36380396142485888 0 -0.2359431282162788 -0.37698905115118858 0 -0.24748772700216881 -0.3717564301773445 0 -0.23939899228441261 -0.3655962622813349 0 -0.2359431282162788 -0.37698905115118858 0 -0.23024759562621139 -0.36380396142485888 0 -0.22195794658956111 -0.37463091785279867 0 -0.23024759562621139 -0.36380396142485888 0 -0.22135664398937441 -0.36020929429952131 0 -0.2310785660723691 -0.35440187846705151 0 -0.23024759562621139 -0.36380396142485888 0 -0.22135664398937441 -0.36020929429952131 0 -0.22195794658956111 -0.37463091785279867 0 -0.22135664398937441 -0.36020929429952131 0 -0.22331676928072861 -0.34527245129667988 0 -0.2310785660723691 -0.35440187846705151 0 -0.23024759562621139 -0.36380396142485888 0 -0.2310785660723691 -0.35440187846705151 0 -0.23761117654761921 -0.35850429625613017 0 -0.22331676928072861 -0.34527245129667988 0 -0.2337118992122327 -0.34903918396608452 0 -0.23708401688859529 -0.34365007901650441 0 -0.22331676928072861 -0.34527245129667988 0 -0.2310785660723691 -0.35440187846705151 0 -0.2337118992122327 -0.34903918396608452 0 -0.26017799311385281 -0.35268912854855933 0 -0.24808760514302669 -0.3536558827211943 0 -0.2404133442166683 -0.34213832018255058 0 -0.2310785660723691 -0.35440187846705151 0 -0.2337118992122327 -0.34903918396608452 0 -0.2396887820693627 -0.35120494043738398 0 -0.26017799311385281 -0.35268912854855933 0 -0.24325210797206609 -0.34084931319650169 0 -0.2404133442166683 -0.34213832018255058 0 -0.2396887820693627 -0.35120494043738398 0 -0.23708401688859529 -0.34365007901650441 0 -0.2404133442166683 -0.34213832018255058 0 -0.2337118992122327 -0.34903918396608452 0 -0.2396887820693627 -0.35120494043738398 0 -0.23708401688859529 -0.34365007901650441 0 -0.2310785660723691 -0.35440187846705151 0 -0.2396887820693627 -0.35120494043738398 0 -0.23761117654761921 -0.35850429625613017 0 -0.24521251836493849 -0.35951647641646678 0 -0.2396887820693627 -0.35120494043738398 0 -0.23761117654761921 -0.35850429625613017 0 -0.24521251836493849 -0.35951647641646678 0 -0.2396887820693627 -0.35120494043738398 0 -0.24808760514302669 -0.3536558827211943 0 -0.25494538795031141 -0.36273054802101118 0 -0.24521251836493849 -0.35951647641646678 0 -0.24808760514302669 -0.3536558827211943 0 -0.2396887820693627 -0.35120494043738398 0 -0.24808760514302669 -0.3536558827211943 0 -0.2404133442166683 -0.34213832018255058 0 -0.24325210797206609 -0.34084931319650169 0 -0.24518994726652291 -0.33234415230164399 0 -0.23958942898634211 -0.33903199036576709 0 -0.24518994726652291 -0.33234415230164399 0 -0.23560348244150561 -0.32909319502054812 0 -0.23958942898634211 -0.33903199036576709 0 -0.23708401688859529 -0.34365007901650441 0 -0.2404133442166683 -0.34213832018255058 0 -0.24325210797206609 -0.34084931319650169 0 -0.2404133442166683 -0.34213832018255058 0 -0.23958942898634211 -0.33903199036576709 0 -0.24325210797206609 -0.34084931319650169 0 -0.2404133442166683 -0.34213832018255058 0 -0.24325210797206609 -0.34084931319650169 0 -0.23958942898634211 -0.33903199036576709 0 -0.25915672867891859 -0.31415112243359272 0 -0.24308922262768951 -0.32099342612622928 0 -0.24047089863443691 -0.30798947189970438 0 -0.24518994726652291 -0.33234415230164399 0 -0.23560348244150561 -0.32909319502054812 0 -0.24308922262768951 -0.32099342612622928 0 -0.23560348244150561 -0.32909319502054812 0 -0.24308922262768951 -0.32099342612622928 0 -0.22938765682563561 -0.32144886021699343 0 -0.24308922262768951 -0.32099342612622928 0 -0.22938765682563561 -0.32144886021699343 0 -0.23158309368585001 -0.31181085789310747 0 -0.24308922262768951 -0.32099342612622928 0 -0.24047089863443691 -0.30798947189970438 0 -0.23158309368585001 -0.31181085789310747 0 -0.22938765682563561 -0.32144886021699343 0 -0.23158309368585001 -0.31181085789310747 0 -0.22249387381410951 -0.31123320620709588 0 -0.23560348244150561 -0.32909319502054812 0 -0.22938765682563561 -0.32144886021699343 0 -0.22076115650133771 -0.33164754609210678 0 -0.22938765682563561 -0.32144886021699343 0 -0.22076115650133771 -0.33164754609210678 0 -0.2180259411870723 -0.31620608063285149 0 -0.22938765682563561 -0.32144886021699343 0 -0.2180259411870723 -0.31620608063285149 0 -0.22249387381410951 -0.31123320620709588 0 -0.22331676928072861 -0.34527245129667988 0 -0.23708401688859529 -0.34365007901650441 0 -0.22076115650133771 -0.33164754609210678 0 -0.23560348244150561 -0.32909319502054812 0 -0.23958942898634211 -0.33903199036576709 0 -0.22076115650133771 -0.33164754609210678 0 -0.2404133442166683 -0.34213832018255058 0 -0.22076115650133771 -0.33164754609210678 0 -0.2404133442166683 -0.34213832018255058 0 -0.23958942898634211 -0.33903199036576709 0 -0.22076115650133771 -0.33164754609210678 0 -0.23708401688859529 -0.34365007901650441 0 -0.2404133442166683 -0.34213832018255058 0 -0.22076115650133771 -0.33164754609210678 0 -0.22331676928072861 -0.34527245129667988 0 -0.22076115650133771 -0.33164754609210678 0 -0.20784983644103361 -0.34097302903627591 0 -0.22076115650133771 -0.33164754609210678 0 -0.20348412114368319 -0.33156666209817831 0 -0.20784983644103361 -0.34097302903627591 0 -0.2180259411870723 -0.31620608063285149 0 -0.19974136112887431 -0.31343603927203523 0 -0.20110896878600679 -0.32115677200166343 0 -0.22076115650133771 -0.33164754609210678 0 -0.2180259411870723 -0.31620608063285149 0 -0.20110896878600679 -0.32115677200166343 0 -0.22076115650133771 -0.33164754609210678 0 -0.20348412114368319 -0.33156666209817831 0 -0.20110896878600679 -0.32115677200166343 0 -0.22076115650133771 -0.33164754609210678 0 -0.20110896878600679 -0.32115677200166343 0 -0.2180259411870723 -0.31620608063285149 0 -0.19974136112887431 -0.31343603927203523 0 -0.20904493575850211 -0.30938578927939081 0 -0.2180259411870723 -0.31620608063285149 0 -0.19974136112887431 -0.31343603927203523 0 -0.19974136112887431 -0.31343603927203523 0 -0.20110896878600679 -0.32115677200166343 0 -0.1814567810706762 -0.3106659979112194 0 -0.20110896878600679 -0.32115677200166343 0 -0.1814567810706762 -0.3106659979112194 0 -0.20110896878600679 -0.32115677200166343 0 -0.19214051361034601 -0.33054181938157612 0 -0.1814567810706762 -0.3106659979112194 0 -0.20348412114368319 -0.33156666209817831 0 -0.20110896878600679 -0.32115677200166343 0 -0.19214051361034601 -0.33054181938157612 0 -0.20348412114368319 -0.33156666209817831 0 -0.20784983644103361 -0.34097302903627591 0 -0.19214051361034601 -0.33054181938157612 0 -0.20784983644103361 -0.34097302903627591 0 -0.19214051361034601 -0.33054181938157612 0 -0.20232946575910341 -0.34593351830387509 0 -0.19214051361034601 -0.33054181938157612 0 -0.19236830561379509 -0.34938181171492771 0 -0.18622265824693729 -0.34003474470360739 0 -0.19214051361034601 -0.33054181938157612 0 -0.19236830561379509 -0.34938181171492771 0 -0.19870808169258641 -0.35839171802627962 0 -0.19214051361034601 -0.33054181938157612 0 -0.19870808169258641 -0.35839171802627962 0 -0.19214051361034601 -0.33054181938157612 0 -0.20232946575910341 -0.34593351830387509 0 -0.19870808169258641 -0.35839171802627962 0 -0.19236830561379509 -0.34938181171492771 0 -0.1854961134254472 -0.37120813041460421 0 -0.20527564977482679 -0.38624161667098289 0 -0.19870808169258641 -0.35839171802627962 0 -0.20527564977482679 -0.38624161667098289 0 -0.19870808169258641 -0.35839171802627962 0 -0.1854961134254472 -0.37120813041460421 0 -0.19236830561379509 -0.34938181171492771 0 -0.19870808169258641 -0.35839171802627962 0 -0.1854961134254472 -0.37120813041460421 0 -0.20527564977482679 -0.38624161667098289 0 -0.19870808169258641 -0.35839171802627962 0 -0.21168543115216709 -0.36681117402183649 0 -0.19870808169258641 -0.35839171802627962 0 -0.21168543115216709 -0.36681117402183649 0 -0.21061943129244759 -0.3538275067713687 0 -0.22135664398937441 -0.36020929429952131 0 -0.22195794658956111 -0.37463091785279867 0 -0.21168543115216709 -0.36681117402183649 0 -0.22135664398937441 -0.36020929429952131 0 -0.21168543115216709 -0.36681117402183649 0 -0.21061943129244759 -0.3538275067713687 0 -0.22135664398937441 -0.36020929429952131 0 -0.22331676928072861 -0.34527245129667988 0 -0.21061943129244759 -0.3538275067713687 0 -0.22331676928072861 -0.34527245129667988 0 -0.20784983644103361 -0.34097302903627591 0 -0.21061943129244759 -0.3538275067713687 0 -0.20784983644103361 -0.34097302903627591 0 -0.20232946575910341 -0.34593351830387509 0 -0.21061943129244759 -0.3538275067713687 0 -0.20232946575910341 -0.34593351830387509 0 -0.19870808169258641 -0.35839171802627962 0 -0.21061943129244759 -0.3538275067713687 0 -0.22866545068461799 -0.25948943059043711 0 -0.21759888839251429 -0.26212753750200368 0 -0.22025275826160279 -0.2471257797298928 0 -0.22866545068461799 -0.25948943059043711 0 -0.22398633244919169 -0.27132847136955079 0 -0.21759888839251429 -0.26212753750200368 0 -0.22866545068461799 -0.25948943059043711 0 -0.23442911476228809 -0.24683612341654529 0 -0.22025275826160279 -0.2471257797298928 0 -0.22866545068461799 -0.25948943059043711 0 -0.24233717299785959 -0.25960849866204011 0 -0.23442911476228809 -0.24683612341654529 0 -0.2565674865322034 -0.25340195958415102 0 -0.24233717299785959 -0.25960849866204011 0 -0.25018128361314113 -0.24746468840205441 0 -0.22866545068461799 -0.25948943059043711 0 -0.24233717299785959 -0.25960849866204011 0 -0.2333815926018066 -0.27110706845475141 0 -0.24233717299785959 -0.25960849866204011 0 -0.2333815926018066 -0.27110706845475141 0 -0.24140403581614819 -0.28379898528087227 0 -0.24233717299785959 -0.25960849866204011 0 -0.24140403581614819 -0.28379898528087227 0 -0.24233717299785959 -0.25960849866204011 0 -0.2484323970602714 -0.27706385987730509 0 -0.24140403581614819 -0.28379898528087227 0 -0.25309751137434572 -0.26289123234143091 0 -0.24233717299785959 -0.25960849866204011 0 -0.2484323970602714 -0.27706385987730509 0 -0.2333815926018066 -0.27110706845475141 0 -0.2300547693907766 -0.28178467995593781 0 -0.24140403581614819 -0.28379898528087227 0 -0.2333815926018066 -0.27110706845475141 0 -0.22398633244919169 -0.27132847136955079 0 -0.2300547693907766 -0.28178467995593781 0 -0.22866545068461799 -0.25948943059043711 0 -0.2333815926018066 -0.27110706845475141 0 -0.22398633244919169 -0.27132847136955079 0 -0.22398633244919169 -0.27132847136955079 0 -0.21947311754018139 -0.28174823216008099 0 -0.2300547693907766 -0.28178467995593781 0 -0.21947311754018139 -0.28174823216008099 0 -0.22569627159534009 -0.29064390563822362 0 -0.2300547693907766 -0.28178467995593781 0 -0.21947311754018139 -0.28174823216008099 0 -0.22569627159534009 -0.29064390563822362 0 -0.21595054291829549 -0.29285447433738648 0 -0.22569627159534009 -0.29064390563822362 0 -0.22453607640027501 -0.29842387346705762 0 -0.21595054291829549 -0.29285447433738648 0 -0.22569627159534009 -0.29064390563822362 0 -0.2341156104824163 -0.28973116501788848 0 -0.23104294706112549 -0.29817392722980551 0 -0.22569627159534009 -0.29064390563822362 0 -0.23104294706112549 -0.29817392722980551 0 -0.22453607640027501 -0.29842387346705762 0 -0.22569627159534009 -0.29064390563822362 0 -0.2341156104824163 -0.28973116501788848 0 -0.2300547693907766 -0.28178467995593781 0 -0.25108388684634803 -0.28956965662021522 0 -0.24140403581614819 -0.28379898528087227 0 -0.24047089863443691 -0.30798947189970438 0 -0.2341156104824163 -0.28973116501788848 0 -0.24140403581614819 -0.28379898528087227 0 -0.24047089863443691 -0.30798947189970438 0 -0.24140403581614819 -0.28379898528087227 0 -0.24047089863443691 -0.30798947189970438 0 -0.2341156104824163 -0.28973116501788848 0 -0.2300547693907766 -0.28178467995593781 0 -0.24140403581614819 -0.28379898528087227 0 -0.25108388684634803 -0.28956965662021522 0 -0.2484323970602714 -0.27706385987730509 0 -0.24140403581614819 -0.28379898528087227 0 -0.25718459078837252 -0.29759752524363881 0 -0.25108388684634803 -0.28956965662021522 0 -0.24047089863443691 -0.30798947189970438 0 -0.2341156104824163 -0.28973116501788848 0 -0.24047089863443691 -0.30798947189970438 0 -0.23104294706112549 -0.29817392722980551 0 -0.24047089863443691 -0.30798947189970438 0 -0.23158309368585001 -0.31181085789310747 0 -0.2303958781931594 -0.30408122012615352 0 -0.23158309368585001 -0.31181085789310747 0 -0.2303958781931594 -0.30408122012615352 0 -0.2249978911063876 -0.30539226771637512 0 -0.24047089863443691 -0.30798947189970438 0 -0.23104294706112549 -0.29817392722980551 0 -0.2303958781931594 -0.30408122012615352 0 -0.23104294706112549 -0.29817392722980551 0 -0.2303958781931594 -0.30408122012615352 0 -0.22453607640027501 -0.29842387346705762 0 -0.2303958781931594 -0.30408122012615352 0 -0.22453607640027501 -0.29842387346705762 0 -0.2249978911063876 -0.30539226771637512 0 -0.22453607640027501 -0.29842387346705762 0 -0.2249978911063876 -0.30539226771637512 0 -0.21872282414136721 -0.30136563651957121 0 -0.22453607640027501 -0.29842387346705762 0 -0.21872282414136721 -0.30136563651957121 0 -0.21595054291829549 -0.29285447433738648 0 -0.22249387381410951 -0.31123320620709588 0 -0.2249978911063876 -0.30539226771637512 0 -0.21872282414136721 -0.30136563651957121 0 -0.23158309368585001 -0.31181085789310747 0 -0.22249387381410951 -0.31123320620709588 0 -0.2249978911063876 -0.30539226771637512 0 -0.22249387381410951 -0.31123320620709588 0 -0.20819654573008861 -0.30010144335043992 0 -0.2180259411870723 -0.31620608063285149 0 -0.2144403241224431 -0.30923162986744451 0 -0.20904493575850211 -0.30938578927939081 0 -0.22249387381410951 -0.31123320620709588 0 -0.2144403241224431 -0.30923162986744451 0 -0.20819654573008861 -0.30010144335043992 0 -0.2180259411870723 -0.31620608063285149 0 -0.22249387381410951 -0.31123320620709588 0 -0.2144403241224431 -0.30923162986744451 0 -0.21872282414136721 -0.30136563651957121 0 -0.20819654573008861 -0.30010144335043992 0 -0.21595054291829549 -0.29285447433738648 0 -0.22249387381410951 -0.31123320620709588 0 -0.21872282414136721 -0.30136563651957121 0 -0.20819654573008861 -0.30010144335043992 0 -0.20819654573008861 -0.30010144335043992 0 -0.20288915614788011 -0.30684576889979082 0 -0.200327377448308 -0.30070497350852549 0 -0.19974136112887431 -0.31343603927203523 0 -0.20904493575850211 -0.30938578927939081 0 -0.20288915614788011 -0.30684576889979082 0 -0.2144403241224431 -0.30923162986744451 0 -0.20819654573008861 -0.30010144335043992 0 -0.20904493575850211 -0.30938578927939081 0 -0.20819654573008861 -0.30010144335043992 0 -0.20904493575850211 -0.30938578927939081 0 -0.20288915614788011 -0.30684576889979082 0 -0.19974136112887431 -0.31343603927203523 0 -0.1814567810706762 -0.3106659979112194 0 -0.19974136112887431 -0.31343603927203523 0 -0.20288915614788011 -0.30684576889979082 0 -0.19308950921137841 -0.30535425612401718 0 -0.19974136112887431 -0.31343603927203523 0 -0.19308950921137841 -0.30535425612401718 0 -0.1814567810706762 -0.3106659979112194 0 -0.19308950921137841 -0.30535425612401718 0 -0.1899902243989981 -0.29832565749187118 0 -0.1817779539512053 -0.30255714357571323 0 -0.19308950921137841 -0.30535425612401718 0 -0.1899902243989981 -0.29832565749187118 0 -0.200327377448308 -0.30070497350852549 0 -0.20288915614788011 -0.30684576889979082 0 -0.19308950921137841 -0.30535425612401718 0 -0.200327377448308 -0.30070497350852549 0 -0.20819654573008861 -0.30010144335043992 0 -0.19389921764606771 -0.28896968049378402 0 -0.200327377448308 -0.30070497350852549 0 -0.19389921764606771 -0.28896968049378402 0 -0.20819654573008861 -0.30010144335043992 0 -0.200327377448308 -0.30070497350852549 0 -0.19389921764606771 -0.28896968049378402 0 -0.20819654573008861 -0.30010144335043992 0 -0.19389921764606771 -0.28896968049378402 0 -0.2049502680629153 -0.28953974020436019 0 -0.1899902243989981 -0.29832565749187118 0 -0.19389921764606771 -0.28896968049378402 0 -0.18066470514172869 -0.29420676669921531 0 -0.1899902243989981 -0.29832565749187118 0 -0.200327377448308 -0.30070497350852549 0 -0.19389921764606771 -0.28896968049378402 0 -0.19389921764606771 -0.28896968049378402 0 -0.18643891475010321 -0.2753500999052107 0 -0.19389921764606771 -0.28896968049378402 0 -0.1815972113741586 -0.27939145610981342 0 -0.19389921764606771 -0.28896968049378402 0 -0.2049502680629153 -0.28953974020436019 0 -0.20163083764207049 -0.27816255368004889 0 -0.2099333729274668 -0.28317129254800538 0 -0.2049502680629153 -0.28953974020436019 0 -0.20163083764207049 -0.27816255368004889 0 -0.2099333729274668 -0.28317129254800538 0 -0.2049502680629153 -0.28953974020436019 0 -0.21595054291829549 -0.29285447433738648 0 -0.20819654573008861 -0.30010144335043992 0 -0.2049502680629153 -0.28953974020436019 0 -0.21595054291829549 -0.29285447433738648 0 -0.21947311754018139 -0.28174823216008099 0 -0.2099333729274668 -0.28317129254800538 0 -0.21595054291829549 -0.29285447433738648 0 -0.2117440640613063 -0.2714560660025862 0 -0.20163083764207049 -0.27816255368004889 0 -0.20334583650585281 -0.26123793981755161 0 -0.22398633244919169 -0.27132847136955079 0 -0.21947311754018139 -0.28174823216008099 0 -0.2117440640613063 -0.2714560660025862 0 -0.21947311754018139 -0.28174823216008099 0 -0.2099333729274668 -0.28317129254800538 0 -0.2117440640613063 -0.2714560660025862 0 -0.22398633244919169 -0.27132847136955079 0 -0.2117440640613063 -0.2714560660025862 0 -0.21759888839251429 -0.26212753750200368 0 -0.2099333729274668 -0.28317129254800538 0 -0.2117440640613063 -0.2714560660025862 0 -0.20163083764207049 -0.27816255368004889 0 -0.20163083764207049 -0.27816255368004889 0 -0.20334583650585281 -0.26123793981755161 0 -0.18643891475010321 -0.2753500999052107 0 -0.20334583650585281 -0.26123793981755161 0 -0.18643891475010321 -0.2753500999052107 0 -0.1892261620383611 -0.26071341320317981 0 -0.20334583650585281 -0.26123793981755161 0 -0.18643891475010321 -0.2753500999052107 0 -0.19389921764606771 -0.28896968049378402 0 -0.20163083764207049 -0.27816255368004889 0 -0.18643891475010321 -0.2753500999052107 0 -0.1892261620383611 -0.26071341320317981 0 -0.20334583650585281 -0.26123793981755161 0 -0.1971211098569064 -0.2485562144643311 0 -0.20334583650585281 -0.26123793981755161 0 -0.21759888839251429 -0.26212753750200368 0 -0.22025275826160279 -0.2471257797298928 0 -0.20334583650585281 -0.26123793981755161 0 -0.22025275826160279 -0.2471257797298928 0 -0.20334583650585281 -0.26123793981755161 0 -0.1971211098569064 -0.2485562144643311 0 -0.22025275826160279 -0.2471257797298928 0 -0.2117440640613063 -0.2714560660025862 0 -0.20334583650585281 -0.26123793981755161 0 -0.21759888839251429 -0.26212753750200368 0 -0.15821309250511281 -0.26118480488572993 0 -0.17536452169406261 -0.25513261131262932 0 -0.1815972113741586 -0.27939145610981342 0 -0.15821309250511281 -0.26118480488572993 0 -0.17536452169406261 -0.25513261131262932 0 -0.15566934165753701 -0.24482136105764621 0 -0.1892261620383611 -0.26071341320317981 0 -0.17536452169406261 -0.25513261131262932 0 -0.1971211098569064 -0.2485562144643311 0 -0.1892261620383611 -0.26071341320317981 0 -0.17536452169406261 -0.25513261131262932 0 -0.18643891475010321 -0.2753500999052107 0 -0.17536452169406261 -0.25513261131262932 0 -0.18643891475010321 -0.2753500999052107 0 -0.17536452169406261 -0.25513261131262932 0 -0.18643891475010321 -0.2753500999052107 0 -0.1815972113741586 -0.27939145610981342 0 -0.19389921764606771 -0.28896968049378402 0 -0.18643891475010321 -0.2753500999052107 0 -0.1815972113741586 -0.27939145610981342 0 -0.18643891475010321 -0.2753500999052107 0 -0.1815972113741586 -0.27939145610981342 0 -0.15821309250511281 -0.26118480488572993 0 -0.1815972113741586 -0.27939145610981342 0 -0.1605334253196628 -0.27705414769848019 0 -0.15821309250511281 -0.26118480488572993 0 -0.1815972113741586 -0.27939145610981342 0 -0.1605334253196628 -0.27705414769848019 0 -0.16662117086531369 -0.29189191504570172 0 -0.1460397447830028 -0.28392096720827609 0 -0.1815972113741586 -0.27939145610981342 0 -0.1605334253196628 -0.27705414769848019 0 -0.16662117086531369 -0.29189191504570172 0 -0.16662117086531369 -0.29189191504570172 0 -0.18066470514172869 -0.29420676669921531 0 -0.16807172941449361 -0.30108874618849107 0 -0.1815972113741586 -0.27939145610981342 0 -0.16662117086531369 -0.29189191504570172 0 -0.1815972113741586 -0.27939145610981342 0 -0.16662117086531369 -0.29189191504570172 0 -0.18066470514172869 -0.29420676669921531 0 -0.19389921764606771 -0.28896968049378402 0 -0.1815972113741586 -0.27939145610981342 0 -0.18066470514172869 -0.29420676669921531 0 -0.18066470514172869 -0.29420676669921531 0 -0.1817779539512053 -0.30255714357571323 0 -0.16807172941449361 -0.30108874618849107 0 -0.1817779539512053 -0.30255714357571323 0 -0.17538193411824851 -0.30742310974349601 0 -0.16807172941449361 -0.30108874618849107 0 -0.1899902243989981 -0.29832565749187118 0 -0.18066470514172869 -0.29420676669921531 0 -0.1817779539512053 -0.30255714357571323 0 -0.19308950921137841 -0.30535425612401718 0 -0.1817779539512053 -0.30255714357571323 0 -0.1814567810706762 -0.3106659979112194 0 -0.1817779539512053 -0.30255714357571323 0 -0.1814567810706762 -0.3106659979112194 0 -0.17538193411824851 -0.30742310974349601 0 -0.1814567810706762 -0.3106659979112194 0 -0.17538193411824851 -0.30742310974349601 0 -0.1814567810706762 -0.3106659979112194 0 -0.17538193411824851 -0.30742310974349601 0 -0.1521471234576928 -0.30622570102712859 0 -0.16662117086531369 -0.29189191504570172 0 -0.16807172941449361 -0.30108874618849107 0 -0.15164513035647001 -0.30439237398159158 0 -0.17538193411824851 -0.30742310974349601 0 -0.16807172941449361 -0.30108874618849107 0 -0.1521471234576928 -0.30622570102712859 0 -0.16807172941449361 -0.30108874618849107 0 -0.1521471234576928 -0.30622570102712859 0 -0.15164513035647001 -0.30439237398159158 0 -0.1814567810706762 -0.3106659979112194 0 -0.1521471234576928 -0.30622570102712859 0 -0.16662117086531369 -0.29189191504570172 0 -0.15164513035647001 -0.30439237398159158 0 -0.14986325126998301 -0.30587970344869631 0 -0.1472482395654931 -0.30806244637126978 0 -0.13137693926794269 -0.30307910049847142 0 -0.14986325126998301 -0.30587970344869631 0 -0.13137693926794269 -0.30307910049847142 0 -0.14191197011226919 -0.29595195204747682 0 -0.1521471234576928 -0.30622570102712859 0 -0.15536928910057479 -0.31799335959440589 0 -0.1521471234576928 -0.30622570102712859 0 -0.1472482395654931 -0.30806244637126978 0 -0.1481744133336001 -0.31559103279323952 0 -0.1521471234576928 -0.30622570102712859 0 -0.14986325126998301 -0.30587970344869631 0 -0.1472482395654931 -0.30806244637126978 0 -0.1521471234576928 -0.30622570102712859 0 -0.14986325126998301 -0.30587970344869631 0 -0.15164513035647001 -0.30439237398159158 0 -0.1521471234576928 -0.30622570102712859 0 -0.14986325126998301 -0.30587970344869631 0 -0.1521471234576928 -0.30622570102712859 0 -0.15164513035647001 -0.30439237398159158 0 -0.14986325126998301 -0.30587970344869631 0 -0.15164513035647001 -0.30439237398159158 0 -0.14986325126998301 -0.30587970344869631 0 -0.1472482395654931 -0.30806244637126978 0 -0.14986325126998301 -0.30587970344869631 0 -0.15164513035647001 -0.30439237398159158 0 -0.14191197011226919 -0.29595195204747682 0 -0.1472482395654931 -0.30806244637126978 0 -0.13676428411235661 -0.311985534419285 0 -0.1481744133336001 -0.31559103279323952 0 -0.14986325126998301 -0.30587970344869631 0 -0.13137693926794269 -0.30307910049847142 0 -0.1472482395654931 -0.30806244637126978 0 -0.13676428411235661 -0.311985534419285 0 -0.13137693926794269 -0.30307910049847142 0 -0.13137693926794269 -0.30307910049847142 0 -0.14191197011226919 -0.29595195204747682 0 -0.12354370332633501 -0.29237215235494779 0 -0.13676428411235661 -0.311985534419285 0 -0.13137693926794269 -0.30307910049847142 0 -0.12202825811921469 -0.30947938976295097 0 -0.1460397447830028 -0.28392096720827609 0 -0.14191197011226919 -0.29595195204747682 0 -0.13317406737037779 -0.2802173890703723 0 -0.14191197011226919 -0.29595195204747682 0 -0.13317406737037779 -0.2802173890703723 0 -0.12354370332633501 -0.29237215235494779 0 -0.13317406737037779 -0.2802173890703723 0 -0.121176560474238 -0.27855216134530347 0 -0.12354370332633501 -0.29237215235494779 0 -0.16662117086531369 -0.29189191504570172 0 -0.15164513035647001 -0.30439237398159158 0 -0.1460397447830028 -0.28392096720827609 0 -0.15164513035647001 -0.30439237398159158 0 -0.1460397447830028 -0.28392096720827609 0 -0.14191197011226919 -0.29595195204747682 0 -0.15164513035647001 -0.30439237398159158 0 -0.1460397447830028 -0.28392096720827609 0 -0.1460397447830028 -0.28392096720827609 0 -0.14043435920953651 -0.26344956043496021 0 -0.1605334253196628 -0.27705414769848019 0 -0.1460397447830028 -0.28392096720827609 0 -0.14043435920953651 -0.26344956043496021 0 -0.15821309250511281 -0.26118480488572993 0 -0.1605334253196628 -0.27705414769848019 0 -0.14043435920953651 -0.26344956043496021 0 -0.13317406737037779 -0.2802173890703723 0 -0.1259380663168852 -0.26705754103126977 0 -0.14043435920953651 -0.26344956043496021 0 -0.1460397447830028 -0.28392096720827609 0 -0.13317406737037779 -0.2802173890703723 0 -0.14043435920953651 -0.26344956043496021 0 -0.13317406737037779 -0.2802173890703723 0 -0.1259380663168852 -0.26705754103126977 0 -0.121176560474238 -0.27855216134530347 0 -0.14043435920953651 -0.26344956043496021 0 -0.1283361407779757 -0.25159171728621699 0 -0.13482897363606841 -0.24297815366164491 0 -0.14043435920953651 -0.26344956043496021 0 -0.13482897363606841 -0.24297815366164491 0 -0.1259380663168852 -0.26705754103126977 0 -0.14043435920953651 -0.26344956043496021 0 -0.1283361407779757 -0.25159171728621699 0 -0.15821309250511281 -0.26118480488572993 0 -0.13482897363606841 -0.24297815366164491 0 -0.15821309250511281 -0.26118480488572993 0 -0.14043435920953651 -0.26344956043496021 0 -0.13482897363606841 -0.24297815366164491 0 -0.17697510949039719 -0.35596577996135209 0 -0.17519745401808179 -0.33814225560617162 0 -0.1562220225934601 -0.35985472972221177 0 -0.17519745401808179 -0.33814225560617162 0 -0.1532624182972378 -0.33871633494107939 0 -0.1562220225934601 -0.35985472972221177 0 -0.17519745401808179 -0.33814225560617162 0 -0.1562220225934601 -0.35985472972221177 0 -0.1663441030446621 -0.37717300760659073 0 -0.17697510949039719 -0.35596577996135209 0 -0.1562220225934601 -0.35985472972221177 0 -0.1663441030446621 -0.37717300760659073 0 -0.1854961134254472 -0.37120813041460421 0 -0.17697510949039719 -0.35596577996135209 0 -0.19236830561379509 -0.34938181171492771 0 -0.1854961134254472 -0.37120813041460421 0 -0.17697510949039719 -0.35596577996135209 0 -0.17697510949039719 -0.35596577996135209 0 -0.17519745401808179 -0.33814225560617162 0 -0.18622265824693729 -0.34003474470360739 0 -0.19236830561379509 -0.34938181171492771 0 -0.17697510949039719 -0.35596577996135209 0 -0.18622265824693729 -0.34003474470360739 0 -0.19214051361034601 -0.33054181938157612 0 -0.17519745401808179 -0.33814225560617162 0 -0.18622265824693729 -0.34003474470360739 0 -0.19214051361034601 -0.33054181938157612 0 -0.17519745401808179 -0.33814225560617162 0 -0.17075841890319021 -0.32267991232295651 0 -0.19214051361034601 -0.33054181938157612 0 -0.1814567810706762 -0.3106659979112194 0 -0.17075841890319021 -0.32267991232295651 0 -0.1814567810706762 -0.3106659979112194 0 -0.1521471234576928 -0.30622570102712859 0 -0.17075841890319021 -0.32267991232295651 0 -0.1521471234576928 -0.30622570102712859 0 -0.17075841890319021 -0.32267991232295651 0 -0.15536928910057479 -0.31799335959440589 0 -0.17075841890319021 -0.32267991232295651 0 -0.15536928910057479 -0.31799335959440589 0 -0.15041885550205389 -0.32708722206771829 0 -0.17519745401808179 -0.33814225560617162 0 -0.17075841890319021 -0.32267991232295651 0 -0.1532624182972378 -0.33871633494107939 0 -0.17075841890319021 -0.32267991232295651 0 -0.1532624182972378 -0.33871633494107939 0 -0.15041885550205389 -0.32708722206771829 0 -0.1532624182972378 -0.33871633494107939 0 -0.15041885550205389 -0.32708722206771829 0 -0.13403844172661231 -0.33095488736429202 0 -0.15041885550205389 -0.32708722206771829 0 -0.14028103823900179 -0.32077908792264309 0 -0.13403844172661231 -0.33095488736429202 0 -0.15536928910057479 -0.31799335959440589 0 -0.15041885550205389 -0.32708722206771829 0 -0.1481744133336001 -0.31559103279323952 0 -0.1521471234576928 -0.30622570102712859 0 -0.15536928910057479 -0.31799335959440589 0 -0.1481744133336001 -0.31559103279323952 0 -0.15041885550205389 -0.32708722206771829 0 -0.1481744133336001 -0.31559103279323952 0 -0.14028103823900179 -0.32077908792264309 0 -0.13676428411235661 -0.311985534419285 0 -0.1481744133336001 -0.31559103279323952 0 -0.14028103823900179 -0.32077908792264309 0 -0.13676428411235661 -0.311985534419285 0 -0.14028103823900179 -0.32077908792264309 0 -0.12839564496088529 -0.32005881249807028 0 -0.14028103823900179 -0.32077908792264309 0 -0.12839564496088529 -0.32005881249807028 0 -0.13403844172661231 -0.33095488736429202 0 -0.12839564496088529 -0.32005881249807028 0 -0.13403844172661231 -0.33095488736429202 0 -0.1231279148664025 -0.32697127933959502 0 -0.13676428411235661 -0.311985534419285 0 -0.12839564496088529 -0.32005881249807028 0 -0.12202825811921469 -0.30947938976295097 0 -0.13403844172661231 -0.33095488736429202 0 -0.13290241802702499 -0.35265178330474523 0 -0.1166361947753133 -0.33638206822001748 0 -0.1532624182972378 -0.33871633494107939 0 -0.13403844172661231 -0.33095488736429202 0 -0.13290241802702499 -0.35265178330474523 0 -0.1532624182972378 -0.33871633494107939 0 -0.13290241802702499 -0.35265178330474523 0 -0.1562220225934601 -0.35985472972221177 0 -0.13724659116883831 -0.38156720383825199 0 -0.13290241802702499 -0.35265178330474523 0 -0.1562220225934601 -0.35985472972221177 0 -0.13724659116883831 -0.38156720383825199 0 -0.1663441030446621 -0.37717300760659073 0 -0.1562220225934601 -0.35985472972221177 0 -0.13724659116883831 -0.38156720383825199 0 -0.1562220225934601 -0.35985472972221177 0 -0.13724659116883831 -0.38156720383825199 0 -0.13290241802702499 -0.35265178330474523 0 -0.1192781490478088 -0.36668410834504778 0 -0.1192781490478088 -0.36668410834504778 0 -0.1016352808315869 -0.36700177770792092 0 -0.11220573075163159 -0.38220411347121069 0 -0.1192781490478088 -0.36668410834504778 0 -0.1016352808315869 -0.36700177770792092 0 -0.1099844304083452 -0.35257743562026572 0 -0.1016352808315869 -0.36700177770792092 0 -0.091783481537845241 -0.36974840743822202 0 -0.093334558199797538 -0.36412034719781128 0 -0.1016352808315869 -0.36700177770792092 0 -0.094364811557621053 -0.35389299716276579 0 -0.093334558199797538 -0.36412034719781128 0 -0.1016352808315869 -0.36700177770792092 0 -0.091783481537845241 -0.36974840743822202 0 -0.093814789784828018 -0.38091150164421111 0 -0.094364811557621053 -0.35389299716276579 0 -0.1099844304083452 -0.35257743562026572 0 -0.096042697554356071 -0.3397062417384924 0 -0.1016352808315869 -0.36700177770792092 0 -0.094364811557621053 -0.35389299716276579 0 -0.1099844304083452 -0.35257743562026572 0 -0.13290241802702499 -0.35265178330474523 0 -0.1099844304083452 -0.35257743562026572 0 -0.1166361947753133 -0.33638206822001748 0 -0.13290241802702499 -0.35265178330474523 0 -0.1192781490478088 -0.36668410834504778 0 -0.1099844304083452 -0.35257743562026572 0 -0.13403844172661231 -0.33095488736429202 0 -0.1166361947753133 -0.33638206822001748 0 -0.1231279148664025 -0.32697127933959502 0 -0.1166361947753133 -0.33638206822001748 0 -0.1152881905332649 -0.31967160768574748 0 -0.098893476597157901 -0.32632392269665411 0 -0.1166361947753133 -0.33638206822001748 0 -0.1231279148664025 -0.32697127933959502 0 -0.1152881905332649 -0.31967160768574748 0 -0.12839564496088529 -0.32005881249807028 0 -0.1152881905332649 -0.31967160768574748 0 -0.12202825811921469 -0.30947938976295097 0 -0.12839564496088529 -0.32005881249807028 0 -0.1231279148664025 -0.32697127933959502 0 -0.1152881905332649 -0.31967160768574748 0 -0.1152881905332649 -0.31967160768574748 0 -0.11397155121489801 -0.30848478901155318 0 -0.10823649018657309 -0.3106210867482716 0 -0.1152881905332649 -0.31967160768574748 0 -0.12202825811921469 -0.30947938976295097 0 -0.11397155121489801 -0.30848478901155318 0 -0.1152881905332649 -0.31967160768574748 0 -0.098893476597157901 -0.32632392269665411 0 -0.10823649018657309 -0.3106210867482716 0 -0.1166361947753133 -0.33638206822001748 0 -0.098893476597157901 -0.32632392269665411 0 -0.096042697554356071 -0.3397062417384924 0 -0.1099844304083452 -0.35257743562026572 0 -0.1166361947753133 -0.33638206822001748 0 -0.096042697554356071 -0.3397062417384924 0 -0.081273045807338212 -0.32012122354728773 0 -0.072383893537199012 -0.33396092306611819 0 -0.082523744249277803 -0.34494336359321798 0 -0.081273045807338212 -0.32012122354728773 0 -0.082523744249277803 -0.34494336359321798 0 -0.096042697554356071 -0.3397062417384924 0 -0.081273045807338212 -0.32012122354728773 0 -0.082523744249277803 -0.34494336359321798 0 -0.098893476597157901 -0.32632392269665411 0 -0.096042697554356071 -0.3397062417384924 0 -0.081273045807338212 -0.32012122354728773 0 -0.098893476597157901 -0.32632392269665411 0 -0.081273045807338212 -0.32012122354728773 0 -0.088490963390462057 -0.3073149594937738 0 -0.081273045807338212 -0.32012122354728773 0 -0.06349485352407537 -0.31994243130957151 0 -0.072383893537199012 -0.33396092306611819 0 -0.081273045807338212 -0.32012122354728773 0 -0.06349485352407537 -0.31994243130957151 0 -0.071882199735688629 -0.30989172464331072 0 -0.06349485352407537 -0.31994243130957151 0 -0.072383893537199012 -0.33396092306611819 0 -0.062587044379988993 -0.33886333000968721 0 -0.072383893537199012 -0.33396092306611819 0 -0.072040779725314613 -0.34593426687082662 0 -0.082523744249277803 -0.34494336359321798 0 -0.072383893537199012 -0.33396092306611819 0 -0.062587044379988993 -0.33886333000968721 0 -0.072040779725314613 -0.34593426687082662 0 -0.062587044379988993 -0.33886333000968721 0 -0.072040779725314613 -0.34593426687082662 0 -0.05778126825204781 -0.35817517109810632 0 -0.081484465201393491 -0.35485127927681481 0 -0.05778126825204781 -0.35817517109810632 0 -0.072289445743601369 -0.36429171085611578 0 -0.081484465201393491 -0.35485127927681481 0 -0.05778126825204781 -0.35817517109810632 0 -0.072040779725314613 -0.34593426687082662 0 -0.081484465201393491 -0.35485127927681481 0 -0.05778126825204781 -0.35817517109810632 0 -0.066117606829746781 -0.37437488941039382 0 -0.072289445743601369 -0.36429171085611578 0 -0.05778126825204781 -0.35817517109810632 0 -0.066117606829746781 -0.37437488941039382 0 -0.072289445743601369 -0.36429171085611578 0 -0.083774442691217046 -0.36976550363914829 0 -0.072289445743601369 -0.36429171085611578 0 -0.083774442691217046 -0.36976550363914829 0 -0.081484465201393491 -0.35485127927681481 0 -0.085554658872136979 -0.36583820648233678 0 -0.083774442691217046 -0.36976550363914829 0 -0.082523744249277803 -0.34494336359321798 0 -0.085554658872136979 -0.36583820648233678 0 -0.083774442691217046 -0.36976550363914829 0 -0.083774442691217046 -0.36976550363914829 0 -0.091783481537845241 -0.36974840743822202 0 -0.093814789784828018 -0.38091150164421111 0 -0.085554658872136979 -0.36583820648233678 0 -0.083774442691217046 -0.36976550363914829 0 -0.091783481537845241 -0.36974840743822202 0 -0.094364811557621053 -0.35389299716276579 0 -0.085554658872136979 -0.36583820648233678 0 -0.093334558199797538 -0.36412034719781128 0 -0.085554658872136979 -0.36583820648233678 0 -0.091783481537845241 -0.36974840743822202 0 -0.093334558199797538 -0.36412034719781128 0 -0.094364811557621053 -0.35389299716276579 0 -0.085554658872136979 -0.36583820648233678 0 -0.082523744249277803 -0.34494336359321798 0 -0.083774442691217046 -0.36976550363914829 0 -0.082523744249277803 -0.34494336359321798 0 -0.083774442691217046 -0.36976550363914829 0 -0.082523744249277803 -0.34494336359321798 0 -0.081484465201393491 -0.35485127927681481 0 -0.094364811557621053 -0.35389299716276579 0 -0.096042697554356071 -0.3397062417384924 0 -0.082523744249277803 -0.34494336359321798 0 -0.072040779725314613 -0.34593426687082662 0 -0.082523744249277803 -0.34494336359321798 0 -0.081484465201393491 -0.35485127927681481 0 -0.101475907254733 -0.26829823342826459 0 -0.093680051977193257 -0.25300014610948141 0 -0.1025516661405015 -0.24412656761791199 0 -0.1097432552782682 -0.2572086698476283 0 -0.101475907254733 -0.26829823342826459 0 -0.1025516661405015 -0.24412656761791199 0 -0.101475907254733 -0.26829823342826459 0 -0.1025516661405015 -0.24412656761791199 0 -0.101475907254733 -0.26829823342826459 0 -0.092490388530258719 -0.26367462890309928 0 -0.093680051977193257 -0.25300014610948141 0 -0.1097432552782682 -0.2572086698476283 0 -0.11415052326640381 -0.26847741843797612 0 -0.101475907254733 -0.26829823342826459 0 -0.1097432552782682 -0.2572086698476283 0 -0.1183855941197941 -0.25651062511641259 0 -0.1121525856099083 -0.24863050463757599 0 -0.1283361407779757 -0.25159171728621699 0 -0.1183855941197941 -0.25651062511641259 0 -0.11992695639240671 -0.24305274461581289 0 -0.1259380663168852 -0.26705754103126977 0 -0.1183855941197941 -0.25651062511641259 0 -0.11415052326640381 -0.26847741843797612 0 -0.1259380663168852 -0.26705754103126977 0 -0.1283361407779757 -0.25159171728621699 0 -0.1183855941197941 -0.25651062511641259 0 -0.1097432552782682 -0.2572086698476283 0 -0.1183855941197941 -0.25651062511641259 0 -0.11415052326640381 -0.26847741843797612 0 -0.1259380663168852 -0.26705754103126977 0 -0.11415052326640381 -0.26847741843797612 0 -0.121176560474238 -0.27855216134530347 0 -0.11415052326640381 -0.26847741843797612 0 -0.121176560474238 -0.27855216134530347 0 -0.112272911659429 -0.28340806039222649 0 -0.101475907254733 -0.26829823342826459 0 -0.1004001483689636 -0.29246989923861699 0 -0.089806853404465051 -0.2713401455271785 0 -0.101475907254733 -0.26829823342826459 0 -0.1004001483689636 -0.29246989923861699 0 -0.11415052326640381 -0.26847741843797612 0 -0.101475907254733 -0.26829823342826459 0 -0.112272911659429 -0.28340806039222649 0 -0.101475907254733 -0.26829823342826459 0 -0.089806853404465051 -0.2713401455271785 0 -0.092490388530258719 -0.26367462890309928 0 -0.1004001483689636 -0.29246989923861699 0 -0.112272911659429 -0.28340806039222649 0 -0.11289062726590229 -0.30027849754824781 0 -0.101475907254733 -0.26829823342826459 0 -0.1004001483689636 -0.29246989923861699 0 -0.112272911659429 -0.28340806039222649 0 -0.1004001483689636 -0.29246989923861699 0 -0.10013860532164209 -0.29834661679915908 0 -0.1004001483689636 -0.29246989923861699 0 -0.11289062726590229 -0.30027849754824781 0 -0.112272911659429 -0.28340806039222649 0 -0.12354370332633501 -0.29237215235494779 0 -0.11289062726590229 -0.30027849754824781 0 -0.121176560474238 -0.27855216134530347 0 -0.112272911659429 -0.28340806039222649 0 -0.12354370332633501 -0.29237215235494779 0 -0.13137693926794269 -0.30307910049847142 0 -0.11289062726590229 -0.30027849754824781 0 -0.13137693926794269 -0.30307910049847142 0 -0.11289062726590229 -0.30027849754824781 0 -0.12202825811921469 -0.30947938976295097 0 -0.13137693926794269 -0.30307910049847142 0 -0.12354370332633501 -0.29237215235494779 0 -0.11289062726590229 -0.30027849754824781 0 -0.11289062726590229 -0.30027849754824781 0 -0.11397155121489801 -0.30848478901155318 0 -0.10823649018657309 -0.3106210867482716 0 -0.11289062726590229 -0.30027849754824781 0 -0.12202825811921469 -0.30947938976295097 0 -0.11397155121489801 -0.30848478901155318 0 -0.098893476597157901 -0.32632392269665411 0 -0.10013860532164209 -0.29834661679915908 0 -0.098893476597157901 -0.32632392269665411 0 -0.10013860532164209 -0.29834661679915908 0 -0.088490963390462057 -0.3073149594937738 0 -0.098893476597157901 -0.32632392269665411 0 -0.10823649018657309 -0.3106210867482716 0 -0.10013860532164209 -0.29834661679915908 0 -0.11289062726590229 -0.30027849754824781 0 -0.10013860532164209 -0.29834661679915908 0 -0.1004001483689636 -0.29246989923861699 0 -0.11289062726590229 -0.30027849754824781 0 -0.10013860532164209 -0.29834661679915908 0 -0.11289062726590229 -0.30027849754824781 0 -0.10823649018657309 -0.3106210867482716 0 -0.10013860532164209 -0.29834661679915908 0 -0.081273045807338212 -0.32012122354728773 0 -0.075730545320634307 -0.30237183499028841 0 -0.080022347365398816 -0.29529908350135742 0 -0.081273045807338212 -0.32012122354728773 0 -0.088490963390462057 -0.3073149594937738 0 -0.080022347365398816 -0.29529908350135742 0 -0.10013860532164209 -0.29834661679915908 0 -0.088490963390462057 -0.3073149594937738 0 -0.080022347365398816 -0.29529908350135742 0 -0.081273045807338212 -0.32012122354728773 0 -0.080022347365398816 -0.29529908350135742 0 -0.06349485352407537 -0.31994243130957151 0 -0.067929239438661637 -0.29744245220773302 0 -0.06349485352407537 -0.31994243130957151 0 -0.067929239438661637 -0.29744245220773302 0 -0.05709164511789562 -0.30596989755068921 0 -0.081273045807338212 -0.32012122354728773 0 -0.071882199735688629 -0.30989172464331072 0 -0.075730545320634307 -0.30237183499028841 0 -0.06349485352407537 -0.31994243130957151 0 -0.071882199735688629 -0.30989172464331072 0 -0.067929239438661637 -0.29744245220773302 0 -0.067929239438661637 -0.29744245220773302 0 -0.075730545320634307 -0.30237183499028841 0 -0.074800211398343183 -0.29676828128919502 0 -0.071882199735688629 -0.30989172464331072 0 -0.067929239438661637 -0.29744245220773302 0 -0.075730545320634307 -0.30237183499028841 0 -0.075730545320634307 -0.30237183499028841 0 -0.074800211398343183 -0.29676828128919502 0 -0.080022347365398816 -0.29529908350135742 0 -0.067929239438661637 -0.29744245220773302 0 -0.072363625353247057 -0.27494247310589431 0 -0.074800211398343183 -0.29676828128919502 0 -0.075988861669628593 -0.29203098004520328 0 -0.080022347365398816 -0.29529908350135742 0 -0.067929239438661637 -0.29744245220773302 0 -0.063481929201992804 -0.28659419931659808 0 -0.072363625353247057 -0.27494247310589431 0 -0.067929239438661637 -0.29744245220773302 0 -0.075162920182542767 -0.28731555611229459 0 -0.072363625353247057 -0.27494247310589431 0 -0.075988861669628593 -0.29203098004520328 0 -0.075162920182542767 -0.28731555611229459 0 -0.080022347365398816 -0.29529908350135742 0 -0.067929239438661637 -0.29744245220773302 0 -0.075988861669628593 -0.29203098004520328 0 -0.075162920182542767 -0.28731555611229459 0 -0.067929239438661637 -0.29744245220773302 0 -0.074800211398343183 -0.29676828128919502 0 -0.075988861669628593 -0.29203098004520328 0 -0.067929239438661637 -0.29744245220773302 0 -0.063481929201992804 -0.28659419931659808 0 -0.057157199652218327 -0.29433345841048941 0 -0.1004001483689636 -0.29246989923861699 0 -0.079212385277153408 -0.27922407156230239 0 -0.10013860532164209 -0.29834661679915908 0 -0.080022347365398816 -0.29529908350135742 0 -0.075162920182542767 -0.28731555611229459 0 -0.080022347365398816 -0.29529908350135742 0 -0.079212385277153408 -0.27922407156230239 0 -0.1004001483689636 -0.29246989923861699 0 -0.080022347365398816 -0.29529908350135742 0 -0.079212385277153408 -0.27922407156230239 0 -0.1004001483689636 -0.29246989923861699 0 -0.10013860532164209 -0.29834661679915908 0 -0.080022347365398816 -0.29529908350135742 0 -0.080022347365398816 -0.29529908350135742 0 -0.079212385277153408 -0.27922407156230239 0 -0.1004001483689636 -0.29246989923861699 0 -0.089806853404465051 -0.2713401455271785 0 -0.079212385277153408 -0.27922407156230239 0 -0.089806853404465051 -0.2713401455271785 0 -0.084998741484643592 -0.26205999054747281 0 -0.092490388530258719 -0.26367462890309928 0 -0.089806853404465051 -0.2713401455271785 0 -0.078429256909339093 -0.26368161834739218 0 -0.084998741484643592 -0.26205999054747281 0 -0.079212385277153408 -0.27922407156230239 0 -0.078429256909339093 -0.26368161834739218 0 -0.089806853404465051 -0.2713401455271785 0 -0.079212385277153408 -0.27922407156230239 0 -0.078429256909339093 -0.26368161834739218 0 -0.075162920182542767 -0.28731555611229459 0 -0.079212385277153408 -0.27922407156230239 0 -0.072363625353247057 -0.27494247310589431 0 -0.072363625353247057 -0.27494247310589431 0 -0.052651973256824323 -0.26261945695013877 0 -0.072363625353247057 -0.27494247310589431 0 -0.065594040539757301 -0.27326720108960889 0 -0.052651973256824323 -0.26261945695013877 0 -0.079212385277153408 -0.27922407156230239 0 -0.072363625353247057 -0.27494247310589431 0 -0.072363625353247057 -0.27494247310589431 0 -0.065594040539757301 -0.27326720108960889 0 -0.061663959528748452 -0.27997783588547598 0 -0.063481929201992804 -0.28659419931659808 0 -0.072363625353247057 -0.27494247310589431 0 -0.061663959528748452 -0.27997783588547598 0 -0.079212385277153408 -0.27922407156230239 0 -0.072363625353247057 -0.27494247310589431 0 -0.078429256909339093 -0.26368161834739218 0 -0.072363625353247057 -0.27494247310589431 0 -0.077646128541525 -0.24813916513248199 0 -0.072363625353247057 -0.27494247310589431 0 -0.078429256909339093 -0.26368161834739218 0 -0.077646128541525 -0.24813916513248199 0 -0.072363625353247057 -0.27494247310589431 0 -0.052651973256824323 -0.26261945695013877 0 -0.077646128541525 -0.24813916513248199 0 -0.078429256909339093 -0.26368161834739218 0 -0.077646128541525 -0.24813916513248199 0 -0.084998741484643592 -0.26205999054747281 0 -0.088104632666654803 -0.24175912157342011 0 -0.084998741484643592 -0.26205999054747281 0 -0.093680051977193257 -0.25300014610948141 0 -0.088104632666654803 -0.24175912157342011 0 -0.084998741484643592 -0.26205999054747281 0 -0.088104632666654803 -0.24175912157342011 0 -0.077646128541525 -0.24813916513248199 0 -0.078429256909339093 -0.26368161834739218 0 -0.084998741484643592 -0.26205999054747281 0 -0.077646128541525 -0.24813916513248199 0 -0.084998741484643592 -0.26205999054747281 0 -0.092490388530258719 -0.26367462890309928 0 -0.093680051977193257 -0.25300014610948141 0 -0.032940321160402269 -0.25029644079438251 0 -0.052651973256824323 -0.26261945695013877 0 -0.050902643065861071 -0.24349095896983161 0 -0.032940321160402269 -0.25029644079438251 0 -0.052651973256824323 -0.26261945695013877 0 -0.030801127425925001 -0.25680016795848581 0 -0.032940321160402269 -0.25029644079438251 0 -0.052651973256824323 -0.26261945695013877 0 -0.052651973256824323 -0.26261945695013877 0 -0.048838748996681343 -0.27669498093657302 0 -0.030801127425925001 -0.25680016795848581 0 -0.032940321160402269 -0.25029644079438251 0 -0.030801127425925001 -0.25680016795848581 0 -0.052651973256824323 -0.26261945695013877 0 -0.050902643065861071 -0.24349095896983161 0 -0.077646128541525 -0.24813916513248199 0 -0.065594040539757301 -0.27326720108960889 0 -0.048838748996681343 -0.27669498093657302 0 -0.065594040539757301 -0.27326720108960889 0 -0.052651973256824323 -0.26261945695013877 0 -0.048838748996681343 -0.27669498093657302 0 -0.065594040539757301 -0.27326720108960889 0 -0.061663959528748452 -0.27997783588547598 0 -0.048838748996681343 -0.27669498093657302 0 -0.061663959528748452 -0.27997783588547598 0 -0.048838748996681343 -0.27669498093657302 0 -0.054451087829631463 -0.28288517796522222 0 -0.048838748996681343 -0.27669498093657302 0 -0.054451087829631463 -0.28288517796522222 0 -0.048838748996681343 -0.27669498093657302 0 -0.030801127425925001 -0.25680016795848581 0 -0.048838748996681343 -0.27669498093657302 0 -0.02248395618448398 -0.28208661661419232 0 -0.030801127425925001 -0.25680016795848581 0 -0.048838748996681343 -0.27669498093657302 0 -0.02248395618448398 -0.28208661661419232 0 -0.048838748996681343 -0.27669498093657302 0 -0.041077846387481028 -0.28937070966441081 0 -0.02248395618448398 -0.28208661661419232 0 -0.041077846387481028 -0.28937070966441081 0 -0.037109865356421391 -0.29952186761000271 0 -0.029468436869721851 -0.29252598106650862 0 -0.041077846387481028 -0.28937070966441081 0 -0.04975385330497957 -0.2890306135367654 0 -0.047244383658885593 -0.30186874070713182 0 -0.048838748996681343 -0.27669498093657302 0 -0.041077846387481028 -0.28937070966441081 0 -0.04975385330497957 -0.2890306135367654 0 -0.048838748996681343 -0.27669498093657302 0 -0.04975385330497957 -0.2890306135367654 0 -0.054451087829631463 -0.28288517796522222 0 -0.04975385330497957 -0.2890306135367654 0 -0.054451087829631463 -0.28288517796522222 0 -0.057157199652218327 -0.29433345841048941 0 -0.063481929201992804 -0.28659419931659808 0 -0.054451087829631463 -0.28288517796522222 0 -0.057157199652218327 -0.29433345841048941 0 -0.063481929201992804 -0.28659419931659808 0 -0.061663959528748452 -0.27997783588547598 0 -0.054451087829631463 -0.28288517796522222 0 -0.04975385330497957 -0.2890306135367654 0 -0.057157199652218327 -0.29433345841048941 0 -0.047244383658885593 -0.30186874070713182 0 -0.057157199652218327 -0.29433345841048941 0 -0.047244383658885593 -0.30186874070713182 0 -0.05709164511789562 -0.30596989755068921 0 -0.067929239438661637 -0.29744245220773302 0 -0.057157199652218327 -0.29433345841048941 0 -0.05709164511789562 -0.30596989755068921 0 -0.047244383658885593 -0.30186874070713182 0 -0.05709164511789562 -0.30596989755068921 0 -0.049632549315637188 -0.31626240511852 0 -0.047244383658885593 -0.30186874070713182 0 -0.049632549315637188 -0.31626240511852 0 -0.036505516356473318 -0.31400569198040618 0 -0.047244383658885593 -0.30186874070713182 0 -0.037109865356421391 -0.29952186761000271 0 -0.036505516356473318 -0.31400569198040618 0 -0.041077846387481028 -0.28937070966441081 0 -0.047244383658885593 -0.30186874070713182 0 -0.037109865356421391 -0.29952186761000271 0 -0.037109865356421391 -0.29952186761000271 0 -0.02678144107749017 -0.30078470409936309 0 -0.036505516356473318 -0.31400569198040618 0 -0.02678144107749017 -0.30078470409936309 0 -0.021312585502779081 -0.32213078764647213 0 -0.02678144107749017 -0.30078470409936309 0 -0.036505516356473318 -0.31400569198040618 0 -0.021312585502779081 -0.32213078764647213 0 -0.02678144107749017 -0.30078470409936309 0 -0.01630762940426286 -0.3038502133106713 0 -0.021312585502779081 -0.32213078764647213 0 -0.037109865356421391 -0.29952186761000271 0 -0.02678144107749017 -0.30078470409936309 0 -0.029468436869721851 -0.29252598106650862 0 -0.02678144107749017 -0.30078470409936309 0 -0.01630762940426286 -0.3038502133106713 0 -0.01957434403417008 -0.29093262400193609 0 -0.0063780240591087903 -0.31078717533589839 0 -0.0074917523477661804 -0.29461577546968681 0 0.013051880611257029 -0.30817184754300292 0 -0.01630762940426286 -0.3038502133106713 0 -0.0063780240591087903 -0.31078717533589839 0 -0.021312585502779081 -0.32213078764647213 0 -0.01630762940426286 -0.3038502133106713 0 -0.0063780240591087903 -0.31078717533589839 0 -0.0074917523477661804 -0.29461577546968681 0 -0.02248395618448398 -0.28208661661419232 0 0.0027723556212477219 -0.28725352620772771 0 -0.01075429771457371 -0.28163518560512563 0 -0.02248395618448398 -0.28208661661419232 0 0.0027723556212477219 -0.28725352620772771 0 -0.0074917523477661804 -0.29461577546968681 0 -0.02248395618448398 -0.28208661661419232 0 0.0027723556212477219 -0.28725352620772771 0 -0.01630762940426286 -0.3038502133106713 0 -0.0074917523477661804 -0.29461577546968681 0 -0.01957434403417008 -0.29093262400193609 0 -0.01075429771457371 -0.28163518560512563 0 -0.0017476628817073611 -0.27805551369469472 0 0.0027723556212477219 -0.28725352620772771 0 -0.041077846387481028 -0.28937070966441081 0 -0.02248395618448398 -0.28208661661419232 0 -0.029468436869721851 -0.29252598106650862 0 -0.02248395618448398 -0.28208661661419232 0 -0.01957434403417008 -0.29093262400193609 0 -0.0074917523477661804 -0.29461577546968681 0 -0.02248395618448398 -0.28208661661419232 0 -0.01957434403417008 -0.29093262400193609 0 -0.02678144107749017 -0.30078470409936309 0 -0.01957434403417008 -0.29093262400193609 0 -0.029468436869721851 -0.29252598106650862 0 -0.02248395618448398 -0.28208661661419232 0 -0.01957434403417008 -0.29093262400193609 0 -0.029468436869721851 -0.29252598106650862 0 -0.02248395618448398 -0.28208661661419232 0 -0.030801127425925001 -0.25680016795848581 0 -0.02248395618448398 -0.28208661661419232 0 -0.01520552987642871 -0.27187005660595642 0 -0.030801127425925001 -0.25680016795848581 0 -0.01075429771457371 -0.28163518560512563 0 -0.02248395618448398 -0.28208661661419232 0 -0.01520552987642871 -0.27187005660595642 0 -0.0017476628817073611 -0.27805551369469472 0 -0.01024060517545407 -0.26077279915728391 0 0.0057386521092319797 -0.26220041049146298 0 -0.0017476628817073611 -0.27805551369469472 0 -0.01520552987642871 -0.27187005660595642 0 -0.01024060517545407 -0.26077279915728391 0 -0.0017476628817073611 -0.27805551369469472 0 -0.01024060517545407 -0.26077279915728391 0 -0.01075429771457371 -0.28163518560512563 0 -0.0017476628817073611 -0.27805551369469472 0 -0.01520552987642871 -0.27187005660595642 0 -0.01075429771457371 -0.28163518560512563 0 -0.0017476628817073611 -0.27805551369469472 0 -0.01024060517545407 -0.26077279915728391 0 0.0057386521092319797 -0.26220041049146298 0 0.0025328853753160741 -0.24958102673793139 0 -0.01024060517545407 -0.26077279915728391 0 -0.018733547469201091 -0.24349008461987329 0 -0.01024060517545407 -0.26077279915728391 0 -0.018733547469201091 -0.24349008461987329 0 0.0025328853753160741 -0.24958102673793139 0 -0.01024060517545407 -0.26077279915728391 0 -0.030801127425925001 -0.25680016795848581 0 -0.018733547469201091 -0.24349008461987329 0 -0.01520552987642871 -0.27187005660595642 0 -0.01024060517545407 -0.26077279915728391 0 -0.030801127425925001 -0.25680016795848581 0 -0.032940321160402269 -0.25029644079438251 0 -0.030801127425925001 -0.25680016795848581 0 -0.026871719323301121 -0.24650256912316601 0 -0.030801127425925001 -0.25680016795848581 0 -0.018733547469201091 -0.24349008461987329 0 -0.034078071302702163 -0.36149906291939787 0 -0.05778126825204781 -0.35817517109810632 0 -0.044598414929564491 -0.33459332569111688 0 -0.034078071302702163 -0.36149906291939787 0 -0.044598414929564491 -0.33459332569111688 0 -0.02963630761074966 -0.34409655343526241 0 -0.034078071302702163 -0.36149906291939787 0 -0.05778126825204781 -0.35817517109810632 0 -0.034078071302702163 -0.36149906291939787 0 -0.031733352269984409 -0.37630872523495079 0 -0.04671422923235316 -0.37926911911211442 0 -0.034078071302702163 -0.36149906291939787 0 -0.05778126825204781 -0.35817517109810632 0 -0.04671422923235316 -0.37926911911211442 0 -0.066117606829746781 -0.37437488941039382 0 -0.05778126825204781 -0.35817517109810632 0 -0.04671422923235316 -0.37926911911211442 0 -0.062587044379988993 -0.33886333000968721 0 -0.05778126825204781 -0.35817517109810632 0 -0.044598414929564491 -0.33459332569111688 0 -0.06349485352407537 -0.31994243130957151 0 -0.062587044379988993 -0.33886333000968721 0 -0.044598414929564491 -0.33459332569111688 0 -0.06349485352407537 -0.31994243130957151 0 -0.049632549315637188 -0.31626240511852 0 -0.044598414929564491 -0.33459332569111688 0 -0.06349485352407537 -0.31994243130957151 0 -0.05709164511789562 -0.30596989755068921 0 -0.049632549315637188 -0.31626240511852 0 -0.049632549315637188 -0.31626240511852 0 -0.036505516356473318 -0.31400569198040618 0 -0.044598414929564491 -0.33459332569111688 0 -0.036505516356473318 -0.31400569198040618 0 -0.044598414929564491 -0.33459332569111688 0 -0.021312585502779081 -0.32213078764647213 0 -0.044598414929564491 -0.33459332569111688 0 -0.021312585502779081 -0.32213078764647213 0 -0.02963630761074966 -0.34409655343526241 0 -0.015843729928067991 -0.34347687119358122 0 -0.021312585502779081 -0.32213078764647213 0 -0.02963630761074966 -0.34409655343526241 0 -0.015843729928067991 -0.34347687119358122 0 -0.021312585502779081 -0.32213078764647213 0 -0.0063780240591087903 -0.31078717533589839 0 -0.021312585502779081 -0.32213078764647213 0 3.5896068887442723e-05 -0.32803491845883598 0 -0.015843729928067991 -0.34347687119358122 0 -0.00014080085946228561 -0.35082738964002957 0 3.5896068887442723e-05 -0.32803491845883598 0 -0.015843729928067991 -0.34347687119358122 0 -0.021312585502779081 -0.32213078764647213 0 3.5896068887442723e-05 -0.32803491845883598 0 -0.015843729928067991 -0.34347687119358122 0 -0.00014080085946228561 -0.35082738964002957 0 -0.01037487435335663 -0.3648229547406901 0 -0.015843729928067991 -0.34347687119358122 0 -0.01037487435335663 -0.3648229547406901 0 -0.015843729928067991 -0.34347687119358122 0 -0.02275820373048933 -0.35362182208710219 0 -0.02963630761074966 -0.34409655343526241 0 -0.015843729928067991 -0.34347687119358122 0 -0.02275820373048933 -0.35362182208710219 0 -0.01037487435335663 -0.3648229547406901 0 -0.034078071302702163 -0.36149906291939787 0 -0.02275820373048933 -0.35362182208710219 0 -0.02963630761074966 -0.34409655343526241 0 -0.034078071302702163 -0.36149906291939787 0 -0.02215424893162643 -0.37111505202744122 0 -0.01037487435335663 -0.3648229547406901 0 -0.034078071302702163 -0.36149906291939787 0 -0.01037487435335663 -0.3648229547406901 0 -0.034078071302702163 -0.36149906291939787 0 -0.02275820373048933 -0.35362182208710219 0 -0.01037487435335663 -0.3648229547406901 0 -0.034078071302702163 -0.36149906291939787 0 -0.02215424893162643 -0.37111505202744122 0 -0.031733352269984409 -0.37630872523495079 0 -0.02215424893162643 -0.37111505202744122 0 -0.016772253886492949 -0.37410089839641808 0 -0.01404568160319189 -0.3712617873641948 0 -0.01404568160319189 -0.3712617873641948 0 -0.0094265442937821464 -0.37378457166277412 0 -0.01319259440905524 -0.37623554315916408 0 -0.0078283346885702904 -0.37476262999778609 0 -0.0094265442937821464 -0.37378457166277412 0 -0.01037487435335663 -0.3648229547406901 0 -0.02215424893162643 -0.37111505202744122 0 -0.01404568160319189 -0.3712617873641948 0 -0.01037487435335663 -0.3648229547406901 0 -0.01037487435335663 -0.3648229547406901 0 0.0058490520874761691 -0.36709803082098191 0 -0.016772253886492949 -0.37410089839641808 0 -0.01404568160319189 -0.3712617873641948 0 -0.01319259440905524 -0.37623554315916408 0 -0.00014080085946228561 -0.35082738964002957 0 -0.01037487435335663 -0.3648229547406901 0 0.0058490520874761691 -0.36709803082098191 0 -0.0078283346885702904 -0.37476262999778609 0 -0.01037487435335663 -0.3648229547406901 0 0.0058490520874761691 -0.36709803082098191 0 -0.0078283346885702904 -0.37476262999778609 0 -0.01037487435335663 -0.3648229547406901 0 -0.01404568160319189 -0.3712617873641948 0 -0.0094265442937821464 -0.37378457166277412 0 -0.01037487435335663 -0.3648229547406901 0 -0.0078283346885702904 -0.37476262999778609 0 -0.0094265442937821464 -0.37378457166277412 0 -0.0078283346885702904 -0.37476262999778609 0 -0.0023576536845698339 -0.39611583857600319 0 -0.0078283346885702904 -0.37476262999778609 0 -0.011142097151610131 -0.38172381805447092 0 -0.0023576536845698339 -0.39611583857600319 0 -0.011142097151610131 -0.38172381805447092 0 -0.0023576536845698339 -0.39611583857600319 0 -0.01587325479487519 -0.38723674351337972 0 -0.011142097151610131 -0.38172381805447092 0 -0.01610234460482865 -0.37998891207167063 0 -0.01587325479487519 -0.38723674351337972 0 -0.01319259440905524 -0.37623554315916408 0 -0.011142097151610131 -0.38172381805447092 0 -0.01610234460482865 -0.37998891207167063 0 -0.016772253886492949 -0.37410089839641808 0 -0.01319259440905524 -0.37623554315916408 0 -0.01610234460482865 -0.37998891207167063 0 -0.01319259440905524 -0.37623554315916408 0 -0.010397392635754449 -0.37662664071854879 0 -0.011142097151610131 -0.38172381805447092 0 -0.0078283346885702904 -0.37476262999778609 0 -0.010397392635754449 -0.37662664071854879 0 -0.011142097151610131 -0.38172381805447092 0 -0.0094265442937821464 -0.37378457166277412 0 -0.01319259440905524 -0.37623554315916408 0 -0.010397392635754449 -0.37662664071854879 0 -0.0078283346885702904 -0.37476262999778609 0 -0.0094265442937821464 -0.37378457166277412 0 -0.010397392635754449 -0.37662664071854879 0 -0.0023576536845698339 -0.39611583857600319 0 -0.016854849126784088 -0.39742738565483049 0 -0.01587325479487519 -0.38723674351337972 0 -0.0023576536845698339 -0.39611583857600319 0 -0.016854849126784088 -0.39742738565483049 0 -0.0081630895937607941 -0.41129335178386173 0 -0.016854849126784088 -0.39742738565483049 0 -0.023392714889338931 -0.39064901327928331 0 -0.029305467632274609 -0.40049385546170407 0 -0.016854849126784088 -0.39742738565483049 0 -0.023392714889338931 -0.39064901327928331 0 -0.01587325479487519 -0.38723674351337972 0 -0.023392714889338931 -0.39064901327928331 0 -0.029305467632274609 -0.40049385546170407 0 -0.032188689101130562 -0.38901283488088068 0 -0.02215424893162643 -0.37111505202744122 0 -0.016772253886492949 -0.37410089839641808 0 -0.02353152278210973 -0.38064755723492022 0 -0.016772253886492949 -0.37410089839641808 0 -0.01610234460482865 -0.37998891207167063 0 -0.02353152278210973 -0.38064755723492022 0 -0.01610234460482865 -0.37998891207167063 0 -0.01587325479487519 -0.38723674351337972 0 -0.02353152278210973 -0.38064755723492022 0 -0.023392714889338931 -0.39064901327928331 0 -0.01587325479487519 -0.38723674351337972 0 -0.02353152278210973 -0.38064755723492022 0 -0.023392714889338931 -0.39064901327928331 0 -0.02353152278210973 -0.38064755723492022 0 -0.032188689101130562 -0.38901283488088068 0 -0.02353152278210973 -0.38064755723492022 0 -0.031733352269984409 -0.37630872523495079 0 -0.032188689101130562 -0.38901283488088068 0 -0.02215424893162643 -0.37111505202744122 0 -0.02353152278210973 -0.38064755723492022 0 -0.031733352269984409 -0.37630872523495079 0 -0.031733352269984409 -0.37630872523495079 0 -0.04671422923235316 -0.37926911911211442 0 -0.032188689101130562 -0.38901283488088068 0 -0.04671422923235316 -0.37926911911211442 0 -0.032188689101130562 -0.38901283488088068 0 -0.044289202763444772 -0.39135289085216762 0 -0.032188689101130562 -0.38901283488088068 0 -0.041257957344308177 -0.40487627914437913 0 -0.044289202763444772 -0.39135289085216762 0 -0.029305467632274609 -0.40049385546170407 0 -0.032188689101130562 -0.38901283488088068 0 -0.041257957344308177 -0.40487627914437913 0 -0.056230819367541693 -0.39440183914975269 0 -0.051493530029743613 -0.41277891791385168 0 -0.065747409502729032 -0.40953455918739179 0 -0.041257957344308177 -0.40487627914437913 0 -0.056230819367541693 -0.39440183914975269 0 -0.051493530029743613 -0.41277891791385168 0 -0.041257957344308177 -0.40487627914437913 0 -0.044289202763444772 -0.39135289085216762 0 -0.056230819367541693 -0.39440183914975269 0 -0.056230819367541693 -0.39440183914975269 0 -0.065747409502729032 -0.40953455918739179 0 -0.066117606829746781 -0.37437488941039382 0 -0.04671422923235316 -0.37926911911211442 0 -0.056230819367541693 -0.39440183914975269 0 -0.04671422923235316 -0.37926911911211442 0 -0.044289202763444772 -0.39135289085216762 0 -0.056230819367541693 -0.39440183914975269 0 -0.04671422923235316 -0.37926911911211442 0 -0.056230819367541693 -0.39440183914975269 0 -0.057674512383022389 -0.42734400629007657 0 -0.049601615263317987 -0.44515345339276252 0 -0.057674512383022389 -0.42734400629007657 0 -0.051493530029743613 -0.41277891791385168 0 -0.065747409502729032 -0.40953455918739179 0 -0.057674512383022389 -0.42734400629007657 0 -0.065747409502729032 -0.40953455918739179 0 -0.057674512383022389 -0.42734400629007657 0 -0.051493530029743613 -0.41277891791385168 0 -0.03322823219505102 -0.42129041952379648 0 -0.029305467632274609 -0.40049385546170407 0 -0.041257957344308177 -0.40487627914437913 0 -0.03322823219505102 -0.42129041952379648 0 -0.041257957344308177 -0.40487627914437913 0 -0.051493530029743613 -0.41277891791385168 0 -0.03322823219505102 -0.42129041952379648 0 -0.03322823219505102 -0.42129041952379648 0 -0.02439234541253921 -0.43490569650885758 0 -0.049601615263317987 -0.44515345339276252 0 -0.03322823219505102 -0.42129041952379648 0 -0.049601615263317987 -0.44515345339276252 0 -0.057674512383022389 -0.42734400629007657 0 -0.03322823219505102 -0.42129041952379648 0 -0.049601615263317987 -0.44515345339276252 0 -0.03322823219505102 -0.42129041952379648 0 -0.02439234541253921 -0.43490569650885758 0 -0.010818991714530671 -0.42579448288144173 0 -0.016854849126784088 -0.39742738565483049 0 -0.03322823219505102 -0.42129041952379648 0 -0.03322823219505102 -0.42129041952379648 0 -0.0081630895937607941 -0.41129335178386173 0 -0.010818991714530671 -0.42579448288144173 0 -0.016854849126784088 -0.39742738565483049 0 -0.029305467632274609 -0.40049385546170407 0 -0.03322823219505102 -0.42129041952379648 0 -0.016854849126784088 -0.39742738565483049 0 -0.03322823219505102 -0.42129041952379648 0 -0.0081630895937607941 -0.41129335178386173 0 -0.0081630895937607941 -0.41129335178386173 0 -0.010818991714530671 -0.42579448288144173 0 0.0026957591361241309 -0.41958824334712869 0 -0.02439234541253921 -0.43490569650885758 0 -0.010818991714530671 -0.42579448288144173 0 -0.01027783979290609 -0.4450418277695869 0 -0.010818991714530671 -0.42579448288144173 0 -0.01027783979290609 -0.4450418277695869 0 0.003851027954898749 -0.43172418954792041 0 -0.010818991714530671 -0.42579448288144173 0 0.0026957591361241309 -0.41958824334712869 0 0.003851027954898749 -0.43172418954792041 0 -0.01027783979290609 -0.4450418277695869 0 -0.011038280792740629 -0.46258843223684681 0 0.0031349746952128348 -0.45732154608844711 0 -0.01027783979290609 -0.4450418277695869 0 -0.011038280792740629 -0.46258843223684681 0 -0.02289260566061898 -0.45897742689034388 0 -0.011038280792740629 -0.46258843223684681 0 -0.00094907817261298132 -0.47112804672216879 0 0.0031349746952128348 -0.45732154608844711 0 -0.02289260566061898 -0.45897742689034388 0 -0.029356635895327849 -0.44930438287917762 0 -0.040413005672661102 -0.46542425011239508 0 -0.02289260566061898 -0.45897742689034388 0 -0.023377266149459251 -0.47252824145371342 0 -0.040413005672661102 -0.46542425011239508 0 -0.011038280792740629 -0.46258843223684681 0 -0.02289260566061898 -0.45897742689034388 0 -0.023377266149459251 -0.47252824145371342 0 -0.02439234541253921 -0.43490569650885758 0 -0.01027783979290609 -0.4450418277695869 0 -0.029356635895327849 -0.44930438287917762 0 -0.01027783979290609 -0.4450418277695869 0 -0.02289260566061898 -0.45897742689034388 0 -0.029356635895327849 -0.44930438287917762 0 -0.0023310323066341181 -0.5 0 -0.0043793089323552817 -0.49170101865338262 0 -0.02815109917196898 -0.49861636840837392 0 -0.0043793089323552817 -0.49170101865338262 0 -0.0043176495648967151 -0.48070428616945038 0 0.0053352152350804568 -0.4807791696356124 0 -0.0043793089323552817 -0.49170101865338262 0 -0.0106231170010091 -0.48419136288379427 0 -0.0043176495648967151 -0.48070428616945038 0 -0.0043793089323552817 -0.49170101865338262 0 -0.0106231170010091 -0.48419136288379427 0 -0.017950876149337221 -0.4893641285520216 0 -0.0106231170010091 -0.48419136288379427 0 -0.01097195895358667 -0.47572183295229409 0 -0.019957514846631629 -0.48311391022826639 0 -0.0106231170010091 -0.48419136288379427 0 -0.0043176495648967151 -0.48070428616945038 0 -0.01097195895358667 -0.47572183295229409 0 -0.011038280792740629 -0.46258843223684681 0 -0.00094907817261298132 -0.47112804672216879 0 -0.01097195895358667 -0.47572183295229409 0 -0.0043176495648967151 -0.48070428616945038 0 -0.00094907817261298132 -0.47112804672216879 0 -0.01097195895358667 -0.47572183295229409 0 -0.011038280792740629 -0.46258843223684681 0 -0.01097195895358667 -0.47572183295229409 0 -0.023377266149459251 -0.47252824145371342 0 -0.023377266149459251 -0.47252824145371342 0 -0.019957514846631629 -0.48311391022826639 0 -0.031224396082004221 -0.48569504683202769 0 -0.01097195895358667 -0.47572183295229409 0 -0.023377266149459251 -0.47252824145371342 0 -0.019957514846631629 -0.48311391022826639 0 -0.0023310323066341181 -0.5 0 -0.02815109917196898 -0.49861636840837392 0 -0.031360818006208928 -0.5 0 -0.0043793089323552817 -0.49170101865338262 0 -0.017950876149337221 -0.4893641285520216 0 -0.02815109917196898 -0.49861636840837392 0 -0.0043793089323552817 -0.49170101865338262 0 -0.02815109917196898 -0.49861636840837392 0 -0.0106231170010091 -0.48419136288379427 0 -0.019957514846631629 -0.48311391022826639 0 -0.017950876149337221 -0.4893641285520216 0 -0.019957514846631629 -0.48311391022826639 0 -0.017950876149337221 -0.4893641285520216 0 -0.025597474744393309 -0.49118284869574791 0 -0.019957514846631629 -0.48311391022826639 0 -0.031224396082004221 -0.48569504683202769 0 -0.025597474744393309 -0.49118284869574791 0 -0.025597474744393309 -0.49118284869574791 0 -0.02815109917196898 -0.49861636840837392 0 -0.031360818006208928 -0.5 0 -0.031224396082004221 -0.48569504683202769 0 -0.025597474744393309 -0.49118284869574791 0 -0.031360818006208928 -0.5 0 -0.017950876149337221 -0.4893641285520216 0 -0.025597474744393309 -0.49118284869574791 0 -0.02815109917196898 -0.49861636840837392 0 -0.031360818006208928 -0.5 0 -0.048343055904351132 -0.4819359294639956 0 -0.060390603705783863 -0.5 0 -0.031224396082004221 -0.48569504683202769 0 -0.031360818006208928 -0.5 0 -0.048343055904351132 -0.4819359294639956 0 -0.031224396082004221 -0.48569504683202769 0 -0.040413005672661102 -0.46542425011239508 0 -0.031224396082004221 -0.48569504683202769 0 -0.048343055904351132 -0.4819359294639956 0 -0.040413005672661102 -0.46542425011239508 0 -0.023377266149459251 -0.47252824145371342 0 -0.031224396082004221 -0.48569504683202769 0 -0.040413005672661102 -0.46542425011239508 0 -0.048343055904351132 -0.4819359294639956 0 -0.040413005672661102 -0.46542425011239508 0 -0.061868527913120197 -0.46303160055449383 0 -0.048343055904351132 -0.4819359294639956 0 -0.061868527913120197 -0.46303160055449383 0 -0.067715258758524743 -0.48343239441089819 0 -0.048343055904351132 -0.4819359294639956 0 -0.060390603705783863 -0.5 0 -0.067715258758524743 -0.48343239441089819 0 -0.02439234541253921 -0.43490569650885758 0 -0.029356635895327849 -0.44930438287917762 0 -0.049601615263317987 -0.44515345339276252 0 -0.029356635895327849 -0.44930438287917762 0 -0.040413005672661102 -0.46542425011239508 0 -0.049601615263317987 -0.44515345339276252 0 -0.040413005672661102 -0.46542425011239508 0 -0.049601615263317987 -0.44515345339276252 0 -0.040413005672661102 -0.46542425011239508 0 -0.061868527913120197 -0.46303160055449383 0 -0.049601615263317987 -0.44515345339276252 0 -0.061868527913120197 -0.46303160055449383 0 -0.049601615263317987 -0.44515345339276252 0 -0.057674512383022389 -0.42734400629007657 0 -0.049601615263317987 -0.44515345339276252 0 -0.067687044322660692 -0.44438888407200389 0 -0.061868527913120197 -0.46303160055449383 0 -0.049601615263317987 -0.44515345339276252 0 -0.067687044322660692 -0.44438888407200389 0 -0.067687044322660692 -0.44438888407200389 0 -0.087522951364224152 -0.44416074083195012 0 -0.076635180433477057 -0.42684765000967062 0 -0.067687044322660692 -0.44438888407200389 0 -0.078553716864009776 -0.47219444203600192 0 -0.067687044322660692 -0.44438888407200389 0 -0.080483752515153384 -0.45444307226959779 0 -0.078553716864009776 -0.47219444203600192 0 -0.061868527913120197 -0.46303160055449383 0 -0.067687044322660692 -0.44438888407200389 0 -0.078553716864009776 -0.47219444203600192 0 -0.088171297509719124 -0.45702822213843508 0 -0.078553716864009776 -0.47219444203600192 0 -0.094850460920166413 -0.46755552228499719 0 -0.080483752515153384 -0.45444307226959779 0 -0.088171297509719124 -0.45702822213843508 0 -0.078553716864009776 -0.47219444203600192 0 -0.088171297509719124 -0.45702822213843508 0 -0.092026296169145899 -0.451321693988255 0 -0.09646742034415963 -0.45806785732742278 0 -0.088171297509719124 -0.45702822213843508 0 -0.09646742034415963 -0.45806785732742278 0 -0.094850460920166413 -0.46755552228499719 0 -0.067687044322660692 -0.44438888407200389 0 -0.080483752515153384 -0.45444307226959779 0 -0.087522951364224152 -0.44416074083195012 0 -0.088171297509719124 -0.45702822213843508 0 -0.087522951364224152 -0.44416074083195012 0 -0.088171297509719124 -0.45702822213843508 0 -0.092026296169145899 -0.451321693988255 0 -0.087522951364224152 -0.44416074083195012 0 -0.092026296169145899 -0.451321693988255 0 -0.087522951364224152 -0.44416074083195012 0 -0.080483752515153384 -0.45444307226959779 0 -0.088171297509719124 -0.45702822213843508 0 -0.087522951364224152 -0.44416074083195012 0 -0.060390603705783863 -0.5 0 -0.067715258758524743 -0.48343239441089819 0 -0.089420389405358791 -0.49999999999999978 0 -0.061868527913120197 -0.46303160055449383 0 -0.067715258758524743 -0.48343239441089819 0 -0.078553716864009776 -0.47219444203600192 0 -0.078553716864009776 -0.47219444203600192 0 -0.098208235557426499 -0.48290520710575457 0 -0.094850460920166413 -0.46755552228499719 0 -0.067715258758524743 -0.48343239441089819 0 -0.078553716864009776 -0.47219444203600192 0 -0.089420389405358791 -0.49999999999999978 0 -0.078553716864009776 -0.47219444203600192 0 -0.089420389405358791 -0.49999999999999978 0 -0.078553716864009776 -0.47219444203600192 0 -0.089420389405358791 -0.49999999999999978 0 -0.098208235557426499 -0.48290520710575457 0 -0.098208235557426499 -0.48290520710575457 0 -0.1125398430852395 -0.48112820013538338 0 -0.1148616459058424 -0.5 0 -0.089420389405358791 -0.49999999999999978 0 -0.098208235557426499 -0.48290520710575457 0 -0.1148616459058424 -0.5 0 -0.098208235557426499 -0.48290520710575457 0 -0.1051850434628086 -0.47275710198064308 0 -0.1125398430852395 -0.48112820013538338 0 -0.098208235557426499 -0.48290520710575457 0 -0.1051850434628086 -0.47275710198064308 0 -0.094850460920166413 -0.46755552228499719 0 -0.12704973474613379 -0.46277216333596533 0 -0.13010403334985379 -0.48000251283874379 0 -0.1157083509407465 -0.46985326695645979 0 -0.13010403334985379 -0.48000251283874379 0 -0.1157083509407465 -0.46985326695645979 0 -0.1125398430852395 -0.48112820013538338 0 -0.1051850434628086 -0.47275710198064308 0 -0.1157083509407465 -0.46985326695645979 0 -0.1125398430852395 -0.48112820013538338 0 -0.13010403334985379 -0.48000251283874379 0 -0.1125398430852395 -0.48112820013538338 0 -0.1148616459058424 -0.5 0 -0.10267072031130239 -0.4520905348048061 0 -0.102335674083258 -0.43919792399196639 0 -0.11570487117906469 -0.45324354028800051 0 -0.092026296169145899 -0.451321693988255 0 -0.087522951364224152 -0.44416074083195012 0 -0.102335674083258 -0.43919792399196639 0 -0.092026296169145899 -0.451321693988255 0 -0.10267072031130239 -0.4520905348048061 0 -0.102335674083258 -0.43919792399196639 0 -0.10267072031130239 -0.4520905348048061 0 -0.09646742034415963 -0.45806785732742278 0 -0.1046183268104643 -0.46234331342062063 0 -0.092026296169145899 -0.451321693988255 0 -0.10267072031130239 -0.4520905348048061 0 -0.09646742034415963 -0.45806785732742278 0 -0.1051850434628086 -0.47275710198064308 0 -0.094850460920166413 -0.46755552228499719 0 -0.1046183268104643 -0.46234331342062063 0 -0.09646742034415963 -0.45806785732742278 0 -0.094850460920166413 -0.46755552228499719 0 -0.1046183268104643 -0.46234331342062063 0 -0.1051850434628086 -0.47275710198064308 0 -0.1157083509407465 -0.46985326695645979 0 -0.1046183268104643 -0.46234331342062063 0 -0.10267072031130239 -0.4520905348048061 0 -0.1046183268104643 -0.46234331342062063 0 -0.11570487117906469 -0.45324354028800051 0 -0.12704973474613379 -0.46277216333596533 0 -0.1157083509407465 -0.46985326695645979 0 -0.11570487117906469 -0.45324354028800051 0 -0.1157083509407465 -0.46985326695645979 0 -0.1046183268104643 -0.46234331342062063 0 -0.11570487117906469 -0.45324354028800051 0 -0.13093011984253891 -0.44972195681556543 0 -0.12704973474613379 -0.46277216333596533 0 -0.11570487117906469 -0.45324354028800051 0 -0.13093011984253891 -0.44972195681556543 0 -0.11570487117906469 -0.45324354028800051 0 -0.123519809913229 -0.43733662075251151 0 -0.102335674083258 -0.43919792399196639 0 -0.11570487117906469 -0.45324354028800051 0 -0.123519809913229 -0.43733662075251151 0 -0.102335674083258 -0.43919792399196639 0 -0.123519809913229 -0.43733662075251151 0 -0.1073839645685936 -0.41867419567875119 0 -0.12597911368703019 -0.41952469120143437 0 -0.123519809913229 -0.43733662075251151 0 -0.1073839645685936 -0.41867419567875119 0 -0.102335674083258 -0.43919792399196639 0 -0.1073839645685936 -0.41867419567875119 0 -0.086273448473222103 -0.4193623284343494 0 -0.1073839645685936 -0.41867419567875119 0 -0.1004955064841186 -0.39983262220326049 0 -0.086273448473222103 -0.4193623284343494 0 -0.1073839645685936 -0.41867419567875119 0 -0.11827115974421661 -0.40327967795429231 0 -0.1004955064841186 -0.39983262220326049 0 -0.12597911368703019 -0.41952469120143437 0 -0.1073839645685936 -0.41867419567875119 0 -0.11827115974421661 -0.40327967795429231 0 -0.11827115974421661 -0.40327967795429231 0 -0.11220573075163159 -0.38220411347121069 0 -0.1004955064841186 -0.39983262220326049 0 -0.13724659116883831 -0.38156720383825199 0 -0.1192781490478088 -0.36668410834504778 0 -0.11220573075163159 -0.38220411347121069 0 -0.13724659116883831 -0.38156720383825199 0 -0.11827115974421661 -0.40327967795429231 0 -0.11220573075163159 -0.38220411347121069 0 -0.11220573075163159 -0.38220411347121069 0 -0.093814789784828018 -0.38091150164421111 0 -0.1004955064841186 -0.39983262220326049 0 -0.1016352808315869 -0.36700177770792092 0 -0.11220573075163159 -0.38220411347121069 0 -0.093814789784828018 -0.38091150164421111 0 -0.093814789784828018 -0.38091150164421111 0 -0.1004955064841186 -0.39983262220326049 0 -0.085023945582219762 -0.39456391603674879 0 -0.085023945582219762 -0.39456391603674879 0 -0.074760926096971728 -0.38965003141326948 0 -0.077688182017724178 -0.40799169701628579 0 -0.1004955064841186 -0.39983262220326049 0 -0.085023945582219762 -0.39456391603674879 0 -0.086273448473222103 -0.4193623284343494 0 -0.083774442691217046 -0.36976550363914829 0 -0.093814789784828018 -0.38091150164421111 0 -0.085023945582219762 -0.39456391603674879 0 -0.083774442691217046 -0.36976550363914829 0 -0.085023945582219762 -0.39456391603674879 0 -0.074760926096971728 -0.38965003141326948 0 -0.083774442691217046 -0.36976550363914829 0 -0.085023945582219762 -0.39456391603674879 0 -0.083774442691217046 -0.36976550363914829 0 -0.074760926096971728 -0.38965003141326948 0 -0.066117606829746781 -0.37437488941039382 0 -0.083774442691217046 -0.36976550363914829 0 -0.074760926096971728 -0.38965003141326948 0 -0.066117606829746781 -0.37437488941039382 0 -0.056230819367541693 -0.39440183914975269 0 -0.074760926096971728 -0.38965003141326948 0 -0.074760926096971728 -0.38965003141326948 0 -0.065747409502729032 -0.40953455918739179 0 -0.056230819367541693 -0.39440183914975269 0 -0.074760926096971728 -0.38965003141326948 0 -0.065747409502729032 -0.40953455918739179 0 -0.074760926096971728 -0.38965003141326948 0 -0.077688182017724178 -0.40799169701628579 0 -0.065747409502729032 -0.40953455918739179 0 -0.057674512383022389 -0.42734400629007657 0 -0.065747409502729032 -0.40953455918739179 0 -0.076635180433477057 -0.42684765000967062 0 -0.065747409502729032 -0.40953455918739179 0 -0.076635180433477057 -0.42684765000967062 0 -0.077688182017724178 -0.40799169701628579 0 -0.065747409502729032 -0.40953455918739179 0 -0.076635180433477057 -0.42684765000967062 0 -0.057674512383022389 -0.42734400629007657 0 -0.067687044322660692 -0.44438888407200389 0 -0.076635180433477057 -0.42684765000967062 0 -0.087522951364224152 -0.44416074083195012 0 -0.102335674083258 -0.43919792399196639 0 -0.086273448473222103 -0.4193623284343494 0 -0.087522951364224152 -0.44416074083195012 0 -0.076635180433477057 -0.42684765000967062 0 -0.087522951364224152 -0.44416074083195012 0 -0.086273448473222103 -0.4193623284343494 0 -0.087522951364224152 -0.44416074083195012 0 -0.076635180433477057 -0.42684765000967062 0 -0.086273448473222103 -0.4193623284343494 0 -0.077688182017724178 -0.40799169701628579 0 -0.076635180433477057 -0.42684765000967062 0 -0.086273448473222103 -0.4193623284343494 0 -0.085023945582219762 -0.39456391603674879 0 -0.086273448473222103 -0.4193623284343494 0 -0.085023945582219762 -0.39456391603674879 0 -0.077688182017724178 -0.40799169701628579 0 -0.086273448473222103 -0.4193623284343494 0 -0.088492877882569029 -0.082108210476901852 0 -0.076927128592812144 -0.088910799915979499 0 -0.09750588448509391 -0.094492999713411269 0 -0.088492877882569029 -0.082108210476901852 0 -0.079577064860946206 -0.073577453582062496 0 -0.076927128592812144 -0.088910799915979499 0 -0.079577064860946206 -0.073577453582062496 0 -0.0985919344824224 -0.072778756797164931 0 -0.087769009107716192 -0.046193724725750278 0 -0.088492877882569029 -0.082108210476901852 0 -0.079577064860946206 -0.073577453582062496 0 -0.0985919344824224 -0.072778756797164931 0 -0.079577064860946206 -0.073577453582062496 0 -0.068797467898171552 -0.064113028811232264 0 -0.064240921843242857 -0.078969573753286809 0 -0.068797467898171552 -0.064113028811232264 0 -0.064240921843242857 -0.078969573753286809 0 -0.05461803829180413 -0.069755112608578862 0 -0.064240921843242857 -0.078969573753286809 0 -0.065719917437320752 -0.085301382988547655 0 -0.071622236241637716 -0.082994103557465768 0 -0.079577064860946206 -0.073577453582062496 0 -0.064240921843242857 -0.078969573753286809 0 -0.071622236241637716 -0.082994103557465768 0 -0.079577064860946206 -0.073577453582062496 0 -0.071622236241637716 -0.082994103557465768 0 -0.076927128592812144 -0.088910799915979499 0 -0.076927128592812144 -0.088910799915979499 0 -0.070013937980536456 -0.090181036700446429 0 -0.073360588416105155 -0.101926594449817 0 -0.071622236241637716 -0.082994103557465768 0 -0.076927128592812144 -0.088910799915979499 0 -0.070013937980536456 -0.090181036700446429 0 -0.065719917437320752 -0.085301382988547655 0 -0.070013937980536456 -0.090181036700446429 0 -0.057002573683865979 -0.089060817942991616 0 -0.065719917437320752 -0.085301382988547655 0 -0.071622236241637716 -0.082994103557465768 0 -0.070013937980536456 -0.090181036700446429 0 -0.073360588416105155 -0.101926594449817 0 -0.064648045787775776 -0.1114736180136202 0 -0.083029262804162729 -0.11173362360677321 0 -0.076927128592812144 -0.088910799915979499 0 -0.073360588416105155 -0.101926594449817 0 -0.083029262804162729 -0.11173362360677321 0 -0.070013937980536456 -0.090181036700446429 0 -0.064167586873575405 -0.098824988458513688 0 -0.073360588416105155 -0.101926594449817 0 -0.064167586873575405 -0.098824988458513688 0 -0.073360588416105155 -0.101926594449817 0 -0.064648045787775776 -0.1114736180136202 0 -0.064648045787775776 -0.1114736180136202 0 -0.083029262804162729 -0.11173362360677321 0 -0.072915517223638954 -0.12670463451369329 0 -0.064648045787775776 -0.1114736180136202 0 -0.060928146748241367 -0.123537549367131 0 -0.072915517223638954 -0.12670463451369329 0 -0.083029262804162729 -0.11173362360677321 0 -0.089131397015513494 -0.13455644729756691 0 -0.072915517223638954 -0.12670463451369329 0 -0.083029262804162729 -0.11173362360677321 0 -0.089131397015513494 -0.13455644729756691 0 -0.083029262804162729 -0.11173362360677321 0 -0.099989791654964619 -0.11261170107408 0 -0.089131397015513494 -0.13455644729756691 0 -0.076927128592812144 -0.088910799915979499 0 -0.083029262804162729 -0.11173362360677321 0 -0.076927128592812144 -0.088910799915979499 0 -0.083029262804162729 -0.11173362360677321 0 -0.09750588448509391 -0.094492999713411269 0 -0.083029262804162729 -0.11173362360677321 0 -0.09750588448509391 -0.094492999713411269 0 -0.099989791654964619 -0.11261170107408 0 -0.09750588448509391 -0.094492999713411269 0 -0.099989791654964619 -0.11261170107408 0 -0.11605893441195141 -0.10185107539240761 0 -0.099989791654964619 -0.11261170107408 0 -0.11422347955810171 -0.1204243593602408 0 -0.089131397015513494 -0.13455644729756691 0 -0.11422347955810171 -0.1204243593602408 0 -0.11605893441195141 -0.10185107539240761 0 -0.13931556210068971 -0.10629227142291391 0 -0.099989791654964619 -0.11261170107408 0 -0.11422347955810171 -0.1204243593602408 0 -0.11605893441195141 -0.10185107539240761 0 -0.09750588448509391 -0.094492999713411269 0 -0.11605893441195141 -0.10185107539240761 0 -0.121811479392537 -0.084095963505499416 0 -0.09750588448509391 -0.094492999713411269 0 -0.121811479392537 -0.084095963505499416 0 -0.0985919344824224 -0.072778756797164931 0 -0.088492877882569029 -0.082108210476901852 0 -0.09750588448509391 -0.094492999713411269 0 -0.0985919344824224 -0.072778756797164931 0 -0.121811479392537 -0.084095963505499416 0 -0.0985919344824224 -0.072778756797164931 0 -0.12197003300458489 -0.067133964797042034 0 -0.0985919344824224 -0.072778756797164931 0 -0.12197003300458489 -0.067133964797042034 0 -0.11173313641422659 -0.051099137712197359 0 -0.12197003300458489 -0.067133964797042034 0 -0.11173313641422659 -0.051099137712197359 0 -0.13241258759658719 -0.044529255409706578 0 -0.11719553878173181 -0.037741673539740471 0 -0.12411398995058071 -0.026208981462584841 0 -0.13241258759658719 -0.044529255409706578 0 -0.11173313641422659 -0.051099137712197359 0 -0.11719553878173181 -0.037741673539740471 0 -0.13241258759658719 -0.044529255409706578 0 -0.11719553878173181 -0.037741673539740471 0 -0.1033935341420949 -0.036608907929656417 0 -0.1118019010511415 -0.027957019938586129 0 -0.11173313641422659 -0.051099137712197359 0 -0.11719553878173181 -0.037741673539740471 0 -0.1033935341420949 -0.036608907929656417 0 -0.11173313641422659 -0.051099137712197359 0 -0.1033935341420949 -0.036608907929656417 0 -0.087769009107716192 -0.046193724725750278 0 -0.1033935341420949 -0.036608907929656417 0 -0.091700817231413184 -0.028161456197506499 0 -0.087769009107716192 -0.046193724725750278 0 -0.0985919344824224 -0.072778756797164931 0 -0.11173313641422659 -0.051099137712197359 0 -0.087769009107716192 -0.046193724725750278 0 -0.1152652699767374 -0.0044733142422073097 0 -0.1278640484455188 -0.012334690821253821 0 -0.1273771369441013 0.0023450629401116992 0 -0.1152652699767374 -0.0044733142422073097 0 -0.11303603589243651 -0.016818202060669259 0 -0.1278640484455188 -0.012334690821253821 0 -0.1152652699767374 -0.0044733142422073097 0 -0.11303603589243651 -0.016818202060669259 0 -0.1012139958851531 -0.0082010901258140791 0 -0.11303603589243651 -0.016818202060669259 0 -0.12411398995058071 -0.026208981462584841 0 -0.1278640484455188 -0.012334690821253821 0 -0.11719553878173181 -0.037741673539740471 0 -0.12411398995058071 -0.026208981462584841 0 -0.1118019010511415 -0.027957019938586129 0 -0.11303603589243651 -0.016818202060669259 0 -0.12411398995058071 -0.026208981462584841 0 -0.1118019010511415 -0.027957019938586129 0 -0.1033935341420949 -0.036608907929656417 0 -0.1118019010511415 -0.027957019938586129 0 -0.10074487633177411 -0.021927112774035699 0 -0.1033935341420949 -0.036608907929656417 0 -0.10074487633177411 -0.021927112774035699 0 -0.091700817231413184 -0.028161456197506499 0 -0.10074487633177411 -0.021927112774035699 0 -0.089359217900845153 -0.01537750648633354 0 -0.091700817231413184 -0.028161456197506499 0 -0.11303603589243651 -0.016818202060669259 0 -0.10074487633177411 -0.021927112774035699 0 -0.1012139958851531 -0.0082010901258140791 0 -0.11303603589243651 -0.016818202060669259 0 -0.1118019010511415 -0.027957019938586129 0 -0.10074487633177411 -0.021927112774035699 0 -0.10074487633177411 -0.021927112774035699 0 -0.1012139958851531 -0.0082010901258140791 0 -0.089359217900845153 -0.01537750648633354 0 -0.1012139958851531 -0.0082010901258140791 0 -0.089124004628701792 -0.0040277377021705899 0 -0.097507665945787692 0.0040820149966005574 0 -0.1012139958851531 -0.0082010901258140791 0 -0.097507665945787692 0.0040820149966005574 0 -0.1058521268010089 0.00073384547527136773 0 -0.1152652699767374 -0.0044733142422073097 0 -0.1012139958851531 -0.0082010901258140791 0 -0.1058521268010089 0.00073384547527136773 0 -0.079764572027605563 -0.001208843295517239 0 -0.089124004628701792 -0.0040277377021705899 0 -0.080379206648835008 -0.009775819102595687 0 -0.089124004628701792 -0.0040277377021705899 0 -0.089359217900845153 -0.01537750648633354 0 -0.080379206648835008 -0.009775819102595687 0 -0.1012139958851531 -0.0082010901258140791 0 -0.089124004628701792 -0.0040277377021705899 0 -0.089359217900845153 -0.01537750648633354 0 -0.089359217900845153 -0.01537750648633354 0 -0.080379206648835008 -0.009775819102595687 0 -0.076946083733010012 -0.019608692654335649 0 -0.089359217900845153 -0.01537750648633354 0 -0.091700817231413184 -0.028161456197506499 0 -0.076946083733010012 -0.019608692654335649 0 -0.066439508831189667 -0.02875513821822643 0 -0.076946083733010012 -0.019608692654335649 0 -0.073396792324475907 -0.036549185213838799 0 -0.066439508831189667 -0.02875513821822643 0 -0.068530762808199294 -0.019938962024248611 0 -0.056338296441182101 -0.027044179732367449 0 -0.066439508831189667 -0.02875513821822643 0 -0.068530762808199294 -0.019938962024248611 0 -0.076946083733010012 -0.019608692654335649 0 -0.080379206648835008 -0.009775819102595687 0 -0.076946083733010012 -0.019608692654335649 0 -0.066123158358303874 0.0069763394170788487 0 -0.079764572027605563 -0.001208843295517239 0 -0.080379206648835008 -0.009775819102595687 0 -0.066123158358303874 0.0069763394170788487 0 -0.076946083733010012 -0.019608692654335649 0 -0.059664616745900671 -0.0040500510012267867 0 -0.066123158358303874 0.0069763394170788487 0 -0.068530762808199294 -0.019938962024248611 0 -0.059664616745900671 -0.0040500510012267867 0 -0.068530762808199294 -0.019938962024248611 0 -0.076946083733010012 -0.019608692654335649 0 -0.059664616745900671 -0.0040500510012267867 0 -0.076946083733010012 -0.019608692654335649 0 -0.066123158358303874 0.0069763394170788487 0 -0.079577064860946206 -0.073577453582062496 0 -0.068797467898171552 -0.064113028811232264 0 -0.087769009107716192 -0.046193724725750278 0 -0.0985919344824224 -0.072778756797164931 0 -0.087769009107716192 -0.046193724725750278 0 -0.076946083733010012 -0.019608692654335649 0 -0.087769009107716192 -0.046193724725750278 0 -0.073396792324475907 -0.036549185213838799 0 -0.091700817231413184 -0.028161456197506499 0 -0.076946083733010012 -0.019608692654335649 0 -0.087769009107716192 -0.046193724725750278 0 -0.076946083733010012 -0.019608692654335649 0 -0.087769009107716192 -0.046193724725750278 0 -0.073396792324475907 -0.036549185213838799 0 -0.062271996897588083 -0.052791321925605532 0 -0.056985608849081007 -0.04063467146634165 0 -0.087769009107716192 -0.046193724725750278 0 -0.073396792324475907 -0.036549185213838799 0 -0.062271996897588083 -0.052791321925605532 0 -0.066439508831189667 -0.02875513821822643 0 -0.073396792324475907 -0.036549185213838799 0 -0.056985608849081007 -0.04063467146634165 0 -0.068797467898171552 -0.064113028811232264 0 -0.087769009107716192 -0.046193724725750278 0 -0.062271996897588083 -0.052791321925605532 0 -0.050876123791686781 -0.0557005837010279 0 -0.062271996897588083 -0.052791321925605532 0 -0.05461803829180413 -0.069755112608578862 0 -0.068797467898171552 -0.064113028811232264 0 -0.062271996897588083 -0.052791321925605532 0 -0.05461803829180413 -0.069755112608578862 0 -0.050876123791686781 -0.0557005837010279 0 -0.04125611079489349 -0.061033813963863537 0 -0.05461803829180413 -0.069755112608578862 0 -0.050876123791686781 -0.0557005837010279 0 -0.056985608849081007 -0.04063467146634165 0 -0.043217803893324663 -0.046983348469378128 0 -0.050876123791686781 -0.0557005837010279 0 -0.062271996897588083 -0.052791321925605532 0 -0.056985608849081007 -0.04063467146634165 0 -0.066439508831189667 -0.02875513821822643 0 -0.056985608849081007 -0.04063467146634165 0 -0.056338296441182101 -0.027044179732367449 0 -0.056985608849081007 -0.04063467146634165 0 -0.048013312662868769 -0.034084565957593307 0 -0.056338296441182101 -0.027044179732367449 0 -0.056985608849081007 -0.04063467146634165 0 -0.048013312662868769 -0.034084565957593307 0 -0.043217803893324663 -0.046983348469378128 0 -0.034747022969916552 -0.036023397885302497 0 -0.03178279228815796 -0.053256275703554248 0 -0.043217803893324663 -0.046983348469378128 0 -0.048013312662868769 -0.034084565957593307 0 -0.034747022969916552 -0.036023397885302497 0 -0.043217803893324663 -0.046983348469378128 0 -0.03178279228815796 -0.053256275703554248 0 -0.04125611079489349 -0.061033813963863537 0 -0.027189616291661511 -0.068956488044421491 0 -0.03178279228815796 -0.053256275703554248 0 -0.04125611079489349 -0.061033813963863537 0 -0.043217803893324663 -0.046983348469378128 0 -0.050876123791686781 -0.0557005837010279 0 -0.04125611079489349 -0.061033813963863537 0 -0.043217803893324663 -0.046983348469378128 0 -0.068530762808199294 -0.019938962024248611 0 -0.059664616745900671 -0.0040500510012267867 0 -0.057625718948113309 -0.01560592069947127 0 -0.047617207273071643 -0.0035118018543059538 0 -0.059664616745900671 -0.0040500510012267867 0 -0.057625718948113309 -0.01560592069947127 0 -0.047617207273071643 -0.0035118018543059538 0 -0.057625718948113309 -0.01560592069947127 0 -0.044435943862541481 -0.018862463730406901 0 -0.057625718948113309 -0.01560592069947127 0 -0.056338296441182101 -0.027044179732367449 0 -0.044435943862541481 -0.018862463730406901 0 -0.068530762808199294 -0.019938962024248611 0 -0.057625718948113309 -0.01560592069947127 0 -0.056338296441182101 -0.027044179732367449 0 -0.048013312662868769 -0.034084565957593307 0 -0.056338296441182101 -0.027044179732367449 0 -0.044435943862541481 -0.018862463730406901 0 -0.048013312662868769 -0.034084565957593307 0 -0.034747022969916552 -0.036023397885302497 0 -0.044435943862541481 -0.018862463730406901 0 -0.034747022969916552 -0.036023397885302497 0 -0.044435943862541481 -0.018862463730406901 0 -0.029096019340949839 -0.020089153358083849 0 -0.044435943862541481 -0.018862463730406901 0 -0.037331614038931003 -0.0090830911405071785 0 -0.029096019340949839 -0.020089153358083849 0 -0.047617207273071643 -0.0035118018543059538 0 -0.044435943862541481 -0.018862463730406901 0 -0.037331614038931003 -0.0090830911405071785 0 -0.047617207273071643 -0.0035118018543059538 0 -0.044435943862541481 -0.018862463730406901 0 -0.037331614038931003 -0.0090830911405071785 0 -0.025670282478897081 -0.0054027298625421993 0 -0.03671052455766443 0.0037031618858211421 0 -0.047617207273071643 -0.0035118018543059538 0 -0.037331614038931003 -0.0090830911405071785 0 -0.03671052455766443 0.0037031618858211421 0 -0.025670282478897081 -0.0054027298625421993 0 -0.029096019340949839 -0.020089153358083849 0 -0.01201491237982177 -0.012697106039732861 0 -0.025670282478897081 -0.0054027298625421993 0 -0.01201491237982177 -0.012697106039732861 0 -0.010105069976996849 0.0023765649732562961 0 -0.037331614038931003 -0.0090830911405071785 0 -0.025670282478897081 -0.0054027298625421993 0 -0.029096019340949839 -0.020089153358083849 0 -0.034747022969916552 -0.036023397885302497 0 -0.029096019340949839 -0.020089153358083849 0 -0.01621539074153976 -0.030149579770640821 0 -0.029096019340949839 -0.020089153358083849 0 -0.01621539074153976 -0.030149579770640821 0 -0.01201491237982177 -0.012697106039732861 0 -0.01621539074153976 -0.030149579770640821 0 0.0026421611525163911 -0.019923693291100199 0 0.001114662024295677 -0.034644724797188199 0 -0.01621539074153976 -0.030149579770640821 0 -0.01201491237982177 -0.012697106039732861 0 0.0026421611525163911 -0.019923693291100199 0 -0.01201491237982177 -0.012697106039732861 0 0.0047038114401232534 -0.001040937293712483 0 0.0026421611525163911 -0.019923693291100199 0 -0.01201491237982177 -0.012697106039732861 0 -0.010105069976996849 0.0023765649732562961 0 0.0047038114401232534 -0.001040937293712483 0 -0.03178279228815796 -0.053256275703554248 0 -0.015718878272565229 -0.058792224196781109 0 -0.02130541942185268 -0.044498810144407437 0 -0.03178279228815796 -0.053256275703554248 0 -0.015718878272565229 -0.058792224196781109 0 -0.027189616291661511 -0.068956488044421491 0 -0.034747022969916552 -0.036023397885302497 0 -0.01621539074153976 -0.030149579770640821 0 -0.02130541942185268 -0.044498810144407437 0 -0.034747022969916552 -0.036023397885302497 0 -0.03178279228815796 -0.053256275703554248 0 -0.02130541942185268 -0.044498810144407437 0 -0.01621539074153976 -0.030149579770640821 0 -0.0092606153764647689 -0.044492254616565037 0 0.001114662024295677 -0.034644724797188199 0 -0.0092606153764647689 -0.044492254616565037 0 0.001114662024295677 -0.034644724797188199 0 0.003426744450576454 -0.054815297075420773 0 -0.01621539074153976 -0.030149579770640821 0 -0.02130541942185268 -0.044498810144407437 0 -0.0092606153764647689 -0.044492254616565037 0 -0.015718878272565229 -0.058792224196781109 0 -0.0092606153764647689 -0.044492254616565037 0 0.003426744450576454 -0.054815297075420773 0 -0.015718878272565229 -0.058792224196781109 0 -0.0072319765520409062 -0.068818796064575097 0 0.003426744450576454 -0.054815297075420773 0 -0.015718878272565229 -0.058792224196781109 0 -0.02130541942185268 -0.044498810144407437 0 -0.0092606153764647689 -0.044492254616565037 0 -0.0072319765520409062 -0.068818796064575097 0 -0.0056293594721457006 -0.082036805430144924 0 0.0054575408194632406 -0.073720759659108445 0 -0.0072319765520409062 -0.068818796064575097 0 -0.016531268938654212 -0.068489504758274394 0 -0.015984604638349179 -0.077390510727319894 0 -0.0072319765520409062 -0.068818796064575097 0 -0.0056293594721457006 -0.082036805430144924 0 -0.015984604638349179 -0.077390510727319894 0 -0.015718878272565229 -0.058792224196781109 0 -0.0072319765520409062 -0.068818796064575097 0 -0.016531268938654212 -0.068489504758274394 0 -0.0075898384642912086 -0.092772169897659226 0 -0.0056293594721457006 -0.082036805430144924 0 0.0072012692200917657 -0.09144049599341271 0 -0.0056293594721457006 -0.082036805430144924 0 -0.01562854721774792 -0.088078100238794171 0 -0.015984604638349179 -0.077390510727319894 0 -0.0075898384642912086 -0.092772169897659226 0 -0.0056293594721457006 -0.082036805430144924 0 -0.01562854721774792 -0.088078100238794171 0 -0.0075898384642912086 -0.092772169897659226 0 -0.01562854721774792 -0.088078100238794171 0 -0.015839401072447711 -0.097831294581907868 0 -0.01562854721774792 -0.088078100238794171 0 -0.02305577581672685 -0.083163458542690943 0 -0.024670005891415589 -0.092262667611894875 0 -0.01562854721774792 -0.088078100238794171 0 -0.024670005891415589 -0.092262667611894875 0 -0.015839401072447711 -0.097831294581907868 0 -0.01562854721774792 -0.088078100238794171 0 -0.02305577581672685 -0.083163458542690943 0 -0.015984604638349179 -0.077390510727319894 0 -0.02305577581672685 -0.083163458542690943 0 -0.024670005891415589 -0.092262667611894875 0 -0.031754510724464793 -0.081253108138323094 0 -0.024670005891415589 -0.092262667611894875 0 -0.031754510724464793 -0.081253108138323094 0 -0.03344051123233422 -0.092098432850847969 0 -0.015718878272565229 -0.058792224196781109 0 -0.016531268938654212 -0.068489504758274394 0 -0.027189616291661511 -0.068956488044421491 0 -0.016531268938654212 -0.068489504758274394 0 -0.015984604638349179 -0.077390510727319894 0 -0.027189616291661511 -0.068956488044421491 0 -0.02305577581672685 -0.083163458542690943 0 -0.015984604638349179 -0.077390510727319894 0 -0.027189616291661511 -0.068956488044421491 0 -0.02305577581672685 -0.083163458542690943 0 -0.027189616291661511 -0.068956488044421491 0 -0.031754510724464793 -0.081253108138323094 0 -0.04125611079489349 -0.061033813963863537 0 -0.027189616291661511 -0.068956488044421491 0 -0.04053175759116228 -0.071452392996033218 0 -0.04125611079489349 -0.061033813963863537 0 -0.04053175759116228 -0.071452392996033218 0 -0.05461803829180413 -0.069755112608578862 0 -0.04053175759116228 -0.071452392996033218 0 -0.04331800788480706 -0.080321541169751709 0 -0.05461803829180413 -0.069755112608578862 0 -0.027189616291661511 -0.068956488044421491 0 -0.04053175759116228 -0.071452392996033218 0 -0.031754510724464793 -0.081253108138323094 0 -0.04053175759116228 -0.071452392996033218 0 -0.031754510724464793 -0.081253108138323094 0 -0.04331800788480706 -0.080321541169751709 0 -0.031754510724464793 -0.081253108138323094 0 -0.037920360895102763 -0.086728863392239786 0 -0.04331800788480706 -0.080321541169751709 0 -0.031754510724464793 -0.081253108138323094 0 -0.03344051123233422 -0.092098432850847969 0 -0.037920360895102763 -0.086728863392239786 0 -0.03344051123233422 -0.092098432850847969 0 -0.037920360895102763 -0.086728863392239786 0 -0.039477100495342581 -0.093081883261144749 0 -0.043535591074226332 -0.088659540190963698 0 -0.052607434978589038 -0.084605160310905272 0 -0.044151246104392423 -0.095288874830203096 0 -0.039477100495342581 -0.093081883261144749 0 -0.043535591074226332 -0.088659540190963698 0 -0.044151246104392423 -0.095288874830203096 0 -0.037920360895102763 -0.086728863392239786 0 -0.039477100495342581 -0.093081883261144749 0 -0.043535591074226332 -0.088659540190963698 0 -0.043535591074226332 -0.088659540190963698 0 -0.044151246104392423 -0.095288874830203096 0 -0.037920360895102763 -0.086728863392239786 0 -0.043535591074226332 -0.088659540190963698 0 -0.04331800788480706 -0.080321541169751709 0 -0.043535591074226332 -0.088659540190963698 0 -0.04331800788480706 -0.080321541169751709 0 -0.052607434978589038 -0.084605160310905272 0 -0.04331800788480706 -0.080321541169751709 0 -0.052607434978589038 -0.084605160310905272 0 -0.05461803829180413 -0.069755112608578862 0 -0.070013937980536456 -0.090181036700446429 0 -0.057002573683865979 -0.089060817942991616 0 -0.04460455598339258 -0.10017008709341529 0 -0.052607434978589038 -0.084605160310905272 0 -0.044151246104392423 -0.095288874830203096 0 -0.052607434978589038 -0.084605160310905272 0 -0.057002573683865979 -0.089060817942991616 0 -0.044151246104392423 -0.095288874830203096 0 -0.064240921843242857 -0.078969573753286809 0 -0.065719917437320752 -0.085301382988547655 0 -0.057002573683865979 -0.089060817942991616 0 -0.064240921843242857 -0.078969573753286809 0 -0.052607434978589038 -0.084605160310905272 0 -0.057002573683865979 -0.089060817942991616 0 -0.064240921843242857 -0.078969573753286809 0 -0.052607434978589038 -0.084605160310905272 0 -0.05461803829180413 -0.069755112608578862 0 -0.064648045787775776 -0.1114736180136202 0 -0.054889055151619223 -0.1064960745062641 0 -0.046573596299020338 -0.1213725893565638 0 -0.064648045787775776 -0.1114736180136202 0 -0.060928146748241367 -0.123537549367131 0 -0.046573596299020338 -0.1213725893565638 0 -0.064167586873575405 -0.098824988458513688 0 -0.054889055151619223 -0.1064960745062641 0 -0.04460455598339258 -0.10017008709341529 0 -0.054889055151619223 -0.1064960745062641 0 -0.04460455598339258 -0.10017008709341529 0 -0.046573596299020338 -0.1213725893565638 0 -0.070013937980536456 -0.090181036700446429 0 -0.04460455598339258 -0.10017008709341529 0 -0.070013937980536456 -0.090181036700446429 0 -0.064167586873575405 -0.098824988458513688 0 -0.04460455598339258 -0.10017008709341529 0 -0.064167586873575405 -0.098824988458513688 0 -0.064648045787775776 -0.1114736180136202 0 -0.054889055151619223 -0.1064960745062641 0 -0.057002573683865979 -0.089060817942991616 0 -0.044151246104392423 -0.095288874830203096 0 -0.04460455598339258 -0.10017008709341529 0 -0.04460455598339258 -0.10017008709341529 0 -0.038337793170655582 -0.1026337050414691 0 -0.046573596299020338 -0.1213725893565638 0 -0.039477100495342581 -0.093081883261144749 0 -0.044151246104392423 -0.095288874830203096 0 -0.038337793170655582 -0.1026337050414691 0 -0.044151246104392423 -0.095288874830203096 0 -0.04460455598339258 -0.10017008709341529 0 -0.044151246104392423 -0.095288874830203096 0 -0.038337793170655582 -0.1026337050414691 0 -0.04460455598339258 -0.10017008709341529 0 -0.038337793170655582 -0.1026337050414691 0 -0.044151246104392423 -0.095288874830203096 0 -0.04460455598339258 -0.10017008709341529 0 -0.038337793170655582 -0.1026337050414691 0 -0.03344051123233422 -0.092098432850847969 0 -0.039477100495342581 -0.093081883261144749 0 -0.038337793170655582 -0.1026337050414691 0 -0.03344051123233422 -0.092098432850847969 0 -0.038337793170655582 -0.1026337050414691 0 -0.030143021990877521 -0.097413384547063803 0 -0.038337793170655582 -0.1026337050414691 0 -0.046573596299020338 -0.1213725893565638 0 -0.032898799107638058 -0.1301455039054305 0 -0.04460455598339258 -0.10017008709341529 0 -0.046573596299020338 -0.1213725893565638 0 -0.038337793170655582 -0.1026337050414691 0 -0.02075820173733281 -0.1248441049076035 0 -0.038337793170655582 -0.1026337050414691 0 -0.02075820173733281 -0.1248441049076035 0 -0.032898799107638058 -0.1301455039054305 0 -0.038337793170655582 -0.1026337050414691 0 -0.02075820173733281 -0.1248441049076035 0 -0.013304609286582791 -0.1124748627422944 0 -0.038337793170655582 -0.1026337050414691 0 -0.013304609286582791 -0.1124748627422944 0 -0.038337793170655582 -0.1026337050414691 0 -0.024123777669104458 -0.10265873268404301 0 -0.013304609286582791 -0.1124748627422944 0 -0.038337793170655582 -0.1026337050414691 0 -0.030143021990877521 -0.097413384547063803 0 -0.024123777669104458 -0.10265873268404301 0 -0.024670005891415589 -0.092262667611894875 0 -0.030143021990877521 -0.097413384547063803 0 -0.024123777669104458 -0.10265873268404301 0 -0.024670005891415589 -0.092262667611894875 0 -0.03344051123233422 -0.092098432850847969 0 -0.030143021990877521 -0.097413384547063803 0 -0.024123777669104458 -0.10265873268404301 0 -0.015994782990863529 -0.1079378035875192 0 -0.013304609286582791 -0.1124748627422944 0 -0.024123777669104458 -0.10265873268404301 0 -0.015994782990863529 -0.1079378035875192 0 -0.015839401072447711 -0.097831294581907868 0 -0.024670005891415589 -0.092262667611894875 0 -0.024123777669104458 -0.10265873268404301 0 -0.015839401072447711 -0.097831294581907868 0 -0.0070294542012635762 -0.10327829347153671 0 -0.013304609286582791 -0.1124748627422944 0 0.0046245275045138064 -0.1076828264142336 0 -0.0075898384642912086 -0.092772169897659226 0 -0.015839401072447711 -0.097831294581907868 0 -0.0070294542012635762 -0.10327829347153671 0 -0.015994782990863529 -0.1079378035875192 0 -0.015839401072447711 -0.097831294581907868 0 -0.0070294542012635762 -0.10327829347153671 0 -0.015994782990863529 -0.1079378035875192 0 -0.0070294542012635762 -0.10327829347153671 0 -0.013304609286582791 -0.1124748627422944 0 -0.0075898384642912086 -0.092772169897659226 0 -0.0070294542012635762 -0.10327829347153671 0 0.0072012692200917657 -0.09144049599341271 0 -0.02075820173733281 -0.1248441049076035 0 -0.013304609286582791 -0.1124748627422944 0 -0.00221818493688669 -0.13117245205018849 0 -0.013304609286582791 -0.1124748627422944 0 -0.00221818493688669 -0.13117245205018849 0 0.014197789575412951 -0.12328672932727321 0 -0.013304609286582791 -0.1124748627422944 0 -0.00221818493688669 -0.13117245205018849 0 -0.015994782990863529 -0.1079378035875192 0 -0.013304609286582791 -0.1124748627422944 0 -0.02075820173733281 -0.1248441049076035 0 -0.0137133242766358 -0.14598078836242959 0 -0.0031786103040098569 -0.14705450477373769 0 -0.02075820173733281 -0.1248441049076035 0 -0.0031786103040098569 -0.14705450477373769 0 -0.02075820173733281 -0.1248441049076035 0 -0.00221818493688669 -0.13117245205018849 0 -0.0031786103040098569 -0.14705450477373769 0 -0.02075820173733281 -0.1248441049076035 0 -0.02657462786173766 -0.13400490724319661 0 -0.021326083532184278 -0.14069250208886769 0 -0.02075820173733281 -0.1248441049076035 0 -0.021326083532184278 -0.14069250208886769 0 -0.0137133242766358 -0.14598078836242959 0 -0.02657462786173766 -0.13400490724319661 0 -0.032898799107638058 -0.1301455039054305 0 -0.031315427069795509 -0.14033751807088471 0 -0.02657462786173766 -0.13400490724319661 0 -0.021326083532184278 -0.14069250208886769 0 -0.031315427069795509 -0.14033751807088471 0 -0.02075820173733281 -0.1248441049076035 0 -0.02657462786173766 -0.13400490724319661 0 -0.032898799107638058 -0.1301455039054305 0 -0.026655807174363451 -0.14845120392719069 0 -0.02210874630731275 -0.1561964137015745 0 -0.031495029160766817 -0.15509855920566379 0 -0.026655807174363451 -0.14845120392719069 0 -0.03449156258747036 -0.148917707105098 0 -0.031495029160766817 -0.15509855920566379 0 -0.026655807174363451 -0.14845120392719069 0 -0.021326083532184278 -0.14069250208886769 0 -0.031315427069795509 -0.14033751807088471 0 -0.026655807174363451 -0.14845120392719069 0 -0.031315427069795509 -0.14033751807088471 0 -0.03449156258747036 -0.148917707105098 0 -0.021326083532184278 -0.14069250208886769 0 -0.019449426413567759 -0.15004718796545319 0 -0.0137133242766358 -0.14598078836242959 0 -0.026655807174363451 -0.14845120392719069 0 -0.021326083532184278 -0.14069250208886769 0 -0.019449426413567759 -0.15004718796545319 0 -0.019449426413567759 -0.15004718796545319 0 -0.01542317820397726 -0.15505006264073101 0 -0.0137133242766358 -0.14598078836242959 0 -0.026655807174363451 -0.14845120392719069 0 -0.019449426413567759 -0.15004718796545319 0 -0.02210874630731275 -0.1561964137015745 0 -0.019449426413567759 -0.15004718796545319 0 -0.02210874630731275 -0.1561964137015745 0 -0.01542317820397726 -0.15505006264073101 0 -0.0137133242766358 -0.14598078836242959 0 -0.0031786103040098569 -0.14705450477373769 0 -0.0072073677341612146 -0.1544888065361133 0 -0.01542317820397726 -0.15505006264073101 0 -0.0137133242766358 -0.14598078836242959 0 -0.0072073677341612146 -0.1544888065361133 0 -0.0031786103040098569 -0.14705450477373769 0 -0.0072073677341612146 -0.1544888065361133 0 -0.0025999653858941639 -0.16131422913783491 0 -0.01542317820397726 -0.15505006264073101 0 -0.0084927016390539001 -0.17431231470194719 0 -0.01542317820397726 -0.15505006264073101 0 -0.0025999653858941639 -0.16131422913783491 0 -0.0084927016390539001 -0.17431231470194719 0 -0.01542317820397726 -0.15505006264073101 0 -0.0084927016390539001 -0.17431231470194719 0 -0.018600123305710169 -0.16452936741983731 0 -0.0025999653858941639 -0.16131422913783491 0 -0.0084927016390539001 -0.17431231470194719 0 0.0067086063528142403 -0.16809244781376179 0 -0.0084927016390539001 -0.17431231470194719 0 -0.019446339186483811 -0.17229591455881449 0 -0.018600123305710169 -0.16452936741983731 0 -0.01542317820397726 -0.15505006264073101 0 -0.0072073677341612146 -0.1544888065361133 0 -0.0025999653858941639 -0.16131422913783491 0 -0.0084927016390539001 -0.17431231470194719 0 -0.0015622250741301779 -0.1935745667631632 0 -0.01452589755716127 -0.18854972137590889 0 -0.0084927016390539001 -0.17431231470194719 0 -0.0015622250741301779 -0.1935745667631632 0 -0.0084927016390539001 -0.17431231470194719 0 -0.0015622250741301779 -0.1935745667631632 0 0.0091962193441852118 -0.18107109871456811 0 -0.0084927016390539001 -0.17431231470194719 0 -0.019789997202817391 -0.17944929683230451 0 -0.01452589755716127 -0.18854972137590889 0 -0.019789997202817391 -0.17944929683230451 0 -0.01452589755716127 -0.18854972137590889 0 -0.02459459850908961 -0.18853055632871979 0 -0.0084927016390539001 -0.17431231470194719 0 -0.019789997202817391 -0.17944929683230451 0 -0.019446339186483811 -0.17229591455881449 0 -0.019789997202817391 -0.17944929683230451 0 -0.019446339186483811 -0.17229591455881449 0 -0.025875972540285681 -0.17494695229964419 0 -0.019789997202817391 -0.17944929683230451 0 -0.025875972540285681 -0.17494695229964419 0 -0.028761852805915141 -0.18157091371807699 0 -0.025875972540285681 -0.17494695229964419 0 -0.032240004386850082 -0.17024588421870079 0 -0.032480769472988377 -0.1765838753595764 0 -0.025875972540285681 -0.17494695229964419 0 -0.028761852805915141 -0.18157091371807699 0 -0.032480769472988377 -0.1765838753595764 0 -0.028761852805915141 -0.18157091371807699 0 -0.032920373861235572 -0.18696580359983689 0 -0.02459459850908961 -0.18853055632871979 0 -0.019789997202817391 -0.17944929683230451 0 -0.028761852805915141 -0.18157091371807699 0 -0.02459459850908961 -0.18853055632871979 0 -0.02210874630731275 -0.1561964137015745 0 -0.02334206205745518 -0.16321350683772101 0 -0.018600123305710169 -0.16452936741983731 0 -0.02210874630731275 -0.1561964137015745 0 -0.01542317820397726 -0.15505006264073101 0 -0.018600123305710169 -0.16452936741983731 0 -0.019446339186483811 -0.17229591455881449 0 -0.018600123305710169 -0.16452936741983731 0 -0.024472901244551901 -0.1682416415403396 0 -0.019446339186483811 -0.17229591455881449 0 -0.025875972540285681 -0.17494695229964419 0 -0.024472901244551901 -0.1682416415403396 0 -0.02334206205745518 -0.16321350683772101 0 -0.018600123305710169 -0.16452936741983731 0 -0.024472901244551901 -0.1682416415403396 0 -0.02334206205745518 -0.16321350683772101 0 -0.024472901244551901 -0.1682416415403396 0 -0.028186477372245909 -0.16388660468913291 0 -0.025875972540285681 -0.17494695229964419 0 -0.024472901244551901 -0.1682416415403396 0 -0.032240004386850082 -0.17024588421870079 0 -0.024472901244551901 -0.1682416415403396 0 -0.028186477372245909 -0.16388660468913291 0 -0.032240004386850082 -0.17024588421870079 0 -0.02210874630731275 -0.1561964137015745 0 -0.036601677587355427 -0.1631254910080501 0 -0.02210874630731275 -0.1561964137015745 0 -0.028186477372245909 -0.16388660468913291 0 -0.036601677587355427 -0.1631254910080501 0 -0.02210874630731275 -0.1561964137015745 0 -0.036601677587355427 -0.1631254910080501 0 -0.031495029160766817 -0.15509855920566379 0 -0.02210874630731275 -0.1561964137015745 0 -0.02334206205745518 -0.16321350683772101 0 -0.028186477372245909 -0.16388660468913291 0 -0.036601677587355427 -0.1631254910080501 0 -0.031495029160766817 -0.15509855920566379 0 -0.03757233301838208 -0.1561293615731485 0 -0.036601677587355427 -0.1631254910080501 0 -0.042683024331232992 -0.16071659108817879 0 -0.03757233301838208 -0.1561293615731485 0 -0.036601677587355427 -0.1631254910080501 0 -0.032240004386850082 -0.17024588421870079 0 -0.040990311010288182 -0.1707810542940659 0 -0.028186477372245909 -0.16388660468913291 0 -0.036601677587355427 -0.1631254910080501 0 -0.032240004386850082 -0.17024588421870079 0 -0.036601677587355427 -0.1631254910080501 0 -0.040990311010288182 -0.1707810542940659 0 -0.051094608867397598 -0.17005456831452659 0 -0.036601677587355427 -0.1631254910080501 0 -0.042683024331232992 -0.16071659108817879 0 -0.051094608867397598 -0.17005456831452659 0 -0.036601677587355427 -0.1631254910080501 0 -0.051094608867397598 -0.17005456831452659 0 -0.042683024331232992 -0.16071659108817879 0 -0.03757233301838208 -0.1561293615731485 0 -0.042590371425084809 -0.152788459458752 0 -0.042683024331232992 -0.16071659108817879 0 -0.049852416986034973 -0.1566787242717059 0 -0.042590371425084809 -0.152788459458752 0 -0.042683024331232992 -0.16071659108817879 0 -0.049852416986034973 -0.1566787242717059 0 -0.032920373861235572 -0.18696580359983689 0 -0.035662893679222471 -0.1808176818492459 0 -0.039648887306358682 -0.18457447877016059 0 -0.028761852805915141 -0.18157091371807699 0 -0.032920373861235572 -0.18696580359983689 0 -0.035662893679222471 -0.1808176818492459 0 -0.032240004386850082 -0.17024588421870079 0 -0.040990311010288182 -0.1707810542940659 0 -0.038331319031698619 -0.1753090981098179 0 -0.035662893679222471 -0.1808176818492459 0 -0.038331319031698619 -0.1753090981098179 0 -0.042134054383572032 -0.1794085226548284 0 -0.035662893679222471 -0.1808176818492459 0 -0.032480769472988377 -0.1765838753595764 0 -0.038331319031698619 -0.1753090981098179 0 -0.028761852805915141 -0.18157091371807699 0 -0.035662893679222471 -0.1808176818492459 0 -0.032480769472988377 -0.1765838753595764 0 -0.032240004386850082 -0.17024588421870079 0 -0.032480769472988377 -0.1765838753595764 0 -0.038331319031698619 -0.1753090981098179 0 -0.040990311010288182 -0.1707810542940659 0 -0.045496547127059937 -0.17528527585558801 0 -0.051094608867397598 -0.17005456831452659 0 -0.040990311010288182 -0.1707810542940659 0 -0.038331319031698619 -0.1753090981098179 0 -0.045496547127059937 -0.17528527585558801 0 -0.045496547127059937 -0.17528527585558801 0 -0.042134054383572032 -0.1794085226548284 0 -0.049232931697160941 -0.18142535687920061 0 -0.038331319031698619 -0.1753090981098179 0 -0.045496547127059937 -0.17528527585558801 0 -0.042134054383572032 -0.1794085226548284 0 -0.042134054383572032 -0.1794085226548284 0 -0.039648887306358682 -0.18457447877016059 0 -0.049232931697160941 -0.18142535687920061 0 -0.039648887306358682 -0.18457447877016059 0 -0.049232931697160941 -0.18142535687920061 0 -0.037513132105194948 -0.19164621715467339 0 -0.035662893679222471 -0.1808176818492459 0 -0.042134054383572032 -0.1794085226548284 0 -0.039648887306358682 -0.18457447877016059 0 -0.052530262953744307 -0.18551360121156771 0 -0.064566778430722005 -0.1899668467895553 0 -0.070259181001566293 -0.17921715932508539 0 -0.052530262953744307 -0.18551360121156771 0 -0.051094608867397598 -0.17005456831452659 0 -0.070259181001566293 -0.17921715932508539 0 -0.051094608867397598 -0.17005456831452659 0 -0.070259181001566293 -0.17921715932508539 0 -0.052530262953744307 -0.18551360121156771 0 -0.049232931697160941 -0.18142535687920061 0 -0.051094608867397598 -0.17005456831452659 0 -0.052530262953744307 -0.18551360121156771 0 -0.051094608867397598 -0.17005456831452659 0 -0.045496547127059937 -0.17528527585558801 0 -0.049232931697160941 -0.18142535687920061 0 -0.051094608867397598 -0.17005456831452659 0 -0.051094608867397598 -0.17005456831452659 0 -0.061817946007188637 -0.1647032604190713 0 -0.070259181001566293 -0.17921715932508539 0 -0.049852416986034973 -0.1566787242717059 0 -0.051094608867397598 -0.17005456831452659 0 -0.061817946007188637 -0.1647032604190713 0 -0.042683024331232992 -0.16071659108817879 0 -0.049852416986034973 -0.1566787242717059 0 -0.051094608867397598 -0.17005456831452659 0 -0.049852416986034973 -0.1566787242717059 0 -0.051094608867397598 -0.17005456831452659 0 -0.049852416986034973 -0.1566787242717059 0 -0.061817946007188637 -0.1647032604190713 0 -0.059473492795946999 -0.1512600473178678 0 -0.049852416986034973 -0.1566787242717059 0 -0.059473492795946999 -0.1512600473178678 0 -0.049852416986034973 -0.1566787242717059 0 -0.048542636614648908 -0.14257509161971199 0 -0.042590371425084809 -0.152788459458752 0 -0.049852416986034973 -0.1566787242717059 0 -0.059473492795946999 -0.1512600473178678 0 -0.048542636614648908 -0.14257509161971199 0 -0.049852416986034973 -0.1566787242717059 0 -0.048542636614648908 -0.14257509161971199 0 -0.059473492795946999 -0.1512600473178678 0 -0.048542636614648908 -0.14257509161971199 0 -0.059473492795946999 -0.1512600473178678 0 -0.048542636614648908 -0.14257509161971199 0 -0.061100100412547438 -0.13647315015658409 0 -0.046573596299020338 -0.1213725893565638 0 -0.048542636614648908 -0.14257509161971199 0 -0.061100100412547438 -0.13647315015658409 0 -0.046573596299020338 -0.1213725893565638 0 -0.048542636614648908 -0.14257509161971199 0 -0.060928146748241367 -0.123537549367131 0 -0.046573596299020338 -0.1213725893565638 0 -0.061100100412547438 -0.13647315015658409 0 -0.046573596299020338 -0.1213725893565638 0 -0.048542636614648908 -0.14257509161971199 0 -0.032898799107638058 -0.1301455039054305 0 -0.048542636614648908 -0.14257509161971199 0 -0.032898799107638058 -0.1301455039054305 0 -0.031315427069795509 -0.14033751807088471 0 -0.048542636614648908 -0.14257509161971199 0 -0.032898799107638058 -0.1301455039054305 0 -0.048542636614648908 -0.14257509161971199 0 -0.031315427069795509 -0.14033751807088471 0 -0.03449156258747036 -0.148917707105098 0 -0.03449156258747036 -0.148917707105098 0 -0.03757233301838208 -0.1561293615731485 0 -0.042590371425084809 -0.152788459458752 0 -0.03449156258747036 -0.148917707105098 0 -0.031495029160766817 -0.15509855920566379 0 -0.03757233301838208 -0.1561293615731485 0 -0.048542636614648908 -0.14257509161971199 0 -0.03449156258747036 -0.148917707105098 0 -0.042590371425084809 -0.152788459458752 0 -0.030801127425925001 -0.25680016795848581 0 -0.026871719323301121 -0.24650256912316601 0 -0.018733547469201091 -0.24349008461987329 0 -0.032940321160402269 -0.25029644079438251 0 -0.026871719323301121 -0.24650256912316601 0 -0.030857658388656541 -0.2362056796655021 0 -0.032940321160402269 -0.25029644079438251 0 -0.026871719323301121 -0.24650256912316601 0 -0.026871719323301121 -0.24650256912316601 0 -0.030857658388656541 -0.2362056796655021 0 -0.018733547469201091 -0.24349008461987329 0 -0.018733547469201091 -0.24349008461987329 0 0.0010854142569982001 -0.23807309260292489 0 0.0025328853753160741 -0.24958102673793139 0 -0.018733547469201091 -0.24349008461987329 0 -0.0061584899570064598 -0.22962027277065361 0 0.0010854142569982001 -0.23807309260292489 0 -0.018733547469201091 -0.24349008461987329 0 -0.0061584899570064598 -0.22962027277065361 0 -0.018733547469201091 -0.24349008461987329 0 -0.0061584899570064598 -0.22962027277065361 0 -0.014959502272226489 -0.22084886391346231 0 -0.0061584899570064598 -0.22962027277065361 0 -0.0054289760133702037 -0.21457987404047249 0 0.0064165675551885711 -0.21575046092143421 0 -0.0061584899570064598 -0.22962027277065361 0 -0.014959502272226489 -0.22084886391346231 0 -0.0054289760133702037 -0.21457987404047249 0 -0.018733547469201091 -0.24349008461987329 0 -0.02919644603132129 -0.2221986071991269 0 -0.02714058579554627 -0.22330174697438809 0 -0.018733547469201091 -0.24349008461987329 0 -0.02919644603132129 -0.2221986071991269 0 -0.018733547469201091 -0.24349008461987329 0 -0.014959502272226489 -0.22084886391346231 0 -0.02714058579554627 -0.22330174697438809 0 -0.030857658388656541 -0.2362056796655021 0 -0.018733547469201091 -0.24349008461987329 0 -0.02919644603132129 -0.2221986071991269 0 -0.02919644603132129 -0.2221986071991269 0 -0.02714058579554627 -0.22330174697438809 0 -0.023298310508535151 -0.21367384618425 0 -0.02883797433537726 -0.20835292232393379 0 -0.020914866328615171 -0.2008213059726579 0 -0.039659344593441261 -0.20090712977838049 0 -0.02919644603132129 -0.2221986071991269 0 -0.02883797433537726 -0.20835292232393379 0 -0.023298310508535151 -0.21367384618425 0 -0.02883797433537726 -0.20835292232393379 0 -0.023298310508535151 -0.21367384618425 0 -0.020914866328615171 -0.2008213059726579 0 -0.023298310508535151 -0.21367384618425 0 -0.014351405434837939 -0.2084381568687759 0 -0.020914866328615171 -0.2008213059726579 0 -0.02714058579554627 -0.22330174697438809 0 -0.014351405434837939 -0.2084381568687759 0 -0.014959502272226489 -0.22084886391346231 0 -0.02714058579554627 -0.22330174697438809 0 -0.014351405434837939 -0.2084381568687759 0 -0.02714058579554627 -0.22330174697438809 0 -0.023298310508535151 -0.21367384618425 0 -0.014351405434837939 -0.2084381568687759 0 -0.014959502272226489 -0.22084886391346231 0 -0.0054289760133702037 -0.21457987404047249 0 -0.014351405434837939 -0.2084381568687759 0 -0.0054289760133702037 -0.21457987404047249 0 -0.014351405434837939 -0.2084381568687759 0 -0.0015622250741301779 -0.1935745667631632 0 -0.0054289760133702037 -0.21457987404047249 0 -0.0015622250741301779 -0.1935745667631632 0 0.0064165675551885711 -0.21575046092143421 0 -0.014351405434837939 -0.2084381568687759 0 -0.0015622250741301779 -0.1935745667631632 0 -0.014351405434837939 -0.2084381568687759 0 -0.01223217889679739 -0.19705511845509929 0 -0.0015622250741301779 -0.1935745667631632 0 -0.01223217889679739 -0.19705511845509929 0 -0.0015622250741301779 -0.1935745667631632 0 -0.01452589755716127 -0.18854972137590889 0 -0.020914866328615171 -0.2008213059726579 0 -0.039659344593441261 -0.20090712977838049 0 -0.01452589755716127 -0.18854972137590889 0 -0.020914866328615171 -0.2008213059726579 0 -0.02459459850908961 -0.18853055632871979 0 -0.020914866328615171 -0.2008213059726579 0 -0.030654603298793132 -0.19382629647353339 0 -0.039659344593441261 -0.20090712977838049 0 -0.014351405434837939 -0.2084381568687759 0 -0.01223217889679739 -0.19705511845509929 0 -0.020914866328615171 -0.2008213059726579 0 -0.01223217889679739 -0.19705511845509929 0 -0.01452589755716127 -0.18854972137590889 0 -0.020914866328615171 -0.2008213059726579 0 -0.020914866328615171 -0.2008213059726579 0 -0.030654603298793132 -0.19382629647353339 0 -0.02459459850908961 -0.18853055632871979 0 -0.032920373861235572 -0.18696580359983689 0 -0.030654603298793132 -0.19382629647353339 0 -0.02459459850908961 -0.18853055632871979 0 -0.049232931697160941 -0.18142535687920061 0 -0.037513132105194948 -0.19164621715467339 0 -0.039659344593441261 -0.20090712977838049 0 -0.049232931697160941 -0.18142535687920061 0 -0.039659344593441261 -0.20090712977838049 0 -0.032920373861235572 -0.18696580359983689 0 -0.039648887306358682 -0.18457447877016059 0 -0.037513132105194948 -0.19164621715467339 0 -0.032920373861235572 -0.18696580359983689 0 -0.030654603298793132 -0.19382629647353339 0 -0.037513132105194948 -0.19164621715467339 0 -0.030654603298793132 -0.19382629647353339 0 -0.037513132105194948 -0.19164621715467339 0 -0.039659344593441261 -0.20090712977838049 0 -0.039659344593441261 -0.20090712977838049 0 -0.049171036143441697 -0.20095068018059209 0 -0.052530262953744307 -0.18551360121156771 0 -0.053965917040092279 -0.20097263410860849 0 -0.052530262953744307 -0.18551360121156771 0 -0.049232931697160941 -0.18142535687920061 0 -0.039659344593441261 -0.20090712977838049 0 -0.052530262953744307 -0.18551360121156771 0 -0.053965917040092279 -0.20097263410860849 0 -0.064566778430722005 -0.1899668467895553 0 -0.052530262953744307 -0.18551360121156771 0 -0.039659344593441261 -0.20090712977838049 0 -0.049171036143441697 -0.20095068018059209 0 -0.053965917040092279 -0.20097263410860849 0 -0.049171036143441697 -0.20095068018059209 0 -0.052530262953744307 -0.18551360121156771 0 -0.053965917040092279 -0.20097263410860849 0 -0.049171036143441697 -0.20095068018059209 0 -0.049171036143441697 -0.20095068018059209 0 -0.054685660498906767 -0.208722786400212 0 -0.041055678651922348 -0.2256235604874875 0 -0.053965917040092279 -0.20097263410860849 0 -0.054685660498906767 -0.208722786400212 0 -0.075274492420391248 -0.20107019793555661 0 -0.054685660498906767 -0.208722786400212 0 -0.058782723788501128 -0.22597342721149569 0 -0.066300796797188796 -0.21509277327032089 0 -0.053965917040092279 -0.20097263410860849 0 -0.049171036143441697 -0.20095068018059209 0 -0.054685660498906767 -0.208722786400212 0 -0.053965917040092279 -0.20097263410860849 0 -0.054685660498906767 -0.208722786400212 0 -0.049171036143441697 -0.20095068018059209 0 -0.041055678651922348 -0.2256235604874875 0 -0.02919644603132129 -0.2221986071991269 0 -0.039659344593441261 -0.20090712977838049 0 -0.02919644603132129 -0.2221986071991269 0 -0.02883797433537726 -0.20835292232393379 0 -0.039659344593441261 -0.20090712977838049 0 -0.039659344593441261 -0.20090712977838049 0 -0.049171036143441697 -0.20095068018059209 0 -0.041055678651922348 -0.2256235604874875 0 -0.02919644603132129 -0.2221986071991269 0 -0.039659344593441261 -0.20090712977838049 0 -0.041055678651922348 -0.2256235604874875 0 -0.030857658388656541 -0.2362056796655021 0 -0.02919644603132129 -0.2221986071991269 0 -0.041055678651922348 -0.2256235604874875 0 -0.041055678651922348 -0.2256235604874875 0 -0.058782723788501128 -0.22597342721149569 0 -0.050902643065861071 -0.24349095896983161 0 -0.054685660498906767 -0.208722786400212 0 -0.041055678651922348 -0.2256235604874875 0 -0.058782723788501128 -0.22597342721149569 0 -0.058782723788501128 -0.22597342721149569 0 -0.050902643065861071 -0.24349095896983161 0 -0.077646128541525 -0.24813916513248199 0 -0.032940321160402269 -0.25029644079438251 0 -0.041055678651922348 -0.2256235604874875 0 -0.050902643065861071 -0.24349095896983161 0 -0.032940321160402269 -0.25029644079438251 0 -0.030857658388656541 -0.2362056796655021 0 -0.041055678651922348 -0.2256235604874875 0 -0.032940321160402269 -0.25029644079438251 0 -0.041055678651922348 -0.2256235604874875 0 -0.077646128541525 -0.24813916513248199 0 -0.082279147983734507 -0.22463132376819159 0 -0.088104632666654803 -0.24175912157342011 0 -0.077646128541525 -0.24813916513248199 0 -0.082279147983734507 -0.22463132376819159 0 -0.077646128541525 -0.24813916513248199 0 -0.076460310480956056 -0.22460468153401941 0 -0.058782723788501128 -0.22597342721149569 0 -0.077646128541525 -0.24813916513248199 0 -0.076460310480956056 -0.22460468153401941 0 -0.058782723788501128 -0.22597342721149569 0 -0.076460310480956056 -0.22460468153401941 0 -0.066300796797188796 -0.21509277327032089 0 -0.077646128541525 -0.24813916513248199 0 -0.076460310480956056 -0.22460468153401941 0 -0.082279147983734507 -0.22463132376819159 0 -0.088104632666654803 -0.24175912157342011 0 -0.091210523848666042 -0.22145825259936749 0 -0.096373561920523113 -0.2318247108995648 0 -0.088104632666654803 -0.24175912157342011 0 -0.082279147983734507 -0.22463132376819159 0 -0.091210523848666042 -0.22145825259936749 0 -0.088104632666654803 -0.24175912157342011 0 -0.091210523848666042 -0.22145825259936749 0 -0.082279147983734507 -0.22463132376819159 0 -0.075274492420391248 -0.20107019793555661 0 -0.086912167425944153 -0.20112348240390099 0 -0.082279147983734507 -0.22463132376819159 0 -0.091210523848666042 -0.22145825259936749 0 -0.086912167425944153 -0.20112348240390099 0 -0.091210523848666042 -0.22145825259936749 0 -0.094316415030678002 -0.20115738362531499 0 -0.091210523848666042 -0.22145825259936749 0 -0.086912167425944153 -0.20112348240390099 0 -0.094316415030678002 -0.20115738362531499 0 -0.082279147983734507 -0.22463132376819159 0 -0.086912167425944153 -0.20112348240390099 0 -0.076460310480956056 -0.22460468153401941 0 -0.066300796797188796 -0.21509277327032089 0 -0.075274492420391248 -0.20107019793555661 0 -0.054685660498906767 -0.208722786400212 0 -0.066300796797188796 -0.21509277327032089 0 -0.075274492420391248 -0.20107019793555661 0 -0.076460310480956056 -0.22460468153401941 0 -0.082279147983734507 -0.22463132376819159 0 -0.075274492420391248 -0.20107019793555661 0 -0.076460310480956056 -0.22460468153401941 0 -0.075274492420391248 -0.20107019793555661 0 -0.053965917040092279 -0.20097263410860849 0 -0.075274492420391248 -0.20107019793555661 0 -0.070100108945259781 -0.19629415080948229 0 -0.053965917040092279 -0.20097263410860849 0 -0.070100108945259781 -0.19629415080948229 0 -0.064566778430722005 -0.1899668467895553 0 -0.053965917040092279 -0.20097263410860849 0 -0.075274492420391248 -0.20107019793555661 0 -0.075274492420391248 -0.20107019793555661 0 -0.075113373652805612 -0.19571605274700751 0 -0.079733979793737045 -0.19605477611637959 0 -0.075274492420391248 -0.20107019793555661 0 -0.075113373652805612 -0.19571605274700751 0 -0.070100108945259781 -0.19629415080948229 0 -0.070100108945259781 -0.19629415080948229 0 -0.064566778430722005 -0.1899668467895553 0 -0.075377056328755521 -0.19008301367616509 0 -0.075113373652805612 -0.19571605274700751 0 -0.070100108945259781 -0.19629415080948229 0 -0.075377056328755521 -0.19008301367616509 0 -0.075113373652805612 -0.19571605274700751 0 -0.075377056328755521 -0.19008301367616509 0 -0.079733979793737045 -0.19605477611637959 0 -0.075377056328755521 -0.19008301367616509 0 -0.079733979793737045 -0.19605477611637959 0 -0.089423753135733974 -0.18837975033564619 0 -0.079733979793737045 -0.19605477611637959 0 -0.086912167425944153 -0.20112348240390099 0 -0.089423753135733974 -0.18837975033564619 0 -0.075274492420391248 -0.20107019793555661 0 -0.086912167425944153 -0.20112348240390099 0 -0.075274492420391248 -0.20107019793555661 0 -0.079733979793737045 -0.19605477611637959 0 -0.086912167425944153 -0.20112348240390099 0 -0.086912167425944153 -0.20112348240390099 0 -0.095804572093432044 -0.1914304229002349 0 -0.094316415030678002 -0.20115738362531499 0 -0.086912167425944153 -0.20112348240390099 0 -0.094316415030678002 -0.20115738362531499 0 -0.086912167425944153 -0.20112348240390099 0 -0.089423753135733974 -0.18837975033564619 0 -0.086912167425944153 -0.20112348240390099 0 -0.089423753135733974 -0.18837975033564619 0 -0.095804572093432044 -0.1914304229002349 0 -0.089423753135733974 -0.18837975033564619 0 -0.095804572093432044 -0.1914304229002349 0 -0.090500110278716836 -0.18291833725845449 0 -0.089423753135733974 -0.18837975033564619 0 -0.095804572093432044 -0.1914304229002349 0 -0.095804572093432044 -0.1914304229002349 0 -0.1055884512206339 -0.19610810014299959 0 -0.099028938128851704 -0.1826882615985625 0 -0.095804572093432044 -0.1914304229002349 0 -0.1055884512206339 -0.19610810014299959 0 -0.095804572093432044 -0.1914304229002349 0 -0.099726318276372988 -0.19712665769699661 0 -0.1055884512206339 -0.19610810014299959 0 -0.094316415030678002 -0.20115738362531499 0 -0.099726318276372988 -0.19712665769699661 0 -0.1069539478940484 -0.20121524606085259 0 -0.095804572093432044 -0.1914304229002349 0 -0.094316415030678002 -0.20115738362531499 0 -0.095804572093432044 -0.1914304229002349 0 -0.094316415030678002 -0.20115738362531499 0 -0.099726318276372988 -0.19712665769699661 0 -0.094316415030678002 -0.20115738362531499 0 -0.1069539478940484 -0.20121524606085259 0 -0.1006154135170836 -0.20550376286944089 0 -0.094316415030678002 -0.20115738362531499 0 -0.1069539478940484 -0.20121524606085259 0 -0.099726318276372988 -0.19712665769699661 0 -0.1069539478940484 -0.20121524606085259 0 -0.1055884512206339 -0.19610810014299959 0 -0.1069539478940484 -0.20121524606085259 0 -0.1055884512206339 -0.19610810014299959 0 -0.1143022105317214 -0.19176920984990589 0 -0.1234142843990034 -0.20129061165398179 0 -0.118443644943155 -0.18313735869921541 0 -0.1234142843990034 -0.20129061165398179 0 -0.118443644943155 -0.18313735869921541 0 -0.12836978379805469 -0.19505845874684749 0 -0.1055884512206339 -0.19610810014299959 0 -0.1143022105317214 -0.19176920984990589 0 -0.1095912747331507 -0.1796343382558257 0 -0.1234142843990034 -0.20129061165398179 0 -0.118443644943155 -0.18313735869921541 0 -0.1234142843990034 -0.20129061165398179 0 -0.11636069704563699 -0.20125831597190941 0 -0.12446659453658469 -0.2051337493999616 0 -0.1143022105317214 -0.19176920984990589 0 -0.1234142843990034 -0.20129061165398179 0 -0.11636069704563699 -0.20125831597190941 0 -0.1234142843990034 -0.20129061165398179 0 -0.11636069704563699 -0.20125831597190941 0 -0.1055884512206339 -0.19610810014299959 0 -0.1143022105317214 -0.19176920984990589 0 -0.11636069704563699 -0.20125831597190941 0 -0.1055884512206339 -0.19610810014299959 0 -0.11636069704563699 -0.20125831597190941 0 -0.1069539478940484 -0.20121524606085259 0 -0.11636069704563699 -0.20125831597190941 0 -0.116503442890511 -0.20615462214379501 0 -0.1069539478940484 -0.20121524606085259 0 -0.1055884512206339 -0.19610810014299959 0 -0.11636069704563699 -0.20125831597190941 0 -0.1069539478940484 -0.20121524606085259 0 -0.11636069704563699 -0.20125831597190941 0 -0.1069539478940484 -0.20121524606085259 0 -0.1182325320857732 -0.21701117714245771 0 -0.1146322195844853 -0.229933041338924 0 -0.1069539478940484 -0.20121524606085259 0 -0.1146322195844853 -0.229933041338924 0 -0.12446659453658469 -0.2051337493999616 0 -0.1182325320857732 -0.21701117714245771 0 -0.12964778408632779 -0.2240559515308029 0 -0.1069539478940484 -0.20121524606085259 0 -0.116503442890511 -0.20615462214379501 0 -0.1182325320857732 -0.21701117714245771 0 -0.116503442890511 -0.20615462214379501 0 -0.12446659453658469 -0.2051337493999616 0 -0.1182325320857732 -0.21701117714245771 0 -0.11636069704563699 -0.20125831597190941 0 -0.116503442890511 -0.20615462214379501 0 -0.12446659453658469 -0.2051337493999616 0 -0.11636069704563699 -0.20125831597190941 0 -0.12446659453658469 -0.2051337493999616 0 -0.1234142843990034 -0.20129061165398179 0 -0.12446659453658469 -0.2051337493999616 0 -0.1069539478940484 -0.20121524606085259 0 -0.1039432587622498 -0.21234961129803451 0 -0.1146322195844853 -0.229933041338924 0 -0.091210523848666042 -0.22145825259936749 0 -0.094316415030678002 -0.20115738362531499 0 -0.098742607236989521 -0.21208478243994361 0 -0.1039432587622498 -0.21234961129803451 0 -0.098742607236989521 -0.21208478243994361 0 -0.10362742502627011 -0.2199549018075595 0 -0.1069539478940484 -0.20121524606085259 0 -0.1039432587622498 -0.21234961129803451 0 -0.1006154135170836 -0.20550376286944089 0 -0.1039432587622498 -0.21234961129803451 0 -0.1006154135170836 -0.20550376286944089 0 -0.098742607236989521 -0.21208478243994361 0 -0.094316415030678002 -0.20115738362531499 0 -0.1006154135170836 -0.20550376286944089 0 -0.098742607236989521 -0.21208478243994361 0 -0.091210523848666042 -0.22145825259936749 0 -0.098742607236989521 -0.21208478243994361 0 -0.10362742502627011 -0.2199549018075595 0 -0.096373561920523113 -0.2318247108995648 0 -0.10362742502627011 -0.2199549018075595 0 -0.1025516661405015 -0.24412656761791199 0 -0.1039432587622498 -0.21234961129803451 0 -0.10362742502627011 -0.2199549018075595 0 -0.1146322195844853 -0.229933041338924 0 -0.10362742502627011 -0.2199549018075595 0 -0.1025516661405015 -0.24412656761791199 0 -0.10362742502627011 -0.2199549018075595 0 -0.11057817055071439 -0.23713955200355691 0 -0.1025516661405015 -0.24412656761791199 0 -0.091210523848666042 -0.22145825259936749 0 -0.096373561920523113 -0.2318247108995648 0 -0.10362742502627011 -0.2199549018075595 0 -0.10362742502627011 -0.2199549018075595 0 -0.1146322195844853 -0.229933041338924 0 -0.11057817055071439 -0.23713955200355691 0 -0.1182325320857732 -0.21701117714245771 0 -0.1146322195844853 -0.229933041338924 0 -0.12964778408632779 -0.2240559515308029 0 -0.1146322195844853 -0.229933041338924 0 -0.12594535918601221 -0.23537450645762351 0 -0.12964778408632779 -0.2240559515308029 0 -0.1146322195844853 -0.229933041338924 0 -0.11057817055071439 -0.23713955200355691 0 -0.11992695639240671 -0.24305274461581289 0 -0.1146322195844853 -0.229933041338924 0 -0.11992695639240671 -0.24305274461581289 0 -0.12594535918601221 -0.23537450645762351 0 -0.11992695639240671 -0.24305274461581289 0 -0.12594535918601221 -0.23537450645762351 0 -0.1270777831465402 -0.24161244513161839 0 -0.11057817055071439 -0.23713955200355691 0 -0.11992695639240671 -0.24305274461581289 0 -0.1121525856099083 -0.24863050463757599 0 -0.1183855941197941 -0.25651062511641259 0 -0.11992695639240671 -0.24305274461581289 0 -0.1121525856099083 -0.24863050463757599 0 -0.1097432552782682 -0.2572086698476283 0 -0.1121525856099083 -0.24863050463757599 0 -0.1025516661405015 -0.24412656761791199 0 -0.11057817055071439 -0.23713955200355691 0 -0.1121525856099083 -0.24863050463757599 0 -0.1025516661405015 -0.24412656761791199 0 -0.088104632666654803 -0.24175912157342011 0 -0.096373561920523113 -0.2318247108995648 0 -0.1025516661405015 -0.24412656761791199 0 -0.093680051977193257 -0.25300014610948141 0 -0.088104632666654803 -0.24175912157342011 0 -0.1025516661405015 -0.24412656761791199 0 -0.091208904987890735 -0.14232661368977559 0 -0.087323419063827665 -0.1566704494577609 0 -0.098398678104261977 -0.16921735691638781 0 -0.081276062778159672 -0.14883202435870879 0 -0.08710950077230438 -0.14178266396580899 0 -0.074302444905730333 -0.14290824730771751 0 -0.081276062778159672 -0.14883202435870879 0 -0.091208904987890735 -0.14232661368977559 0 -0.087323419063827665 -0.1566704494577609 0 -0.081276062778159672 -0.14883202435870879 0 -0.08710950077230438 -0.14178266396580899 0 -0.091208904987890735 -0.14232661368977559 0 -0.08710950077230438 -0.14178266396580899 0 -0.091208904987890735 -0.14232661368977559 0 -0.091208904987890735 -0.14232661368977559 0 -0.089131397015513494 -0.13455644729756691 0 -0.089131397015513494 -0.13455644729756691 0 -0.072915517223638954 -0.12670463451369329 0 -0.074302444905730333 -0.14290824730771751 0 -0.08710950077230438 -0.14178266396580899 0 -0.091208904987890735 -0.14232661368977559 0 -0.089131397015513494 -0.13455644729756691 0 -0.08710950077230438 -0.14178266396580899 0 -0.089131397015513494 -0.13455644729756691 0 -0.074302444905730333 -0.14290824730771751 0 -0.089131397015513494 -0.13455644729756691 0 -0.074302444905730333 -0.14290824730771751 0 -0.061100100412547438 -0.13647315015658409 0 -0.072915517223638954 -0.12670463451369329 0 -0.074302444905730333 -0.14290824730771751 0 -0.060928146748241367 -0.123537549367131 0 -0.061100100412547438 -0.13647315015658409 0 -0.072915517223638954 -0.12670463451369329 0 -0.059473492795946999 -0.1512600473178678 0 -0.081276062778159672 -0.14883202435870879 0 -0.074302444905730333 -0.14290824730771751 0 -0.059473492795946999 -0.1512600473178678 0 -0.081276062778159672 -0.14883202435870879 0 -0.078410030384998497 -0.16630580286617139 0 -0.059473492795946999 -0.1512600473178678 0 -0.074302444905730333 -0.14290824730771751 0 -0.059473492795946999 -0.1512600473178678 0 -0.061100100412547438 -0.13647315015658409 0 -0.074302444905730333 -0.14290824730771751 0 -0.061817946007188637 -0.1647032604190713 0 -0.070259181001566293 -0.17921715932508539 0 -0.078410030384998497 -0.16630580286617139 0 -0.059473492795946999 -0.1512600473178678 0 -0.078410030384998497 -0.16630580286617139 0 -0.061817946007188637 -0.1647032604190713 0 -0.059473492795946999 -0.1512600473178678 0 -0.078410030384998497 -0.16630580286617139 0 -0.064566778430722005 -0.1899668467895553 0 -0.075377056328755521 -0.19008301367616509 0 -0.070259181001566293 -0.17921715932508539 0 -0.070259181001566293 -0.17921715932508539 0 -0.08402443889557612 -0.1788939005998389 0 -0.078410030384998497 -0.16630580286617139 0 -0.089423753135733974 -0.18837975033564619 0 -0.070259181001566293 -0.17921715932508539 0 -0.075377056328755521 -0.19008301367616509 0 -0.089423753135733974 -0.18837975033564619 0 -0.070259181001566293 -0.17921715932508539 0 -0.078410030384998497 -0.16630580286617139 0 -0.098398678104261977 -0.16921735691638781 0 -0.097346567974052028 -0.18135155841447259 0 -0.078410030384998497 -0.16630580286617139 0 -0.097346567974052028 -0.18135155841447259 0 -0.08402443889557612 -0.1788939005998389 0 -0.078410030384998497 -0.16630580286617139 0 -0.097346567974052028 -0.18135155841447259 0 -0.089423753135733974 -0.18837975033564619 0 -0.070259181001566293 -0.17921715932508539 0 -0.08402443889557612 -0.1788939005998389 0 -0.089423753135733974 -0.18837975033564619 0 -0.08402443889557612 -0.1788939005998389 0 -0.090500110278716836 -0.18291833725845449 0 -0.08402443889557612 -0.1788939005998389 0 -0.090500110278716836 -0.18291833725845449 0 -0.097346567974052028 -0.18135155841447259 0 -0.089423753135733974 -0.18837975033564619 0 -0.090500110278716836 -0.18291833725845449 0 -0.081276062778159672 -0.14883202435870879 0 -0.078410030384998497 -0.16630580286617139 0 -0.087323419063827665 -0.1566704494577609 0 -0.078410030384998497 -0.16630580286617139 0 -0.087323419063827665 -0.1566704494577609 0 -0.098398678104261977 -0.16921735691638781 0 -0.098398678104261977 -0.16921735691638781 0 -0.1095912747331507 -0.1796343382558257 0 -0.1134730054873082 -0.16498410574444861 0 -0.098398678104261977 -0.16921735691638781 0 -0.1134730054873082 -0.16498410574444861 0 -0.1057127461594554 -0.15566112818699529 0 -0.1055884512206339 -0.19610810014299959 0 -0.098398678104261977 -0.16921735691638781 0 -0.099028938128851704 -0.1826882615985625 0 -0.1055884512206339 -0.19610810014299959 0 -0.098398678104261977 -0.16921735691638781 0 -0.1055884512206339 -0.19610810014299959 0 -0.098398678104261977 -0.16921735691638781 0 -0.1095912747331507 -0.1796343382558257 0 -0.095804572093432044 -0.1914304229002349 0 -0.097346567974052028 -0.18135155841447259 0 -0.099028938128851704 -0.1826882615985625 0 -0.095804572093432044 -0.1914304229002349 0 -0.090500110278716836 -0.18291833725845449 0 -0.097346567974052028 -0.18135155841447259 0 -0.095804572093432044 -0.1914304229002349 0 -0.097346567974052028 -0.18135155841447259 0 -0.097346567974052028 -0.18135155841447259 0 -0.099028938128851704 -0.1826882615985625 0 -0.098398678104261977 -0.16921735691638781 0 -0.097346567974052028 -0.18135155841447259 0 -0.099028938128851704 -0.1826882615985625 0 -0.118443644943155 -0.18313735869921541 0 -0.1134730054873082 -0.16498410574444861 0 -0.1288769000074067 -0.1787922372229141 0 -0.118443644943155 -0.18313735869921541 0 -0.1134730054873082 -0.16498410574444861 0 -0.1095912747331507 -0.1796343382558257 0 -0.118443644943155 -0.18313735869921541 0 -0.1134730054873082 -0.16498410574444861 0 -0.1143022105317214 -0.19176920984990589 0 -0.1095912747331507 -0.1796343382558257 0 -0.118443644943155 -0.18313735869921541 0 -0.1134730054873082 -0.16498410574444861 0 -0.1197703960583608 -0.14611643639736929 0 -0.1290470673658046 -0.1573335562640088 0 -0.1134730054873082 -0.16498410574444861 0 -0.1197703960583608 -0.14611643639736929 0 -0.1057127461594554 -0.15566112818699529 0 -0.091208904987890735 -0.14232661368977559 0 -0.1197703960583608 -0.14611643639736929 0 -0.1055319536065798 -0.13433424813048789 0 -0.091208904987890735 -0.14232661368977559 0 -0.1197703960583608 -0.14611643639736929 0 -0.091208904987890735 -0.14232661368977559 0 -0.098398678104261977 -0.16921735691638781 0 -0.091208904987890735 -0.14232661368977559 0 -0.1197703960583608 -0.14611643639736929 0 -0.1057127461594554 -0.15566112818699529 0 -0.091208904987890735 -0.14232661368977559 0 -0.098398678104261977 -0.16921735691638781 0 -0.1057127461594554 -0.15566112818699529 0 -0.11422347955810171 -0.1204243593602408 0 -0.089131397015513494 -0.13455644729756691 0 -0.1055319536065798 -0.13433424813048789 0 -0.091208904987890735 -0.14232661368977559 0 -0.089131397015513494 -0.13455644729756691 0 -0.1055319536065798 -0.13433424813048789 0 -0.11422347955810171 -0.1204243593602408 0 -0.089131397015513494 -0.13455644729756691 0 -0.11422347955810171 -0.1204243593602408 0 -0.1197703960583608 -0.14611643639736929 0 -0.13445671698849809 -0.1291024538471422 0 -0.11422347955810171 -0.1204243593602408 0 -0.1197703960583608 -0.14611643639736929 0 -0.1055319536065798 -0.13433424813048789 0 -0.1483318871288308 -0.14990625910496369 0 -0.16449988742022109 -0.13664022397910389 0 -0.1531014227808439 -0.1221458571451004 0 -0.13445671698849809 -0.1291024538471422 0 -0.1483318871288308 -0.14990625910496369 0 -0.1531014227808439 -0.1221458571451004 0 -0.1197703960583608 -0.14611643639736929 0 -0.1483318871288308 -0.14990625910496369 0 -0.1197703960583608 -0.14611643639736929 0 -0.13445671698849809 -0.1291024538471422 0 -0.1483318871288308 -0.14990625910496369 0 -0.1197703960583608 -0.14611643639736929 0 -0.1483318871288308 -0.14990625910496369 0 -0.1290470673658046 -0.1573335562640088 0 -0.1134730054873082 -0.16498410574444861 0 -0.13461298078871861 -0.16832742380925381 0 -0.1288769000074067 -0.1787922372229141 0 -0.1134730054873082 -0.16498410574444861 0 -0.1290470673658046 -0.1573335562640088 0 -0.13461298078871861 -0.16832742380925381 0 -0.1483318871288308 -0.14990625910496369 0 -0.1290470673658046 -0.1573335562640088 0 -0.13461298078871861 -0.16832742380925381 0 -0.1288769000074067 -0.1787922372229141 0 -0.13667151748925299 -0.18732448341615179 0 -0.12964513627792831 -0.18854704193980709 0 -0.118443644943155 -0.18313735869921541 0 -0.1288769000074067 -0.1787922372229141 0 -0.12964513627792831 -0.18854704193980709 0 -0.13461298078871861 -0.16832742380925381 0 -0.1288769000074067 -0.1787922372229141 0 -0.13971937495991149 -0.1792470101286355 0 -0.13971937495991149 -0.1792470101286355 0 -0.13667151748925299 -0.18732448341615179 0 -0.14496415935730611 -0.1865433765957375 0 -0.1288769000074067 -0.1787922372229141 0 -0.13971937495991149 -0.1792470101286355 0 -0.13667151748925299 -0.18732448341615179 0 -0.13461298078871861 -0.16832742380925381 0 -0.13971937495991149 -0.1792470101286355 0 -0.15185728900885839 -0.17281716391360821 0 -0.13971937495991149 -0.1792470101286355 0 -0.14496415935730611 -0.1865433765957375 0 -0.15185728900885839 -0.17281716391360821 0 -0.14496415935730611 -0.1865433765957375 0 -0.15185728900885839 -0.17281716391360821 0 -0.15433817598466459 -0.18776234762491931 0 -0.1483318871288308 -0.14990625910496369 0 -0.13461298078871861 -0.16832742380925381 0 -0.15185728900885839 -0.17281716391360821 0 -0.1483318871288308 -0.14990625910496369 0 -0.15185728900885839 -0.17281716391360821 0 -0.1768933781993007 -0.15369608181255809 0 -0.15185728900885839 -0.17281716391360821 0 -0.16517877359736971 -0.18077311964873491 0 -0.1768933781993007 -0.15369608181255809 0 -0.16517877359736971 -0.18077311964873491 0 -0.15433817598466459 -0.18776234762491931 0 -0.16707343948115469 -0.19329854854562631 0 -0.15185728900885839 -0.17281716391360821 0 -0.16517877359736971 -0.18077311964873491 0 -0.15433817598466459 -0.18776234762491931 0 -0.16517877359736971 -0.18077311964873491 0 -0.17993745220376059 -0.17895489523397801 0 -0.16707343948115469 -0.19329854854562631 0 -0.16517877359736971 -0.18077311964873491 0 -0.17993745220376059 -0.17895489523397801 0 -0.1768933781993007 -0.15369608181255809 0 -0.17993745220376059 -0.17895489523397801 0 -0.1768933781993007 -0.15369608181255809 0 -0.19905977422349169 -0.1755558360643551 0 -0.1768933781993007 -0.15369608181255809 0 -0.17856324423929071 -0.13411692648003359 0 -0.16449988742022109 -0.13664022397910389 0 -0.1768933781993007 -0.15369608181255809 0 -0.17856324423929071 -0.13411692648003359 0 -0.1900158864605431 -0.1418606691544825 0 -0.17856324423929071 -0.13411692648003359 0 -0.1912596026832544 -0.12883579632457359 0 -0.1900158864605431 -0.1418606691544825 0 -0.17856324423929071 -0.13411692648003359 0 -0.1912596026832544 -0.12883579632457359 0 -0.18212358698306741 -0.12142770117184561 0 -0.17856324423929071 -0.13411692648003359 0 -0.18212358698306741 -0.12142770117184561 0 -0.16904936396502779 -0.1225698900008125 0 -0.16449988742022109 -0.13664022397910389 0 -0.16904936396502779 -0.1225698900008125 0 -0.1531014227808439 -0.1221458571451004 0 -0.17856324423929071 -0.13411692648003359 0 -0.16449988742022109 -0.13664022397910389 0 -0.16904936396502779 -0.1225698900008125 0 -0.1483318871288308 -0.14990625910496369 0 -0.1768933781993007 -0.15369608181255809 0 -0.1483318871288308 -0.14990625910496369 0 -0.1768933781993007 -0.15369608181255809 0 -0.16449988742022109 -0.13664022397910389 0 -0.15566934165753701 -0.24482136105764621 0 -0.13482897363606841 -0.24297815366164491 0 -0.14564999181442231 -0.22989611270817639 0 -0.15566934165753701 -0.24482136105764621 0 -0.14564999181442231 -0.22989611270817639 0 -0.16429012863802009 -0.23491512272004891 0 -0.15821309250511281 -0.26118480488572993 0 -0.15566934165753701 -0.24482136105764621 0 -0.13482897363606841 -0.24297815366164491 0 -0.1283361407779757 -0.25159171728621699 0 -0.13482897363606841 -0.24297815366164491 0 -0.1310987251445577 -0.2446583467236331 0 -0.1283361407779757 -0.25159171728621699 0 -0.1310987251445577 -0.2446583467236331 0 -0.1270777831465402 -0.24161244513161839 0 -0.1283361407779757 -0.25159171728621699 0 -0.11992695639240671 -0.24305274461581289 0 -0.1270777831465402 -0.24161244513161839 0 -0.13482897363606841 -0.24297815366164491 0 -0.1310987251445577 -0.2446583467236331 0 -0.1270777831465402 -0.24161244513161839 0 -0.13482897363606841 -0.24297815366164491 0 -0.12594535918601221 -0.23537450645762351 0 -0.1270777831465402 -0.24161244513161839 0 -0.13482897363606841 -0.24297815366164491 0 -0.12964778408632779 -0.2240559515308029 0 -0.14564999181442231 -0.22989611270817639 0 -0.13482897363606841 -0.24297815366164491 0 -0.12594535918601221 -0.23537450645762351 0 -0.12964778408632779 -0.2240559515308029 0 -0.13482897363606841 -0.24297815366164491 0 -0.12964778408632779 -0.2240559515308029 0 -0.12964778408632779 -0.2240559515308029 0 -0.14564999181442231 -0.22989611270817639 0 -0.13906082520362789 -0.21424948005767519 0 -0.14564999181442231 -0.22989611270817639 0 -0.1532157355819776 -0.21469763412746851 0 -0.16429012863802009 -0.23491512272004891 0 -0.14564999181442231 -0.22989611270817639 0 -0.1532157355819776 -0.21469763412746851 0 -0.13906082520362789 -0.21424948005767519 0 -0.1532157355819776 -0.21469763412746851 0 -0.1421413425259351 -0.1944801455348881 0 -0.14344356041104711 -0.20138231805780499 0 -0.1532157355819776 -0.21469763412746851 0 -0.1421413425259351 -0.1944801455348881 0 -0.1532157355819776 -0.21469763412746851 0 -0.13906082520362789 -0.21424948005767519 0 -0.14344356041104711 -0.20138231805780499 0 -0.12964778408632779 -0.2240559515308029 0 -0.13906082520362789 -0.21424948005767519 0 -0.12775347419704111 -0.20670520812175669 0 -0.12446659453658469 -0.2051337493999616 0 -0.12964778408632779 -0.2240559515308029 0 -0.12775347419704111 -0.20670520812175669 0 -0.12446659453658469 -0.2051337493999616 0 -0.12964778408632779 -0.2240559515308029 0 -0.1234142843990034 -0.20129061165398179 0 -0.12775347419704111 -0.20670520812175669 0 -0.1342433848347403 -0.2059710501757869 0 -0.1234142843990034 -0.20129061165398179 0 -0.12446659453658469 -0.2051337493999616 0 -0.12775347419704111 -0.20670520812175669 0 -0.12446659453658469 -0.2051337493999616 0 -0.12775347419704111 -0.20670520812175669 0 -0.13906082520362789 -0.21424948005767519 0 -0.12775347419704111 -0.20670520812175669 0 -0.1342433848347403 -0.2059710501757869 0 -0.13906082520362789 -0.21424948005767519 0 -0.1342433848347403 -0.2059710501757869 0 -0.14344356041104711 -0.20138231805780499 0 -0.13448747671815081 -0.19705371152474219 0 -0.1421413425259351 -0.1944801455348881 0 -0.14344356041104711 -0.20138231805780499 0 -0.1234142843990034 -0.20129061165398179 0 -0.1342433848347403 -0.2059710501757869 0 -0.14344356041104711 -0.20138231805780499 0 -0.1234142843990034 -0.20129061165398179 0 -0.13448747671815081 -0.19705371152474219 0 -0.14344356041104711 -0.20138231805780499 0 -0.1234142843990034 -0.20129061165398179 0 -0.14344356041104711 -0.20138231805780499 0 -0.1234142843990034 -0.20129061165398179 0 -0.13448747671815081 -0.19705371152474219 0 -0.12836978379805469 -0.19505845874684749 0 -0.118443644943155 -0.18313735869921541 0 -0.12836978379805469 -0.19505845874684749 0 -0.12964513627792831 -0.18854704193980709 0 -0.12836978379805469 -0.19505845874684749 0 -0.12964513627792831 -0.18854704193980709 0 -0.1350684124567138 -0.19305702363018909 0 -0.13448747671815081 -0.19705371152474219 0 -0.12836978379805469 -0.19505845874684749 0 -0.1350684124567138 -0.19305702363018909 0 -0.13667151748925299 -0.18732448341615179 0 -0.12964513627792831 -0.18854704193980709 0 -0.1350684124567138 -0.19305702363018909 0 -0.13448747671815081 -0.19705371152474219 0 -0.1350684124567138 -0.19305702363018909 0 -0.1421413425259351 -0.1944801455348881 0 -0.13667151748925299 -0.18732448341615179 0 -0.1350684124567138 -0.19305702363018909 0 -0.1421413425259351 -0.1944801455348881 0 -0.1532157355819776 -0.21469763412746851 0 -0.1421413425259351 -0.1944801455348881 0 -0.15666351948114629 -0.1995899832452937 0 -0.13667151748925299 -0.18732448341615179 0 -0.14496415935730611 -0.1865433765957375 0 -0.1421413425259351 -0.1944801455348881 0 -0.14496415935730611 -0.1865433765957375 0 -0.1421413425259351 -0.1944801455348881 0 -0.15433817598466459 -0.18776234762491931 0 -0.1421413425259351 -0.1944801455348881 0 -0.15433817598466459 -0.18776234762491931 0 -0.15666351948114629 -0.1995899832452937 0 -0.15433817598466459 -0.18776234762491931 0 -0.15666351948114629 -0.1995899832452937 0 -0.16707343948115469 -0.19329854854562631 0 -0.15666351948114629 -0.1995899832452937 0 -0.16707343948115469 -0.19329854854562631 0 -0.16732224548458891 -0.20842311436722119 0 -0.16707343948115469 -0.19329854854562631 0 -0.17975878066101059 -0.20042989322362739 0 -0.16732224548458891 -0.20842311436722119 0 -0.17993745220376059 -0.17895489523397801 0 -0.17975878066101059 -0.20042989322362739 0 -0.19266467917721081 -0.1936257676085566 0 -0.17993745220376059 -0.17895489523397801 0 -0.16707343948115469 -0.19329854854562631 0 -0.17975878066101059 -0.20042989322362739 0 -0.17975878066101059 -0.20042989322362739 0 -0.18070391625864071 -0.21863984915545301 0 -0.19253239785726259 -0.2093467412910768 0 -0.17975878066101059 -0.20042989322362739 0 -0.18070391625864071 -0.21863984915545301 0 -0.16732224548458891 -0.20842311436722119 0 -0.1532157355819776 -0.21469763412746851 0 -0.15666351948114629 -0.1995899832452937 0 -0.16732224548458891 -0.20842311436722119 0 -0.1532157355819776 -0.21469763412746851 0 -0.16732224548458891 -0.20842311436722119 0 -0.16429012863802009 -0.23491512272004891 0 -0.1532157355819776 -0.21469763412746851 0 -0.16429012863802009 -0.23491512272004891 0 -0.18070391625864071 -0.21863984915545301 0 -0.16732224548458891 -0.20842311436722119 0 -0.16429012863802009 -0.23491512272004891 0 -0.18070391625864071 -0.21863984915545301 0 -0.18601458812680871 -0.23629827425452701 0 -0.16429012863802009 -0.23491512272004891 0 -0.18070391625864071 -0.21863984915545301 0 -0.18601458812680871 -0.23629827425452701 0 -0.19270158591305361 -0.22296204550849591 0 -0.17536452169406261 -0.25513261131262932 0 -0.18601458812680871 -0.23629827425452701 0 -0.1971211098569064 -0.2485562144643311 0 -0.17536452169406261 -0.25513261131262932 0 -0.18601458812680871 -0.23629827425452701 0 -0.16429012863802009 -0.23491512272004891 0 -0.17536452169406261 -0.25513261131262932 0 -0.16429012863802009 -0.23491512272004891 0 -0.17536452169406261 -0.25513261131262932 0 -0.15566934165753701 -0.24482136105764621 0 -0.16429012863802009 -0.23491512272004891 0 -0.2040044810152343 -0.23377727090047351 0 -0.22181314593257209 -0.22697511150882529 0 -0.22025275826160279 -0.2471257797298928 0 -0.1971211098569064 -0.2485562144643311 0 -0.2040044810152343 -0.23377727090047351 0 -0.22025275826160279 -0.2471257797298928 0 -0.18601458812680871 -0.23629827425452701 0 -0.1971211098569064 -0.2485562144643311 0 -0.2040044810152343 -0.23377727090047351 0 -0.18601458812680871 -0.23629827425452701 0 -0.19270158591305361 -0.22296204550849591 0 -0.2040044810152343 -0.23377727090047351 0 -0.19270158591305361 -0.22296204550849591 0 -0.20646661184779291 -0.2209366033754204 0 -0.2040044810152343 -0.23377727090047351 0 -0.20646661184779291 -0.2209366033754204 0 -0.2040044810152343 -0.23377727090047351 0 -0.22181314593257209 -0.22697511150882529 0 -0.20646661184779291 -0.2209366033754204 0 -0.22181314593257209 -0.22697511150882529 0 -0.20646661184779291 -0.2209366033754204 0 -0.21966781828876961 -0.21222017746694699 0 -0.22181314593257209 -0.22697511150882529 0 -0.20646661184779291 -0.2209366033754204 0 -0.20611948272011121 -0.20304611138236681 0 -0.21966781828876961 -0.21222017746694699 0 -0.20611948272011121 -0.20304611138236681 0 -0.21897926871800019 -0.19669337567287831 0 -0.21966781828876961 -0.21222017746694699 0 -0.20646661184779291 -0.2209366033754204 0 -0.19253239785726259 -0.2093467412910768 0 -0.20611948272011121 -0.20304611138236681 0 -0.19270158591305361 -0.22296204550849591 0 -0.20646661184779291 -0.2209366033754204 0 -0.19253239785726259 -0.2093467412910768 0 -0.18070391625864071 -0.21863984915545301 0 -0.19270158591305361 -0.22296204550849591 0 -0.19253239785726259 -0.2093467412910768 0 -0.19266467917721081 -0.1936257676085566 0 -0.20611948272011121 -0.20304611138236681 0 -0.2083219237785757 -0.1873320277690235 0 -0.17975878066101059 -0.20042989322362739 0 -0.19253239785726259 -0.2093467412910768 0 -0.19266467917721081 -0.1936257676085566 0 -0.19253239785726259 -0.2093467412910768 0 -0.19266467917721081 -0.1936257676085566 0 -0.20611948272011121 -0.20304611138236681 0 -0.20611948272011121 -0.20304611138236681 0 -0.21897926871800019 -0.19669337567287831 0 -0.2083219237785757 -0.1873320277690235 0 -0.21897926871800019 -0.19669337567287831 0 -0.23230424975577199 -0.20503470769258789 0 -0.23313215691775949 -0.18450877018534409 0 -0.2448317244682672 -0.19494017856122331 0 -0.23230424975577199 -0.20503470769258789 0 -0.23313215691775949 -0.18450877018534409 0 -0.2448317244682672 -0.19494017856122331 0 -0.24405101732391901 -0.2151790953022156 0 -0.23230424975577199 -0.20503470769258789 0 -0.2448317244682672 -0.19494017856122331 0 -0.24405101732391901 -0.2151790953022156 0 -0.24405101732391901 -0.2151790953022156 0 -0.23230424975577199 -0.20503470769258789 0 -0.23232415075836929 -0.22063515516960361 0 -0.23230424975577199 -0.20503470769258789 0 -0.21966781828876961 -0.21222017746694699 0 -0.23232415075836929 -0.22063515516960361 0 -0.21897926871800019 -0.19669337567287831 0 -0.23230424975577199 -0.20503470769258789 0 -0.21966781828876961 -0.21222017746694699 0 -0.21966781828876961 -0.21222017746694699 0 -0.22181314593257209 -0.22697511150882529 0 -0.23232415075836929 -0.22063515516960361 0 -0.22181314593257209 -0.22697511150882529 0 -0.23232415075836929 -0.22063515516960361 0 -0.2371596800173508 -0.23301361964223161 0 -0.22181314593257209 -0.22697511150882529 0 -0.2371596800173508 -0.23301361964223161 0 -0.24405101732391901 -0.2151790953022156 0 -0.24327031017957049 -0.23541801204320789 0 -0.24405101732391901 -0.2151790953022156 0 -0.24327031017957049 -0.23541801204320789 0 -0.25588924886857078 -0.22577026586403889 0 -0.24405101732391901 -0.2151790953022156 0 -0.23232415075836929 -0.22063515516960361 0 -0.23916826383476761 -0.23133706037317611 0 -0.24405101732391901 -0.2151790953022156 0 -0.23916826383476761 -0.23133706037317611 0 -0.24327031017957049 -0.23541801204320789 0 -0.23916826383476761 -0.23133706037317611 0 -0.2371596800173508 -0.23301361964223161 0 -0.24327031017957049 -0.23541801204320789 0 -0.2371596800173508 -0.23301361964223161 0 -0.24327031017957049 -0.23541801204320789 0 -0.23232415075836929 -0.22063515516960361 0 -0.23916826383476761 -0.23133706037317611 0 -0.2371596800173508 -0.23301361964223161 0 -0.23916826383476761 -0.23133706037317611 0 -0.2371596800173508 -0.23301361964223161 0 -0.24233717299785959 -0.25960849866204011 0 -0.24327031017957049 -0.23541801204320789 0 -0.23442911476228809 -0.24683612341654529 0 -0.24233717299785959 -0.25960849866204011 0 -0.24327031017957049 -0.23541801204320789 0 -0.25018128361314113 -0.24746468840205441 0 -0.2371596800173508 -0.23301361964223161 0 -0.24327031017957049 -0.23541801204320789 0 -0.23442911476228809 -0.24683612341654529 0 -0.24233717299785959 -0.25960849866204011 0 -0.24327031017957049 -0.23541801204320789 0 -0.2371596800173508 -0.23301361964223161 0 -0.22025275826160279 -0.2471257797298928 0 -0.2371596800173508 -0.23301361964223161 0 -0.23442911476228809 -0.24683612341654529 0 -0.22025275826160279 -0.2471257797298928 0 -0.22181314593257209 -0.22697511150882529 0 -0.2371596800173508 -0.23301361964223161 0 -0.22025275826160279 -0.2471257797298928 0 -0.21260261997950849 -0.1372892749024191 0 -0.20545486926977061 -0.1574859045201529 0 -0.21260261997950849 -0.1372892749024191 0 -0.20545486926977061 -0.1574859045201529 0 -0.22601880180638709 -0.14497793796819641 0 -0.21260261997950849 -0.1372892749024191 0 -0.20085213665154589 -0.13643960324073179 0 -0.20545486926977061 -0.1574859045201529 0 -0.21260261997950849 -0.1372892749024191 0 -0.2197503706892443 -0.1170926452846846 0 -0.20366324778073339 -0.1226314006036201 0 -0.21260261997950849 -0.1372892749024191 0 -0.2197503706892443 -0.1170926452846846 0 -0.21260261997950849 -0.1372892749024191 0 -0.20085213665154589 -0.13643960324073179 0 -0.20366324778073339 -0.1226314006036201 0 -0.20085213665154589 -0.13643960324073179 0 -0.1912596026832544 -0.12883579632457359 0 -0.20366324778073339 -0.1226314006036201 0 -0.20085213665154589 -0.13643960324073179 0 -0.1912596026832544 -0.12883579632457359 0 -0.1900158864605431 -0.1418606691544825 0 -0.1768933781993007 -0.15369608181255809 0 -0.1900158864605431 -0.1418606691544825 0 -0.20545486926977061 -0.1574859045201529 0 -0.1768933781993007 -0.15369608181255809 0 -0.20545486926977061 -0.1574859045201529 0 -0.20085213665154589 -0.13643960324073179 0 -0.1900158864605431 -0.1418606691544825 0 -0.20545486926977061 -0.1574859045201529 0 -0.1768933781993007 -0.15369608181255809 0 -0.19905977422349169 -0.1755558360643551 0 -0.20545486926977061 -0.1574859045201529 0 -0.19905977422349169 -0.1755558360643551 0 -0.20545486926977061 -0.1574859045201529 0 -0.19266467917721081 -0.1936257676085566 0 -0.19905977422349169 -0.1755558360643551 0 -0.19266467917721081 -0.1936257676085566 0 -0.19905977422349169 -0.1755558360643551 0 -0.2083219237785757 -0.1873320277690235 0 -0.17993745220376059 -0.17895489523397801 0 -0.19266467917721081 -0.1936257676085566 0 -0.19905977422349169 -0.1755558360643551 0 -0.21897926871800019 -0.19669337567287831 0 -0.2083219237785757 -0.1873320277690235 0 -0.21860002285518379 -0.17692462022396371 0 -0.19905977422349169 -0.1755558360643551 0 -0.2083219237785757 -0.1873320277690235 0 -0.21860002285518379 -0.17692462022396371 0 -0.19905977422349169 -0.1755558360643551 0 -0.21860002285518379 -0.17692462022396371 0 -0.20545486926977061 -0.1574859045201529 0 -0.21860002285518379 -0.17692462022396371 0 -0.20545486926977061 -0.1574859045201529 0 -0.2334194436613071 -0.16119652238585741 0 -0.20545486926977061 -0.1574859045201529 0 -0.2334194436613071 -0.16119652238585741 0 -0.21860002285518379 -0.17692462022396371 0 -0.2334194436613071 -0.16119652238585741 0 -0.23313215691775949 -0.18450877018534409 0 -0.21897926871800019 -0.19669337567287831 0 -0.21860002285518379 -0.17692462022396371 0 -0.23313215691775949 -0.18450877018534409 0 -0.2448317244682672 -0.19494017856122331 0 -0.24561243161261531 -0.1747012618202311 0 -0.2448317244682672 -0.19494017856122331 0 -0.23313215691775949 -0.18450877018534409 0 -0.24561243161261531 -0.1747012618202311 0 -0.2334194436613071 -0.16119652238585741 0 -0.23313215691775949 -0.18450877018534409 0 -0.24561243161261531 -0.1747012618202311 0 -0.2334194436613071 -0.16119652238585741 0 -0.24768759332024501 -0.15288591991307249 0 -0.26138401805284373 -0.16490714025156239 0 -0.2334194436613071 -0.16119652238585741 0 -0.24561243161261531 -0.1747012618202311 0 -0.26138401805284373 -0.16490714025156239 0 -0.2334194436613071 -0.16119652238585741 0 -0.26138401805284373 -0.16490714025156239 0 -0.24768759332024501 -0.15288591991307249 0 -0.24035206963199701 -0.13773520297616959 0 -0.25066558347885931 -0.13251764995053431 0 -0.23716828236838119 -0.14842713651880179 0 -0.22601880180638709 -0.14497793796819641 0 -0.24035206963199701 -0.13773520297616959 0 -0.24768759332024501 -0.15288591991307249 0 -0.23716828236838119 -0.14842713651880179 0 -0.24035206963199701 -0.13773520297616959 0 -0.2334194436613071 -0.16119652238585741 0 -0.24768759332024501 -0.15288591991307249 0 -0.23716828236838119 -0.14842713651880179 0 -0.20545486926977061 -0.1574859045201529 0 -0.2334194436613071 -0.16119652238585741 0 -0.22601880180638709 -0.14497793796819641 0 -0.2334194436613071 -0.16119652238585741 0 -0.23716828236838119 -0.14842713651880179 0 -0.22601880180638709 -0.14497793796819641 0 -0.21260261997950849 -0.1372892749024191 0 -0.22701037204806629 -0.12800517972509859 0 -0.2197503706892443 -0.1170926452846846 0 -0.22601880180638709 -0.14497793796819641 0 -0.22701037204806629 -0.12800517972509859 0 -0.24035206963199701 -0.13773520297616959 0 -0.21260261997950849 -0.1372892749024191 0 -0.22601880180638709 -0.14497793796819641 0 -0.22701037204806629 -0.12800517972509859 0 -0.22701037204806629 -0.12800517972509859 0 -0.23833475363582929 -0.12699719077821001 0 -0.24035206963199701 -0.13773520297616959 0 -0.23833475363582929 -0.12699719077821001 0 -0.24035206963199701 -0.13773520297616959 0 -0.25066558347885931 -0.13251764995053431 0 -0.23833475363582929 -0.12699719077821001 0 -0.2466021228926524 -0.1215603100838341 0 -0.25066558347885931 -0.13251764995053431 0 -0.2466021228926524 -0.1215603100838341 0 -0.23420880670407421 -0.115344861449812 0 -0.25028307647261949 -0.1119170655065333 0 -0.23833475363582929 -0.12699719077821001 0 -0.2466021228926524 -0.1215603100838341 0 -0.23420880670407421 -0.115344861449812 0 -0.23975108867161321 -0.096745383671773488 0 -0.23420880670407421 -0.115344861449812 0 -0.25028307647261949 -0.1119170655065333 0 -0.23975108867161321 -0.096745383671773488 0 -0.25028307647261949 -0.1119170655065333 0 -0.25454071313255938 -0.097810231909066098 0 -0.23975108867161321 -0.096745383671773488 0 -0.22550089202944229 -0.1008440162637169 0 -0.23125141336964011 -0.084595387242749231 0 -0.23975108867161321 -0.096745383671773488 0 -0.22550089202944229 -0.1008440162637169 0 -0.23420880670407421 -0.115344861449812 0 -0.22550089202944229 -0.1008440162637169 0 -0.23125141336964011 -0.084595387242749231 0 -0.20770402821161371 -0.098985744105056478 0 -0.22550089202944229 -0.1008440162637169 0 -0.2197503706892443 -0.1170926452846846 0 -0.22550089202944229 -0.1008440162637169 0 -0.2197503706892443 -0.1170926452846846 0 -0.23420880670407421 -0.115344861449812 0 -0.22701037204806629 -0.12800517972509859 0 -0.2197503706892443 -0.1170926452846846 0 -0.22701037204806629 -0.12800517972509859 0 -0.2197503706892443 -0.1170926452846846 0 -0.23420880670407421 -0.115344861449812 0 -0.22701037204806629 -0.12800517972509859 0 -0.23833475363582929 -0.12699719077821001 0 -0.23420880670407421 -0.115344861449812 0 -0.24621250417125429 -0.067242688607955695 0 -0.2359213828018043 -0.071399957410672343 0 -0.2460442741291925 -0.056732515276429897 0 -0.24101683233652779 -0.07862751170581421 0 -0.252754029676304 -0.071454636367457428 0 -0.24621250417125429 -0.067242688607955695 0 -0.24101683233652779 -0.07862751170581421 0 -0.252754029676304 -0.071454636367457428 0 -0.2359213828018043 -0.071399957410672343 0 -0.24101683233652779 -0.07862751170581421 0 -0.24621250417125429 -0.067242688607955695 0 -0.2359213828018043 -0.071399957410672343 0 -0.24101683233652779 -0.07862751170581421 0 -0.24101683233652779 -0.07862751170581421 0 -0.25454071313255938 -0.097810231909066098 0 -0.23975108867161321 -0.096745383671773488 0 -0.24101683233652779 -0.07862751170581421 0 -0.25454071313255938 -0.097810231909066098 0 -0.23975108867161321 -0.096745383671773488 0 -0.24101683233652779 -0.07862751170581421 0 -0.23125141336964011 -0.084595387242749231 0 -0.24101683233652779 -0.07862751170581421 0 -0.23125141336964011 -0.084595387242749231 0 -0.2359213828018043 -0.071399957410672343 0 -0.24101683233652779 -0.07862751170581421 0 -0.23125141336964011 -0.084595387242749231 0 -0.23125141336964011 -0.084595387242749231 0 -0.2244703125416819 -0.072794076224461268 0 -0.21310247649950159 -0.079773441579648038 0 -0.23125141336964011 -0.084595387242749231 0 -0.20770402821161371 -0.098985744105056478 0 -0.22550089202944229 -0.1008440162637169 0 -0.23125141336964011 -0.084595387242749231 0 -0.2359213828018043 -0.071399957410672343 0 -0.2235514570548072 -0.053854045248439182 0 -0.2244703125416819 -0.072794076224461268 0 -0.21482267827762841 -0.069082647852091478 0 -0.2235514570548072 -0.053854045248439182 0 -0.2359213828018043 -0.071399957410672343 0 -0.2244703125416819 -0.072794076224461268 0 -0.2235514570548072 -0.053854045248439182 0 -0.2359213828018043 -0.071399957410672343 0 -0.23125141336964011 -0.084595387242749231 0 -0.2244703125416819 -0.072794076224461268 0 -0.2359213828018043 -0.071399957410672343 0 -0.23125141336964011 -0.084595387242749231 0 -0.20472732395068391 -0.070425609547595483 0 -0.21310247649950159 -0.079773441579648038 0 -0.1942101978544846 -0.078703118630565005 0 -0.21482267827762841 -0.069082647852091478 0 -0.20472732395068391 -0.070425609547595483 0 -0.20783277774853701 -0.056374475910446593 0 -0.2244703125416819 -0.072794076224461268 0 -0.21482267827762841 -0.069082647852091478 0 -0.21310247649950159 -0.079773441579648038 0 -0.21482267827762841 -0.069082647852091478 0 -0.20472732395068391 -0.070425609547595483 0 -0.21310247649950159 -0.079773441579648038 0 -0.23125141336964011 -0.084595387242749231 0 -0.21310247649950159 -0.079773441579648038 0 -0.20770402821161371 -0.098985744105056478 0 -0.21310247649950159 -0.079773441579648038 0 -0.1942101978544846 -0.078703118630565005 0 -0.20770402821161371 -0.098985744105056478 0 -0.1942101978544846 -0.078703118630565005 0 -0.20770402821161371 -0.098985744105056478 0 -0.1942101978544846 -0.078703118630565005 0 -0.20770402821161371 -0.098985744105056478 0 -0.19331927689223261 -0.094690670375105077 0 -0.1942101978544846 -0.078703118630565005 0 -0.19331927689223261 -0.094690670375105077 0 -0.1804061946459036 -0.0975656506999769 0 -0.1942101978544846 -0.078703118630565005 0 -0.1807163674973549 -0.058420493156073998 0 -0.19569491766720151 -0.061370611856350392 0 -0.20472732395068391 -0.070425609547595483 0 -0.1942101978544846 -0.078703118630565005 0 -0.19569491766720151 -0.061370611856350392 0 -0.20472732395068391 -0.070425609547595483 0 -0.19569491766720151 -0.061370611856350392 0 -0.20783277774853701 -0.056374475910446593 0 -0.2197503706892443 -0.1170926452846846 0 -0.20366324778073339 -0.1226314006036201 0 -0.20770402821161371 -0.098985744105056478 0 -0.22550089202944229 -0.1008440162637169 0 -0.2197503706892443 -0.1170926452846846 0 -0.20770402821161371 -0.098985744105056478 0 -0.2197503706892443 -0.1170926452846846 0 -0.20770402821161371 -0.098985744105056478 0 -0.20770402821161371 -0.098985744105056478 0 -0.19331927689223261 -0.094690670375105077 0 -0.18400427859456039 -0.1134692144457318 0 -0.20770402821161371 -0.098985744105056478 0 -0.18400427859456039 -0.1134692144457318 0 -0.20770402821161371 -0.098985744105056478 0 -0.19170728544238649 -0.1194909919475228 0 -0.18400427859456039 -0.1134692144457318 0 -0.20366324778073339 -0.1226314006036201 0 -0.20770402821161371 -0.098985744105056478 0 -0.19170728544238649 -0.1194909919475228 0 -0.1912596026832544 -0.12883579632457359 0 -0.20366324778073339 -0.1226314006036201 0 -0.19170728544238649 -0.1194909919475228 0 -0.1912596026832544 -0.12883579632457359 0 -0.19170728544238649 -0.1194909919475228 0 -0.18212358698306741 -0.12142770117184561 0 -0.18212358698306741 -0.12142770117184561 0 -0.18400427859456039 -0.1134692144457318 0 -0.1804061946459036 -0.0975656506999769 0 -0.18212358698306741 -0.12142770117184561 0 -0.17231042801981861 -0.11010941660198729 0 -0.1804061946459036 -0.0975656506999769 0 -0.19170728544238649 -0.1194909919475228 0 -0.18212358698306741 -0.12142770117184561 0 -0.18400427859456039 -0.1134692144457318 0 -0.18212358698306741 -0.12142770117184561 0 -0.1804061946459036 -0.0975656506999769 0 -0.18212358698306741 -0.12142770117184561 0 -0.17231042801981861 -0.11010941660198729 0 -0.16904936396502779 -0.1225698900008125 0 -0.16904936396502779 -0.1225698900008125 0 -0.16303186383997401 -0.11054530689275879 0 -0.1531014227808439 -0.1221458571451004 0 -0.16303186383997401 -0.11054530689275879 0 -0.1531014227808439 -0.1221458571451004 0 -0.15302467802266631 -0.099964594768007481 0 -0.17231042801981861 -0.11010941660198729 0 -0.16904936396502779 -0.1225698900008125 0 -0.16303186383997401 -0.11054530689275879 0 -0.16694113066512001 -0.098438534244542714 0 -0.1583311292500037 -0.086155785580523059 0 -0.15302467802266631 -0.099964594768007481 0 -0.16303186383997401 -0.11054530689275879 0 -0.16694113066512001 -0.098438534244542714 0 -0.15302467802266631 -0.099964594768007481 0 -0.17231042801981861 -0.11010941660198729 0 -0.16303186383997401 -0.11054530689275879 0 -0.16694113066512001 -0.098438534244542714 0 -0.16694113066512001 -0.098438534244542714 0 -0.1804061946459036 -0.0975656506999769 0 -0.1699979234477183 -0.086164615643162509 0 -0.19331927689223261 -0.094690670375105077 0 -0.18400427859456039 -0.1134692144457318 0 -0.1804061946459036 -0.0975656506999769 0 -0.17231042801981861 -0.11010941660198729 0 -0.16694113066512001 -0.098438534244542714 0 -0.1804061946459036 -0.0975656506999769 0 -0.1942101978544846 -0.078703118630565005 0 -0.1804061946459036 -0.0975656506999769 0 -0.17868880230873979 -0.073703600228108263 0 -0.1804061946459036 -0.0975656506999769 0 -0.17868880230873979 -0.073703600228108263 0 -0.1804061946459036 -0.0975656506999769 0 -0.17868880230873979 -0.073703600228108263 0 -0.1699979234477183 -0.086164615643162509 0 -0.1942101978544846 -0.078703118630565005 0 -0.17868880230873979 -0.073703600228108263 0 -0.1807163674973549 -0.058420493156073998 0 -0.1942101978544846 -0.078703118630565005 0 -0.1807163674973549 -0.058420493156073998 0 -0.17868880230873979 -0.073703600228108263 0 -0.16456215259537851 -0.07423447470758808 0 -0.1687761726195266 -0.062055246708151823 0 -0.16456215259537851 -0.07423447470758808 0 -0.1601060057786266 -0.063048208625582775 0 -0.1687761726195266 -0.062055246708151823 0 -0.17868880230873979 -0.073703600228108263 0 -0.16456215259537851 -0.07423447470758808 0 -0.1699979234477183 -0.086164615643162509 0 -0.16456215259537851 -0.07423447470758808 0 -0.1601060057786266 -0.063048208625582775 0 -0.15147288216765581 -0.074279391460000108 0 -0.16694113066512001 -0.098438534244542714 0 -0.1699979234477183 -0.086164615643162509 0 -0.1583311292500037 -0.086155785580523059 0 -0.16456215259537851 -0.07423447470758808 0 -0.1699979234477183 -0.086164615643162509 0 -0.1583311292500037 -0.086155785580523059 0 -0.16456215259537851 -0.07423447470758808 0 -0.1583311292500037 -0.086155785580523059 0 -0.15147288216765581 -0.074279391460000108 0 -0.1583311292500037 -0.086155785580523059 0 -0.1406917504718985 -0.083199174386461974 0 -0.15147288216765581 -0.074279391460000108 0 -0.1583311292500037 -0.086155785580523059 0 -0.1406917504718985 -0.083199174386461974 0 -0.15302467802266631 -0.099964594768007481 0 -0.1601060057786266 -0.063048208625582775 0 -0.15147288216765581 -0.074279391460000108 0 -0.14916280428309589 -0.053864076679432472 0 -0.15147288216765581 -0.074279391460000108 0 -0.13891648936515211 -0.064472249171247775 0 -0.14916280428309589 -0.053864076679432472 0 -0.1406917504718985 -0.083199174386461974 0 -0.15147288216765581 -0.074279391460000108 0 -0.13891648936515211 -0.064472249171247775 0 -0.12197003300458489 -0.067133964797042034 0 -0.1406917504718985 -0.083199174386461974 0 -0.13891648936515211 -0.064472249171247775 0 -0.121811479392537 -0.084095963505499416 0 -0.12197003300458489 -0.067133964797042034 0 -0.1406917504718985 -0.083199174386461974 0 -0.121811479392537 -0.084095963505499416 0 -0.1406917504718985 -0.083199174386461974 0 -0.13931556210068971 -0.10629227142291391 0 -0.11605893441195141 -0.10185107539240761 0 -0.121811479392537 -0.084095963505499416 0 -0.13931556210068971 -0.10629227142291391 0 -0.11422347955810171 -0.1204243593602408 0 -0.13931556210068971 -0.10629227142291391 0 -0.11422347955810171 -0.1204243593602408 0 -0.13445671698849809 -0.1291024538471422 0 -0.13931556210068971 -0.10629227142291391 0 -0.13445671698849809 -0.1291024538471422 0 -0.13931556210068971 -0.10629227142291391 0 -0.1531014227808439 -0.1221458571451004 0 -0.13931556210068971 -0.10629227142291391 0 -0.1531014227808439 -0.1221458571451004 0 -0.15302467802266631 -0.099964594768007481 0 -0.1406917504718985 -0.083199174386461974 0 -0.13931556210068971 -0.10629227142291391 0 -0.15302467802266631 -0.099964594768007481 0 -0.14079925107272581 -0.02334449083682992 0 -0.15349169287978739 -0.035208883327978051 0 -0.15939520176274349 -0.015620398581745401 0 -0.14079925107272581 -0.02334449083682992 0 -0.14275634286812811 -0.006203461430080404 0 -0.15939520176274349 -0.015620398581745401 0 -0.14275634286812811 -0.006203461430080404 0 -0.15939520176274349 -0.015620398581745401 0 -0.15796117991031841 -0.00029962151665172479 0 -0.14079925107272581 -0.02334449083682992 0 -0.14275634286812811 -0.006203461430080404 0 -0.1278640484455188 -0.012334690821253821 0 -0.14275634286812811 -0.006203461430080404 0 -0.1278640484455188 -0.012334690821253821 0 -0.1273771369441013 0.0023450629401116992 0 -0.12411398995058071 -0.026208981462584841 0 -0.14079925107272581 -0.02334449083682992 0 -0.1278640484455188 -0.012334690821253821 0 -0.12411398995058071 -0.026208981462584841 0 -0.14079925107272581 -0.02334449083682992 0 -0.13241258759658719 -0.044529255409706578 0 -0.13891648936515211 -0.064472249171247775 0 -0.13241258759658719 -0.044529255409706578 0 -0.14916280428309589 -0.053864076679432472 0 -0.12197003300458489 -0.067133964797042034 0 -0.13891648936515211 -0.064472249171247775 0 -0.13241258759658719 -0.044529255409706578 0 -0.14079925107272581 -0.02334449083682992 0 -0.13241258759658719 -0.044529255409706578 0 -0.15349169287978739 -0.035208883327978051 0 -0.14916280428309589 -0.053864076679432472 0 -0.15349169287978739 -0.035208883327978051 0 -0.16249228466986629 -0.048723367468166891 0 -0.13241258759658719 -0.044529255409706578 0 -0.14916280428309589 -0.053864076679432472 0 -0.15349169287978739 -0.035208883327978051 0 -0.15349169287978739 -0.035208883327978051 0 -0.16249228466986629 -0.048723367468166891 0 -0.17525401763441231 -0.025979499284370731 0 -0.16249228466986629 -0.048723367468166891 0 -0.17697140997157609 -0.049841549756239563 0 -0.17525401763441231 -0.025979499284370731 0 -0.1601060057786266 -0.063048208625582775 0 -0.14916280428309589 -0.053864076679432472 0 -0.16249228466986629 -0.048723367468166891 0 -0.1601060057786266 -0.063048208625582775 0 -0.16249228466986629 -0.048723367468166891 0 -0.1687761726195266 -0.062055246708151823 0 -0.16249228466986629 -0.048723367468166891 0 -0.1687761726195266 -0.062055246708151823 0 -0.17697140997157609 -0.049841549756239563 0 -0.17868880230873979 -0.073703600228108263 0 -0.17697140997157609 -0.049841549756239563 0 -0.17868880230873979 -0.073703600228108263 0 -0.17697140997157609 -0.049841549756239563 0 -0.1807163674973549 -0.058420493156073998 0 -0.17868880230873979 -0.073703600228108263 0 -0.1687761726195266 -0.062055246708151823 0 -0.17697140997157609 -0.049841549756239563 0 -0.17697140997157609 -0.049841549756239563 0 -0.187061179232277 -0.050545000195171969 0 -0.1807163674973549 -0.058420493156073998 0 -0.17697140997157609 -0.049841549756239563 0 -0.17525401763441231 -0.025979499284370731 0 -0.17697140997157609 -0.049841549756239563 0 -0.1844822702309237 -0.037308153316215523 0 -0.17525401763441231 -0.025979499284370731 0 -0.17697140997157609 -0.049841549756239563 0 -0.187061179232277 -0.050545000195171969 0 -0.1844822702309237 -0.037308153316215523 0 -0.1844822702309237 -0.037308153316215523 0 -0.17525401763441231 -0.025979499284370731 0 -0.19881160556081021 -0.01876222092397466 0 -0.17525401763441231 -0.025979499284370731 0 -0.17967452986780849 -0.0030086181600807401 0 -0.19881160556081021 -0.01876222092397466 0 -0.15349169287978739 -0.035208883327978051 0 -0.17525401763441231 -0.025979499284370731 0 -0.15939520176274349 -0.015620398581745401 0 -0.17525401763441231 -0.025979499284370731 0 -0.15939520176274349 -0.015620398581745401 0 -0.17967452986780849 -0.0030086181600807401 0 -0.15939520176274349 -0.015620398581745401 0 -0.15796117991031841 -0.00029962151665172479 0 -0.17967452986780849 -0.0030086181600807401 0 -0.17967452986780849 -0.0030086181600807401 0 -0.19881160556081021 -0.01876222092397466 0 -0.20680301002479959 -0.0020434230711429339 0 -0.1844822702309237 -0.037308153316215523 0 -0.19881160556081021 -0.01876222092397466 0 -0.19797908447346779 -0.034540675054344362 0 -0.19881160556081021 -0.01876222092397466 0 -0.19797908447346779 -0.034540675054344362 0 -0.2111815313078087 -0.036308133086206937 0 -0.19881160556081021 -0.01876222092397466 0 -0.2111815313078087 -0.036308133086206937 0 -0.19881160556081021 -0.01876222092397466 0 -0.2111815313078087 -0.036308133086206937 0 -0.21993326537292579 -0.016570742696256829 0 -0.19881160556081021 -0.01876222092397466 0 -0.20680301002479959 -0.0020434230711429339 0 -0.21993326537292579 -0.016570742696256829 0 -0.20680301002479959 -0.0020434230711429339 0 -0.21993326537292579 -0.016570742696256829 0 -0.22850437187820721 0.00061554774341724197 0 -0.187061179232277 -0.050545000195171969 0 -0.1807163674973549 -0.058420493156073998 0 -0.19569491766720151 -0.061370611856350392 0 -0.187061179232277 -0.050545000195171969 0 -0.19569491766720151 -0.061370611856350392 0 -0.1974409307943287 -0.045784192890980333 0 -0.19569491766720151 -0.061370611856350392 0 -0.1974409307943287 -0.045784192890980333 0 -0.20783277774853701 -0.056374475910446593 0 -0.187061179232277 -0.050545000195171969 0 -0.1844822702309237 -0.037308153316215523 0 -0.1974409307943287 -0.045784192890980333 0 -0.1844822702309237 -0.037308153316215523 0 -0.1974409307943287 -0.045784192890980333 0 -0.19797908447346779 -0.034540675054344362 0 -0.1974409307943287 -0.045784192890980333 0 -0.19797908447346779 -0.034540675054344362 0 -0.2111815313078087 -0.036308133086206937 0 -0.1974409307943287 -0.045784192890980333 0 -0.2111815313078087 -0.036308133086206937 0 -0.20783277774853701 -0.056374475910446593 0 -0.2111815313078087 -0.036308133086206937 0 -0.2235514570548072 -0.053854045248439182 0 -0.21482267827762841 -0.069082647852091478 0 -0.20783277774853701 -0.056374475910446593 0 -0.2235514570548072 -0.053854045248439182 0 -0.2111815313078087 -0.036308133086206937 0 -0.20783277774853701 -0.056374475910446593 0 -0.2235514570548072 -0.053854045248439182 0 -0.2359213828018043 -0.071399957410672343 0 -0.2235514570548072 -0.053854045248439182 0 -0.23385975453729951 -0.05448316257834377 0 -0.2235514570548072 -0.053854045248439182 0 -0.23385975453729951 -0.05448316257834377 0 -0.23195090370150159 -0.044148728843497582 0 -0.2111815313078087 -0.036308133086206937 0 -0.23195090370150159 -0.044148728843497582 0 -0.2330954250503823 -0.030605580137893669 0 -0.2111815313078087 -0.036308133086206937 0 -0.2235514570548072 -0.053854045248439182 0 -0.23195090370150159 -0.044148728843497582 0 -0.2440152745910836 -0.048529918810766987 0 -0.25210916638036568 -0.025659880210862549 0 -0.23195090370150159 -0.044148728843497582 0 -0.2440152745910836 -0.048529918810766987 0 -0.2330954250503823 -0.030605580137893669 0 -0.2440152745910836 -0.048529918810766987 0 -0.2330954250503823 -0.030605580137893669 0 -0.25210916638036568 -0.025659880210862549 0 -0.2359213828018043 -0.071399957410672343 0 -0.2440152745910836 -0.048529918810766987 0 -0.2460442741291925 -0.056732515276429897 0 -0.2359213828018043 -0.071399957410672343 0 -0.2440152745910836 -0.048529918810766987 0 -0.2359213828018043 -0.071399957410672343 0 -0.23385975453729951 -0.05448316257834377 0 -0.2440152745910836 -0.048529918810766987 0 -0.23385975453729951 -0.05448316257834377 0 -0.23195090370150159 -0.044148728843497582 0 -0.2440152745910836 -0.048529918810766987 0 -0.2440152745910836 -0.048529918810766987 0 -0.2460442741291925 -0.056732515276429897 0 -0.25586239660102372 -0.042106716883949957 0 -0.21993326537292579 -0.016570742696256829 0 -0.2409228609234593 -0.01213331886889705 0 -0.22850437187820721 0.00061554774341724197 0 -0.21993326537292579 -0.016570742696256829 0 -0.2330954250503823 -0.030605580137893669 0 -0.2409228609234593 -0.01213331886889705 0 -0.2111815313078087 -0.036308133086206937 0 -0.21993326537292579 -0.016570742696256829 0 -0.2330954250503823 -0.030605580137893669 0 -0.2330954250503823 -0.030605580137893669 0 -0.2409228609234593 -0.01213331886889705 0 -0.25210916638036568 -0.025659880210862549 0 -0.2409228609234593 -0.01213331886889705 0 -0.25132042997239518 0.0027134119798401068 0 -0.22850437187820721 0.00061554774341724197 0 -0.2409228609234593 -0.01213331886889705 0 -0.26431478179583978 -0.01186883573312463 0 -0.25132042997239518 0.0027134119798401068 0 -0.2409228609234593 -0.01213331886889705 0 -0.26431478179583978 -0.01186883573312463 0 -0.25210916638036568 -0.025659880210862549 0 -0.26431478179583978 -0.01186883573312463 0 -0.25210916638036568 -0.025659880210862549 0 -0.26885463380623098 -0.032431385670777198 0 -0.26431478179583978 -0.01186883573312463 0 -0.28272693982295583 -0.022072801118422261 0 -0.26885463380623098 -0.032431385670777198 0 -0.26431478179583978 -0.01186883573312463 0 -0.2820771903446922 -0.0013122005201030101 0 -0.28272693982295583 -0.022072801118422261 0 -0.26431478179583978 -0.01186883573312463 0 -0.2820771903446922 -0.0013122005201030101 0 -0.26646431581863778 0.01029557754540468 0 -0.2820771903446922 -0.0013122005201030101 0 -0.29531588189047731 -0.01459302740547606 0 -0.28272693982295583 -0.022072801118422261 0 -0.2820771903446922 -0.0013122005201030101 0 -0.29531588189047731 -0.01459302740547606 0 -0.30047775033007851 -0.00039401612408775783 0 -0.28272693982295583 -0.022072801118422261 0 -0.29548818451705972 -0.026431314805352931 0 -0.29006158744840338 -0.043009214960059237 0 -0.29531588189047731 -0.01459302740547606 0 -0.28272693982295583 -0.022072801118422261 0 -0.29548818451705972 -0.026431314805352931 0 -0.30546101391149699 -0.021623392358951481 0 -0.31536924438116293 -0.015921951660718081 0 -0.31269309410946189 -0.035953378537937578 0 -0.29531588189047731 -0.01459302740547606 0 -0.29548818451705972 -0.026431314805352931 0 -0.30546101391149699 -0.021623392358951481 0 -0.29548818451705972 -0.026431314805352931 0 -0.30546101391149699 -0.021623392358951481 0 -0.30306546886548719 -0.032455918975325043 0 -0.30546101391149699 -0.021623392358951481 0 -0.31269309410946189 -0.035953378537937578 0 -0.30546101391149699 -0.021623392358951481 0 -0.30306546886548719 -0.032455918975325043 0 -0.31269309410946189 -0.035953378537937578 0 -0.30546101391149699 -0.021623392358951481 0 -0.30702321298661528 -0.0098616365840560535 0 -0.31536924438116293 -0.015921951660718081 0 -0.30702321298661528 -0.0098616365840560535 0 -0.30047775033007851 -0.00039401612408775783 0 -0.31849217441985911 0.0032242046289520012 0 -0.29531588189047731 -0.01459302740547606 0 -0.30702321298661528 -0.0098616365840560535 0 -0.30047775033007851 -0.00039401612408775783 0 -0.29531588189047731 -0.01459302740547606 0 -0.30546101391149699 -0.021623392358951481 0 -0.30702321298661528 -0.0098616365840560535 0 -0.30785263576887473 -0.062005008750064983 0 -0.31269309410946189 -0.035953378537937578 0 -0.30785263576887473 -0.062005008750064983 0 -0.29006158744840338 -0.043009214960059237 0 -0.31269309410946189 -0.035953378537937578 0 -0.30306546886548719 -0.032455918975325043 0 -0.29006158744840338 -0.043009214960059237 0 -0.31269309410946189 -0.035953378537937578 0 -0.29006158744840338 -0.043009214960059237 0 -0.31269309410946189 -0.035953378537937578 0 -0.29548818451705972 -0.026431314805352931 0 -0.30306546886548719 -0.032455918975325043 0 -0.29006158744840338 -0.043009214960059237 0 -0.30785263576887473 -0.062005008750064983 0 -0.29006158744840338 -0.043009214960059237 0 -0.29043964680931811 -0.063340758069959313 0 -0.29006158744840338 -0.043009214960059237 0 -0.27571433008302992 -0.061323808156972907 0 -0.29043964680931811 -0.063340758069959313 0 -0.27571433008302992 -0.061323808156972907 0 -0.26805293078879788 -0.049870865118244581 0 -0.25908974683711639 -0.062912752445689821 0 -0.29006158744840338 -0.043009214960059237 0 -0.27571433008302992 -0.061323808156972907 0 -0.26805293078879788 -0.049870865118244581 0 -0.28272693982295583 -0.022072801118422261 0 -0.29006158744840338 -0.043009214960059237 0 -0.26885463380623098 -0.032431385670777198 0 -0.29006158744840338 -0.043009214960059237 0 -0.26805293078879788 -0.049870865118244581 0 -0.29006158744840338 -0.043009214960059237 0 -0.26805293078879788 -0.049870865118244581 0 -0.26885463380623098 -0.032431385670777198 0 -0.2440152745910836 -0.048529918810766987 0 -0.25210916638036568 -0.025659880210862549 0 -0.25586239660102372 -0.042106716883949957 0 -0.26805293078879788 -0.049870865118244581 0 -0.26885463380623098 -0.032431385670777198 0 -0.25586239660102372 -0.042106716883949957 0 -0.25210916638036568 -0.025659880210862549 0 -0.26885463380623098 -0.032431385670777198 0 -0.25586239660102372 -0.042106716883949957 0 -0.2460442741291925 -0.056732515276429897 0 -0.26805293078879788 -0.049870865118244581 0 -0.2460442741291925 -0.056732515276429897 0 -0.26805293078879788 -0.049870865118244581 0 -0.25908974683711639 -0.062912752445689821 0 -0.2460442741291925 -0.056732515276429897 0 -0.26805293078879788 -0.049870865118244581 0 -0.25586239660102372 -0.042106716883949957 0 -0.24621250417125429 -0.067242688607955695 0 -0.2460442741291925 -0.056732515276429897 0 -0.25908974683711639 -0.062912752445689821 0 -0.24621250417125429 -0.067242688607955695 0 -0.25908974683711639 -0.062912752445689821 0 -0.252754029676304 -0.071454636367457428 0 -0.24101683233652779 -0.07862751170581421 0 -0.252754029676304 -0.071454636367457428 0 -0.26402766811367417 -0.083484384069295273 0 -0.25908974683711639 -0.062912752445689821 0 -0.252754029676304 -0.071454636367457428 0 -0.26621243399467659 -0.070844567870559746 0 -0.252754029676304 -0.071454636367457428 0 -0.26402766811367417 -0.083484384069295273 0 -0.26621243399467659 -0.070844567870559746 0 -0.24101683233652779 -0.07862751170581421 0 -0.26402766811367417 -0.083484384069295273 0 -0.25454071313255938 -0.097810231909066098 0 -0.26402766811367417 -0.083484384069295273 0 -0.27094601368544552 -0.10060299140421709 0 -0.28369928052750421 -0.089996057638050242 0 -0.26402766811367417 -0.083484384069295273 0 -0.27947639526325851 -0.075047258313383283 0 -0.28369928052750421 -0.089996057638050242 0 -0.27571433008302992 -0.061323808156972907 0 -0.25908974683711639 -0.062912752445689821 0 -0.26621243399467659 -0.070844567870559746 0 -0.27571433008302992 -0.061323808156972907 0 -0.27947639526325851 -0.075047258313383283 0 -0.26621243399467659 -0.070844567870559746 0 -0.26402766811367417 -0.083484384069295273 0 -0.27947639526325851 -0.075047258313383283 0 -0.26621243399467659 -0.070844567870559746 0 -0.25700205454408459 -0.1228995308742117 0 -0.25028307647261949 -0.1119170655065333 0 -0.26806459392859111 -0.11699295211231781 0 -0.25700205454408459 -0.1228995308742117 0 -0.26806459392859111 -0.11699295211231781 0 -0.26633673802341562 -0.13121143084146969 0 -0.2466021228926524 -0.1215603100838341 0 -0.25700205454408459 -0.1228995308742117 0 -0.25028307647261949 -0.1119170655065333 0 -0.25454071313255938 -0.097810231909066098 0 -0.27094601368544552 -0.10060299140421709 0 -0.26806459392859111 -0.11699295211231781 0 -0.25028307647261949 -0.1119170655065333 0 -0.25454071313255938 -0.097810231909066098 0 -0.26806459392859111 -0.11699295211231781 0 -0.25454071313255938 -0.097810231909066098 0 -0.26806459392859111 -0.11699295211231781 0 -0.26402766811367417 -0.083484384069295273 0 -0.25454071313255938 -0.097810231909066098 0 -0.27094601368544552 -0.10060299140421709 0 -0.27094601368544552 -0.10060299140421709 0 -0.28498588272658609 -0.10953694176986691 0 -0.28369928052750421 -0.089996057638050242 0 -0.27094601368544552 -0.10060299140421709 0 -0.26806459392859111 -0.11699295211231781 0 -0.28498588272658609 -0.10953694176986691 0 -0.26806459392859111 -0.11699295211231781 0 -0.28498588272658609 -0.10953694176986691 0 -0.26633673802341562 -0.13121143084146969 0 -0.28498588272658609 -0.10953694176986691 0 -0.26633673802341562 -0.13121143084146969 0 -0.28390483366507108 -0.12795146285425149 0 -0.28498588272658609 -0.10953694176986691 0 -0.26633673802341562 -0.13121143084146969 0 -0.28498588272658609 -0.10953694176986691 0 -0.29939047470698632 -0.1138850881088251 0 -0.28390483366507108 -0.12795146285425149 0 -0.28498588272658609 -0.10953694176986691 0 -0.29939047470698632 -0.1138850881088251 0 -0.30363502742975002 -0.087862452698258112 0 -0.28498588272658609 -0.10953694176986691 0 -0.28369928052750421 -0.089996057638050242 0 -0.30363502742975002 -0.087862452698258112 0 -0.28498588272658609 -0.10953694176986691 0 -0.30363502742975002 -0.087862452698258112 0 -0.31112038415555038 -0.105912916312301 0 -0.30363502742975002 -0.087862452698258112 0 -0.31872509099925939 -0.09489525911115787 0 -0.29939047470698632 -0.1138850881088251 0 -0.30363502742975002 -0.087862452698258112 0 -0.31112038415555038 -0.105912916312301 0 -0.29939047470698632 -0.1138850881088251 0 -0.30363502742975002 -0.087862452698258112 0 -0.31112038415555038 -0.105912916312301 0 -0.29939047470698632 -0.1138850881088251 0 -0.3108150907057583 -0.123289039988229 0 -0.27571433008302992 -0.061323808156972907 0 -0.27947639526325851 -0.075047258313383283 0 -0.29043964680931811 -0.063340758069959313 0 -0.27947639526325851 -0.075047258313383283 0 -0.29326350469267087 -0.075637034816957854 0 -0.29043964680931811 -0.063340758069959313 0 -0.27947639526325851 -0.075047258313383283 0 -0.29326350469267087 -0.075637034816957854 0 -0.28369928052750421 -0.089996057638050242 0 -0.29326350469267087 -0.075637034816957854 0 -0.28369928052750421 -0.089996057638050242 0 -0.30363502742975002 -0.087862452698258112 0 -0.30363502742975002 -0.087862452698258112 0 -0.3147457864693044 -0.074949258596716542 0 -0.31872509099925939 -0.09489525911115787 0 -0.30363502742975002 -0.087862452698258112 0 -0.3147457864693044 -0.074949258596716542 0 -0.30785263576887473 -0.062005008750064983 0 -0.29326350469267087 -0.075637034816957854 0 -0.30363502742975002 -0.087862452698258112 0 -0.30785263576887473 -0.062005008750064983 0 -0.30363502742975002 -0.087862452698258112 0 -0.3147457864693044 -0.074949258596716542 0 -0.30785263576887473 -0.062005008750064983 0 -0.29326350469267087 -0.075637034816957854 0 -0.29043964680931811 -0.063340758069959313 0 -0.30785263576887473 -0.062005008750064983 0 -0.30363502742975002 -0.087862452698258112 0 -0.3147457864693044 -0.074949258596716542 0 -0.3258565455088529 -0.062036064495169851 0 -0.3147457864693044 -0.074949258596716542 0 -0.33306166037992252 -0.0763126202985034 0 -0.3258565455088529 -0.062036064495169851 0 -0.30785263576887473 -0.062005008750064983 0 -0.3147457864693044 -0.074949258596716542 0 -0.3258565455088529 -0.062036064495169851 0 -0.3147457864693044 -0.074949258596716542 0 -0.32890001459834822 -0.087516828956376788 0 -0.31872509099925939 -0.09489525911115787 0 -0.3147457864693044 -0.074949258596716542 0 -0.32890001459834822 -0.087516828956376788 0 -0.33306166037992252 -0.0763126202985034 0 -0.32890001459834822 -0.087516828956376788 0 -0.34026677525099192 -0.090589176101837157 0 -0.33306166037992252 -0.0763126202985034 0 -0.34026677525099192 -0.090589176101837157 0 -0.33306166037992252 -0.0763126202985034 0 -0.34026677525099192 -0.090589176101837157 0 -0.33306166037992252 -0.0763126202985034 0 -0.34512097989852569 -0.077376017677512551 0 -0.3363426704622316 -0.065040097883454634 0 -0.33306166037992252 -0.0763126202985034 0 -0.34512097989852569 -0.077376017677512551 0 -0.3363426704622316 -0.065040097883454634 0 -0.34775082305034588 -0.06364522302323769 0 -0.34512097989852569 -0.077376017677512551 0 -0.33306166037992252 -0.0763126202985034 0 -0.3258565455088529 -0.062036064495169851 0 -0.3363426704622316 -0.065040097883454634 0 -0.33306166037992252 -0.0763126202985034 0 -0.3258565455088529 -0.062036064495169851 0 -0.31112038415555038 -0.105912916312301 0 -0.3108150907057583 -0.123289039988229 0 -0.32269556115348802 -0.1134475374517785 0 -0.32269556115348802 -0.1134475374517785 0 -0.33213803149032362 -0.1206207689722909 0 -0.32288905220234743 -0.1288405143651869 0 -0.3108150907057583 -0.123289039988229 0 -0.32269556115348802 -0.1134475374517785 0 -0.32288905220234743 -0.1288405143651869 0 -0.32269556115348802 -0.1134475374517785 0 -0.31872509099925939 -0.09489525911115787 0 -0.33360553934550968 -0.1041906416325506 0 -0.31112038415555038 -0.105912916312301 0 -0.32269556115348802 -0.1134475374517785 0 -0.31872509099925939 -0.09489525911115787 0 -0.32890001459834822 -0.087516828956376788 0 -0.31872509099925939 -0.09489525911115787 0 -0.33360553934550968 -0.1041906416325506 0 -0.3434725512788051 -0.1026137903417853 0 -0.33360553934550968 -0.1041906416325506 0 -0.3466874303271234 -0.11958926053505441 0 -0.32890001459834822 -0.087516828956376788 0 -0.34026677525099192 -0.090589176101837157 0 -0.33360553934550968 -0.1041906416325506 0 -0.34026677525099192 -0.090589176101837157 0 -0.3434725512788051 -0.1026137903417853 0 -0.33360553934550968 -0.1041906416325506 0 -0.33360553934550968 -0.1041906416325506 0 -0.33213803149032362 -0.1206207689722909 0 -0.3466874303271234 -0.11958926053505441 0 -0.32269556115348802 -0.1134475374517785 0 -0.33360553934550968 -0.1041906416325506 0 -0.33213803149032362 -0.1206207689722909 0 -0.3466874303271234 -0.11958926053505441 0 -0.36980343247362518 -0.1100922289949047 0 -0.35999293180258313 -0.1258522389537349 0 -0.3466874303271234 -0.11958926053505441 0 -0.35333046019159542 -0.096086083097699004 0 -0.36980343247362518 -0.1100922289949047 0 -0.3434725512788051 -0.1026137903417853 0 -0.3466874303271234 -0.11958926053505441 0 -0.35333046019159542 -0.096086083097699004 0 -0.3466874303271234 -0.11958926053505441 0 -0.35333046019159542 -0.096086083097699004 0 -0.34026677525099192 -0.090589176101837157 0 -0.3434725512788051 -0.1026137903417853 0 -0.35333046019159542 -0.096086083097699004 0 -0.35333046019159542 -0.096086083097699004 0 -0.36980343247362518 -0.1100922289949047 0 -0.37347114863240299 -0.089088331268139143 0 -0.36980343247362518 -0.1100922289949047 0 -0.35999293180258313 -0.1258522389537349 0 -0.37152802352755399 -0.13164580699010159 0 -0.36980343247362518 -0.1100922289949047 0 -0.37152802352755399 -0.13164580699010159 0 -0.38235470820745771 -0.123978498660336 0 -0.34775082305034588 -0.06364522302323769 0 -0.35997349005606738 -0.07258290566034345 0 -0.36099236519079719 -0.058965157594587259 0 -0.34775082305034588 -0.06364522302323769 0 -0.34512097989852569 -0.077376017677512551 0 -0.35997349005606738 -0.07258290566034345 0 -0.35333046019159542 -0.096086083097699004 0 -0.35997349005606738 -0.07258290566034345 0 -0.35333046019159542 -0.096086083097699004 0 -0.34512097989852569 -0.077376017677512551 0 -0.35997349005606738 -0.07258290566034345 0 -0.34026677525099192 -0.090589176101837157 0 -0.35333046019159542 -0.096086083097699004 0 -0.34512097989852569 -0.077376017677512551 0 -0.35333046019159542 -0.096086083097699004 0 -0.37347114863240299 -0.089088331268139143 0 -0.35997349005606738 -0.07258290566034345 0 -0.37347114863240299 -0.089088331268139143 0 -0.35997349005606738 -0.07258290566034345 0 -0.37513495807632252 -0.068027960422620465 0 -0.35997349005606738 -0.07258290566034345 0 -0.36099236519079719 -0.058965157594587259 0 -0.37513495807632252 -0.068027960422620465 0 -0.37357085562444819 -0.050327950541553881 0 -0.36099236519079719 -0.058965157594587259 0 -0.37513495807632252 -0.068027960422620465 0 -0.37357085562444819 -0.050327950541553881 0 -0.36080282922430701 -0.047544586661118063 0 -0.36099236519079719 -0.058965157594587259 0 -0.34775082305034588 -0.06364522302323769 0 -0.36099236519079719 -0.058965157594587259 0 -0.34872123511329239 -0.051662319258650009 0 -0.36080282922430701 -0.047544586661118063 0 -0.36099236519079719 -0.058965157594587259 0 -0.34872123511329239 -0.051662319258650009 0 -0.34775082305034588 -0.06364522302323769 0 -0.34872123511329239 -0.051662319258650009 0 -0.33906118872719399 -0.055758100993783748 0 -0.35023980363822049 -0.040197400203048239 0 -0.3638826905141766 -0.035463803005797899 0 -0.34258176142245139 -0.029723406047678591 0 -0.35023980363822049 -0.040197400203048239 0 -0.34258176142245139 -0.029723406047678591 0 -0.35023980363822049 -0.040197400203048239 0 -0.34258176142245139 -0.029723406047678591 0 -0.33960488145915169 -0.038902248398748569 0 -0.34872123511329239 -0.051662319258650009 0 -0.35023980363822049 -0.040197400203048239 0 -0.33950963895876157 -0.046563850177851397 0 -0.36080282922430701 -0.047544586661118063 0 -0.35023980363822049 -0.040197400203048239 0 -0.3638826905141766 -0.035463803005797899 0 -0.36080282922430701 -0.047544586661118063 0 -0.34872123511329239 -0.051662319258650009 0 -0.35023980363822049 -0.040197400203048239 0 -0.37357085562444819 -0.050327950541553881 0 -0.3638826905141766 -0.035463803005797899 0 -0.38712728366555788 -0.02974425569958293 0 -0.37357085562444819 -0.050327950541553881 0 -0.36080282922430701 -0.047544586661118063 0 -0.3638826905141766 -0.035463803005797899 0 -0.3638826905141766 -0.035463803005797899 0 -0.36897360951007507 -0.015245218881805699 0 -0.38712728366555788 -0.02974425569958293 0 -0.36897360951007507 -0.015245218881805699 0 -0.38465333842141641 -0.0066435457767305304 0 -0.36979036210562988 0.0025511841975563729 0 -0.36897360951007507 -0.015245218881805699 0 -0.35319748844548088 -0.0026450940697062141 0 -0.36979036210562988 0.0025511841975563729 0 -0.36897360951007507 -0.015245218881805699 0 -0.35319748844548088 -0.0026450940697062141 0 -0.36897360951007507 -0.015245218881805699 0 -0.35319748844548088 -0.0026450940697062141 0 -0.34557514790129729 -0.01385186480739395 0 -0.35319748844548088 -0.0026450940697062141 0 -0.34557514790129729 -0.01385186480739395 0 -0.33742136738088668 0.0099550307423931228 0 -0.36897360951007507 -0.015245218881805699 0 -0.34557514790129729 -0.01385186480739395 0 -0.34258176142245139 -0.029723406047678591 0 -0.3638826905141766 -0.035463803005797899 0 -0.36897360951007507 -0.015245218881805699 0 -0.34258176142245139 -0.029723406047678591 0 -0.36897360951007507 -0.015245218881805699 0 -0.34258176142245139 -0.029723406047678591 0 -0.34258176142245139 -0.029723406047678591 0 -0.33053696792115572 -0.013249600709362951 0 -0.34557514790129729 -0.01385186480739395 0 -0.34258176142245139 -0.029723406047678591 0 -0.33053696792115572 -0.013249600709362951 0 -0.34258176142245139 -0.029723406047678591 0 -0.33123792958382192 -0.02655418191443467 0 -0.33053696792115572 -0.013249600709362951 0 -0.33123792958382192 -0.02655418191443467 0 -0.33053696792115572 -0.013249600709362951 0 -0.32518110448499649 -0.02265309324021984 0 -0.33123792958382192 -0.02655418191443467 0 -0.32494971957893121 -0.032132124138264453 0 -0.33294009451157502 -0.035012685436647553 0 -0.34258176142245139 -0.029723406047678591 0 -0.33123792958382192 -0.02655418191443467 0 -0.33294009451157502 -0.035012685436647553 0 -0.33053696792115572 -0.013249600709362951 0 -0.31849217441985911 0.0032242046289520012 0 -0.33742136738088668 0.0099550307423931228 0 -0.34557514790129729 -0.01385186480739395 0 -0.33053696792115572 -0.013249600709362951 0 -0.33742136738088668 0.0099550307423931228 0 -0.30702321298661528 -0.0098616365840560535 0 -0.31536924438116293 -0.015921951660718081 0 -0.31849217441985911 0.0032242046289520012 0 -0.31536924438116293 -0.015921951660718081 0 -0.31849217441985911 0.0032242046289520012 0 -0.33053696792115572 -0.013249600709362951 0 -0.31849217441985911 0.0032242046289520012 0 -0.33053696792115572 -0.013249600709362951 0 -0.31536924438116293 -0.015921951660718081 0 -0.31849217441985911 0.0032242046289520012 0 -0.31536924438116293 -0.015921951660718081 0 -0.31269309410946189 -0.035953378537937578 0 -0.31536924438116293 -0.015921951660718081 0 -0.3196636581113782 -0.026330909640423061 0 -0.31269309410946189 -0.035953378537937578 0 -0.33123792958382192 -0.02655418191443467 0 -0.32518110448499649 -0.02265309324021984 0 -0.32494971957893121 -0.032132124138264453 0 -0.32518110448499649 -0.02265309324021984 0 -0.3196636581113782 -0.026330909640423061 0 -0.32494971957893121 -0.032132124138264453 0 -0.33053696792115572 -0.013249600709362951 0 -0.32518110448499649 -0.02265309324021984 0 -0.31536924438116293 -0.015921951660718081 0 -0.32518110448499649 -0.02265309324021984 0 -0.31536924438116293 -0.015921951660718081 0 -0.3196636581113782 -0.026330909640423061 0 -0.31269309410946189 -0.035953378537937578 0 -0.32494971957893121 -0.032132124138264453 0 -0.3196636581113782 -0.026330909640423061 0 -0.31269309410946189 -0.035953378537937578 0 -0.32494971957893121 -0.032132124138264453 0 -0.32589239144387999 -0.038804272667940308 0 -0.32494971957893121 -0.032132124138264453 0 -0.33294009451157502 -0.035012685436647553 0 -0.31269309410946189 -0.035953378537937578 0 -0.32589239144387999 -0.038804272667940308 0 -0.32494971957893121 -0.032132124138264453 0 -0.31269309410946189 -0.035953378537937578 0 -0.32589239144387999 -0.038804272667940308 0 -0.32612594025468172 -0.0479092750983348 0 -0.31269309410946189 -0.035953378537937578 0 -0.3258565455088529 -0.062036064495169851 0 -0.32612594025468172 -0.0479092750983348 0 -0.30785263576887473 -0.062005008750064983 0 -0.31269309410946189 -0.035953378537937578 0 -0.3258565455088529 -0.062036064495169851 0 -0.31269309410946189 -0.035953378537937578 0 -0.3258565455088529 -0.062036064495169851 0 -0.3258565455088529 -0.062036064495169851 0 -0.32612594025468172 -0.0479092750983348 0 -0.32948021068586231 -0.057824552786275359 0 -0.3258565455088529 -0.062036064495169851 0 -0.32948021068586231 -0.057824552786275359 0 -0.33273312926745618 -0.050000536382928867 0 -0.32948021068586231 -0.057824552786275359 0 -0.33906118872719399 -0.055758100993783748 0 -0.32612594025468172 -0.0479092750983348 0 -0.33273312926745618 -0.050000536382928867 0 -0.32948021068586231 -0.057824552786275359 0 -0.32612594025468172 -0.0479092750983348 0 -0.33273312926745618 -0.050000536382928867 0 -0.33275310876475001 -0.043013900128517107 0 -0.3363426704622316 -0.065040097883454634 0 -0.32948021068586231 -0.057824552786275359 0 -0.33906118872719399 -0.055758100993783748 0 -0.3363426704622316 -0.065040097883454634 0 -0.3258565455088529 -0.062036064495169851 0 -0.32948021068586231 -0.057824552786275359 0 -0.3363426704622316 -0.065040097883454634 0 -0.34775082305034588 -0.06364522302323769 0 -0.33906118872719399 -0.055758100993783748 0 -0.34872123511329239 -0.051662319258650009 0 -0.33906118872719399 -0.055758100993783748 0 -0.33950963895876157 -0.046563850177851397 0 -0.33273312926745618 -0.050000536382928867 0 -0.33906118872719399 -0.055758100993783748 0 -0.33950963895876157 -0.046563850177851397 0 -0.35023980363822049 -0.040197400203048239 0 -0.33950963895876157 -0.046563850177851397 0 -0.33960488145915169 -0.038902248398748569 0 -0.33950963895876157 -0.046563850177851397 0 -0.33960488145915169 -0.038902248398748569 0 -0.33275310876475001 -0.043013900128517107 0 -0.34258176142245139 -0.029723406047678591 0 -0.33294009451157502 -0.035012685436647553 0 -0.34258176142245139 -0.029723406047678591 0 -0.33960488145915169 -0.038902248398748569 0 -0.33294009451157502 -0.035012685436647553 0 -0.32589239144387999 -0.038804272667940308 0 -0.33294009451157502 -0.035012685436647553 0 -0.33275310876475001 -0.043013900128517107 0 -0.33960488145915169 -0.038902248398748569 0 -0.33294009451157502 -0.035012685436647553 0 -0.33275310876475001 -0.043013900128517107 0 -0.32589239144387999 -0.038804272667940308 0 -0.32612594025468172 -0.0479092750983348 0 -0.33275310876475001 -0.043013900128517107 0 -0.33273312926745618 -0.050000536382928867 0 -0.33950963895876157 -0.046563850177851397 0 -0.33275310876475001 -0.043013900128517107 0 -0.3072444938386063 -0.24298546540808871 0 -0.29465074886808879 -0.2402547820199166 0 -0.31547147842988582 -0.2330670094454039 0 -0.29465074886808879 -0.2402547820199166 0 -0.31547147842988582 -0.2330670094454039 0 -0.31283906540333922 -0.25031215033235238 0 -0.3072444938386063 -0.24298546540808871 0 -0.31547147842988582 -0.2330670094454039 0 -0.29948497002523827 -0.2483657822867901 0 -0.3072444938386063 -0.24298546540808871 0 -0.29465074886808879 -0.2402547820199166 0 -0.29948497002523827 -0.2483657822867901 0 -0.3072444938386063 -0.24298546540808871 0 -0.30623861516307299 -0.24935013043731349 0 -0.31283906540333922 -0.25031215033235238 0 -0.3072444938386063 -0.24298546540808871 0 -0.30623861516307299 -0.24935013043731349 0 -0.30340245666429422 -0.2199120115188499 0 -0.29465074886808879 -0.2402547820199166 0 -0.31547147842988582 -0.2330670094454039 0 -0.30340245666429422 -0.2199120115188499 0 -0.31790591229007997 -0.21133065133653661 0 -0.31547147842988582 -0.2330670094454039 0 -0.30340245666429422 -0.2199120115188499 0 -0.29465074886808879 -0.2402547820199166 0 -0.28241226381596191 -0.21797562975109799 0 -0.29465074886808879 -0.2402547820199166 0 -0.27816771109320582 -0.2439982651616662 0 -0.28241226381596191 -0.21797562975109799 0 -0.29465074886808879 -0.2402547820199166 0 -0.27383001930629169 -0.24744255459442921 0 -0.28942662192718172 -0.25357945894426132 0 -0.29465074886808879 -0.2402547820199166 0 -0.27383001930629169 -0.24744255459442921 0 -0.29465074886808879 -0.2402547820199166 0 -0.27816771109320582 -0.2439982651616662 0 -0.27383001930629169 -0.24744255459442921 0 -0.28942662192718172 -0.25357945894426132 0 -0.29948497002523827 -0.2483657822867901 0 -0.29465074886808879 -0.2402547820199166 0 -0.27816771109320582 -0.2439982651616662 0 -0.27383001930629169 -0.24744255459442921 0 -0.26926560585898118 -0.2360615599669478 0 -0.27383001930629169 -0.24744255459442921 0 -0.26926560585898118 -0.2360615599669478 0 -0.25855016474293108 -0.24143028331881861 0 -0.27383001930629169 -0.24744255459442921 0 -0.25855016474293108 -0.24143028331881861 0 -0.2565674865322034 -0.25340195958415102 0 -0.27383001930629169 -0.24744255459442921 0 -0.25855016474293108 -0.24143028331881861 0 -0.26926560585898118 -0.2360615599669478 0 -0.25855016474293108 -0.24143028331881861 0 -0.25588924886857078 -0.22577026586403889 0 -0.24327031017957049 -0.23541801204320789 0 -0.25855016474293108 -0.24143028331881861 0 -0.24327031017957049 -0.23541801204320789 0 -0.25855016474293108 -0.24143028331881861 0 -0.25018128361314113 -0.24746468840205441 0 -0.2565674865322034 -0.25340195958415102 0 -0.25855016474293108 -0.24143028331881861 0 -0.25018128361314113 -0.24746468840205441 0 -0.24327031017957049 -0.23541801204320789 0 -0.25855016474293108 -0.24143028331881861 0 -0.25588924886857078 -0.22577026586403889 0 -0.26926560585898118 -0.2360615599669478 0 -0.25588924886857078 -0.22577026586403889 0 -0.26783798195298542 -0.22189041659364681 0 -0.27816771109320582 -0.2439982651616662 0 -0.26926560585898118 -0.2360615599669478 0 -0.28241226381596191 -0.21797562975109799 0 -0.26926560585898118 -0.2360615599669478 0 -0.26783798195298542 -0.22189041659364681 0 -0.28241226381596191 -0.21797562975109799 0 -0.27816771109320582 -0.2439982651616662 0 -0.28241226381596191 -0.21797562975109799 0 -0.26378480926842768 -0.2077542107925027 0 -0.286656816538718 -0.19195299434052959 0 -0.28241226381596191 -0.21797562975109799 0 -0.26783798195298542 -0.22189041659364681 0 -0.26378480926842768 -0.2077542107925027 0 -0.28241226381596191 -0.21797562975109799 0 -0.25588924886857078 -0.22577026586403889 0 -0.26783798195298542 -0.22189041659364681 0 -0.26378480926842768 -0.2077542107925027 0 -0.2448317244682672 -0.19494017856122331 0 -0.24405101732391901 -0.2151790953022156 0 -0.26378480926842768 -0.2077542107925027 0 -0.24405101732391901 -0.2151790953022156 0 -0.25588924886857078 -0.22577026586403889 0 -0.26378480926842768 -0.2077542107925027 0 -0.2448317244682672 -0.19494017856122331 0 -0.26378480926842768 -0.2077542107925027 0 -0.26312512204060101 -0.18530650416748581 0 -0.26378480926842768 -0.2077542107925027 0 -0.286656816538718 -0.19195299434052959 0 -0.26312512204060101 -0.18530650416748581 0 -0.286656816538718 -0.19195299434052959 0 -0.28241226381596191 -0.21797562975109799 0 -0.30591086076688379 -0.19847336016990141 0 -0.286656816538718 -0.19195299434052959 0 -0.28241226381596191 -0.21797562975109799 0 -0.30340245666429422 -0.2199120115188499 0 -0.28241226381596191 -0.21797562975109799 0 -0.30591086076688379 -0.19847336016990141 0 -0.30340245666429422 -0.2199120115188499 0 -0.30591086076688379 -0.19847336016990141 0 -0.31790591229007997 -0.21133065133653661 0 -0.286656816538718 -0.19195299434052959 0 -0.30591086076688379 -0.19847336016990141 0 -0.31180552805921091 -0.17430838359622669 0 -0.31180552805921091 -0.17430838359622669 0 -0.29090136926147409 -0.16593035892996141 0 -0.30878195228896921 -0.15303576335633209 0 -0.286656816538718 -0.19195299434052959 0 -0.29090136926147409 -0.16593035892996141 0 -0.286656816538718 -0.19195299434052959 0 -0.31180552805921091 -0.17430838359622669 0 -0.29090136926147409 -0.16593035892996141 0 -0.286656816538718 -0.19195299434052959 0 -0.29090136926147409 -0.16593035892996141 0 -0.27584707269233227 -0.1739466899300364 0 -0.27584707269233227 -0.1739466899300364 0 -0.26312512204060101 -0.18530650416748581 0 -0.26138401805284373 -0.16490714025156239 0 -0.286656816538718 -0.19195299434052959 0 -0.27584707269233227 -0.1739466899300364 0 -0.26312512204060101 -0.18530650416748581 0 -0.2448317244682672 -0.19494017856122331 0 -0.24561243161261531 -0.1747012618202311 0 -0.26312512204060101 -0.18530650416748581 0 -0.24561243161261531 -0.1747012618202311 0 -0.26312512204060101 -0.18530650416748581 0 -0.26138401805284373 -0.16490714025156239 0 -0.27584707269233227 -0.1739466899300364 0 -0.26138401805284373 -0.16490714025156239 0 -0.27641132505293098 -0.14990407015019561 0 -0.29090136926147409 -0.16593035892996141 0 -0.27584707269233227 -0.1739466899300364 0 -0.27641132505293098 -0.14990407015019561 0 -0.27641132505293098 -0.14990407015019561 0 -0.26295491861235881 -0.14972714028907499 0 -0.26633673802341562 -0.13121143084146969 0 -0.26138401805284373 -0.16490714025156239 0 -0.27641132505293098 -0.14990407015019561 0 -0.26295491861235881 -0.14972714028907499 0 -0.24768759332024501 -0.15288591991307249 0 -0.26633673802341562 -0.13121143084146969 0 -0.24768759332024501 -0.15288591991307249 0 -0.26295491861235881 -0.14972714028907499 0 -0.26633673802341562 -0.13121143084146969 0 -0.24768759332024501 -0.15288591991307249 0 -0.26138401805284373 -0.16490714025156239 0 -0.26295491861235881 -0.14972714028907499 0 -0.25700205454408459 -0.1228995308742117 0 -0.25066558347885931 -0.13251764995053431 0 -0.26633673802341562 -0.13121143084146969 0 -0.24768759332024501 -0.15288591991307249 0 -0.25066558347885931 -0.13251764995053431 0 -0.26633673802341562 -0.13121143084146969 0 -0.2466021228926524 -0.1215603100838341 0 -0.25700205454408459 -0.1228995308742117 0 -0.25066558347885931 -0.13251764995053431 0 -0.27641132505293098 -0.14990407015019561 0 -0.26633673802341562 -0.13121143084146969 0 -0.28390483366507108 -0.12795146285425149 0 -0.27641132505293098 -0.14990407015019561 0 -0.29514592198423018 -0.13990772351939329 0 -0.28390483366507108 -0.12795146285425149 0 -0.29939047470698632 -0.1138850881088251 0 -0.29514592198423018 -0.13990772351939329 0 -0.28390483366507108 -0.12795146285425149 0 -0.29090136926147409 -0.16593035892996141 0 -0.27641132505293098 -0.14990407015019561 0 -0.29514592198423018 -0.13990772351939329 0 -0.29090136926147409 -0.16593035892996141 0 -0.29514592198423018 -0.13990772351939329 0 -0.29514592198423018 -0.13990772351939329 0 -0.30878195228896921 -0.15303576335633209 0 -0.31204687939749698 -0.1371714365216575 0 -0.29090136926147409 -0.16593035892996141 0 -0.29514592198423018 -0.13990772351939329 0 -0.30878195228896921 -0.15303576335633209 0 -0.3108150907057583 -0.123289039988229 0 -0.29514592198423018 -0.13990772351939329 0 -0.31204687939749698 -0.1371714365216575 0 -0.29939047470698632 -0.1138850881088251 0 -0.3108150907057583 -0.123289039988229 0 -0.29514592198423018 -0.13990772351939329 0 -0.29939047470698632 -0.1138850881088251 0 -0.29514592198423018 -0.13990772351939329 0 -0.32288905220234743 -0.1288405143651869 0 -0.32258299715563782 -0.14068177926995709 0 -0.33321030378869931 -0.13646686722665249 0 -0.3108150907057583 -0.123289039988229 0 -0.31204687939749698 -0.1371714365216575 0 -0.32288905220234743 -0.1288405143651869 0 -0.31204687939749698 -0.1371714365216575 0 -0.32288905220234743 -0.1288405143651869 0 -0.32258299715563782 -0.14068177926995709 0 -0.30878195228896921 -0.15303576335633209 0 -0.32482557091518699 -0.15217937608711771 0 -0.32258299715563782 -0.14068177926995709 0 -0.30878195228896921 -0.15303576335633209 0 -0.31204687939749698 -0.1371714365216575 0 -0.32258299715563782 -0.14068177926995709 0 -0.32482557091518699 -0.15217937608711771 0 -0.32258299715563782 -0.14068177926995709 0 -0.33321030378869931 -0.13646686722665249 0 -0.32482557091518699 -0.15217937608711771 0 -0.34004440046265172 -0.14309243797241011 0 -0.33321030378869931 -0.13646686722665249 0 -0.34004440046265172 -0.14309243797241011 0 -0.35498504575946821 -0.15757720561970059 0 -0.3332048416520596 -0.1672909388971599 0 -0.34004440046265172 -0.14309243797241011 0 -0.3332048416520596 -0.1672909388971599 0 -0.32482557091518699 -0.15217937608711771 0 -0.34004440046265172 -0.14309243797241011 0 -0.3332048416520596 -0.1672909388971599 0 -0.3466874303271234 -0.11958926053505441 0 -0.34004440046265172 -0.14309243797241011 0 -0.33213803149032362 -0.1206207689722909 0 -0.32288905220234743 -0.1288405143651869 0 -0.33321030378869931 -0.13646686722665249 0 -0.33213803149032362 -0.1206207689722909 0 -0.3466874303271234 -0.11958926053505441 0 -0.33321030378869931 -0.13646686722665249 0 -0.3466874303271234 -0.11958926053505441 0 -0.34004440046265172 -0.14309243797241011 0 -0.33321030378869931 -0.13646686722665249 0 -0.34004440046265172 -0.14309243797241011 0 -0.33321030378869931 -0.13646686722665249 0 -0.3466874303271234 -0.11958926053505441 0 -0.35676717686891291 -0.14006723761877321 0 -0.35999293180258313 -0.1258522389537349 0 -0.3466874303271234 -0.11958926053505441 0 -0.34004440046265172 -0.14309243797241011 0 -0.35676717686891291 -0.14006723761877321 0 -0.35676717686891291 -0.14006723761877321 0 -0.37152802352755399 -0.13164580699010159 0 -0.37069541475874412 -0.1487336244607225 0 -0.35676717686891291 -0.14006723761877321 0 -0.35999293180258313 -0.1258522389537349 0 -0.37152802352755399 -0.13164580699010159 0 -0.35676717686891291 -0.14006723761877321 0 -0.37069541475874412 -0.1487336244607225 0 -0.35498504575946821 -0.15757720561970059 0 -0.37069541475874412 -0.1487336244607225 0 -0.35498504575946821 -0.15757720561970059 0 -0.37692746124962329 -0.16011968929401549 0 -0.37152802352755399 -0.13164580699010159 0 -0.37069541475874412 -0.1487336244607225 0 -0.38190833683646341 -0.1417380771930716 0 -0.34004440046265172 -0.14309243797241011 0 -0.35676717686891291 -0.14006723761877321 0 -0.35498504575946821 -0.15757720561970059 0 -0.34004440046265172 -0.14309243797241011 0 -0.35498504575946821 -0.15757720561970059 0 -0.35102499454429859 -0.17065527247529391 0 -0.35498504575946821 -0.15757720561970059 0 -0.36992569105628492 -0.1720619732669908 0 -0.35102499454429859 -0.17065527247529391 0 -0.35498504575946821 -0.15757720561970059 0 -0.3332048416520596 -0.1672909388971599 0 -0.35498504575946821 -0.15757720561970059 0 -0.36992569105628492 -0.1720619732669908 0 -0.37692746124962329 -0.16011968929401549 0 -0.35498504575946821 -0.15757720561970059 0 -0.36992569105628492 -0.1720619732669908 0 -0.36802329911298681 -0.18587483615006681 0 -0.36992569105628492 -0.1720619732669908 0 -0.38452179946839471 -0.1862127167391712 0 -0.36802329911298681 -0.18587483615006681 0 -0.36992569105628492 -0.1720619732669908 0 -0.34598439970938172 -0.18569097211732419 0 -0.35102499454429859 -0.17065527247529391 0 -0.36992569105628492 -0.1720619732669908 0 -0.34598439970938172 -0.18569097211732419 0 -0.36992569105628492 -0.1720619732669908 0 -0.34598439970938172 -0.18569097211732419 0 -0.35102499454429859 -0.17065527247529391 0 -0.34598439970938172 -0.18569097211732419 0 -0.3332048416520596 -0.1672909388971599 0 -0.34598439970938172 -0.18569097211732419 0 -0.3332048416520596 -0.1672909388971599 0 -0.32636528284146782 -0.19148943982190991 0 -0.3332048416520596 -0.1672909388971599 0 -0.32636528284146782 -0.19148943982190991 0 -0.31180552805921091 -0.17430838359622669 0 -0.32482557091518699 -0.15217937608711771 0 -0.3332048416520596 -0.1672909388971599 0 -0.31180552805921091 -0.17430838359622669 0 -0.30878195228896921 -0.15303576335633209 0 -0.32482557091518699 -0.15217937608711771 0 -0.31180552805921091 -0.17430838359622669 0 -0.3332048416520596 -0.1672909388971599 0 -0.32636528284146782 -0.19148943982190991 0 -0.30591086076688379 -0.19847336016990141 0 -0.32636528284146782 -0.19148943982190991 0 -0.31790591229007997 -0.21133065133653661 0 -0.30591086076688379 -0.19847336016990141 0 -0.31180552805921091 -0.17430838359622669 0 -0.32636528284146782 -0.19148943982190991 0 -0.32636528284146782 -0.19148943982190991 0 -0.31790591229007997 -0.21133065133653661 0 -0.33039187961118982 -0.20742389982875531 0 -0.31790591229007997 -0.21133065133653661 0 -0.33039187961118982 -0.20742389982875531 0 -0.32870803705144969 -0.21844997174213321 0 -0.33039187961118982 -0.20742389982875531 0 -0.32870803705144969 -0.21844997174213321 0 -0.33850246058748812 -0.21389845468103499 0 -0.32870803705144969 -0.21844997174213321 0 -0.33850246058748812 -0.21389845468103499 0 -0.33596699493009807 -0.21993263715474329 0 -0.33850246058748812 -0.21389845468103499 0 -0.34687159193856038 -0.2183762197826761 0 -0.3403652740897718 -0.22150288532491411 0 -0.33850246058748812 -0.21389845468103499 0 -0.3403652740897718 -0.22150288532491411 0 -0.33596699493009807 -0.21993263715474329 0 -0.33039187961118982 -0.20742389982875531 0 -0.33850246058748812 -0.21389845468103499 0 -0.34047770528546362 -0.2019509815621614 0 -0.33850246058748812 -0.21389845468103499 0 -0.34047770528546362 -0.2019509815621614 0 -0.34737571748628571 -0.2101963969508848 0 -0.34598439970938172 -0.18569097211732419 0 -0.32636528284146782 -0.19148943982190991 0 -0.34047770528546362 -0.2019509815621614 0 -0.32636528284146782 -0.19148943982190991 0 -0.33039187961118982 -0.20742389982875531 0 -0.34047770528546362 -0.2019509815621614 0 -0.34598439970938172 -0.18569097211732419 0 -0.35303310702934909 -0.20231631441727971 0 -0.36343771537771569 -0.19566750525459251 0 -0.34598439970938172 -0.18569097211732419 0 -0.34047770528546362 -0.2019509815621614 0 -0.35303310702934909 -0.20231631441727971 0 -0.36802329911298681 -0.18587483615006681 0 -0.34598439970938172 -0.18569097211732419 0 -0.36343771537771569 -0.19566750525459251 0 -0.35303310702934909 -0.20231631441727971 0 -0.36343771537771569 -0.19566750525459251 0 -0.36388592792924168 -0.20758305467352059 0 -0.36343771537771569 -0.19566750525459251 0 -0.37301156641091737 -0.20337184000283479 0 -0.36388592792924168 -0.20758305467352059 0 -0.36343771537771569 -0.19566750525459251 0 -0.37438048369549509 -0.19384422148204511 0 -0.37301156641091737 -0.20337184000283479 0 -0.36802329911298681 -0.18587483615006681 0 -0.36343771537771569 -0.19566750525459251 0 -0.37438048369549509 -0.19384422148204511 0 -0.37273312771996808 -0.21396345107145709 0 -0.37301156641091737 -0.20337184000283479 0 -0.36388592792924168 -0.20758305467352059 0 -0.37273312771996808 -0.21396345107145709 0 -0.36388592792924168 -0.20758305467352059 0 -0.36460053442081081 -0.21946742083422599 0 -0.36388592792924168 -0.20758305467352059 0 -0.35626724818121019 -0.21440977701126371 0 -0.36460053442081081 -0.21946742083422599 0 -0.35626724818121019 -0.21440977701126371 0 -0.34687159193856038 -0.2183762197826761 0 -0.35361393690670712 -0.22275298964725909 0 -0.35303310702934909 -0.20231631441727971 0 -0.36388592792924168 -0.20758305467352059 0 -0.35626724818121019 -0.21440977701126371 0 -0.35303310702934909 -0.20231631441727971 0 -0.35626724818121019 -0.21440977701126371 0 -0.34737571748628571 -0.2101963969508848 0 -0.34047770528546362 -0.2019509815621614 0 -0.35303310702934909 -0.20231631441727971 0 -0.34737571748628571 -0.2101963969508848 0 -0.33850246058748812 -0.21389845468103499 0 -0.34737571748628571 -0.2101963969508848 0 -0.34687159193856038 -0.2183762197826761 0 -0.35626724818121019 -0.21440977701126371 0 -0.34737571748628571 -0.2101963969508848 0 -0.34687159193856038 -0.2183762197826761 0 -0.34687159193856038 -0.2183762197826761 0 -0.3448729074691318 -0.22568858673477191 0 -0.3403652740897718 -0.22150288532491411 0 -0.34687159193856038 -0.2183762197826761 0 -0.3448729074691318 -0.22568858673477191 0 -0.35361393690670712 -0.22275298964725909 0 -0.3448729074691318 -0.22568858673477191 0 -0.35311939258201253 -0.23120947699362049 0 -0.35361393690670712 -0.22275298964725909 0 -0.3448729074691318 -0.22568858673477191 0 -0.35311939258201253 -0.23120947699362049 0 -0.3466300329275056 -0.23782645962689411 0 -0.35311939258201253 -0.23120947699362049 0 -0.35361393690670712 -0.22275298964725909 0 -0.36278739720748587 -0.22937453583313699 0 -0.35311939258201253 -0.23120947699362049 0 -0.36278739720748587 -0.22937453583313699 0 -0.35743223323550471 -0.2390192939344549 0 -0.35626724818121019 -0.21440977701126371 0 -0.35361393690670712 -0.22275298964725909 0 -0.36460053442081081 -0.21946742083422599 0 -0.36460053442081081 -0.21946742083422599 0 -0.36278739720748587 -0.22937453583313699 0 -0.37306962678156358 -0.22430756502184571 0 -0.35361393690670712 -0.22275298964725909 0 -0.36460053442081081 -0.21946742083422599 0 -0.36278739720748587 -0.22937453583313699 0 -0.36278739720748587 -0.22937453583313699 0 -0.37393716339703942 -0.23401667981853819 0 -0.37306962678156358 -0.22430756502184571 0 -0.36278739720748587 -0.22937453583313699 0 -0.37393716339703942 -0.23401667981853819 0 -0.36594725961251939 -0.23889039006825119 0 -0.37273312771996808 -0.21396345107145709 0 -0.36460053442081081 -0.21946742083422599 0 -0.37306962678156358 -0.22430756502184571 0 -0.37393540655460039 -0.25504906339868932 0 -0.37362469669529808 -0.24416340610428999 0 -0.363557814049559 -0.2486896754833777 0 -0.37362469669529808 -0.24416340610428999 0 -0.36594725961251939 -0.23889039006825119 0 -0.363557814049559 -0.2486896754833777 0 -0.37393716339703942 -0.23401667981853819 0 -0.37362469669529808 -0.24416340610428999 0 -0.36594725961251939 -0.23889039006825119 0 -0.36278739720748587 -0.22937453583313699 0 -0.36594725961251939 -0.23889039006825119 0 -0.35743223323550471 -0.2390192939344549 0 -0.36594725961251939 -0.23889039006825119 0 -0.363557814049559 -0.2486896754833777 0 -0.35743223323550471 -0.2390192939344549 0 -0.363557814049559 -0.2486896754833777 0 -0.35255150303394622 -0.24812522560144931 0 -0.35743223323550471 -0.2390192939344549 0 -0.35311939258201253 -0.23120947699362049 0 -0.35743223323550471 -0.2390192939344549 0 -0.3466300329275056 -0.23782645962689411 0 -0.35255150303394622 -0.24812522560144931 0 -0.35743223323550471 -0.2390192939344549 0 -0.3466300329275056 -0.23782645962689411 0 -0.35255150303394622 -0.24812522560144931 0 -0.3466300329275056 -0.23782645962689411 0 -0.3420777495351906 -0.24844208584564559 0 -0.33131030172746923 -0.25321851497678438 0 -0.33373364759712132 -0.2373308373461466 0 -0.32202724095639168 -0.2495658441092535 0 -0.33131030172746923 -0.25321851497678438 0 -0.33373364759712132 -0.2373308373461466 0 -0.33131030172746923 -0.25321851497678438 0 -0.3420777495351906 -0.24844208584564559 0 -0.33373364759712132 -0.2373308373461466 0 -0.3466300329275056 -0.23782645962689411 0 -0.3420777495351906 -0.24844208584564559 0 -0.33373364759712132 -0.2373308373461466 0 -0.3448729074691318 -0.22568858673477191 0 -0.33373364759712132 -0.2373308373461466 0 -0.33513500532203722 -0.22814340766163391 0 -0.3448729074691318 -0.22568858673477191 0 -0.33373364759712132 -0.2373308373461466 0 -0.3448729074691318 -0.22568858673477191 0 -0.3466300329275056 -0.23782645962689411 0 -0.33373364759712132 -0.2373308373461466 0 -0.3362922079916828 -0.22587923687089109 0 -0.33513500532203722 -0.22814340766163391 0 -0.31547147842988582 -0.2330670094454039 0 -0.3448729074691318 -0.22568858673477191 0 -0.3362922079916828 -0.22587923687089109 0 -0.33513500532203722 -0.22814340766163391 0 -0.3448729074691318 -0.22568858673477191 0 -0.3403652740897718 -0.22150288532491411 0 -0.3362922079916828 -0.22587923687089109 0 -0.3403652740897718 -0.22150288532491411 0 -0.3362922079916828 -0.22587923687089109 0 -0.33596699493009807 -0.21993263715474329 0 -0.32870803705144969 -0.21844997174213321 0 -0.3362922079916828 -0.22587923687089109 0 -0.33596699493009807 -0.21993263715474329 0 -0.33373364759712132 -0.2373308373461466 0 -0.33513500532203722 -0.22814340766163391 0 -0.31790591229007997 -0.21133065133653661 0 -0.32870803705144969 -0.21844997174213321 0 -0.31547147842988582 -0.2330670094454039 0 -0.3362922079916828 -0.22587923687089109 0 -0.31547147842988582 -0.2330670094454039 0 -0.32870803705144969 -0.21844997174213321 0 -0.3362922079916828 -0.22587923687089109 0 -0.31547147842988582 -0.2330670094454039 0 -0.33373364759712132 -0.2373308373461466 0 -0.33513500532203722 -0.22814340766163391 0 -0.31547147842988582 -0.2330670094454039 0 -0.33373364759712132 -0.2373308373461466 0 -0.31547147842988582 -0.2330670094454039 0 -0.32202724095639168 -0.2495658441092535 0 -0.31283906540333922 -0.25031215033235238 0 -0.31547147842988582 -0.2330670094454039 0 -0.32202724095639168 -0.2495658441092535 0 -0.33373364759712132 -0.2373308373461466 0 -0.32202724095639168 -0.2495658441092535 0 -0.42931567121415071 -0.25028064732030619 0 -0.41974440223132548 -0.2277223948390894 0 -0.42931567121415071 -0.25028064732030619 0 -0.43665732485841618 -0.24137016429136929 0 -0.41974440223132548 -0.2277223948390894 0 -0.43487007995442373 -0.25384069753834382 0 -0.42931567121415071 -0.25028064732030619 0 -0.43665732485841618 -0.24137016429136929 0 -0.43665732485841618 -0.24137016429136929 0 -0.41974440223132548 -0.2277223948390894 0 -0.44277641758923081 -0.23102430468348881 0 -0.43377720402095787 -0.21991138490827611 0 -0.41974440223132548 -0.2277223948390894 0 -0.44277641758923081 -0.23102430468348881 0 -0.43377720402095787 -0.21991138490827611 0 -0.41974440223132548 -0.2277223948390894 0 -0.42075205755079043 -0.21398522646416529 0 -0.41974440223132548 -0.2277223948390894 0 -0.40847937369743209 -0.24258689873782929 0 -0.40379864078896821 -0.22147517947459039 0 -0.42931567121415071 -0.25028064732030619 0 -0.41974440223132548 -0.2277223948390894 0 -0.40847937369743209 -0.24258689873782929 0 -0.3945867816951415 -0.25828321704239809 0 -0.40847937369743209 -0.24258689873782929 0 -0.3933004523496676 -0.24484402304582939 0 -0.40847937369743209 -0.24258689873782929 0 -0.3933004523496676 -0.24484402304582939 0 -0.39478669289115392 -0.23309544567896751 0 -0.3933004523496676 -0.24484402304582939 0 -0.38349803953804651 -0.2389949919606586 0 -0.38258347849844832 -0.24967798674395081 0 -0.3933004523496676 -0.24484402304582939 0 -0.38349803953804651 -0.2389949919606586 0 -0.39478669289115392 -0.23309544567896751 0 -0.37393716339703942 -0.23401667981853819 0 -0.37362469669529808 -0.24416340610428999 0 -0.38349803953804651 -0.2389949919606586 0 -0.37393540655460039 -0.25504906339868932 0 -0.37362469669529808 -0.24416340610428999 0 -0.38258347849844832 -0.24967798674395081 0 -0.37362469669529808 -0.24416340610428999 0 -0.38349803953804651 -0.2389949919606586 0 -0.38258347849844832 -0.24967798674395081 0 -0.37306962678156358 -0.22430756502184571 0 -0.38469596054732291 -0.22836918992304631 0 -0.38295547739377761 -0.21861943378263729 0 -0.37273312771996808 -0.21396345107145709 0 -0.37306962678156358 -0.22430756502184571 0 -0.38295547739377761 -0.21861943378263729 0 -0.37393716339703942 -0.23401667981853819 0 -0.38349803953804651 -0.2389949919606586 0 -0.38469596054732291 -0.22836918992304631 0 -0.37393716339703942 -0.23401667981853819 0 -0.37306962678156358 -0.22430756502184571 0 -0.38469596054732291 -0.22836918992304631 0 -0.38349803953804651 -0.2389949919606586 0 -0.38469596054732291 -0.22836918992304631 0 -0.39478669289115392 -0.23309544567896751 0 -0.38469596054732291 -0.22836918992304631 0 -0.39264909581396568 -0.2229573829789786 0 -0.38295547739377761 -0.21861943378263729 0 -0.39264909581396568 -0.2229573829789786 0 -0.39478669289115392 -0.23309544567896751 0 -0.40379864078896821 -0.22147517947459039 0 -0.40847937369743209 -0.24258689873782929 0 -0.39478669289115392 -0.23309544567896751 0 -0.40379864078896821 -0.22147517947459039 0 -0.40847937369743209 -0.24258689873782929 0 -0.40379864078896821 -0.22147517947459039 0 -0.39264909581396568 -0.2229573829789786 0 -0.40379864078896821 -0.22147517947459039 0 -0.39247153470499518 -0.2129117927155128 0 -0.38469596054732291 -0.22836918992304631 0 -0.39264909581396568 -0.2229573829789786 0 -0.39478669289115392 -0.23309544567896751 0 -0.40379864078896821 -0.22147517947459039 0 -0.39911790788050461 -0.2003634602113514 0 -0.40379864078896821 -0.22147517947459039 0 -0.39247153470499518 -0.2129117927155128 0 -0.39911790788050461 -0.2003634602113514 0 -0.40379864078896821 -0.22147517947459039 0 -0.40520524043689871 -0.20626505254016059 0 -0.39911790788050461 -0.2003634602113514 0 -0.40520524043689871 -0.20626505254016059 0 -0.39911790788050461 -0.2003634602113514 0 -0.41017313324850019 -0.2051641423578727 0 -0.40520524043689871 -0.20626505254016059 0 -0.39911790788050461 -0.2003634602113514 0 -0.39247153470499518 -0.2129117927155128 0 -0.38971867217429529 -0.20303686442097379 0 -0.39911790788050461 -0.2003634602113514 0 -0.39247153470499518 -0.2129117927155128 0 -0.38295547739377761 -0.21861943378263729 0 -0.38211351879485039 -0.2092072209849834 0 -0.39264909581396568 -0.2229573829789786 0 -0.39247153470499518 -0.2129117927155128 0 -0.38295547739377761 -0.21861943378263729 0 -0.38211351879485039 -0.2092072209849834 0 -0.38151862494823319 -0.19996558655041019 0 -0.38971867217429529 -0.20303686442097379 0 -0.39247153470499518 -0.2129117927155128 0 -0.38211351879485039 -0.2092072209849834 0 -0.38971867217429529 -0.20303686442097379 0 -0.37273312771996808 -0.21396345107145709 0 -0.37301156641091737 -0.20337184000283479 0 -0.38211351879485039 -0.2092072209849834 0 -0.37301156641091737 -0.20337184000283479 0 -0.38211351879485039 -0.2092072209849834 0 -0.38151862494823319 -0.19996558655041019 0 -0.37273312771996808 -0.21396345107145709 0 -0.38295547739377761 -0.21861943378263729 0 -0.38211351879485039 -0.2092072209849834 0 -0.36802329911298681 -0.18587483615006681 0 -0.37438048369549509 -0.19384422148204511 0 -0.38452179946839471 -0.1862127167391712 0 -0.38151862494823319 -0.19996558655041019 0 -0.38971867217429529 -0.20303686442097379 0 -0.38452179946839471 -0.1862127167391712 0 -0.37438048369549509 -0.19384422148204511 0 -0.38151862494823319 -0.19996558655041019 0 -0.38452179946839471 -0.1862127167391712 0 -0.37438048369549509 -0.19384422148204511 0 -0.37301156641091737 -0.20337184000283479 0 -0.38151862494823319 -0.19996558655041019 0 -0.39911790788050461 -0.2003634602113514 0 -0.39550730918059213 -0.18407841519480589 0 -0.38452179946839471 -0.1862127167391712 0 -0.39911790788050461 -0.2003634602113514 0 -0.40135005364381798 -0.19305297691017151 0 -0.39550730918059213 -0.18407841519480589 0 -0.39911790788050461 -0.2003634602113514 0 -0.39550730918059213 -0.18407841519480589 0 -0.38971867217429529 -0.20303686442097379 0 -0.39911790788050461 -0.2003634602113514 0 -0.38452179946839471 -0.1862127167391712 0 -0.41017313324850019 -0.2051641423578727 0 -0.40060186426567512 -0.18260588987665591 0 -0.40135005364381798 -0.19305297691017151 0 -0.41017313324850019 -0.2051641423578727 0 -0.40060186426567512 -0.18260588987665591 0 -0.39911790788050461 -0.2003634602113514 0 -0.38452179946839471 -0.1862127167391712 0 -0.39911790788050461 -0.2003634602113514 0 -0.40135005364381798 -0.19305297691017151 0 -0.41017313324850019 -0.2051641423578727 0 -0.40882722491020068 -0.19324634934951379 0 -0.40670914653930851 -0.1871811045826946 0 -0.40060186426567512 -0.18260588987665591 0 -0.40882722491020068 -0.19324634934951379 0 -0.41182634361573828 -0.18846823012601879 0 -0.40670914653930851 -0.1871811045826946 0 -0.40882722491020068 -0.19324634934951379 0 -0.41017313324850019 -0.2051641423578727 0 -0.40060186426567512 -0.18260588987665591 0 -0.40882722491020068 -0.19324634934951379 0 -0.41332632127240471 -0.19520135196246871 0 -0.41182634361573828 -0.18846823012601879 0 -0.41182634361573828 -0.18846823012601879 0 -0.42015528071935893 -0.19373976728588371 0 -0.42086010939994178 -0.18624419393877539 0 -0.41332632127240471 -0.19520135196246871 0 -0.41182634361573828 -0.18846823012601879 0 -0.42015528071935893 -0.19373976728588371 0 -0.42015528071935893 -0.19373976728588371 0 -0.41596892406105851 -0.2005599774501266 0 -0.4250272884910265 -0.2012921483654643 0 -0.41596892406105851 -0.2005599774501266 0 -0.41798035083784391 -0.20525037365940721 0 -0.4250272884910265 -0.2012921483654643 0 -0.41332632127240471 -0.19520135196246871 0 -0.42015528071935893 -0.19373976728588371 0 -0.41596892406105851 -0.2005599774501266 0 -0.41596892406105851 -0.2005599774501266 0 -0.41190905555667651 -0.19876129696974801 0 -0.41017313324850019 -0.2051641423578727 0 -0.40882722491020068 -0.19324634934951379 0 -0.41190905555667651 -0.19876129696974801 0 -0.41017313324850019 -0.2051641423578727 0 -0.40882722491020068 -0.19324634934951379 0 -0.41332632127240471 -0.19520135196246871 0 -0.41190905555667651 -0.19876129696974801 0 -0.41332632127240471 -0.19520135196246871 0 -0.41596892406105851 -0.2005599774501266 0 -0.41190905555667651 -0.19876129696974801 0 -0.41974440223132548 -0.2277223948390894 0 -0.40379864078896821 -0.22147517947459039 0 -0.41017313324850019 -0.2051641423578727 0 -0.41974440223132548 -0.2277223948390894 0 -0.41017313324850019 -0.2051641423578727 0 -0.42075205755079043 -0.21398522646416529 0 -0.40379864078896821 -0.22147517947459039 0 -0.40520524043689871 -0.20626505254016059 0 -0.41017313324850019 -0.2051641423578727 0 -0.41974440223132548 -0.2277223948390894 0 -0.41017313324850019 -0.2051641423578727 0 -0.41017313324850019 -0.2051641423578727 0 -0.42075205755079043 -0.21398522646416529 0 -0.41798035083784391 -0.20525037365940721 0 -0.42075205755079043 -0.21398522646416529 0 -0.41798035083784391 -0.20525037365940721 0 -0.4250272884910265 -0.2012921483654643 0 -0.41596892406105851 -0.2005599774501266 0 -0.41017313324850019 -0.2051641423578727 0 -0.41798035083784391 -0.20525037365940721 0 -0.42075205755079043 -0.21398522646416529 0 -0.43601245252430942 -0.20793643678791121 0 -0.4250272884910265 -0.2012921483654643 0 -0.43377720402095787 -0.21991138490827611 0 -0.42075205755079043 -0.21398522646416529 0 -0.43601245252430942 -0.20793643678791121 0 -0.42704416580793209 -0.1915833167308334 0 -0.4250272884910265 -0.2012921483654643 0 -0.43829012180726529 -0.19322062900912909 0 -0.43601245252430942 -0.20793643678791121 0 -0.4250272884910265 -0.2012921483654643 0 -0.43829012180726529 -0.19322062900912909 0 -0.42704416580793209 -0.1915833167308334 0 -0.43088802862206788 -0.18341984505491449 0 -0.43829012180726529 -0.19322062900912909 0 -0.42015528071935893 -0.19373976728588371 0 -0.42704416580793209 -0.1915833167308334 0 -0.42086010939994178 -0.18624419393877539 0 -0.42015528071935893 -0.19373976728588371 0 -0.42704416580793209 -0.1915833167308334 0 -0.4250272884910265 -0.2012921483654643 0 -0.4285734277027195 -0.1734756855885477 0 -0.43088802862206788 -0.18341984505491449 0 -0.41995474680429618 -0.17713819565942951 0 -0.42704416580793209 -0.1915833167308334 0 -0.43088802862206788 -0.18341984505491449 0 -0.42086010939994178 -0.18624419393877539 0 -0.43088802862206788 -0.18341984505491449 0 -0.41995474680429618 -0.17713819565942951 0 -0.42086010939994178 -0.18624419393877539 0 -0.43088802862206788 -0.18341984505491449 0 -0.44104422433457419 -0.1777922577957152 0 -0.43829012180726529 -0.19322062900912909 0 -0.4285734277027195 -0.1734756855885477 0 -0.43088802862206788 -0.18341984505491449 0 -0.44104422433457419 -0.1777922577957152 0 -0.4285734277027195 -0.1734756855885477 0 -0.4344270590450659 -0.1609053943072484 0 -0.44104422433457419 -0.1777922577957152 0 -0.4285734277027195 -0.1734756855885477 0 -0.4344270590450659 -0.1609053943072484 0 -0.4151480566294905 -0.1680004084026471 0 -0.4151480566294905 -0.1680004084026471 0 -0.40323096316088519 -0.16793215078578741 0 -0.41306883257355248 -0.1475019853524365 0 -0.4344270590450659 -0.1609053943072484 0 -0.4151480566294905 -0.1680004084026471 0 -0.41306883257355248 -0.1475019853524365 0 -0.4151480566294905 -0.1680004084026471 0 -0.40690801218449152 -0.1762036959065488 0 -0.40323096316088519 -0.16793215078578741 0 -0.4151480566294905 -0.1680004084026471 0 -0.40690801218449152 -0.1762036959065488 0 -0.4136865446123984 -0.1757543503219206 0 -0.40690801218449152 -0.1762036959065488 0 -0.4136865446123984 -0.1757543503219206 0 -0.41273536283131562 -0.1816751013190569 0 -0.4151480566294905 -0.1680004084026471 0 -0.4136865446123984 -0.1757543503219206 0 -0.41995474680429618 -0.17713819565942951 0 -0.4285734277027195 -0.1734756855885477 0 -0.4151480566294905 -0.1680004084026471 0 -0.41995474680429618 -0.17713819565942951 0 -0.4136865446123984 -0.1757543503219206 0 -0.41995474680429618 -0.17713819565942951 0 -0.41273536283131562 -0.1816751013190569 0 -0.41995474680429618 -0.17713819565942951 0 -0.42086010939994178 -0.18624419393877539 0 -0.41273536283131562 -0.1816751013190569 0 -0.41182634361573828 -0.18846823012601879 0 -0.42086010939994178 -0.18624419393877539 0 -0.41273536283131562 -0.1816751013190569 0 -0.41182634361573828 -0.18846823012601879 0 -0.41273536283131562 -0.1816751013190569 0 -0.4077561458873058 -0.18322680436219499 0 -0.40690801218449152 -0.1762036959065488 0 -0.41273536283131562 -0.1816751013190569 0 -0.4077561458873058 -0.18322680436219499 0 -0.41182634361573828 -0.18846823012601879 0 -0.4077561458873058 -0.18322680436219499 0 -0.40670914653930851 -0.1871811045826946 0 -0.39550730918059213 -0.18407841519480589 0 -0.38736231178750308 -0.177259124355894 0 -0.39189671048067998 -0.1677933701782604 0 -0.40135005364381798 -0.19305297691017151 0 -0.40060186426567512 -0.18260588987665591 0 -0.39550730918059213 -0.18407841519480589 0 -0.4077561458873058 -0.18322680436219499 0 -0.40670914653930851 -0.1871811045826946 0 -0.40060186426567512 -0.18260588987665591 0 -0.39550730918059213 -0.18407841519480589 0 -0.39189671048067998 -0.1677933701782604 0 -0.40060186426567512 -0.18260588987665591 0 -0.39550730918059213 -0.18407841519480589 0 -0.39189671048067998 -0.1677933701782604 0 -0.40690801218449152 -0.1762036959065488 0 -0.4077561458873058 -0.18322680436219499 0 -0.40060186426567512 -0.18260588987665591 0 -0.40690801218449152 -0.1762036959065488 0 -0.40060186426567512 -0.18260588987665591 0 -0.40323096316088519 -0.16793215078578741 0 -0.36992569105628492 -0.1720619732669908 0 -0.38736231178750308 -0.177259124355894 0 -0.39189671048067998 -0.1677933701782604 0 -0.36992569105628492 -0.1720619732669908 0 -0.38452179946839471 -0.1862127167391712 0 -0.38736231178750308 -0.177259124355894 0 -0.39550730918059213 -0.18407841519480589 0 -0.38452179946839471 -0.1862127167391712 0 -0.38736231178750308 -0.177259124355894 0 -0.36992569105628492 -0.1720619732669908 0 -0.38452179946839471 -0.1862127167391712 0 -0.36992569105628492 -0.1720619732669908 0 -0.37692746124962329 -0.16011968929401549 0 -0.39103059528285172 -0.16004763739543851 0 -0.36992569105628492 -0.1720619732669908 0 -0.39189671048067998 -0.1677933701782604 0 -0.39103059528285172 -0.16004763739543851 0 -0.36992569105628492 -0.1720619732669908 0 -0.39103059528285172 -0.16004763739543851 0 -0.37692746124962329 -0.16011968929401549 0 -0.39103059528285172 -0.16004763739543851 0 -0.38828980922767731 -0.15358795645443499 0 -0.39103059528285172 -0.16004763739543851 0 -0.38828980922767731 -0.15358795645443499 0 -0.40060186426567512 -0.18260588987665591 0 -0.39103059528285172 -0.16004763739543851 0 -0.40323096316088519 -0.16793215078578741 0 -0.40060186426567512 -0.18260588987665591 0 -0.39189671048067998 -0.1677933701782604 0 -0.39103059528285172 -0.16004763739543851 0 -0.40060186426567512 -0.18260588987665591 0 -0.39103059528285172 -0.16004763739543851 0 -0.39103059528285172 -0.16004763739543851 0 -0.40323096316088519 -0.16793215078578741 0 -0.41306883257355248 -0.1475019853524365 0 -0.39103059528285172 -0.16004763739543851 0 -0.39795981207507403 -0.14502431583870179 0 -0.41306883257355248 -0.1475019853524365 0 -0.39795981207507403 -0.14502431583870179 0 -0.40633267592073652 -0.13102661860532899 0 -0.41306883257355248 -0.1475019853524365 0 -0.39103059528285172 -0.16004763739543851 0 -0.41306883257355248 -0.1475019853524365 0 -0.39103059528285172 -0.16004763739543851 0 -0.39795981207507403 -0.14502431583870179 0 -0.38828980922767731 -0.15358795645443499 0 -0.39795981207507403 -0.14502431583870179 0 -0.38828980922767731 -0.15358795645443499 0 -0.38190833683646341 -0.1417380771930716 0 -0.38828980922767731 -0.15358795645443499 0 -0.38190833683646341 -0.1417380771930716 0 -0.37945525551812698 -0.15104483685056111 0 -0.37069541475874412 -0.1487336244607225 0 -0.38190833683646341 -0.1417380771930716 0 -0.37945525551812698 -0.15104483685056111 0 -0.37692746124962329 -0.16011968929401549 0 -0.38828980922767731 -0.15358795645443499 0 -0.37945525551812698 -0.15104483685056111 0 -0.37069541475874412 -0.1487336244607225 0 -0.37692746124962329 -0.16011968929401549 0 -0.37945525551812698 -0.15104483685056111 0 -0.37152802352755399 -0.13164580699010159 0 -0.38190833683646341 -0.1417380771930716 0 -0.38235470820745771 -0.123978498660336 0 -0.38190833683646341 -0.1417380771930716 0 -0.39228294530364349 -0.13316426080004001 0 -0.38235470820745771 -0.123978498660336 0 -0.39228294530364349 -0.13316426080004001 0 -0.40633267592073652 -0.13102661860532899 0 -0.39306930808202878 -0.1142539450673672 0 -0.39795981207507403 -0.14502431583870179 0 -0.38190833683646341 -0.1417380771930716 0 -0.39228294530364349 -0.13316426080004001 0 -0.39795981207507403 -0.14502431583870179 0 -0.39228294530364349 -0.13316426080004001 0 -0.40633267592073652 -0.13102661860532899 0 -0.40633267592073652 -0.13102661860532899 0 -0.42371591628165239 -0.12841039464220819 0 -0.41294233195137359 -0.116724400289887 0 -0.40633267592073652 -0.13102661860532899 0 -0.41306883257355248 -0.1475019853524365 0 -0.42371591628165239 -0.12841039464220819 0 -0.4344270590450659 -0.1609053943072484 0 -0.41306883257355248 -0.1475019853524365 0 -0.43782831476482847 -0.1415704877041897 0 -0.41306883257355248 -0.1475019853524365 0 -0.42371591628165239 -0.12841039464220819 0 -0.43782831476482847 -0.1415704877041897 0 -0.42371591628165239 -0.12841039464220819 0 -0.43782831476482847 -0.1415704877041897 0 -0.44295770465017009 -0.12292285668534771 0 -0.43782831476482847 -0.1415704877041897 0 -0.45407528277834919 -0.1346042898317954 0 -0.44295770465017009 -0.12292285668534771 0 -0.43782831476482847 -0.1415704877041897 0 -0.45305184803309972 -0.15210272433296521 0 -0.45407528277834919 -0.1346042898317954 0 -0.4344270590450659 -0.1609053943072484 0 -0.43782831476482847 -0.1415704877041897 0 -0.45305184803309972 -0.15210272433296521 0 -0.45305184803309972 -0.15210272433296521 0 -0.45407528277834919 -0.1346042898317954 0 -0.47213782278640881 -0.13623393318828281 0 -0.45305184803309972 -0.15210272433296521 0 -0.47213782278640881 -0.13623393318828281 0 -0.46702369577757719 -0.16066454859793791 0 -0.45407528277834919 -0.1346042898317954 0 -0.47213782278640881 -0.13623393318828281 0 -0.46296805171726468 -0.11640170438458371 0 -0.47213782278640881 -0.13623393318828281 0 -0.5 -0.14556247672259531 0 -0.48245330698995931 -0.121898764666846 0 -0.5 -0.14556247672259531 0 -0.48245330698995931 -0.121898764666846 0 -0.50000000000000089 -0.1198938119733675 0 -0.47213782278640881 -0.13623393318828281 0 -0.5 -0.14556247672259531 0 -0.48142521519093828 -0.15645589086587239 0 -0.47213782278640881 -0.13623393318828281 0 -0.48142521519093828 -0.15645589086587239 0 -0.47213782278640881 -0.13623393318828281 0 -0.48142521519093828 -0.15645589086587239 0 -0.46702369577757719 -0.16066454859793791 0 -0.48142521519093828 -0.15645589086587239 0 -0.47632052375980027 -0.17461649056753861 0 -0.46702369577757719 -0.16066454859793791 0 -0.48142521519093828 -0.15645589086587239 0 -0.49071260759546798 -0.17667784854346191 0 -0.47632052375980027 -0.17461649056753861 0 -0.47632052375980027 -0.17461649056753861 0 -0.46570520523623959 -0.1757931846103527 0 -0.46702369577757719 -0.16066454859793791 0 -0.48142521519093828 -0.15645589086587239 0 -0.49071260759546798 -0.17667784854346191 0 -0.5 -0.14556247672259531 0 -0.48142521519093828 -0.15645589086587239 0 -0.5 -0.17123114147182319 0 -0.48142521519093828 -0.15645589086587239 0 -0.5 -0.17123114147182319 0 -0.49071260759546798 -0.17667784854346191 0 -0.49071260759546798 -0.17667784854346191 0 -0.49999999999999861 -0.19689980622105099 0 -0.5 -0.17123114147182319 0 -0.49071260759546798 -0.17667784854346191 0 -0.49999999999999861 -0.19689980622105099 0 -0.49071260759546798 -0.17667784854346191 0 -0.47632052375980027 -0.17461649056753861 0 -0.47993034859498662 -0.18922987045237161 0 -0.47632052375980027 -0.17461649056753861 0 -0.46763136520864318 -0.18653340036078911 0 -0.46570520523623959 -0.1757931846103527 0 -0.47632052375980027 -0.17461649056753861 0 -0.46763136520864318 -0.18653340036078911 0 -0.47993034859498662 -0.18922987045237161 0 -0.46570520523623959 -0.1757931846103527 0 -0.45350155965897682 -0.1687850680226157 0 -0.45596312027128949 -0.18794868189772959 0 -0.46763136520864318 -0.18653340036078911 0 -0.46570520523623959 -0.1757931846103527 0 -0.45596312027128949 -0.18794868189772959 0 -0.45305184803309972 -0.15210272433296521 0 -0.46702369577757719 -0.16066454859793791 0 -0.45350155965897682 -0.1687850680226157 0 -0.46570520523623959 -0.1757931846103527 0 -0.46702369577757719 -0.16066454859793791 0 -0.45350155965897682 -0.1687850680226157 0 -0.4344270590450659 -0.1609053943072484 0 -0.45305184803309972 -0.15210272433296521 0 -0.45350155965897682 -0.1687850680226157 0 -0.4344270590450659 -0.1609053943072484 0 -0.45350155965897682 -0.1687850680226157 0 -0.44104422433457419 -0.1777922577957152 0 -0.45350155965897682 -0.1687850680226157 0 -0.44104422433457419 -0.1777922577957152 0 -0.45596312027128949 -0.18794868189772959 0 -0.44104422433457419 -0.1777922577957152 0 -0.43829012180726529 -0.19322062900912909 0 -0.45596312027128949 -0.18794868189772959 0 -0.45013906333809789 -0.2009404811944836 0 -0.43829012180726529 -0.19322062900912909 0 -0.45596312027128949 -0.18794868189772959 0 -0.43601245252430942 -0.20793643678791121 0 -0.45013906333809789 -0.2009404811944836 0 -0.43829012180726529 -0.19322062900912909 0 -0.43377720402095787 -0.21991138490827611 0 -0.43601245252430942 -0.20793643678791121 0 -0.45297794936819918 -0.2159919965998246 0 -0.43601245252430942 -0.20793643678791121 0 -0.45013906333809789 -0.2009404811944836 0 -0.45297794936819918 -0.2159919965998246 0 -0.45013906333809789 -0.2009404811944836 0 -0.45297794936819918 -0.2159919965998246 0 -0.46745167271942573 -0.1996046616778234 0 -0.45297794936819918 -0.2159919965998246 0 -0.46745167271942573 -0.1996046616778234 0 -0.46956062781061803 -0.21704188818370149 0 -0.45013906333809789 -0.2009404811944836 0 -0.46745167271942573 -0.1996046616778234 0 -0.45596312027128949 -0.18794868189772959 0 -0.46763136520864318 -0.18653340036078911 0 -0.46745167271942573 -0.1996046616778234 0 -0.45596312027128949 -0.18794868189772959 0 -0.46745167271942573 -0.1996046616778234 0 -0.47993034859498662 -0.18922987045237161 0 -0.48475058775642699 -0.21058337118561141 0 -0.46763136520864318 -0.18653340036078911 0 -0.46745167271942573 -0.1996046616778234 0 -0.47993034859498662 -0.18922987045237161 0 -0.47993034859498662 -0.18922987045237161 0 -0.49999999999999861 -0.19689980622105099 0 -0.48475058775642699 -0.21058337118561141 0 -0.49071260759546798 -0.17667784854346191 0 -0.47993034859498662 -0.18922987045237161 0 -0.49999999999999861 -0.19689980622105099 0 -0.49999999999999861 -0.19689980622105099 0 -0.48475058775642699 -0.21058337118561141 0 -0.50000000000000355 -0.22426693615016591 0 -0.46745167271942573 -0.1996046616778234 0 -0.48475058775642699 -0.21058337118561141 0 -0.46956062781061803 -0.21704188818370149 0 -0.46956062781061803 -0.21704188818370149 0 -0.47829002665147741 -0.2341248566128927 0 -0.46279731583591321 -0.22891002208815581 0 -0.48475058775642699 -0.21058337118561141 0 -0.46956062781061803 -0.21704188818370149 0 -0.47829002665147741 -0.2341248566128927 0 -0.47829002665147741 -0.2341248566128927 0 -0.49757451855253881 -0.23053548086278239 0 -0.50000000000000355 -0.22426693615016591 0 -0.48475058775642699 -0.21058337118561141 0 -0.47829002665147741 -0.2341248566128927 0 -0.50000000000000355 -0.22426693615016591 0 -0.47829002665147741 -0.2341248566128927 0 -0.50000000000000355 -0.22426693615016591 0 -0.47829002665147741 -0.2341248566128927 0 -0.49757451855253881 -0.23053548086278239 0 -0.47793059070477772 -0.24540990329775009 0 -0.5 -0.25006354863638108 0 -0.49757451855253881 -0.23053548086278239 0 -0.49068252501969761 -0.24549971615663649 0 -0.49757451855253881 -0.23053548086278239 0 -0.49068252501969761 -0.24549971615663649 0 -0.47793059070477772 -0.24540990329775009 0 -0.49757451855253881 -0.23053548086278239 0 -0.47793059070477772 -0.24540990329775009 0 -0.5 -0.25006354863638108 0 -0.49757451855253881 -0.23053548086278239 0 -0.50000000000000355 -0.22426693615016591 0 -0.4872249908214738 -0.25598993182963242 0 -0.49068252501969761 -0.24549971615663649 0 -0.47793059070477772 -0.24540990329775009 0 -0.47829002665147741 -0.2341248566128927 0 -0.47793059070477772 -0.24540990329775009 0 -0.45658005330295048 -0.2439827770756183 0 -0.45658005330295048 -0.2439827770756183 0 -0.46279731583591321 -0.22891002208815581 0 -0.44277641758923081 -0.23102430468348881 0 -0.47829002665147741 -0.2341248566128927 0 -0.45658005330295048 -0.2439827770756183 0 -0.45828666285701658 -0.26028432573271792 0 -0.47793059070477772 -0.24540990329775009 0 -0.45658005330295048 -0.2439827770756183 0 -0.47829002665147741 -0.2341248566128927 0 -0.45658005330295048 -0.2439827770756183 0 -0.46279731583591321 -0.22891002208815581 0 -0.45297794936819918 -0.2159919965998246 0 -0.46956062781061803 -0.21704188818370149 0 -0.46279731583591321 -0.22891002208815581 0 -0.45297794936819918 -0.2159919965998246 0 -0.46279731583591321 -0.22891002208815581 0 -0.44277641758923081 -0.23102430468348881 0 -0.43377720402095787 -0.21991138490827611 0 -0.45297794936819918 -0.2159919965998246 0 -0.44277641758923081 -0.23102430468348881 0 -0.43487007995442373 -0.25384069753834382 0 -0.45658005330295048 -0.2439827770756183 0 -0.43487007995442373 -0.25384069753834382 0 -0.43665732485841618 -0.24137016429136929 0 -0.45658005330295048 -0.2439827770756183 0 -0.43665732485841618 -0.24137016429136929 0 -0.45658005330295048 -0.2439827770756183 0 -0.44277641758923081 -0.23102430468348881 0 -0.42837915354319411 -0.040827216461995969 0 -0.4199205163048339 -0.024265820886729 0 -0.40528095782104068 -0.044243292517360297 0 -0.42343463197652342 -0.05874232933513765 0 -0.42837915354319411 -0.040827216461995969 0 -0.40528095782104068 -0.044243292517360297 0 -0.42343463197652342 -0.05874232933513765 0 -0.40528095782104068 -0.044243292517360297 0 -0.42343463197652342 -0.05874232933513765 0 -0.40528095782104068 -0.044243292517360297 0 -0.40670414160736479 -0.063195666982337848 0 -0.42343463197652342 -0.05874232933513765 0 -0.42837915354319411 -0.040827216461995969 0 -0.44094154444346079 -0.04995238034171972 0 -0.42343463197652342 -0.05874232933513765 0 -0.44158830613200611 -0.073241366152915127 0 -0.44094154444346079 -0.04995238034171972 0 -0.42837915354319411 -0.040827216461995969 0 -0.4342900889778567 -0.026770694848987801 0 -0.4453801544960031 -0.037531923181514312 0 -0.4342900889778567 -0.026770694848987801 0 -0.43033724725149269 -0.0037964727450953309 0 -0.4199205163048339 -0.024265820886729 0 -0.4342900889778567 -0.026770694848987801 0 -0.43033724725149269 -0.0037964727450953309 0 -0.44743337329375982 -0.027432040969604381 0 -0.42837915354319411 -0.040827216461995969 0 -0.4342900889778567 -0.026770694848987801 0 -0.4199205163048339 -0.024265820886729 0 -0.43033724725149269 -0.0037964727450953309 0 -0.4131572459017161 -0.004875649818797438 0 -0.4199205163048339 -0.024265820886729 0 -0.4131572459017161 -0.004875649818797438 0 -0.4199205163048339 -0.024265820886729 0 -0.40195427741026962 -0.018113178269922089 0 -0.4199205163048339 -0.024265820886729 0 -0.40195427741026962 -0.018113178269922089 0 -0.40528095782104068 -0.044243292517360297 0 -0.40195427741026962 -0.018113178269922089 0 -0.38465333842141641 -0.0066435457767305304 0 -0.38712728366555788 -0.02974425569958293 0 -0.40195427741026962 -0.018113178269922089 0 -0.38712728366555788 -0.02974425569958293 0 -0.40528095782104068 -0.044243292517360297 0 -0.40195427741026962 -0.018113178269922089 0 -0.38465333842141641 -0.0066435457767305304 0 -0.40033306733275759 0.0019581273283447299 0 -0.4131572459017161 -0.004875649818797438 0 -0.40195427741026962 -0.018113178269922089 0 -0.40033306733275759 0.0019581273283447299 0 -0.38465333842141641 -0.0066435457767305304 0 -0.40033306733275759 0.0019581273283447299 0 -0.36897360951007507 -0.015245218881805699 0 -0.38465333842141641 -0.0066435457767305304 0 -0.36897360951007507 -0.015245218881805699 0 -0.38465333842141641 -0.0066435457767305304 0 -0.38712728366555788 -0.02974425569958293 0 -0.36897360951007507 -0.015245218881805699 0 -0.38712728366555788 -0.02974425569958293 0 -0.37357085562444819 -0.050327950541553881 0 -0.38712728366555788 -0.02974425569958293 0 -0.39147992867528753 -0.058279446621744307 0 -0.38712728366555788 -0.02974425569958293 0 -0.40528095782104068 -0.044243292517360297 0 -0.38712728366555788 -0.02974425569958293 0 -0.40528095782104068 -0.044243292517360297 0 -0.39147992867528753 -0.058279446621744307 0 -0.40528095782104068 -0.044243292517360297 0 -0.39147992867528753 -0.058279446621744307 0 -0.40670414160736479 -0.063195666982337848 0 -0.37357085562444819 -0.050327950541553881 0 -0.39147992867528753 -0.058279446621744307 0 -0.37513495807632252 -0.068027960422620465 0 -0.39147992867528753 -0.058279446621744307 0 -0.37513495807632252 -0.068027960422620465 0 -0.3944429598887787 -0.078419500118194568 0 -0.37347114863240299 -0.089088331268139143 0 -0.37513495807632252 -0.068027960422620465 0 -0.3944429598887787 -0.078419500118194568 0 -0.37347114863240299 -0.089088331268139143 0 -0.3944429598887787 -0.078419500118194568 0 -0.38844874713165228 -0.097169733216879689 0 -0.3944429598887787 -0.078419500118194568 0 -0.38844874713165228 -0.097169733216879689 0 -0.40907098738890341 -0.097978282768044114 0 -0.39147992867528753 -0.058279446621744307 0 -0.3944429598887787 -0.078419500118194568 0 -0.40670414160736479 -0.063195666982337848 0 -0.3944429598887787 -0.078419500118194568 0 -0.41749625226094061 -0.077358517460495352 0 -0.40670414160736479 -0.063195666982337848 0 -0.39228294530364349 -0.13316426080004001 0 -0.38235470820745771 -0.123978498660336 0 -0.39306930808202878 -0.1142539450673672 0 -0.36980343247362518 -0.1100922289949047 0 -0.38235470820745771 -0.123978498660336 0 -0.39306930808202878 -0.1142539450673672 0 -0.36980343247362518 -0.1100922289949047 0 -0.37347114863240299 -0.089088331268139143 0 -0.38844874713165228 -0.097169733216879689 0 -0.36980343247362518 -0.1100922289949047 0 -0.38844874713165228 -0.097169733216879689 0 -0.39306930808202878 -0.1142539450673672 0 -0.38844874713165228 -0.097169733216879689 0 -0.39306930808202878 -0.1142539450673672 0 -0.40907098738890341 -0.097978282768044114 0 -0.39306930808202878 -0.1142539450673672 0 -0.41294233195137359 -0.116724400289887 0 -0.40907098738890341 -0.097978282768044114 0 -0.40633267592073652 -0.13102661860532899 0 -0.39306930808202878 -0.1142539450673672 0 -0.41294233195137359 -0.116724400289887 0 -0.41294233195137359 -0.116724400289887 0 -0.40907098738890341 -0.097978282768044114 0 -0.42916563782925382 -0.1107160192160596 0 -0.42916563782925382 -0.1107160192160596 0 -0.42904349786494111 -0.093106334976964328 0 -0.44668080241849201 -0.10304266906569499 0 -0.40907098738890341 -0.097978282768044114 0 -0.42916563782925382 -0.1107160192160596 0 -0.42904349786494111 -0.093106334976964328 0 -0.42371591628165239 -0.12841039464220819 0 -0.42916563782925382 -0.1107160192160596 0 -0.44295770465017009 -0.12292285668534771 0 -0.42371591628165239 -0.12841039464220819 0 -0.41294233195137359 -0.116724400289887 0 -0.42916563782925382 -0.1107160192160596 0 -0.42343463197652342 -0.05874232933513765 0 -0.41749625226094061 -0.077358517460495352 0 -0.40670414160736479 -0.063195666982337848 0 -0.40907098738890341 -0.097978282768044114 0 -0.41749625226094061 -0.077358517460495352 0 -0.42904349786494111 -0.093106334976964328 0 -0.3944429598887787 -0.078419500118194568 0 -0.40907098738890341 -0.097978282768044114 0 -0.41749625226094061 -0.077358517460495352 0 -0.41749625226094061 -0.077358517460495352 0 -0.42904349786494111 -0.093106334976964328 0 -0.44158830613200611 -0.073241366152915127 0 -0.42904349786494111 -0.093106334976964328 0 -0.44158830613200611 -0.073241366152915127 0 -0.42343463197652342 -0.05874232933513765 0 -0.44158830613200611 -0.073241366152915127 0 -0.42343463197652342 -0.05874232933513765 0 -0.41749625226094061 -0.077358517460495352 0 -0.44158830613200611 -0.073241366152915127 0 -0.44158830613200611 -0.073241366152915127 0 -0.46118581313569179 -0.071431252447136412 0 -0.45067286806919349 -0.058855770468984832 0 -0.44158830613200611 -0.073241366152915127 0 -0.45067286806919349 -0.058855770468984832 0 -0.44158830613200611 -0.073241366152915127 0 -0.44459286929252761 -0.089545637905493386 0 -0.46105887075467122 -0.088792181426399025 0 -0.42904349786494111 -0.093106334976964328 0 -0.44158830613200611 -0.073241366152915127 0 -0.44459286929252761 -0.089545637905493386 0 -0.44158830613200611 -0.073241366152915127 0 -0.46105887075467122 -0.088792181426399025 0 -0.46105887075467122 -0.088792181426399025 0 -0.46118581313569179 -0.071431252447136412 0 -0.48115195350555812 -0.076249636056848105 0 -0.44158830613200611 -0.073241366152915127 0 -0.46105887075467122 -0.088792181426399025 0 -0.46118581313569179 -0.071431252447136412 0 -0.44295770465017009 -0.12292285668534771 0 -0.44668080241849201 -0.10304266906569499 0 -0.46296805171726468 -0.11640170438458371 0 -0.42916563782925382 -0.1107160192160596 0 -0.44295770465017009 -0.12292285668534771 0 -0.44668080241849201 -0.10304266906569499 0 -0.44459286929252761 -0.089545637905493386 0 -0.46105887075467122 -0.088792181426399025 0 -0.44668080241849201 -0.10304266906569499 0 -0.42904349786494111 -0.093106334976964328 0 -0.44459286929252761 -0.089545637905493386 0 -0.44668080241849201 -0.10304266906569499 0 -0.46105887075467122 -0.088792181426399025 0 -0.46296805171726468 -0.11640170438458371 0 -0.48052943537733628 -0.1043429966998831 0 -0.46105887075467122 -0.088792181426399025 0 -0.44668080241849201 -0.10304266906569499 0 -0.46296805171726468 -0.11640170438458371 0 -0.45407528277834919 -0.1346042898317954 0 -0.44295770465017009 -0.12292285668534771 0 -0.46296805171726468 -0.11640170438458371 0 -0.46296805171726468 -0.11640170438458371 0 -0.48245330698995931 -0.121898764666846 0 -0.48052943537733628 -0.1043429966998831 0 -0.47213782278640881 -0.13623393318828281 0 -0.46296805171726468 -0.11640170438458371 0 -0.48245330698995931 -0.121898764666846 0 -0.46105887075467122 -0.088792181426399025 0 -0.48052943537733628 -0.1043429966998831 0 -0.48052943537733628 -0.1043429966998831 0 -0.50000000000000089 -0.1198938119733675 0 -0.5 -0.090898883536528308 0 -0.48245330698995931 -0.121898764666846 0 -0.48052943537733628 -0.1043429966998831 0 -0.50000000000000089 -0.1198938119733675 0 -0.48052943537733628 -0.1043429966998831 0 -0.50000000000000089 -0.1198938119733675 0 -0.46118581313569179 -0.071431252447136412 0 -0.48115195350555812 -0.076249636056848105 0 -0.46833584839527592 -0.05632992550213807 0 -0.48115195350555812 -0.076249636056848105 0 -0.48490864188954641 -0.055044389119401932 0 -0.46833584839527592 -0.05632992550213807 0 -0.46105887075467122 -0.088792181426399025 0 -0.48052943537733628 -0.1043429966998831 0 -0.48115195350555812 -0.076249636056848105 0 -0.48052943537733628 -0.1043429966998831 0 -0.48115195350555812 -0.076249636056848105 0 -0.5 -0.090898883536528308 0 -0.48115195350555812 -0.076249636056848105 0 -0.5 -0.090898883536528308 0 -0.5 -0.061903955099689163 0 -0.48115195350555812 -0.076249636056848105 0 -0.5 -0.061903955099689163 0 -0.48490864188954641 -0.055044389119401932 0 -0.5 -0.061903955099689163 0 -0.48490864188954641 -0.055044389119401932 0 -0.5 -0.032909026662849998 0 -0.48490864188954641 -0.055044389119401932 0 -0.5 -0.032909026662849998 0 -0.47623700986288742 -0.042296174380792313 0 -0.47623700986288742 -0.042296174380792313 0 -0.45975743000638192 -0.044470174785055258 0 -0.47133789178420182 -0.026132268992706809 0 -0.5 -0.032909026662849998 0 -0.47623700986288742 -0.042296174380792313 0 -0.47133789178420182 -0.026132268992706809 0 -0.48490864188954641 -0.055044389119401932 0 -0.47623700986288742 -0.042296174380792313 0 -0.46833584839527592 -0.05632992550213807 0 -0.46118581313569179 -0.071431252447136412 0 -0.46833584839527592 -0.05632992550213807 0 -0.45067286806919349 -0.058855770468984832 0 -0.47623700986288742 -0.042296174380792313 0 -0.46833584839527592 -0.05632992550213807 0 -0.45975743000638192 -0.044470174785055258 0 -0.46833584839527592 -0.05632992550213807 0 -0.45975743000638192 -0.044470174785055258 0 -0.45067286806919349 -0.058855770468984832 0 -0.45975743000638192 -0.044470174785055258 0 -0.45067286806919349 -0.058855770468984832 0 -0.46833584839527592 -0.05632992550213807 0 -0.45975743000638192 -0.044470174785055258 0 -0.45964620516156041 -0.031574428691672249 0 -0.45975743000638192 -0.044470174785055258 0 -0.44743337329375982 -0.027432040969604381 0 -0.45975743000638192 -0.044470174785055258 0 -0.44743337329375982 -0.027432040969604381 0 -0.45975743000638192 -0.044470174785055258 0 -0.47133789178420182 -0.026132268992706809 0 -0.45964620516156041 -0.031574428691672249 0 -0.45975743000638192 -0.044470174785055258 0 -0.47133789178420182 -0.026132268992706809 0 -0.45975743000638192 -0.044470174785055258 0 -0.4453801544960031 -0.037531923181514312 0 -0.44743337329375982 -0.027432040969604381 0 -0.45975743000638192 -0.044470174785055258 0 -0.4453801544960031 -0.037531923181514312 0 -0.44094154444346079 -0.04995238034171972 0 -0.42837915354319411 -0.040827216461995969 0 -0.4453801544960031 -0.037531923181514312 0 -0.44094154444346079 -0.04995238034171972 0 -0.4453801544960031 -0.037531923181514312 0 -0.44743337329375982 -0.027432040969604381 0 -0.44158830613200611 -0.073241366152915127 0 -0.44094154444346079 -0.04995238034171972 0 -0.45067286806919349 -0.058855770468984832 0 -0.45975743000638192 -0.044470174785055258 0 -0.44094154444346079 -0.04995238034171972 0 -0.45067286806919349 -0.058855770468984832 0 -0.43033724725149269 -0.0037964727450953309 0 -0.45268467479845531 -0.00160063580491273 0 -0.44743337329375982 -0.027432040969604381 0 -0.45268467479845531 -0.00160063580491273 0 -0.44743337329375982 -0.027432040969604381 0 -0.43033724725149269 -0.0037964727450953309 0 -0.44743337329375982 -0.027432040969604381 0 -0.4342900889778567 -0.026770694848987801 0 -0.4453801544960031 -0.037531923181514312 0 -0.44743337329375982 -0.027432040969604381 0 -0.45964620516156041 -0.031574428691672249 0 -0.44743337329375982 -0.027432040969604381 0 -0.46065164258955998 -0.015998841515816709 0 -0.45964620516156041 -0.031574428691672249 0 -0.46065164258955998 -0.015998841515816709 0 -0.47133789178420182 -0.026132268992706809 0 -0.45268467479845531 -0.00160063580491273 0 -0.46065164258955998 -0.015998841515816709 0 -0.47044579822050858 0.003730308873902122 0 -0.45268467479845531 -0.00160063580491273 0 -0.44743337329375982 -0.027432040969604381 0 -0.46065164258955998 -0.015998841515816709 0 -0.46065164258955998 -0.015998841515816709 0 -0.48291835356202167 -0.0077943632003582772 0 -0.47044579822050858 0.003730308873902122 0 -0.46065164258955998 -0.015998841515816709 0 -0.48291835356202167 -0.0077943632003582772 0 -0.47133789178420182 -0.026132268992706809 0 -0.48291835356202167 -0.0077943632003582772 0 -0.47133789178420182 -0.026132268992706809 0 -0.5 -0.032909026662849998 0 -0.48291835356202167 -0.0077943632003582772 0 -0.47133789178420182 -0.026132268992706809 0 -0.5 -0.032909026662849998 0 -0.48291835356202167 -0.0077943632003582772 0 -0.5 -0.0039140982260107426 0 -0.48291835356202167 -0.0077943632003582772 0 -0.5 -0.0039140982260107426 0 -0.48656778433615411 0.0071434676601368312 0 -0.5 -0.0039140982260107426 0 -0.48656778433615411 0.0071434676601368312 0 -0.5 0.02508083021082835 0 -0.5 0.02508083021082835 0 -0.47947476989823978 0.0186146606423227 0 -0.48053744464613157 0.038241937480116027 0 -0.48656778433615411 0.0071434676601368312 0 -0.5 0.02508083021082835 0 -0.47947476989823978 0.0186146606423227 0 -0.47947476989823978 0.0186146606423227 0 -0.48053744464613157 0.038241937480116027 0 -0.45793597630314969 0.024230769359779091 0 -0.48656778433615411 0.0071434676601368312 0 -0.47947476989823978 0.0186146606423227 0 -0.47044579822050858 0.003730308873902122 0 -0.48291835356202167 -0.0077943632003582772 0 -0.48656778433615411 0.0071434676601368312 0 -0.47044579822050858 0.003730308873902122 0 -0.47947476989823978 0.0186146606423227 0 -0.47044579822050858 0.003730308873902122 0 -0.45793597630314969 0.024230769359779091 0 -0.5 0.05407575864766756 0 -0.48053744464613157 0.038241937480116027 0 -0.48160115767747708 0.06010989829645641 0 -0.5 0.02508083021082835 0 -0.5 0.05407575864766756 0 -0.48053744464613157 0.038241937480116027 0 -0.48053744464613157 0.038241937480116027 0 -0.48160115767747708 0.06010989829645641 0 -0.4631872778078443 0.050062174524471058 0 -0.48160115767747708 0.06010989829645641 0 -0.4631872778078443 0.050062174524471058 0 -0.46843857931253879 0.07589357968916309 0 -0.4631872778078443 0.050062174524471058 0 -0.4467001814262947 0.061097152827744368 0 -0.46843857931253879 0.07589357968916309 0 -0.48053744464613157 0.038241937480116027 0 -0.4631872778078443 0.050062174524471058 0 -0.45793597630314969 0.024230769359779091 0 -0.4631872778078443 0.050062174524471058 0 -0.45793597630314969 0.024230769359779091 0 -0.4631872778078443 0.050062174524471058 0 -0.44755765064800451 0.039790068000500847 0 -0.45793597630314969 0.024230769359779091 0 -0.44755765064800451 0.039790068000500847 0 -0.43523671041618939 0.023434885238954581 0 -0.43070758581248142 0.047053180835022322 0 -0.4631872778078443 0.050062174524471058 0 -0.44755765064800451 0.039790068000500847 0 -0.4467001814262947 0.061097152827744368 0 -0.44755765064800451 0.039790068000500847 0 -0.4467001814262947 0.061097152827744368 0 -0.43070758581248142 0.047053180835022322 0 -0.45268467479845531 -0.00160063580491273 0 -0.45793597630314969 0.024230769359779091 0 -0.45268467479845531 -0.00160063580491273 0 -0.47044579822050858 0.003730308873902122 0 -0.45793597630314969 0.024230769359779091 0 -0.44755765064800451 0.039790068000500847 0 -0.45793597630314969 0.024230769359779091 0 -0.43523671041618939 0.023434885238954581 0 -0.45268467479845531 -0.00160063580491273 0 -0.45793597630314969 0.024230769359779091 0 -0.43523671041618939 0.023434885238954581 0 -0.43033724725149269 -0.0037964727450953309 0 -0.45268467479845531 -0.00160063580491273 0 -0.43523671041618939 0.023434885238954581 0 -0.43033724725149269 -0.0037964727450953309 0 -0.41324112120922679 0.019839095479414509 0 -0.43523671041618939 0.023434885238954581 0 -0.4131572459017161 -0.004875649818797438 0 -0.41324112120922679 0.019839095479414509 0 -0.40033306733275759 0.0019581273283447299 0 -0.43033724725149269 -0.0037964727450953309 0 -0.4131572459017161 -0.004875649818797438 0 -0.41324112120922679 0.019839095479414509 0 -0.43033724725149269 -0.0037964727450953309 0 -0.41324112120922679 0.019839095479414509 0 -0.41324112120922679 0.019839095479414509 0 -0.43523671041618939 0.023434885238954581 0 -0.4159879611894004 0.038538653043845933 0 -0.43523671041618939 0.023434885238954581 0 -0.43070758581248142 0.047053180835022322 0 -0.4159879611894004 0.038538653043845933 0 -0.4467001814262947 0.061097152827744368 0 -0.43070758581248142 0.047053180835022322 0 -0.43187545736445182 0.065921103617004775 0 -0.43070758581248142 0.047053180835022322 0 -0.41322656597679058 0.058941655142102069 0 -0.43187545736445182 0.065921103617004775 0 -0.43070758581248142 0.047053180835022322 0 -0.41322656597679058 0.058941655142102069 0 -0.4159879611894004 0.038538653043845933 0 -0.41322656597679058 0.058941655142102069 0 -0.4159879611894004 0.038538653043845933 0 -0.39614499516696089 0.04347466370392436 0 -0.41324112120922679 0.019839095479414509 0 -0.4159879611894004 0.038538653043845933 0 -0.39614499516696089 0.04347466370392436 0 -0.41324112120922679 0.019839095479414509 0 -0.39614499516696089 0.04347466370392436 0 -0.39614499516696089 0.04347466370392436 0 -0.37904886912469499 0.067110231928434197 0 -0.39695674231957478 0.074929810419583368 0 -0.41322656597679058 0.058941655142102069 0 -0.39614499516696089 0.04347466370392436 0 -0.39695674231957478 0.074929810419583368 0 -0.39614499516696089 0.04347466370392436 0 -0.37904886912469499 0.067110231928434197 0 -0.39614499516696089 0.04347466370392436 0 -0.37830855690199738 0.048851891747440382 0 -0.37904886912469499 0.067110231928434197 0 -0.37830855690199738 0.048851891747440382 0 -0.37904886912469499 0.067110231928434197 0 -0.37119345183321822 0.058853827639881867 0 -0.39614499516696089 0.04347466370392436 0 -0.37753126207020948 0.034899308803226177 0 -0.39262774316901877 0.02112007510405265 0 -0.39614499516696089 0.04347466370392436 0 -0.37830855690199738 0.048851891747440382 0 -0.37753126207020948 0.034899308803226177 0 -0.38389636562500351 0.0078670615218947963 0 -0.39262774316901877 0.02112007510405265 0 -0.37274578052696178 0.01868977009819147 0 -0.37753126207020948 0.034899308803226177 0 -0.39262774316901877 0.02112007510405265 0 -0.37274578052696178 0.01868977009819147 0 -0.38465333842141641 -0.0066435457767305304 0 -0.38389636562500351 0.0078670615218947963 0 -0.40033306733275759 0.0019581273283447299 0 -0.38389636562500351 0.0078670615218947963 0 -0.37274578052696178 0.01868977009819147 0 -0.36979036210562988 0.0025511841975563729 0 -0.38465333842141641 -0.0066435457767305304 0 -0.38389636562500351 0.0078670615218947963 0 -0.36979036210562988 0.0025511841975563729 0 -0.38389636562500351 0.0078670615218947963 0 -0.40033306733275759 0.0019581273283447299 0 -0.39262774316901877 0.02112007510405265 0 -0.41324112120922679 0.019839095479414509 0 -0.40033306733275759 0.0019581273283447299 0 -0.39262774316901877 0.02112007510405265 0 -0.41324112120922679 0.019839095479414509 0 -0.39614499516696089 0.04347466370392436 0 -0.39262774316901877 0.02112007510405265 0 -0.38940712396436111 0.098535478259042519 0 -0.39976920250104669 0.086913075381088473 0 -0.40655062222011962 0.096340958868671334 0 -0.39063101314785642 0.1199442217017349 0 -0.40655062222011962 0.096340958868671334 0 -0.40795026737523371 0.1101441825861223 0 -0.39063101314785642 0.1199442217017349 0 -0.38940712396436111 0.098535478259042519 0 -0.40655062222011962 0.096340958868671334 0 -0.39063101314785642 0.1199442217017349 0 -0.40655062222011962 0.096340958868671334 0 -0.39063101314785642 0.1199442217017349 0 -0.40795026737523371 0.1101441825861223 0 -0.40406865080306442 0.1250183431131778 0 -0.39063101314785642 0.1199442217017349 0 -0.37896648635229202 0.10715504183998489 0 -0.36716541190589658 0.118616890008602 0 -0.39063101314785642 0.1199442217017349 0 -0.37896648635229202 0.10715504183998489 0 -0.38940712396436111 0.098535478259042519 0 -0.37896648635229202 0.10715504183998489 0 -0.38940712396436111 0.098535478259042519 0 -0.37643332436138899 0.09558572737664002 0 -0.38119130922167832 0.078766060501995444 0 -0.3856317933390121 0.08567132342606161 0 -0.39695674231957478 0.074929810419583368 0 -0.37643332436138899 0.09558572737664002 0 -0.3856317933390121 0.08567132342606161 0 -0.37016311523106599 0.083751267223082917 0 -0.38119130922167832 0.078766060501995444 0 -0.3856317933390121 0.08567132342606161 0 -0.37016311523106599 0.083751267223082917 0 -0.38940712396436111 0.098535478259042519 0 -0.37643332436138899 0.09558572737664002 0 -0.3856317933390121 0.08567132342606161 0 -0.39695674231957478 0.074929810419583368 0 -0.37201358599706058 0.070711840939253895 0 -0.38119130922167832 0.078766060501995444 0 -0.39695674231957478 0.074929810419583368 0 -0.37201358599706058 0.070711840939253895 0 -0.37904886912469499 0.067110231928434197 0 -0.39695674231957478 0.074929810419583368 0 -0.37201358599706058 0.070711840939253895 0 -0.39695674231957478 0.074929810419583368 0 -0.39976920250104669 0.086913075381088473 0 -0.42189989864208899 0.079147779899912826 0 -0.38940712396436111 0.098535478259042519 0 -0.3856317933390121 0.08567132342606161 0 -0.39976920250104669 0.086913075381088473 0 -0.3856317933390121 0.08567132342606161 0 -0.39695674231957478 0.074929810419583368 0 -0.39976920250104669 0.086913075381088473 0 -0.42189989864208899 0.079147779899912826 0 -0.41823283762125668 0.10021421029095 0 -0.40655062222011962 0.096340958868671334 0 -0.39976920250104669 0.086913075381088473 0 -0.42189989864208899 0.079147779899912826 0 -0.40655062222011962 0.096340958868671334 0 -0.39695674231957478 0.074929810419583368 0 -0.42189989864208899 0.079147779899912826 0 -0.41322656597679058 0.058941655142102069 0 -0.39695674231957478 0.074929810419583368 0 -0.42189989864208899 0.079147779899912826 0 -0.43187545736445182 0.065921103617004775 0 -0.42189989864208899 0.079147779899912826 0 -0.44684305496460319 0.083365749380242285 0 -0.41322656597679058 0.058941655142102069 0 -0.43187545736445182 0.065921103617004775 0 -0.42189989864208899 0.079147779899912826 0 -0.42189989864208899 0.079147779899912826 0 -0.43230900050581528 0.10074033507248679 0 -0.44684305496460319 0.083365749380242285 0 -0.42189989864208899 0.079147779899912826 0 -0.43230900050581528 0.10074033507248679 0 -0.41823283762125668 0.10021421029095 0 -0.42189989864208899 0.079147779899912826 0 -0.44684305496460319 0.083365749380242285 0 -0.43230900050581528 0.10074033507248679 0 -0.41823283762125668 0.10021421029095 0 -0.42245439936302609 0.1146977950275566 0 -0.41823283762125668 0.10021421029095 0 -0.40795026737523371 0.1101441825861223 0 -0.42245439936302609 0.1146977950275566 0 -0.41823283762125668 0.10021421029095 0 -0.40655062222011962 0.096340958868671334 0 -0.40795026737523371 0.1101441825861223 0 -0.40795026737523371 0.1101441825861223 0 -0.42245439936302609 0.1146977950275566 0 -0.41854804079657681 0.1335618185962307 0 -0.40795026737523371 0.1101441825861223 0 -0.41854804079657681 0.1335618185962307 0 -0.40795026737523371 0.1101441825861223 0 -0.41854804079657681 0.1335618185962307 0 -0.40406865080306442 0.1250183431131778 0 -0.4361514068569779 0.1212930370016405 0 -0.42245439936302609 0.1146977950275566 0 -0.41854804079657681 0.1335618185962307 0 -0.43230900050581528 0.10074033507248679 0 -0.4361514068569779 0.1212930370016405 0 -0.42245439936302609 0.1146977950275566 0 -0.4361514068569779 0.1212930370016405 0 -0.45131059104818438 0.10389771754541841 0 -0.45603072582896947 0.12415654782577901 0 -0.43230900050581528 0.10074033507248679 0 -0.4361514068569779 0.1212930370016405 0 -0.45131059104818438 0.10389771754541841 0 -0.43230900050581528 0.10074033507248679 0 -0.45131059104818438 0.10389771754541841 0 -0.44684305496460319 0.083365749380242285 0 -0.45131059104818438 0.10389771754541841 0 -0.46040635620489312 0.091287960740373597 0 -0.47503319949424611 0.10199479634667059 0 -0.45131059104818438 0.10389771754541841 0 -0.45603072582896947 0.12415654782577901 0 -0.47503319949424611 0.10199479634667059 0 -0.4467001814262947 0.061097152827744368 0 -0.43187545736445182 0.065921103617004775 0 -0.44684305496460319 0.083365749380242285 0 -0.45131059104818438 0.10389771754541841 0 -0.44684305496460319 0.083365749380242285 0 -0.46040635620489312 0.091287960740373597 0 -0.46040635620489312 0.091287960740373597 0 -0.46843857931253879 0.07589357968916309 0 -0.47503319949424611 0.10199479634667059 0 -0.44684305496460319 0.083365749380242285 0 -0.46040635620489312 0.091287960740373597 0 -0.46843857931253879 0.07589357968916309 0 -0.4631872778078443 0.050062174524471058 0 -0.46843857931253879 0.07589357968916309 0 -0.4467001814262947 0.061097152827744368 0 -0.44684305496460319 0.083365749380242285 0 -0.46843857931253879 0.07589357968916309 0 -0.48160115767747708 0.06010989829645641 0 -0.46843857931253879 0.07589357968916309 0 -0.5 0.083070687084506711 0 -0.46843857931253879 0.07589357968916309 0 -0.5 0.083070687084506711 0 -0.47503319949424611 0.10199479634667059 0 -0.5 0.05407575864766756 0 -0.48160115767747708 0.06010989829645641 0 -0.5 0.083070687084506711 0 -0.45603072582896947 0.12415654782577901 0 -0.47503319949424611 0.10199479634667059 0 -0.47840746745339868 0.1318715347448986 0 -0.5 0.083070687084506711 0 -0.47503319949424611 0.10199479634667059 0 -0.5 0.11206561552134579 0 -0.47503319949424611 0.10199479634667059 0 -0.5 0.11206561552134579 0 -0.47840746745339868 0.1318715347448986 0 -0.5 0.11206561552134579 0 -0.47840746745339868 0.1318715347448986 0 -0.5 0.14106054395818479 0 -0.47840746745339868 0.1318715347448986 0 -0.4813713775429343 0.15534342778339541 0 -0.45584990199199521 0.14839652371063539 0 -0.47840746745339868 0.1318715347448986 0 -0.4813713775429343 0.15534342778339541 0 -0.5 0.14106054395818479 0 -0.4813713775429343 0.15534342778339541 0 -0.5 0.14106054395818479 0 -0.5 0.17005547239502389 0 -0.4813713775429343 0.15534342778339541 0 -0.5 0.17005547239502389 0 -0.47888983910924399 0.1833910978263659 0 -0.5 0.17005547239502389 0 -0.47888983910924399 0.1833910978263659 0 -0.49999999999999639 0.19905040083186301 0 -0.4813713775429343 0.15534342778339541 0 -0.47888983910924399 0.1833910978263659 0 -0.46013732273498392 0.17116473448995881 0 -0.4813713775429343 0.15534342778339541 0 -0.47888983910924399 0.1833910978263659 0 -0.4813713775429343 0.15534342778339541 0 -0.46013732273498392 0.17116473448995881 0 -0.45584990199199521 0.14839652371063539 0 -0.47888983910924399 0.1833910978263659 0 -0.46013732273498392 0.17116473448995881 0 -0.4553652866229031 0.19812390853730849 0 -0.46013732273498392 0.17116473448995881 0 -0.43974358763926291 0.18039709061644729 0 -0.4553652866229031 0.19812390853730849 0 -0.46013732273498392 0.17116473448995881 0 -0.45584990199199521 0.14839652371063539 0 -0.42914581421791992 0.156979454606339 0 -0.46013732273498392 0.17116473448995881 0 -0.43974358763926291 0.18039709061644729 0 -0.42914581421791992 0.156979454606339 0 -0.43890233478009338 0.1378395493323826 0 -0.45584990199199521 0.14839652371063539 0 -0.42914581421791992 0.156979454606339 0 -0.4361514068569779 0.1212930370016405 0 -0.45603072582896947 0.12415654782577901 0 -0.43890233478009338 0.1378395493323826 0 -0.45603072582896947 0.12415654782577901 0 -0.43890233478009338 0.1378395493323826 0 -0.45584990199199521 0.14839652371063539 0 -0.45603072582896947 0.12415654782577901 0 -0.47840746745339868 0.1318715347448986 0 -0.45584990199199521 0.14839652371063539 0 -0.48510068849613291 0.2464952989699998 0 -0.5 0.22952651967534751 0 -0.5 0.27058277969487637 0 -0.48510068849613291 0.2464952989699998 0 -0.47450648191078398 0.23293413722231679 0 -0.4662317729600568 0.24711617116125539 0 -0.48510068849613291 0.2464952989699998 0 -0.5 0.22952651967534751 0 -0.47450648191078398 0.23293413722231679 0 -0.5 0.22952651967534751 0 -0.47450648191078398 0.23293413722231679 0 -0.47640830067555312 0.21143876786933641 0 -0.47450648191078398 0.23293413722231679 0 -0.47640830067555312 0.21143876786933641 0 -0.47640830067555312 0.21143876786933641 0 -0.49999999999999639 0.19905040083186301 0 -0.5 0.22952651967534751 0 -0.47640830067555312 0.21143876786933641 0 -0.49999999999999639 0.19905040083186301 0 -0.47888983910924399 0.1833910978263659 0 -0.47640830067555312 0.21143876786933641 0 -0.49999999999999639 0.19905040083186301 0 -0.47888983910924399 0.1833910978263659 0 -0.47640830067555312 0.21143876786933641 0 -0.47888983910924399 0.1833910978263659 0 -0.47640830067555312 0.21143876786933641 0 -0.4553652866229031 0.19812390853730849 0 -0.43974358763926291 0.18039709061644729 0 -0.4553652866229031 0.19812390853730849 0 -0.43067986422853077 0.20940139548392031 0 -0.4553652866229031 0.19812390853730849 0 -0.45283971357182312 0.22381499832142371 0 -0.43067986422853077 0.20940139548392031 0 -0.47640830067555312 0.21143876786933641 0 -0.4553652866229031 0.19812390853730849 0 -0.45283971357182312 0.22381499832142371 0 -0.47640830067555312 0.21143876786933641 0 -0.45283971357182312 0.22381499832142371 0 -0.47450648191078398 0.23293413722231679 0 -0.45283971357182312 0.22381499832142371 0 -0.45078000859246359 0.24156244513336969 0 -0.47450648191078398 0.23293413722231679 0 -0.47640830067555312 0.21143876786933641 0 -0.45283971357182312 0.22381499832142371 0 -0.45283971357182312 0.22381499832142371 0 -0.43294786837480398 0.2404538296894207 0 -0.42927112646809362 0.23619122877351181 0 -0.45283971357182312 0.22381499832142371 0 -0.42927112646809362 0.23619122877351181 0 -0.45283971357182312 0.22381499832142371 0 -0.42927112646809362 0.23619122877351181 0 -0.43067986422853077 0.20940139548392031 0 -0.45283971357182312 0.22381499832142371 0 -0.45078000859246359 0.24156244513336969 0 -0.43294786837480398 0.2404538296894207 0 -0.43294786837480398 0.2404538296894207 0 -0.44957601688056159 0.25938839971938082 0 -0.45078000859246359 0.24156244513336969 0 -0.43294786837480398 0.2404538296894207 0 -0.44957601688056159 0.25938839971938082 0 -0.45078000859246359 0.24156244513336969 0 -0.4662317729600568 0.24711617116125539 0 -0.44957601688056159 0.25938839971938082 0 -0.47450648191078398 0.23293413722231679 0 -0.45078000859246359 0.24156244513336969 0 -0.4662317729600568 0.24711617116125539 0 -0.42927112646809362 0.23619122877351181 0 -0.40439403923729561 0.237116777479636 0 -0.40570253936436479 0.24856745922560119 0 -0.42927112646809362 0.23619122877351181 0 -0.40570253936436479 0.24856745922560119 0 -0.43294786837480398 0.2404538296894207 0 -0.42927112646809362 0.23619122877351181 0 -0.40570253936436479 0.24856745922560119 0 -0.42927112646809362 0.23619122877351181 0 -0.41099867150134572 0.22378265931279079 0 -0.43067986422853077 0.20940139548392031 0 -0.42927112646809362 0.23619122877351181 0 -0.41099867150134572 0.22378265931279079 0 -0.40439403923729561 0.237116777479636 0 -0.40693149157881192 0.20854646138297669 0 -0.43067986422853077 0.20940139548392031 0 -0.41468845130467291 0.19268004053423909 0 -0.41099867150134572 0.22378265931279079 0 -0.40693149157881192 0.20854646138297669 0 -0.43067986422853077 0.20940139548392031 0 -0.43974358763926291 0.18039709061644729 0 -0.43067986422853077 0.20940139548392031 0 -0.41468845130467291 0.19268004053423909 0 -0.40693149157881192 0.20854646138297669 0 -0.41468845130467291 0.19268004053423909 0 -0.3971577940731173 0.19827573187671929 0 -0.41468845130467291 0.19268004053423909 0 -0.3971577940731173 0.19827573187671929 0 -0.39721082993519219 0.18448993107768991 0 -0.3971577940731173 0.19827573187671929 0 -0.38589476142810619 0.19424352100093389 0 -0.39721082993519219 0.18448993107768991 0 -0.38589476142810619 0.19424352100093389 0 -0.37633455857784293 0.18261391494179069 0 -0.37360736010814782 0.20134128663860251 0 -0.38589476142810619 0.19424352100093389 0 -0.388204088430469 0.2080493245121296 0 -0.37360736010814782 0.20134128663860251 0 -0.3971577940731173 0.19827573187671929 0 -0.38589476142810619 0.19424352100093389 0 -0.388204088430469 0.2080493245121296 0 -0.388204088430469 0.2080493245121296 0 -0.37752279527241261 0.21261086987475841 0 -0.37360736010814782 0.20134128663860251 0 -0.388204088430469 0.2080493245121296 0 -0.39698893960476778 0.22105750592270679 0 -0.38334950790794681 0.2216260941536595 0 -0.388204088430469 0.2080493245121296 0 -0.37752279527241261 0.21261086987475841 0 -0.38334950790794681 0.2216260941536595 0 -0.40693149157881192 0.20854646138297669 0 -0.3971577940731173 0.19827573187671929 0 -0.388204088430469 0.2080493245121296 0 -0.40693149157881192 0.20854646138297669 0 -0.388204088430469 0.2080493245121296 0 -0.39698893960476778 0.22105750592270679 0 -0.41099867150134572 0.22378265931279079 0 -0.40693149157881192 0.20854646138297669 0 -0.39698893960476778 0.22105750592270679 0 -0.41099867150134572 0.22378265931279079 0 -0.39817935363044121 0.2307605800777236 0 -0.39698893960476778 0.22105750592270679 0 -0.41099867150134572 0.22378265931279079 0 -0.39817935363044121 0.2307605800777236 0 -0.40439403923729561 0.237116777479636 0 -0.39817935363044121 0.2307605800777236 0 -0.39698893960476778 0.22105750592270679 0 -0.38938082192181989 0.23429513208400299 0 -0.39698893960476778 0.22105750592270679 0 -0.38334950790794681 0.2216260941536595 0 -0.38938082192181989 0.23429513208400299 0 -0.37752279527241261 0.21261086987475841 0 -0.38334950790794681 0.2216260941536595 0 -0.37349668708843092 0.2226496950895116 0 -0.38334950790794681 0.2216260941536595 0 -0.37780308712422273 0.23309721308500589 0 -0.37349668708843092 0.2226496950895116 0 -0.38334950790794681 0.2216260941536595 0 -0.37780308712422273 0.23309721308500589 0 -0.38938082192181989 0.23429513208400299 0 -0.37780308712422273 0.23309721308500589 0 -0.38938082192181989 0.23429513208400299 0 -0.38455494932564349 0.24416718140159829 0 -0.38938082192181989 0.23429513208400299 0 -0.38455494932564349 0.24416718140159829 0 -0.39556747567899392 0.24292135359640349 0 -0.37780308712422273 0.23309721308500589 0 -0.37552267705158737 0.2431978490864326 0 -0.38455494932564349 0.24416718140159829 0 -0.37552267705158737 0.2431978490864326 0 -0.38455494932564349 0.24416718140159829 0 -0.37675611103540763 0.25409865512553548 0 -0.38455494932564349 0.24416718140159829 0 -0.39556747567899392 0.24292135359640349 0 -0.38900306751682168 0.25733661077056619 0 -0.39556747567899392 0.24292135359640349 0 -0.40570253936436479 0.24856745922560119 0 -0.38900306751682168 0.25733661077056619 0 -0.39817935363044121 0.2307605800777236 0 -0.38938082192181989 0.23429513208400299 0 -0.39556747567899392 0.24292135359640349 0 -0.39817935363044121 0.2307605800777236 0 -0.39556747567899392 0.24292135359640349 0 -0.40439403923729561 0.237116777479636 0 -0.39556747567899392 0.24292135359640349 0 -0.40439403923729561 0.237116777479636 0 -0.40570253936436479 0.24856745922560119 0 -0.40439403923729561 0.237116777479636 0 -0.40570253936436479 0.24856745922560119 0 -0.41854804079657681 0.1335618185962307 0 -0.42914581421791992 0.156979454606339 0 -0.40043471814444209 0.15516303321545699 0 -0.41854804079657681 0.1335618185962307 0 -0.39914528189259102 0.13642314956862331 0 -0.40406865080306442 0.1250183431131778 0 -0.4361514068569779 0.1212930370016405 0 -0.43890233478009338 0.1378395493323826 0 -0.41854804079657681 0.1335618185962307 0 -0.41854804079657681 0.1335618185962307 0 -0.42914581421791992 0.156979454606339 0 -0.43890233478009338 0.1378395493323826 0 -0.41854804079657681 0.1335618185962307 0 -0.42914581421791992 0.156979454606339 0 -0.43974358763926291 0.18039709061644729 0 -0.42914581421791992 0.156979454606339 0 -0.43974358763926291 0.18039709061644729 0 -0.42914581421791992 0.156979454606339 0 -0.41320507520050959 0.17295104721716609 0 -0.43974358763926291 0.18039709061644729 0 -0.41468845130467291 0.19268004053423909 0 -0.41320507520050959 0.17295104721716609 0 -0.41468845130467291 0.19268004053423909 0 -0.41320507520050959 0.17295104721716609 0 -0.39721082993519219 0.18448993107768991 0 -0.42914581421791992 0.156979454606339 0 -0.41320507520050959 0.17295104721716609 0 -0.40043471814444209 0.15516303321545699 0 -0.41320507520050959 0.17295104721716609 0 -0.39020731289493082 0.17075062011690681 0 -0.40043471814444209 0.15516303321545699 0 -0.41320507520050959 0.17295104721716609 0 -0.39721082993519219 0.18448993107768991 0 -0.39020731289493082 0.17075062011690681 0 -0.38589476142810619 0.19424352100093389 0 -0.39721082993519219 0.18448993107768991 0 -0.37633455857784293 0.18261391494179069 0 -0.39721082993519219 0.18448993107768991 0 -0.37633455857784293 0.18261391494179069 0 -0.39020731289493082 0.17075062011690681 0 -0.37604315808934557 0.1616159605326225 0 -0.39020731289493082 0.17075062011690681 0 -0.40043471814444209 0.15516303321545699 0 -0.37633455857784293 0.18261391494179069 0 -0.37604315808934557 0.1616159605326225 0 -0.39020731289493082 0.17075062011690681 0 -0.37604315808934557 0.1616159605326225 0 -0.40043471814444209 0.15516303321545699 0 -0.37471140407559322 0.1435474845347986 0 -0.40043471814444209 0.15516303321545699 0 -0.39914528189259102 0.13642314956862331 0 -0.37471140407559322 0.1435474845347986 0 -0.41854804079657681 0.1335618185962307 0 -0.40043471814444209 0.15516303321545699 0 -0.39914528189259102 0.13642314956862331 0 -0.39063101314785642 0.1199442217017349 0 -0.39914528189259102 0.13642314956862331 0 -0.40406865080306442 0.1250183431131778 0 -0.39063101314785642 0.1199442217017349 0 -0.37471140407559322 0.1435474845347986 0 -0.39063101314785642 0.1199442217017349 0 -0.39914528189259102 0.13642314956862331 0 -0.37471140407559322 0.1435474845347986 0 -0.39063101314785642 0.1199442217017349 0 -0.37471140407559322 0.1435474845347986 0 -0.36716541190589658 0.118616890008602 0 -0.35994195951422209 0.1344452768815545 0 -0.37471140407559322 0.1435474845347986 0 -0.36716541190589658 0.118616890008602 0 -0.35994195951422209 0.1344452768815545 0 -0.36716541190589658 0.118616890008602 0 -0.35352278934268327 0.12307152153672141 0 -0.34641309729257957 0.13731862859844601 0 -0.34013489564456101 0.1359120708212119 0 -0.34492978578452338 0.1096826786703838 0 -0.35994195951422209 0.1344452768815545 0 -0.34641309729257957 0.13731862859844601 0 -0.35352278934268327 0.12307152153672141 0 -0.35994195951422209 0.1344452768815545 0 -0.34641309729257957 0.13731862859844601 0 -0.35789709495435779 0.14967185972920441 0 -0.34641309729257957 0.13731862859844601 0 -0.34789640880063583 0.16495457852650819 0 -0.34475730797662613 0.16425129963789131 0 -0.34641309729257957 0.13731862859844601 0 -0.34789640880063583 0.16495457852650819 0 -0.34641309729257957 0.13731862859844601 0 -0.35789709495435779 0.14967185972920441 0 -0.34789640880063583 0.16495457852650819 0 -0.34641309729257957 0.13731862859844601 0 -0.34475730797662613 0.16425129963789131 0 -0.34013489564456101 0.1359120708212119 0 -0.35994195951422209 0.1344452768815545 0 -0.35789709495435779 0.14967185972920441 0 -0.37471140407559322 0.1435474845347986 0 -0.37471140407559322 0.1435474845347986 0 -0.35879179500333003 0.16715074736786231 0 -0.35789709495435779 0.14967185972920441 0 -0.37471140407559322 0.1435474845347986 0 -0.35879179500333003 0.16715074736786231 0 -0.37604315808934557 0.1616159605326225 0 -0.37471140407559322 0.1435474845347986 0 -0.35879179500333003 0.16715074736786231 0 -0.37604315808934557 0.1616159605326225 0 -0.36770080355277779 0.17295393471821821 0 -0.35879179500333003 0.16715074736786231 0 -0.37633455857784293 0.18261391494179069 0 -0.37604315808934557 0.1616159605326225 0 -0.36770080355277779 0.17295393471821821 0 -0.37633455857784293 0.18261391494179069 0 -0.36024484160731629 0.17922248672973989 0 -0.36412185028301147 0.19234279238731111 0 -0.37633455857784293 0.18261391494179069 0 -0.36770080355277779 0.17295393471821821 0 -0.36024484160731629 0.17922248672973989 0 -0.36770080355277779 0.17295393471821821 0 -0.36024484160731629 0.17922248672973989 0 -0.35879179500333003 0.16715074736786231 0 -0.34475730797662613 0.16425129963789131 0 -0.34937972030869158 0.1925905284545705 0 -0.34475730797662613 0.16425129963789131 0 -0.33955964773429331 0.17429409395644799 0 -0.34937972030869158 0.1925905284545705 0 -0.34789640880063583 0.16495457852650819 0 -0.34937972030869158 0.1925905284545705 0 -0.36024484160731629 0.17922248672973989 0 -0.34789640880063583 0.16495457852650819 0 -0.34937972030869158 0.1925905284545705 0 -0.34789640880063583 0.16495457852650819 0 -0.34475730797662613 0.16425129963789131 0 -0.34937972030869158 0.1925905284545705 0 -0.35789709495435779 0.14967185972920441 0 -0.35879179500333003 0.16715074736786231 0 -0.34789640880063583 0.16495457852650819 0 -0.36024484160731629 0.17922248672973989 0 -0.35879179500333003 0.16715074736786231 0 -0.34789640880063583 0.16495457852650819 0 -0.34475730797662613 0.16425129963789131 0 -0.33718479128260948 0.15937809544746401 0 -0.33738994680948231 0.15124435901621999 0 -0.34475730797662613 0.16425129963789131 0 -0.33718479128260948 0.15937809544746401 0 -0.33813633189250208 0.16634522180797001 0 -0.34475730797662613 0.16425129963789131 0 -0.33813633189250208 0.16634522180797001 0 -0.33955964773429331 0.17429409395644799 0 -0.33813633189250208 0.16634522180797001 0 -0.33104358057647992 0.16745739819007679 0 -0.33955964773429331 0.17429409395644799 0 -0.33718479128260948 0.15937809544746401 0 -0.33813633189250208 0.16634522180797001 0 -0.33104358057647992 0.16745739819007679 0 -0.33718479128260948 0.15937809544746401 0 -0.33104358057647992 0.16745739819007679 0 -0.33026858376101731 0.15190637449176561 0 -0.33104358057647992 0.16745739819007679 0 -0.33403331992976748 0.18227938602527921 0 -0.31962491903722229 0.18594758427241961 0 -0.33955964773429331 0.17429409395644799 0 -0.33403331992976748 0.18227938602527921 0 -0.34937972030869158 0.1925905284545705 0 -0.33104358057647992 0.16745739819007679 0 -0.33955964773429331 0.17429409395644799 0 -0.33403331992976748 0.18227938602527921 0 -0.31962491903722229 0.18594758427241961 0 -0.31796283648197832 0.1633337389314328 0 -0.30596240671843039 0.18080678990447141 0 -0.31962491903722229 0.18594758427241961 0 -0.31796283648197832 0.1633337389314328 0 -0.33104358057647992 0.16745739819007679 0 -0.31962491903722229 0.18594758427241961 0 -0.31796283648197832 0.1633337389314328 0 -0.33104358057647992 0.16745739819007679 0 -0.31796283648197832 0.1633337389314328 0 -0.33026858376101731 0.15190637449176561 0 -0.31796283648197832 0.1633337389314328 0 -0.31630075392673418 0.14071989359044609 0 -0.31796283648197832 0.1633337389314328 0 -0.31630075392673418 0.14071989359044609 0 -0.33026858376101731 0.15190637449176561 0 -0.31630075392673418 0.14071989359044609 0 -0.32855297285770901 0.13997743418302819 0 -0.33026858376101731 0.15190637449176561 0 -0.31630075392673418 0.14071989359044609 0 -0.30835875028686138 0.12836861128214669 0 -0.32196666651361477 0.12487749701900901 0 -0.31630075392673418 0.14071989359044609 0 -0.32855297285770901 0.13997743418302819 0 -0.32196666651361477 0.12487749701900901 0 -0.32855297285770901 0.13997743418302819 0 -0.33106980320980312 0.1246503866679774 0 -0.32196666651361477 0.12487749701900901 0 -0.32855297285770901 0.13997743418302819 0 -0.34013489564456101 0.1359120708212119 0 -0.3346041553825978 0.14477395468276741 0 -0.32855297285770901 0.13997743418302819 0 -0.34013489564456101 0.1359120708212119 0 -0.33106980320980312 0.1246503866679774 0 -0.34475730797662613 0.16425129963789131 0 -0.34013489564456101 0.1359120708212119 0 -0.34013489564456101 0.1359120708212119 0 -0.33738994680948231 0.15124435901621999 0 -0.3346041553825978 0.14477395468276741 0 -0.34475730797662613 0.16425129963789131 0 -0.34013489564456101 0.1359120708212119 0 -0.33738994680948231 0.15124435901621999 0 -0.33718479128260948 0.15937809544746401 0 -0.33738994680948231 0.15124435901621999 0 -0.33026858376101731 0.15190637449176561 0 -0.33738994680948231 0.15124435901621999 0 -0.33026858376101731 0.15190637449176561 0 -0.3346041553825978 0.14477395468276741 0 -0.32855297285770901 0.13997743418302819 0 -0.33026858376101731 0.15190637449176561 0 -0.3346041553825978 0.14477395468276741 0 -0.35208907389890948 0.24306917690434299 0 -0.33787454055877381 0.24529314191448051 0 -0.34142207509263922 0.25572960106260723 0 -0.35208907389890948 0.24306917690434299 0 -0.34508884738596168 0.2342440782649087 0 -0.33787454055877381 0.24529314191448051 0 -0.35689366634974828 0.23865726176967661 0 -0.35926376548055328 0.2486735779402334 0 -0.35208907389890948 0.24306917690434299 0 -0.35926376548055328 0.2486735779402334 0 -0.36665925593476811 0.2402392529692276 0 -0.36723308052532222 0.25309369692869038 0 -0.35689366634974828 0.23865726176967661 0 -0.35926376548055328 0.2486735779402334 0 -0.36665925593476811 0.2402392529692276 0 -0.37552267705158737 0.2431978490864326 0 -0.36665925593476811 0.2402392529692276 0 -0.36723308052532222 0.25309369692869038 0 -0.37780308712422273 0.23309721308500589 0 -0.37552267705158737 0.2431978490864326 0 -0.36665925593476811 0.2402392529692276 0 -0.37780308712422273 0.23309721308500589 0 -0.36665925593476811 0.2402392529692276 0 -0.36843053074319038 0.2307028505946831 0 -0.3637449320256837 0.23462317477255459 0 -0.36665925593476811 0.2402392529692276 0 -0.36843053074319038 0.2307028505946831 0 -0.35689366634974828 0.23865726176967661 0 -0.3637449320256837 0.23462317477255459 0 -0.36304404037139409 0.23042929735762199 0 -0.35689366634974828 0.23865726176967661 0 -0.3637449320256837 0.23462317477255459 0 -0.36665925593476811 0.2402392529692276 0 -0.35689366634974828 0.23865726176967661 0 -0.36304404037139409 0.23042929735762199 0 -0.36041387714694573 0.22521835140317789 0 -0.36304404037139409 0.23042929735762199 0 -0.36843053074319038 0.2307028505946831 0 -0.36573719559140289 0.222944848248018 0 -0.3637449320256837 0.23462317477255459 0 -0.36304404037139409 0.23042929735762199 0 -0.36843053074319038 0.2307028505946831 0 -0.37780308712422273 0.23309721308500589 0 -0.36843053074319038 0.2307028505946831 0 -0.37349668708843092 0.2226496950895116 0 -0.36843053074319038 0.2307028505946831 0 -0.37349668708843092 0.2226496950895116 0 -0.36573719559140289 0.222944848248018 0 -0.37349668708843092 0.2226496950895116 0 -0.36573719559140289 0.222944848248018 0 -0.36813700589141007 0.21491629458094519 0 -0.36304404037139409 0.23042929735762199 0 -0.36573719559140289 0.222944848248018 0 -0.36041387714694573 0.22521835140317789 0 -0.36573719559140289 0.222944848248018 0 -0.36041387714694573 0.22521835140317789 0 -0.36096209089537368 0.21759825830877291 0 -0.36041387714694573 0.22521835140317789 0 -0.35785158193032179 0.22427444164843771 0 -0.36096209089537368 0.21759825830877291 0 -0.35689366634974828 0.23865726176967661 0 -0.35785158193032179 0.22427444164843771 0 -0.35313669332921982 0.21562389511212349 0 -0.35785158193032179 0.22427444164843771 0 -0.35313669332921982 0.21562389511212349 0 -0.36096209089537368 0.21759825830877291 0 -0.35689366634974828 0.23865726176967661 0 -0.35313669332921982 0.21562389511212349 0 -0.35208907389890948 0.24306917690434299 0 -0.34508884738596168 0.2342440782649087 0 -0.35073439710380072 0.2178298526794567 0 -0.34508884738596168 0.2342440782649087 0 -0.35073439710380072 0.2178298526794567 0 -0.33965737798236312 0.2307841415613546 0 -0.35208907389890948 0.24306917690434299 0 -0.35073439710380072 0.2178298526794567 0 -0.35689366634974828 0.23865726176967661 0 -0.35073439710380072 0.2178298526794567 0 -0.35313669332921982 0.21562389511212349 0 -0.35689366634974828 0.23865726176967661 0 -0.35208907389890948 0.24306917690434299 0 -0.35073439710380072 0.2178298526794567 0 -0.35689366634974828 0.23865726176967661 0 -0.36041387714694573 0.22521835140317789 0 -0.35785158193032179 0.22427444164843771 0 -0.35073439710380072 0.2178298526794567 0 -0.34937972030869158 0.1925905284545705 0 -0.35313669332921982 0.21562389511212349 0 -0.36104277081305908 0.20594574517185199 0 -0.34937972030869158 0.1925905284545705 0 -0.35073439710380072 0.2178298526794567 0 -0.35313669332921982 0.21562389511212349 0 -0.34937972030869158 0.1925905284545705 0 -0.35313669332921982 0.21562389511212349 0 -0.34937972030869158 0.1925905284545705 0 -0.35073439710380072 0.2178298526794567 0 -0.34937972030869158 0.1925905284545705 0 -0.34310613959102931 0.2055031457500841 0 -0.35073439710380072 0.2178298526794567 0 -0.34310613959102931 0.2055031457500841 0 -0.34102096872395049 0.21330790674795511 0 -0.35073439710380072 0.2178298526794567 0 -0.34102096872395049 0.21330790674795511 0 -0.34050958406480097 0.2204489809667724 0 -0.35313669332921982 0.21562389511212349 0 -0.36096209089537368 0.21759825830877291 0 -0.36104277081305908 0.20594574517185199 0 -0.36573719559140289 0.222944848248018 0 -0.36096209089537368 0.21759825830877291 0 -0.36813700589141007 0.21491629458094519 0 -0.36096209089537368 0.21759825830877291 0 -0.36813700589141007 0.21491629458094519 0 -0.36104277081305908 0.20594574517185199 0 -0.37752279527241261 0.21261086987475841 0 -0.37349668708843092 0.2226496950895116 0 -0.36813700589141007 0.21491629458094519 0 -0.37752279527241261 0.21261086987475841 0 -0.36813700589141007 0.21491629458094519 0 -0.37360736010814782 0.20134128663860251 0 -0.36813700589141007 0.21491629458094519 0 -0.36104277081305908 0.20594574517185199 0 -0.37360736010814782 0.20134128663860251 0 -0.37633455857784293 0.18261391494179069 0 -0.37360736010814782 0.20134128663860251 0 -0.36412185028301147 0.19234279238731111 0 -0.36104277081305908 0.20594574517185199 0 -0.37360736010814782 0.20134128663860251 0 -0.36412185028301147 0.19234279238731111 0 -0.36024484160731629 0.17922248672973989 0 -0.36412185028301147 0.19234279238731111 0 -0.34937972030869158 0.1925905284545705 0 -0.36104277081305908 0.20594574517185199 0 -0.36412185028301147 0.19234279238731111 0 -0.34937972030869158 0.1925905284545705 0 -0.33403331992976748 0.18227938602527921 0 -0.34937972030869158 0.1925905284545705 0 -0.33132558757267788 0.19645560619981381 0 -0.34937972030869158 0.1925905284545705 0 -0.33132558757267788 0.19645560619981381 0 -0.34310613959102931 0.2055031457500841 0 -0.33132558757267788 0.19645560619981381 0 -0.33206760714527173 0.20694684499318661 0 -0.34310613959102931 0.2055031457500841 0 -0.33403331992976748 0.18227938602527921 0 -0.31962491903722229 0.18594758427241961 0 -0.33132558757267788 0.19645560619981381 0 -0.31962491903722229 0.18594758427241961 0 -0.33132558757267788 0.19645560619981381 0 -0.32128700159246643 0.2085614296134064 0 -0.31962491903722229 0.18594758427241961 0 -0.32128700159246643 0.2085614296134064 0 -0.31094130810426679 0.20146887601233149 0 -0.31962491903722229 0.18594758427241961 0 -0.32128700159246643 0.2085614296134064 0 -0.32128700159246643 0.2085614296134064 0 -0.30991457648112369 0.2265504040794763 0 -0.30833129431909739 0.21334832502430981 0 -0.32128700159246643 0.2085614296134064 0 -0.30833129431909739 0.21334832502430981 0 -0.31094130810426679 0.20146887601233149 0 -0.32128700159246643 0.2085614296134064 0 -0.334517009846864 0.21514148884522391 0 -0.33414886994078158 0.22469785659874761 0 -0.334517009846864 0.21514148884522391 0 -0.33206760714527173 0.20694684499318661 0 -0.34102096872395049 0.21330790674795511 0 -0.33132558757267788 0.19645560619981381 0 -0.32128700159246643 0.2085614296134064 0 -0.33206760714527173 0.20694684499318661 0 -0.32128700159246643 0.2085614296134064 0 -0.334517009846864 0.21514148884522391 0 -0.33206760714527173 0.20694684499318661 0 -0.33206760714527173 0.20694684499318661 0 -0.34310613959102931 0.2055031457500841 0 -0.34102096872395049 0.21330790674795511 0 -0.334517009846864 0.21514148884522391 0 -0.34102096872395049 0.21330790674795511 0 -0.34050958406480097 0.2204489809667724 0 -0.33965737798236312 0.2307841415613546 0 -0.33414886994078158 0.22469785659874761 0 -0.32294908414771051 0.231175274954393 0 -0.34050958406480097 0.2204489809667724 0 -0.33965737798236312 0.2307841415613546 0 -0.33414886994078158 0.22469785659874761 0 -0.334517009846864 0.21514148884522391 0 -0.34050958406480097 0.2204489809667724 0 -0.33414886994078158 0.22469785659874761 0 -0.35073439710380072 0.2178298526794567 0 -0.34050958406480097 0.2204489809667724 0 -0.33965737798236312 0.2307841415613546 0 -0.32128700159246643 0.2085614296134064 0 -0.33414886994078158 0.22469785659874761 0 -0.32294908414771051 0.231175274954393 0 -0.32128700159246643 0.2085614296134064 0 -0.32294908414771051 0.231175274954393 0 -0.32128700159246643 0.2085614296134064 0 -0.32294908414771051 0.231175274954393 0 -0.30991457648112369 0.2265504040794763 0 -0.32294908414771051 0.231175274954393 0 -0.30659471691689572 0.242716670786389 0 -0.30991457648112369 0.2265504040794763 0 -0.32294908414771051 0.231175274954393 0 -0.30659471691689572 0.242716670786389 0 -0.32493898666941562 0.25370598596143412 0 -0.33965737798236312 0.2307841415613546 0 -0.32294908414771051 0.231175274954393 0 -0.33787454055877381 0.24529314191448051 0 -0.32294908414771051 0.231175274954393 0 -0.33787454055877381 0.24529314191448051 0 -0.32493898666941562 0.25370598596143412 0 -0.34508884738596168 0.2342440782649087 0 -0.33965737798236312 0.2307841415613546 0 -0.33787454055877381 0.24529314191448051 0 -0.28392805579818597 0.24584677119781029 0 -0.30659471691689572 0.242716670786389 0 -0.29475597619187288 0.23283261746471121 0 -0.28392805579818597 0.24584677119781029 0 -0.29475597619187288 0.23283261746471121 0 -0.28109078806307641 0.23123665432302171 0 -0.30991457648112369 0.2265504040794763 0 -0.2995127007984647 0.22240216811521779 0 -0.29475597619187288 0.23283261746471121 0 -0.30659471691689572 0.242716670786389 0 -0.30991457648112369 0.2265504040794763 0 -0.29475597619187288 0.23283261746471121 0 -0.30991457648112369 0.2265504040794763 0 -0.2995127007984647 0.22240216811521779 0 -0.30833129431909739 0.21334832502430981 0 -0.2995127007984647 0.22240216811521779 0 -0.29475597619187288 0.23283261746471121 0 -0.28658767146556752 0.2208426317688808 0 -0.29475597619187288 0.23283261746471121 0 -0.28658767146556752 0.2208426317688808 0 -0.28109078806307641 0.23123665432302171 0 -0.28658767146556752 0.2208426317688808 0 -0.28549164962408852 0.20589081089837991 0 -0.27599235506858921 0.213338138612501 0 -0.2995127007984647 0.22240216811521779 0 -0.28658767146556752 0.2208426317688808 0 -0.29782091388006071 0.2077851852193662 0 -0.28658767146556752 0.2208426317688808 0 -0.28549164962408852 0.20589081089837991 0 -0.29782091388006071 0.2077851852193662 0 -0.2995127007984647 0.22240216811521779 0 -0.30833129431909739 0.21334832502430981 0 -0.29782091388006071 0.2077851852193662 0 -0.30833129431909739 0.21334832502430981 0 -0.29782091388006071 0.2077851852193662 0 -0.31094130810426679 0.20146887601233149 0 -0.31094130810426679 0.20146887601233149 0 -0.28918285092023371 0.18809301854234381 0 -0.30596240671843039 0.18080678990447141 0 -0.31094130810426679 0.20146887601233149 0 -0.28918285092023371 0.18809301854234381 0 -0.31962491903722229 0.18594758427241961 0 -0.31094130810426679 0.20146887601233149 0 -0.30596240671843039 0.18080678990447141 0 -0.29782091388006071 0.2077851852193662 0 -0.31094130810426679 0.20146887601233149 0 -0.28918285092023371 0.18809301854234381 0 -0.28549164962408852 0.20589081089837991 0 -0.28918285092023371 0.18809301854234381 0 -0.27469451239495962 0.19856643751398209 0 -0.28549164962408852 0.20589081089837991 0 -0.29782091388006071 0.2077851852193662 0 -0.28918285092023371 0.18809301854234381 0 -0.27469451239495962 0.19856643751398209 0 -0.25846339158769432 0.19477026040294029 0 -0.26742439373620053 0.1747171610723561 0 -0.27469451239495962 0.19856643751398209 0 -0.25846339158769432 0.19477026040294029 0 -0.26373521695980739 0.20854805576629271 0 -0.25846339158769432 0.19477026040294029 0 -0.25264776582176801 0.2054066783297176 0 -0.24512564856919611 0.1966003761625241 0 -0.25846339158769432 0.19477026040294029 0 -0.26373521695980739 0.20854805576629271 0 -0.25264776582176801 0.2054066783297176 0 -0.26373521695980739 0.20854805576629271 0 -0.25264776582176801 0.2054066783297176 0 -0.25326648915379463 0.21765104414027969 0 -0.26373521695980739 0.20854805576629271 0 -0.25326648915379463 0.21765104414027969 0 -0.26696116117740232 0.2188897629996385 0 -0.26373521695980739 0.20854805576629271 0 -0.27599235506858921 0.213338138612501 0 -0.26696116117740232 0.2188897629996385 0 -0.27469451239495962 0.19856643751398209 0 -0.26373521695980739 0.20854805576629271 0 -0.27599235506858921 0.213338138612501 0 -0.28549164962408852 0.20589081089837991 0 -0.27469451239495962 0.19856643751398209 0 -0.27599235506858921 0.213338138612501 0 -0.28658767146556752 0.2208426317688808 0 -0.27599235506858921 0.213338138612501 0 -0.27366575233363138 0.22408994750137051 0 -0.28658767146556752 0.2208426317688808 0 -0.27366575233363138 0.22408994750137051 0 -0.28109078806307641 0.23123665432302171 0 -0.27366575233363138 0.22408994750137051 0 -0.28109078806307641 0.23123665432302171 0 -0.26613842301448931 0.22948780180005629 0 -0.27366575233363138 0.22408994750137051 0 -0.26613842301448931 0.22948780180005629 0 -0.27599235506858921 0.213338138612501 0 -0.27366575233363138 0.22408994750137051 0 -0.26696116117740232 0.2188897629996385 0 -0.27366575233363138 0.22408994750137051 0 -0.26613842301448931 0.22948780180005629 0 -0.26696116117740232 0.2188897629996385 0 -0.25326648915379463 0.21765104414027969 0 -0.26613842301448931 0.22948780180005629 0 -0.25326648915379463 0.21765104414027969 0 -0.26613842301448931 0.22948780180005629 0 -0.26696116117740232 0.2188897629996385 0 -0.26613842301448931 0.22948780180005629 0 -0.25250373055295899 0.22903132158689779 0 -0.2468893326351202 0.24329134098969171 0 -0.25326648915379463 0.21765104414027969 0 -0.26613842301448931 0.22948780180005629 0 -0.25250373055295899 0.22903132158689779 0 -0.26613842301448931 0.22948780180005629 0 -0.2468893326351202 0.24329134098969171 0 -0.26613842301448931 0.22948780180005629 0 -0.26514282027817931 0.24842266601513599 0 -0.2468893326351202 0.24329134098969171 0 -0.28392805579818597 0.24584677119781029 0 -0.26613842301448931 0.22948780180005629 0 -0.26514282027817931 0.24842266601513599 0 -0.28392805579818597 0.24584677119781029 0 -0.26613842301448931 0.22948780180005629 0 -0.28392805579818597 0.24584677119781029 0 -0.28109078806307641 0.23123665432302171 0 -0.26613842301448931 0.22948780180005629 0 -0.29674228528268098 0.14167201189203629 0 -0.29210011904845101 0.16519073176382951 0 -0.2788144627000812 0.14703818685698561 0 -0.29674228528268098 0.14167201189203629 0 -0.2788144627000812 0.14703818685698561 0 -0.2804226891664876 0.12940513594623221 0 -0.29674228528268098 0.14167201189203629 0 -0.2804226891664876 0.12940513594623221 0 -0.29563289833704792 0.1211109261551389 0 -0.29674228528268098 0.14167201189203629 0 -0.30835875028686138 0.12836861128214669 0 -0.29563289833704792 0.1211109261551389 0 -0.31630075392673418 0.14071989359044609 0 -0.29674228528268098 0.14167201189203629 0 -0.30835875028686138 0.12836861128214669 0 -0.31796283648197832 0.1633337389314328 0 -0.31630075392673418 0.14071989359044609 0 -0.29674228528268098 0.14167201189203629 0 -0.31796283648197832 0.1633337389314328 0 -0.30596240671843039 0.18080678990447141 0 -0.29210011904845101 0.16519073176382951 0 -0.31796283648197832 0.1633337389314328 0 -0.29674228528268098 0.14167201189203629 0 -0.29210011904845101 0.16519073176382951 0 -0.28918285092023371 0.18809301854234381 0 -0.30596240671843039 0.18080678990447141 0 -0.29210011904845101 0.16519073176382951 0 -0.28918285092023371 0.18809301854234381 0 -0.29210011904845101 0.16519073176382951 0 -0.26742439373620053 0.1747171610723561 0 -0.29210011904845101 0.16519073176382951 0 -0.26645859331151961 0.15770478106228089 0 -0.2788144627000812 0.14703818685698561 0 -0.29210011904845101 0.16519073176382951 0 -0.26645859331151961 0.15770478106228089 0 -0.26742439373620053 0.1747171610723561 0 -0.28918285092023371 0.18809301854234381 0 -0.27469451239495962 0.19856643751398209 0 -0.26742439373620053 0.1747171610723561 0 -0.28918285092023371 0.18809301854234381 0 -0.26742439373620053 0.1747171610723561 0 -0.25846339158769432 0.19477026040294029 0 -0.26742439373620053 0.1747171610723561 0 -0.2425545525554833 0.18325607046718431 0 -0.26742439373620053 0.1747171610723561 0 -0.24566593655216731 0.1613413036023684 0 -0.2425545525554833 0.18325607046718431 0 -0.26742439373620053 0.1747171610723561 0 -0.24566593655216731 0.1613413036023684 0 -0.26645859331151961 0.15770478106228089 0 -0.26742439373620053 0.1747171610723561 0 -0.24566593655216731 0.1613413036023684 0 -0.26645859331151961 0.15770478106228089 0 -0.26077588748637798 0.14053443996503889 0 -0.24566593655216731 0.1613413036023684 0 -0.26645859331151961 0.15770478106228089 0 -0.2788144627000812 0.14703818685698561 0 -0.26077588748637798 0.14053443996503889 0 -0.2788144627000812 0.14703818685698561 0 -0.2804226891664876 0.12940513594623221 0 -0.26077588748637798 0.14053443996503889 0 -0.2804226891664876 0.12940513594623221 0 -0.26077588748637798 0.14053443996503889 0 -0.26620622488190782 0.1187168322113534 0 -0.26077588748637798 0.14053443996503889 0 -0.25033803458298193 0.12914144363467839 0 -0.2394413917758374 0.14053574488666021 0 -0.26077588748637798 0.14053443996503889 0 -0.25033803458298193 0.12914144363467839 0 -0.26620622488190782 0.1187168322113534 0 -0.25033803458298193 0.12914144363467839 0 -0.25364395357421121 0.10678394025260531 0 -0.26620622488190782 0.1187168322113534 0 -0.25364395357421121 0.10678394025260531 0 -0.26910496068450029 0.10059928658519129 0 -0.26340159681891351 0.087305486383429762 0 -0.25364395357421121 0.10678394025260531 0 -0.26910496068450029 0.10059928658519129 0 -0.26620622488190782 0.1187168322113534 0 -0.26910496068450029 0.10059928658519129 0 -0.28436437631082973 0.10735841859683989 0 -0.28176033911896858 0.090840469038767704 0 -0.26910496068450029 0.10059928658519129 0 -0.26620622488190782 0.1187168322113534 0 -0.28436437631082973 0.10735841859683989 0 -0.2804226891664876 0.12940513594623221 0 -0.26620622488190782 0.1187168322113534 0 -0.28436437631082973 0.10735841859683989 0 -0.2804226891664876 0.12940513594623221 0 -0.29563289833704792 0.1211109261551389 0 -0.28436437631082973 0.10735841859683989 0 -0.29563289833704792 0.1211109261551389 0 -0.28436437631082973 0.10735841859683989 0 -0.30333203744139958 0.1018092028156232 0 -0.28436437631082973 0.10735841859683989 0 -0.30333203744139958 0.1018092028156232 0 -0.29505738772415852 0.092466809089677027 0 -0.28436437631082973 0.10735841859683989 0 -0.29505738772415852 0.092466809089677027 0 -0.28176033911896858 0.090840469038767704 0 -0.30333203744139958 0.1018092028156232 0 -0.31115114737422961 0.1134627277541034 0 -0.31621893882499519 0.096173217231134644 0 -0.29563289833704792 0.1211109261551389 0 -0.30333203744139958 0.1018092028156232 0 -0.31115114737422961 0.1134627277541034 0 -0.30835875028686138 0.12836861128214669 0 -0.29563289833704792 0.1211109261551389 0 -0.31115114737422961 0.1134627277541034 0 -0.2988364877494265 0.069896585727329402 0 -0.3095990562077543 0.082833834969606807 0 -0.31708477734686968 0.066938799678275263 0 -0.2988364877494265 0.069896585727329402 0 -0.30266664287706341 0.054708362279179482 0 -0.31708477734686968 0.066938799678275263 0 -0.2988364877494265 0.069896585727329402 0 -0.28935545939309398 0.062964548691125152 0 -0.30266664287706341 0.054708362279179482 0 -0.30333203744139958 0.1018092028156232 0 -0.3095990562077543 0.082833834969606807 0 -0.31621893882499519 0.096173217231134644 0 -0.30333203744139958 0.1018092028156232 0 -0.3095990562077543 0.082833834969606807 0 -0.29505738772415852 0.092466809089677027 0 -0.3095990562077543 0.082833834969606807 0 -0.29687345717375091 0.081902945336330912 0 -0.29505738772415852 0.092466809089677027 0 -0.2988364877494265 0.069896585727329402 0 -0.3095990562077543 0.082833834969606807 0 -0.29687345717375091 0.081902945336330912 0 -0.29687345717375091 0.081902945336330912 0 -0.28176033911896858 0.090840469038767704 0 -0.2804463735768567 0.075556206852953223 0 -0.29687345717375091 0.081902945336330912 0 -0.29505738772415852 0.092466809089677027 0 -0.28176033911896858 0.090840469038767704 0 -0.2988364877494265 0.069896585727329402 0 -0.28935545939309398 0.062964548691125152 0 -0.2804463735768567 0.075556206852953223 0 -0.2988364877494265 0.069896585727329402 0 -0.29687345717375091 0.081902945336330912 0 -0.2804463735768567 0.075556206852953223 0 -0.28935545939309398 0.062964548691125152 0 -0.28020443427428848 0.065937434716272045 0 -0.28232948387749679 0.060243429622273227 0 -0.28935545939309398 0.062964548691125152 0 -0.28020443427428848 0.065937434716272045 0 -0.2804463735768567 0.075556206852953223 0 -0.2804463735768567 0.075556206852953223 0 -0.26340159681891351 0.087305486383429762 0 -0.26195798501385009 0.070226375813507561 0 -0.28020443427428848 0.065937434716272045 0 -0.26195798501385009 0.070226375813507561 0 -0.2800946942601637 0.055740888585776333 0 -0.28020443427428848 0.065937434716272045 0 -0.2804463735768567 0.075556206852953223 0 -0.26195798501385009 0.070226375813507561 0 -0.26195798501385009 0.070226375813507561 0 -0.2800946942601637 0.055740888585776333 0 -0.26910496068450029 0.10059928658519129 0 -0.28176033911896858 0.090840469038767704 0 -0.26340159681891351 0.087305486383429762 0 -0.28176033911896858 0.090840469038767704 0 -0.2804463735768567 0.075556206852953223 0 -0.26340159681891351 0.087305486383429762 0 -0.26340159681891351 0.087305486383429762 0 -0.26195798501385009 0.070226375813507561 0 -0.24382127576753621 0.084711863041238192 0 -0.25364395357421121 0.10678394025260531 0 -0.26340159681891351 0.087305486383429762 0 -0.24382127576753621 0.084711863041238192 0 -0.26195798501385009 0.070226375813507561 0 -0.24382127576753621 0.084711863041238192 0 -0.26195798501385009 0.070226375813507561 0 -0.26253060434091768 0.04486583530805522 0 -0.24534917185526489 0.049526218608574313 0 -0.26253060434091768 0.04486583530805522 0 -0.25642639863326749 0.02710060176493858 0 -0.24534917185526489 0.049526218608574313 0 -0.26253060434091768 0.04486583530805522 0 -0.27431483662099609 0.037465275048419483 0 -0.25642639863326749 0.02710060176493858 0 -0.26253060434091768 0.04486583530805522 0 -0.27431483662099609 0.037465275048419483 0 -0.2800946942601637 0.055740888585776333 0 -0.26195798501385009 0.070226375813507561 0 -0.26253060434091768 0.04486583530805522 0 -0.2800946942601637 0.055740888585776333 0 -0.28020443427428848 0.065937434716272045 0 -0.2800946942601637 0.055740888585776333 0 -0.28232948387749679 0.060243429622273227 0 -0.26431478179583978 -0.01186883573312463 0 -0.25132042997239518 0.0027134119798401068 0 -0.26646431581863778 0.01029557754540468 0 -0.25132042997239518 0.0027134119798401068 0 -0.25642639863326749 0.02710060176493858 0 -0.26646431581863778 0.01029557754540468 0 -0.27431483662099609 0.037465275048419483 0 -0.25642639863326749 0.02710060176493858 0 -0.27962863155723588 0.021383722316491719 0 -0.25642639863326749 0.02710060176493858 0 -0.27962863155723588 0.021383722316491719 0 -0.26646431581863778 0.01029557754540468 0 -0.2820771903446922 -0.0013122005201030101 0 -0.27962863155723588 0.021383722316491719 0 -0.26646431581863778 0.01029557754540468 0 -0.2820771903446922 -0.0013122005201030101 0 -0.30047775033007851 -0.00039401612408775783 0 -0.29196914664965867 0.01010181790504874 0 -0.2820771903446922 -0.0013122005201030101 0 -0.27962863155723588 0.021383722316491719 0 -0.29196914664965867 0.01010181790504874 0 -0.27962863155723588 0.021383722316491719 0 -0.29196914664965867 0.01010181790504874 0 -0.3056930143666281 0.020729765947894 0 -0.27962863155723588 0.021383722316491719 0 -0.3056930143666281 0.020729765947894 0 -0.2928938543133956 0.038235327266834943 0 -0.3056930143666281 0.020729765947894 0 -0.2928938543133956 0.038235327266834943 0 -0.3056930143666281 0.020729765947894 0 -0.30086997028822832 0.039148022070134687 0 -0.32164524631629432 0.022555155554494829 0 -0.30086997028822832 0.039148022070134687 0 -0.32164524631629432 0.022555155554494829 0 -0.3056930143666281 0.020729765947894 0 -0.31849217441985911 0.0032242046289520012 0 -0.30047775033007851 -0.00039401612408775783 0 -0.3056930143666281 0.020729765947894 0 -0.31849217441985911 0.0032242046289520012 0 -0.30047775033007851 -0.00039401612408775783 0 -0.29196914664965867 0.01010181790504874 0 -0.3056930143666281 0.020729765947894 0 -0.2800946942601637 0.055740888585776333 0 -0.30086997028822832 0.039148022070134687 0 -0.28935545939309398 0.062964548691125152 0 -0.2800946942601637 0.055740888585776333 0 -0.30266664287706341 0.054708362279179482 0 -0.2800946942601637 0.055740888585776333 0 -0.2928938543133956 0.038235327266834943 0 -0.2800946942601637 0.055740888585776333 0 -0.30086997028822832 0.039148022070134687 0 -0.30266664287706341 0.054708362279179482 0 -0.28935545939309398 0.062964548691125152 0 -0.2800946942601637 0.055740888585776333 0 -0.28232948387749679 0.060243429622273227 0 -0.2800946942601637 0.055740888585776333 0 -0.2928938543133956 0.038235327266834943 0 -0.30086997028822832 0.039148022070134687 0 -0.27431483662099609 0.037465275048419483 0 -0.27962863155723588 0.021383722316491719 0 -0.2928938543133956 0.038235327266834943 0 -0.27431483662099609 0.037465275048419483 0 -0.2800946942601637 0.055740888585776333 0 -0.2928938543133956 0.038235327266834943 0 -0.3056930143666281 0.020729765947894 0 -0.2928938543133956 0.038235327266834943 0 -0.30086997028822832 0.039148022070134687 0 -0.30086997028822832 0.039148022070134687 0 -0.30266664287706341 0.054708362279179482 0 -0.3262676586483656 0.050894384371173287 0 -0.30266664287706341 0.054708362279179482 0 -0.3262676586483656 0.050894384371173287 0 -0.31708477734686968 0.066938799678275263 0 -0.3262676586483656 0.050894384371173287 0 -0.32164524631629432 0.022555155554494829 0 -0.30086997028822832 0.039148022070134687 0 -0.3262676586483656 0.050894384371173287 0 -0.32164524631629432 0.022555155554494829 0 -0.3262676586483656 0.050894384371173287 0 -0.32164524631629432 0.022555155554494829 0 -0.34047985126035502 0.026774828886197279 0 -0.3419631627684111 0.054410778814259472 0 -0.34047985126035502 0.026774828886197279 0 -0.3262676586483656 0.050894384371173287 0 -0.3419631627684111 0.054410778814259472 0 -0.34047985126035502 0.026774828886197279 0 -0.3262676586483656 0.050894384371173287 0 -0.3419631627684111 0.054410778814259472 0 -0.33089007098043072 0.079233613187852742 0 -0.3056930143666281 0.020729765947894 0 -0.31849217441985911 0.0032242046289520012 0 -0.32164524631629432 0.022555155554494829 0 -0.31849217441985911 0.0032242046289520012 0 -0.32164524631629432 0.022555155554494829 0 -0.33742136738088668 0.0099550307423931228 0 -0.31849217441985911 0.0032242046289520012 0 -0.32164524631629432 0.022555155554494829 0 -0.32164524631629432 0.022555155554494829 0 -0.33742136738088668 0.0099550307423931228 0 -0.32164524631629432 0.022555155554494829 0 -0.34047985126035502 0.026774828886197279 0 -0.33742136738088668 0.0099550307423931228 0 -0.35319748844548088 -0.0026450940697062141 0 -0.33742136738088668 0.0099550307423931228 0 -0.35319748844548088 -0.0026450940697062141 0 -0.33742136738088668 0.0099550307423931228 0 -0.35568472126330458 0.01398178967161531 0 -0.34047985126035502 0.026774828886197279 0 -0.35568472126330458 0.01398178967161531 0 -0.36050468596179641 0.029201478886372499 0 -0.34047985126035502 0.026774828886197279 0 -0.33742136738088668 0.0099550307423931228 0 -0.35568472126330458 0.01398178967161531 0 -0.35568472126330458 0.01398178967161531 0 -0.36050468596179641 0.029201478886372499 0 -0.37274578052696178 0.01868977009819147 0 -0.37753126207020948 0.034899308803226177 0 -0.36050468596179641 0.029201478886372499 0 -0.37274578052696178 0.01868977009819147 0 -0.35319748844548088 -0.0026450940697062141 0 -0.35568472126330458 0.01398178967161531 0 -0.36979036210562988 0.0025511841975563729 0 -0.35568472126330458 0.01398178967161531 0 -0.37274578052696178 0.01868977009819147 0 -0.36979036210562988 0.0025511841975563729 0 -0.35367539322405089 0.052192583201526178 0 -0.35229578078182711 0.042127528613546239 0 -0.36485581069452189 0.048057973279375742 0 -0.35367539322405089 0.052192583201526178 0 -0.36174043644781612 0.059537200304905107 0 -0.34707042967454638 0.066493871458924422 0 -0.3419631627684111 0.054410778814259472 0 -0.35367539322405089 0.052192583201526178 0 -0.34707042967454638 0.066493871458924422 0 -0.3419631627684111 0.054410778814259472 0 -0.35367539322405089 0.052192583201526178 0 -0.35229578078182711 0.042127528613546239 0 -0.34047985126035502 0.026774828886197279 0 -0.36050468596179641 0.029201478886372499 0 -0.35229578078182711 0.042127528613546239 0 -0.3419631627684111 0.054410778814259472 0 -0.34047985126035502 0.026774828886197279 0 -0.35229578078182711 0.042127528613546239 0 -0.36050468596179641 0.029201478886372499 0 -0.35229578078182711 0.042127528613546239 0 -0.36485581069452189 0.048057973279375742 0 -0.37753126207020948 0.034899308803226177 0 -0.36050468596179641 0.029201478886372499 0 -0.36485581069452189 0.048057973279375742 0 -0.37830855690199738 0.048851891747440382 0 -0.37753126207020948 0.034899308803226177 0 -0.36485581069452189 0.048057973279375742 0 -0.37830855690199738 0.048851891747440382 0 -0.36485581069452189 0.048057973279375742 0 -0.37119345183321822 0.058853827639881867 0 -0.35367539322405089 0.052192583201526178 0 -0.36485581069452189 0.048057973279375742 0 -0.36174043644781612 0.059537200304905107 0 -0.36485581069452189 0.048057973279375742 0 -0.36174043644781612 0.059537200304905107 0 -0.37119345183321822 0.058853827639881867 0 -0.37201358599706058 0.070711840939253895 0 -0.36026946930678239 0.075913175113325196 0 -0.34707042967454638 0.066493871458924422 0 -0.37904886912469499 0.067110231928434197 0 -0.37119345183321822 0.058853827639881867 0 -0.37201358599706058 0.070711840939253895 0 -0.37201358599706058 0.070711840939253895 0 -0.34707042967454638 0.066493871458924422 0 -0.36174043644781612 0.059537200304905107 0 -0.37119345183321822 0.058853827639881867 0 -0.37201358599706058 0.070711840939253895 0 -0.36174043644781612 0.059537200304905107 0 -0.37201358599706058 0.070711840939253895 0 -0.34707042967454638 0.066493871458924422 0 -0.37201358599706058 0.070711840939253895 0 -0.36026946930678239 0.075913175113325196 0 -0.37016311523106599 0.083751267223082917 0 -0.38119130922167832 0.078766060501995444 0 -0.37201358599706058 0.070711840939253895 0 -0.37016311523106599 0.083751267223082917 0 -0.3419631627684111 0.054410778814259472 0 -0.34707042967454638 0.066493871458924422 0 -0.34344647427646718 0.082046728742321648 0 -0.36026946930678239 0.075913175113325196 0 -0.35274187612612162 0.077211514003190262 0 -0.34707042967454638 0.066493871458924422 0 -0.35274187612612162 0.077211514003190262 0 -0.34707042967454638 0.066493871458924422 0 -0.34344647427646718 0.082046728742321648 0 -0.35295667425925747 0.085123838591775802 0 -0.35001973748798287 0.095551702326820934 0 -0.34344647427646718 0.082046728742321648 0 -0.35274187612612162 0.077211514003190262 0 -0.35295667425925747 0.085123838591775802 0 -0.34344647427646718 0.082046728742321648 0 -0.35274187612612162 0.077211514003190262 0 -0.35295667425925747 0.085123838591775802 0 -0.35935833950511731 0.08139738194217451 0 -0.35295667425925747 0.085123838591775802 0 -0.35935833950511731 0.08139738194217451 0 -0.35921694390059838 0.089411865944371699 0 -0.36026946930678239 0.075913175113325196 0 -0.35274187612612162 0.077211514003190262 0 -0.35935833950511731 0.08139738194217451 0 -0.35295667425925747 0.085123838591775802 0 -0.35921694390059838 0.089411865944371699 0 -0.35001973748798287 0.095551702326820934 0 -0.35921694390059838 0.089411865944371699 0 -0.37016311523106599 0.083751267223082917 0 -0.36611800641667808 0.094109198156665408 0 -0.36026946930678239 0.075913175113325196 0 -0.35935833950511731 0.08139738194217451 0 -0.37016311523106599 0.083751267223082917 0 -0.35935833950511731 0.08139738194217451 0 -0.35921694390059838 0.089411865944371699 0 -0.37016311523106599 0.083751267223082917 0 -0.37643332436138899 0.09558572737664002 0 -0.37016311523106599 0.083751267223082917 0 -0.36611800641667808 0.094109198156665408 0 -0.37643332436138899 0.09558572737664002 0 -0.36831342086492491 0.1042920553550029 0 -0.36611800641667808 0.094109198156665408 0 -0.37896648635229202 0.10715504183998489 0 -0.37643332436138899 0.09558572737664002 0 -0.36831342086492491 0.1042920553550029 0 -0.36831342086492491 0.1042920553550029 0 -0.35948680904503588 0.10793893666500461 0 -0.35938862515943509 0.099383552161339872 0 -0.35921694390059838 0.089411865944371699 0 -0.35938862515943509 0.099383552161339872 0 -0.36611800641667808 0.094109198156665408 0 -0.36831342086492491 0.1042920553550029 0 -0.35938862515943509 0.099383552161339872 0 -0.36611800641667808 0.094109198156665408 0 -0.37896648635229202 0.10715504183998489 0 -0.36831342086492491 0.1042920553550029 0 -0.36716541190589658 0.118616890008602 0 -0.36831342086492491 0.1042920553550029 0 -0.35948680904503588 0.10793893666500461 0 -0.36716541190589658 0.118616890008602 0 -0.35948680904503588 0.10793893666500461 0 -0.36716541190589658 0.118616890008602 0 -0.35375916145188291 0.11350041634001019 0 -0.34641309729257957 0.13731862859844601 0 -0.34492978578452338 0.1096826786703838 0 -0.34641309729257957 0.13731862859844601 0 -0.35352278934268327 0.12307152153672141 0 -0.34492978578452338 0.1096826786703838 0 -0.36716541190589658 0.118616890008602 0 -0.35352278934268327 0.12307152153672141 0 -0.35375916145188291 0.11350041634001019 0 -0.35375916145188291 0.11350041634001019 0 -0.34492978578452338 0.1096826786703838 0 -0.35317683324139082 0.10499755452017361 0 -0.35352278934268327 0.12307152153672141 0 -0.35375916145188291 0.11350041634001019 0 -0.34492978578452338 0.1096826786703838 0 -0.34492978578452338 0.1096826786703838 0 -0.35001973748798287 0.095551702326820934 0 -0.34344647427646718 0.082046728742321648 0 -0.34492978578452338 0.1096826786703838 0 -0.34344647427646718 0.082046728742321648 0 -0.35921694390059838 0.089411865944371699 0 -0.35938862515943509 0.099383552161339872 0 -0.35001973748798287 0.095551702326820934 0 -0.35938862515943509 0.099383552161339872 0 -0.35317683324139082 0.10499755452017361 0 -0.35001973748798287 0.095551702326820934 0 -0.35948680904503588 0.10793893666500461 0 -0.35938862515943509 0.099383552161339872 0 -0.35317683324139082 0.10499755452017361 0 -0.35948680904503588 0.10793893666500461 0 -0.35375916145188291 0.11350041634001019 0 -0.35317683324139082 0.10499755452017361 0 -0.34492978578452338 0.1096826786703838 0 -0.35317683324139082 0.10499755452017361 0 -0.35001973748798287 0.095551702326820934 0 -0.33551248331249578 0.10757284200453231 0 -0.32636827877939262 0.096437598311714251 0 -0.33089007098043072 0.079233613187852742 0 -0.34492978578452338 0.1096826786703838 0 -0.33551248331249578 0.10757284200453231 0 -0.34344647427646718 0.082046728742321648 0 -0.34013489564456101 0.1359120708212119 0 -0.33551248331249578 0.10757284200453231 0 -0.33106980320980312 0.1246503866679774 0 -0.33551248331249578 0.10757284200453231 0 -0.33106980320980312 0.1246503866679774 0 -0.3276422557938925 0.11637059862038419 0 -0.34013489564456101 0.1359120708212119 0 -0.33551248331249578 0.10757284200453231 0 -0.34013489564456101 0.1359120708212119 0 -0.34492978578452338 0.1096826786703838 0 -0.33551248331249578 0.10757284200453231 0 -0.33551248331249578 0.10757284200453231 0 -0.3276422557938925 0.11637059862038419 0 -0.32202007013965611 0.108381668790018 0 -0.31115114737422961 0.1134627277541034 0 -0.32196666651361477 0.12487749701900901 0 -0.32202007013965611 0.108381668790018 0 -0.32196666651361477 0.12487749701900901 0 -0.3276422557938925 0.11637059862038419 0 -0.32202007013965611 0.108381668790018 0 -0.33106980320980312 0.1246503866679774 0 -0.32196666651361477 0.12487749701900901 0 -0.3276422557938925 0.11637059862038419 0 -0.30835875028686138 0.12836861128214669 0 -0.31115114737422961 0.1134627277541034 0 -0.32196666651361477 0.12487749701900901 0 -0.31115114737422961 0.1134627277541034 0 -0.32202007013965611 0.108381668790018 0 -0.31621893882499519 0.096173217231134644 0 -0.32636827877939262 0.096437598311714251 0 -0.32202007013965611 0.108381668790018 0 -0.31621893882499519 0.096173217231134644 0 -0.33551248331249578 0.10757284200453231 0 -0.32636827877939262 0.096437598311714251 0 -0.32202007013965611 0.108381668790018 0 -0.32636827877939262 0.096437598311714251 0 -0.3206518095107353 0.086423961441370711 0 -0.33089007098043072 0.079233613187852742 0 -0.3095990562077543 0.082833834969606807 0 -0.31621893882499519 0.096173217231134644 0 -0.3206518095107353 0.086423961441370711 0 -0.32636827877939262 0.096437598311714251 0 -0.31621893882499519 0.096173217231134644 0 -0.3206518095107353 0.086423961441370711 0 -0.3206518095107353 0.086423961441370711 0 -0.3195564285114475 0.078857552319276381 0 -0.33089007098043072 0.079233613187852742 0 -0.3095990562077543 0.082833834969606807 0 -0.3206518095107353 0.086423961441370711 0 -0.3195564285114475 0.078857552319276381 0 -0.3095990562077543 0.082833834969606807 0 -0.3195564285114475 0.078857552319276381 0 -0.31708477734686968 0.066938799678275263 0 -0.3262676586483656 0.050894384371173287 0 -0.31708477734686968 0.066938799678275263 0 -0.33089007098043072 0.079233613187852742 0 -0.3195564285114475 0.078857552319276381 0 -0.31708477734686968 0.066938799678275263 0 -0.33089007098043072 0.079233613187852742 0 -0.3262676586483656 0.050894384371173287 0 -0.33089007098043072 0.079233613187852742 0 -0.3419631627684111 0.054410778814259472 0 -0.34344647427646718 0.082046728742321648 0 -0.3419631627684111 0.054410778814259472 0 -0.34344647427646718 0.082046728742321648 0 -0.33089007098043072 0.079233613187852742 0 -0.33551248331249578 0.10757284200453231 0 -0.34344647427646718 0.082046728742321648 0 -0.33089007098043072 0.079233613187852742 0 -0.33551248331249578 0.10757284200453231 0 -0.33089007098043072 0.079233613187852742 0 -0.38413367002432852 0.48466820949397371 0 -0.39197467039505129 0.46611734068214988 0 -0.41460981883164078 0.48516798004791117 0 -0.3981750166650535 0.50000000000000056 0 -0.38413367002432852 0.48466820949397371 0 -0.41460981883164078 0.48516798004791117 0 -0.3981750166650535 0.50000000000000056 0 -0.38413367002432852 0.48466820949397371 0 -0.37107410569903487 0.5 0 -0.39197467039505129 0.46611734068214988 0 -0.36482960672615539 0.47476559140937902 0 -0.38413367002432852 0.48466820949397371 0 -0.39197467039505129 0.46611734068214988 0 -0.36580706476392733 0.47631646954851292 0 -0.38785270990024268 0.44600589254376838 0 -0.39197467039505129 0.46611734068214988 0 -0.37006527051019528 0.45259743283909409 0 -0.39197467039505129 0.46611734068214988 0 -0.37006527051019528 0.45259743283909409 0 -0.36482960672615539 0.47476559140937902 0 -0.38785270990024268 0.44600589254376838 0 -0.37388199021079188 0.43349662060099697 0 -0.37006527051019528 0.45259743283909409 0 -0.38785270990024268 0.44600589254376838 0 -0.40320620376676342 0.45007503942677379 0 -0.39595691431975 0.42995942871021692 0 -0.38785270990024268 0.44600589254376838 0 -0.40320620376676342 0.45007503942677379 0 -0.39197467039505129 0.46611734068214988 0 -0.40320620376676342 0.45007503942677379 0 -0.39197467039505129 0.46611734068214988 0 -0.41277096383307582 0.46532813801804862 0 -0.40320620376676342 0.45007503942677379 0 -0.42781315099835598 0.44205737320498029 0 -0.39595691431975 0.42995942871021692 0 -0.40320620376676342 0.45007503942677379 0 -0.41277096383307582 0.46532813801804862 0 -0.42781315099835598 0.44205737320498029 0 -0.42781315099835598 0.44205737320498029 0 -0.43466730821188831 0.46706657063262308 0 -0.44460389203804629 0.44806533343805571 0 -0.42781315099835598 0.44205737320498029 0 -0.4310446209982266 0.47033596009582029 0 -0.42781315099835598 0.44205737320498029 0 -0.43466730821188831 0.46706657063262308 0 -0.4310446209982266 0.47033596009582029 0 -0.41277096383307582 0.46532813801804862 0 -0.42781315099835598 0.44205737320498029 0 -0.4310446209982266 0.47033596009582029 0 -0.43466730821188831 0.46706657063262308 0 -0.4310446209982266 0.47033596009582029 0 -0.4310446209982266 0.47033596009582029 0 -0.43443441043131342 0.50000000000000755 0 -0.4447827686264566 0.47926022536349122 0 -0.4310446209982266 0.47033596009582029 0 -0.41460981883164078 0.48516798004791117 0 -0.4310446209982266 0.47033596009582029 0 -0.41460981883164078 0.48516798004791117 0 -0.42409839095234109 0.48887598503593521 0 -0.43466730821188831 0.46706657063262308 0 -0.4310446209982266 0.47033596009582029 0 -0.4447827686264566 0.47926022536349122 0 -0.39197467039505129 0.46611734068214988 0 -0.41277096383307582 0.46532813801804862 0 -0.41460981883164078 0.48516798004791117 0 -0.41277096383307582 0.46532813801804862 0 -0.4310446209982266 0.47033596009582029 0 -0.41460981883164078 0.48516798004791117 0 -0.3981750166650535 0.50000000000000056 0 -0.41460981883164078 0.48516798004791117 0 -0.3981750166650535 0.50000000000000056 0 -0.41460981883164078 0.48516798004791117 0 -0.41630471354818338 0.5 0 -0.41460981883164078 0.48516798004791117 0 -0.41630471354818338 0.5 0 -0.42409839095234109 0.48887598503593521 0 -0.41630471354818338 0.5 0 -0.43443441043131342 0.50000000000000755 0 -0.42409839095234109 0.48887598503593521 0 -0.4310446209982266 0.47033596009582029 0 -0.43443441043131342 0.50000000000000755 0 -0.4310446209982266 0.47033596009582029 0 -0.43443441043131342 0.50000000000000755 0 -0.42409839095234109 0.48887598503593521 0 -0.43443441043131342 0.50000000000000755 0 -0.4447827686264566 0.47926022536349122 0 -0.4595127163698095 0.50000000000000022 0 -0.5 0.5 0 -0.47335596745111108 0.44169355163120572 0 -0.5 0.40038011321019712 0 -0.43466730821188831 0.46706657063262308 0 -0.4447827686264566 0.47926022536349122 0 -0.44899911668232212 0.46303481381032341 0 -0.4447827686264566 0.47926022536349122 0 -0.46015144363500948 0.47359397987248231 0 -0.44899911668232212 0.46303481381032341 0 -0.4447827686264566 0.47926022536349122 0 -0.46015144363500948 0.47359397987248231 0 -0.4595127163698095 0.50000000000000022 0 -0.46015144363500948 0.47359397987248231 0 -0.4595127163698095 0.50000000000000022 0 -0.46015144363500948 0.47359397987248231 0 -0.4595127163698095 0.50000000000000022 0 -0.5 0.5 0 -0.46015144363500948 0.47359397987248231 0 -0.5 0.5 0 -0.47335596745111108 0.44169355163120572 0 -0.46015144363500948 0.47359397987248231 0 -0.47335596745111108 0.44169355163120572 0 -0.46079017090020952 0.44718795974496428 0 -0.46079017090020952 0.44718795974496428 0 -0.44460389203804629 0.44806533343805571 0 -0.45590269758544211 0.43346995798949911 0 -0.47335596745111108 0.44169355163120572 0 -0.46079017090020952 0.44718795974496428 0 -0.45590269758544211 0.43346995798949911 0 -0.46015144363500948 0.47359397987248231 0 -0.46079017090020952 0.44718795974496428 0 -0.44899911668232212 0.46303481381032341 0 -0.46015144363500948 0.47359397987248231 0 -0.46079017090020952 0.44718795974496428 0 -0.43466730821188831 0.46706657063262308 0 -0.44899911668232212 0.46303481381032341 0 -0.44460389203804629 0.44806533343805571 0 -0.42781315099835598 0.44205737320498029 0 -0.44460389203804629 0.44806533343805571 0 -0.44268906624812487 0.42665452579602331 0 -0.46079017090020952 0.44718795974496428 0 -0.44899911668232212 0.46303481381032341 0 -0.44460389203804629 0.44806533343805571 0 -0.44460389203804629 0.44806533343805571 0 -0.44268906624812487 0.42665452579602331 0 -0.45590269758544211 0.43346995798949911 0 -0.44268906624812487 0.42665452579602331 0 -0.45186506472241439 0.42144574071262142 0 -0.45590269758544211 0.43346995798949911 0 -0.44268906624812487 0.42665452579602331 0 -0.45186506472241439 0.42144574071262142 0 -0.44576315445017062 0.40546276927260178 0 -0.44268906624812487 0.42665452579602331 0 -0.44576315445017062 0.40546276927260178 0 -0.42458168099848842 0.41377878631413989 0 -0.46310534060592018 0.42019570979236182 0 -0.47346151536459102 0.41731684507507272 0 -0.46374026742882618 0.39151162716981691 0 -0.45186506472241439 0.42144574071262142 0 -0.46310534060592018 0.42019570979236182 0 -0.44576315445017062 0.40546276927260178 0 -0.47335596745111108 0.44169355163120572 0 -0.46310534060592018 0.42019570979236182 0 -0.45590269758544211 0.43346995798949911 0 -0.45186506472241439 0.42144574071262142 0 -0.46310534060592018 0.42019570979236182 0 -0.45590269758544211 0.43346995798949911 0 -0.47335596745111108 0.44169355163120572 0 -0.46310534060592018 0.42019570979236182 0 -0.47346151536459102 0.41731684507507272 0 -0.47335596745111108 0.44169355163120572 0 -0.47346151536459102 0.41731684507507272 0 -0.5 0.40038011321019712 0 -0.47346151536459102 0.41731684507507272 0 -0.5 0.40038011321019712 0 -0.47533567507008778 0.39330498401591851 0 -0.47346151536459102 0.41731684507507272 0 -0.47533567507008778 0.39330498401591851 0 -0.47346151536459102 0.41731684507507272 0 -0.47533567507008778 0.39330498401591851 0 -0.46374026742882618 0.39151162716981691 0 -0.5 0.40038011321019712 0 -0.47533567507008778 0.39330498401591851 0 -0.47720983477558448 0.36929312295676431 0 -0.47533567507008778 0.39330498401591851 0 -0.47720983477558448 0.36929312295676431 0 -0.47533567507008778 0.39330498401591851 0 -0.46374026742882618 0.39151162716981691 0 -0.47720983477558448 0.36929312295676431 0 -0.46374026742882618 0.39151162716981691 0 -0.45297946443592813 0.37787116286410599 0 -0.46437519425173218 0.36282754454727217 0 -0.46374026742882618 0.39151162716981691 0 -0.45297946443592813 0.37787116286410599 0 -0.44807155782876301 0.39051600802545461 0 -0.46374026742882618 0.39151162716981691 0 -0.46437519425173218 0.36282754454727217 0 -0.46310534060592018 0.42019570979236182 0 -0.46374026742882618 0.39151162716981691 0 -0.46310534060592018 0.42019570979236182 0 -0.46374026742882618 0.39151162716981691 0 -0.44576315445017062 0.40546276927260178 0 -0.46374026742882618 0.39151162716981691 0 -0.44576315445017062 0.40546276927260178 0 -0.44807155782876301 0.39051600802545461 0 -0.44576315445017062 0.40546276927260178 0 -0.44807155782876301 0.39051600802545461 0 -0.43603237714897469 0.39502180629923989 0 -0.45297946443592813 0.37787116286410599 0 -0.44807155782876301 0.39051600802545461 0 -0.44039528146883089 0.37985126846070372 0 -0.44807155782876301 0.39051600802545461 0 -0.44039528146883089 0.37985126846070372 0 -0.43603237714897469 0.39502180629923989 0 -0.44039528146883089 0.37985126846070372 0 -0.42135021099862069 0.38550019942329938 0 -0.43603237714897469 0.39502180629923989 0 -0.44039528146883089 0.37985126846070372 0 -0.42135021099862069 0.38550019942329938 0 -0.43330693618304927 0.36743111704715392 0 -0.42135021099862069 0.38550019942329938 0 -0.3928737426436214 0.38288862872844909 0 -0.41811874099875312 0.35722161253245888 0 -0.42135021099862069 0.38550019942329938 0 -0.42458168099848842 0.41377878631413989 0 -0.40302940150938782 0.40252809503019821 0 -0.44576315445017062 0.40546276927260178 0 -0.43603237714897469 0.39502180629923989 0 -0.42458168099848842 0.41377878631413989 0 -0.42135021099862069 0.38550019942329938 0 -0.42458168099848842 0.41377878631413989 0 -0.42135021099862069 0.38550019942329938 0 -0.43603237714897469 0.39502180629923989 0 -0.42458168099848842 0.41377878631413989 0 -0.42781315099835598 0.44205737320498029 0 -0.42458168099848842 0.41377878631413989 0 -0.39595691431975 0.42995942871021692 0 -0.42781315099835598 0.44205737320498029 0 -0.44268906624812487 0.42665452579602331 0 -0.42458168099848842 0.41377878631413989 0 -0.42781315099835598 0.44205737320498029 0 -0.42458168099848842 0.41377878631413989 0 -0.42458168099848842 0.41377878631413989 0 -0.39595691431975 0.42995942871021692 0 -0.40302940150938782 0.40252809503019821 0 -0.39595691431975 0.42995942871021692 0 -0.38133644129271771 0.41060795377957438 0 -0.40302940150938782 0.40252809503019821 0 -0.39595691431975 0.42995942871021692 0 -0.38133644129271771 0.41060795377957438 0 -0.37388199021079188 0.43349662060099697 0 -0.38785270990024268 0.44600589254376838 0 -0.39595691431975 0.42995942871021692 0 -0.37388199021079188 0.43349662060099697 0 -0.39595691431975 0.42995942871021692 0 -0.38133644129271771 0.41060795377957438 0 -0.38133644129271771 0.41060795377957438 0 -0.3928737426436214 0.38288862872844909 0 -0.36671596826568531 0.39125647884893172 0 -0.3928737426436214 0.38288862872844909 0 -0.37126589511329411 0.37377724987418581 0 -0.36671596826568531 0.39125647884893172 0 -0.42135021099862069 0.38550019942329938 0 -0.3928737426436214 0.38288862872844909 0 -0.40302940150938782 0.40252809503019821 0 -0.38133644129271771 0.41060795377957438 0 -0.3928737426436214 0.38288862872844909 0 -0.40302940150938782 0.40252809503019821 0 -0.39068435811404417 0.36093702398180222 0 -0.39395667907880888 0.34326368506717603 0 -0.41811874099875312 0.35722161253245888 0 -0.3928737426436214 0.38288862872844909 0 -0.39068435811404417 0.36093702398180222 0 -0.41811874099875312 0.35722161253245888 0 -0.3928737426436214 0.38288862872844909 0 -0.39068435811404417 0.36093702398180222 0 -0.37126589511329411 0.37377724987418581 0 -0.39068435811404417 0.36093702398180222 0 -0.37302608715873109 0.35758434449273291 0 -0.37126589511329411 0.37377724987418581 0 -0.39395667907880888 0.34326368506717603 0 -0.37302608715873109 0.35758434449273291 0 -0.39068435811404417 0.36093702398180222 0 -0.39395667907880888 0.34326368506717603 0 -0.37302608715873109 0.35758434449273291 0 -0.37563375498023588 0.33893957100260502 0 -0.39395667907880888 0.34326368506717603 0 -0.37302608715873109 0.35758434449273291 0 -0.37563375498023588 0.33893957100260502 0 -0.3809584867257152 0.31995934924364311 0 -0.39395667907880888 0.34326368506717603 0 -0.3809584867257152 0.31995934924364311 0 -0.40019053093036899 0.31727751782089808 0 -0.39395667907880888 0.34326368506717603 0 -0.40019053093036899 0.31727751782089808 0 -0.39395667907880888 0.34326368506717603 0 -0.414887270998886 0.32894302564161831 0 -0.39395667907880888 0.34326368506717603 0 -0.414887270998886 0.32894302564161831 0 -0.414887270998886 0.32894302564161831 0 -0.41811874099875312 0.35722161253245888 0 -0.39395667907880888 0.34326368506717603 0 -0.414887270998886 0.32894302564161831 0 -0.41811874099875312 0.35722161253245888 0 -0.414887270998886 0.32894302564161831 0 -0.4287524947490482 0.33739992334137159 0 -0.41811874099875312 0.35722161253245888 0 -0.414887270998886 0.32894302564161831 0 -0.42784370751339318 0.3200782636988328 0 -0.41182569378737999 0.30215117016961263 0 -0.414887270998886 0.32894302564161831 0 -0.41182569378737999 0.30215117016961263 0 -0.40019053093036899 0.31727751782089808 0 -0.414887270998886 0.32894302564161831 0 -0.41182569378737999 0.30215117016961263 0 -0.414887270998886 0.32894302564161831 0 -0.42784370751339318 0.3200782636988328 0 -0.42784370751339318 0.3200782636988328 0 -0.44080014402789969 0.3112135017560464 0 -0.414887270998886 0.32894302564161831 0 -0.42784370751339318 0.3200782636988328 0 -0.4287524947490482 0.33739992334137159 0 -0.42784370751339318 0.3200782636988328 0 -0.4287524947490482 0.33739992334137159 0 -0.44455732798665581 0.33082357613192309 0 -0.4287524947490482 0.33739992334137159 0 -0.43835542624755341 0.34993313870202492 0 -0.44455732798665581 0.33082357613192309 0 -0.4287524947490482 0.33739992334137159 0 -0.41811874099875312 0.35722161253245888 0 -0.43835542624755341 0.34993313870202492 0 -0.41811874099875312 0.35722161253245888 0 -0.43330693618304927 0.36743111704715392 0 -0.43835542624755341 0.34993313870202492 0 -0.42135021099862069 0.38550019942329938 0 -0.41811874099875312 0.35722161253245888 0 -0.42135021099862069 0.38550019942329938 0 -0.41811874099875312 0.35722161253245888 0 -0.43330693618304927 0.36743111704715392 0 -0.44039528146883089 0.37985126846070372 0 -0.43330693618304927 0.36743111704715392 0 -0.44831502120148831 0.36464936611728249 0 -0.5 0.40038011321019712 0 -0.47720983477558448 0.36929312295676431 0 -0.5 0.32588146503443682 0 -0.43330693618304927 0.36743111704715392 0 -0.44831502120148831 0.36464936611728249 0 -0.43835542624755341 0.34993313870202492 0 -0.45297946443592813 0.37787116286410599 0 -0.44039528146883089 0.37985126846070372 0 -0.44831502120148831 0.36464936611728249 0 -0.44831502120148831 0.36464936611728249 0 -0.45212261815241361 0.34847541748464589 0 -0.43835542624755341 0.34993313870202492 0 -0.46437519425173218 0.36282754454727217 0 -0.46501012107463818 0.3341434619247271 0 -0.45212261815241361 0.34847541748464589 0 -0.46437519425173218 0.36282754454727217 0 -0.46501012107463818 0.3341434619247271 0 -0.44831502120148831 0.36464936611728249 0 -0.45212261815241361 0.34847541748464589 0 -0.46437519425173218 0.36282754454727217 0 -0.45297946443592813 0.37787116286410599 0 -0.44831502120148831 0.36464936611728249 0 -0.46437519425173218 0.36282754454727217 0 -0.46374026742882618 0.39151162716981691 0 -0.46437519425173218 0.36282754454727217 0 -0.47720983477558448 0.36929312295676431 0 -0.47720983477558448 0.36929312295676431 0 -0.4790839944810813 0.34528126189761021 0 -0.5 0.32588146503443682 0 -0.46437519425173218 0.36282754454727217 0 -0.47720983477558448 0.36929312295676431 0 -0.4790839944810813 0.34528126189761021 0 -0.46437519425173218 0.36282754454727217 0 -0.4790839944810813 0.34528126189761021 0 -0.46501012107463818 0.3341434619247271 0 -0.47720983477558448 0.36929312295676431 0 -0.4790839944810813 0.34528126189761021 0 -0.5 0.32588146503443682 0 -0.48095815418657811 0.32126940083845601 0 -0.48438341280173691 0.2990237851864897 0 -0.4790839944810813 0.34528126189761021 0 -0.5 0.32588146503443682 0 -0.48095815418657811 0.32126940083845601 0 -0.4790839944810813 0.34528126189761021 0 -0.48095815418657811 0.32126940083845601 0 -0.4790839944810813 0.34528126189761021 0 -0.48095815418657811 0.32126940083845601 0 -0.46501012107463818 0.3341434619247271 0 -0.48095815418657811 0.32126940083845601 0 -0.46501012107463818 0.3341434619247271 0 -0.46564504789754418 0.30545937930218209 0 -0.46501012107463818 0.3341434619247271 0 -0.46564504789754418 0.30545937930218209 0 -0.45334860311094782 0.31584311053598302 0 -0.46501012107463818 0.3341434619247271 0 -0.44455732798665581 0.33082357613192309 0 -0.45334860311094782 0.31584311053598302 0 -0.46501012107463818 0.3341434619247271 0 -0.46564504789754418 0.30545937930218209 0 -0.45212261815241361 0.34847541748464589 0 -0.46501012107463818 0.3341434619247271 0 -0.44455732798665581 0.33082357613192309 0 -0.45212261815241361 0.34847541748464589 0 -0.43835542624755341 0.34993313870202492 0 -0.44455732798665581 0.33082357613192309 0 -0.45334860311094782 0.31584311053598302 0 -0.44455732798665581 0.33082357613192309 0 -0.44080014402789969 0.3112135017560464 0 -0.42784370751339318 0.3200782636988328 0 -0.44455732798665581 0.33082357613192309 0 -0.44080014402789969 0.3112135017560464 0 -0.45334860311094782 0.31584311053598302 0 -0.44080014402789969 0.3112135017560464 0 -0.45212090372732222 0.29751224224269018 0 -0.44080014402789969 0.3112135017560464 0 -0.45212090372732222 0.29751224224269018 0 -0.43098419661848369 0.29848737705662681 0 -0.45212090372732222 0.29751224224269018 0 -0.44106680473088589 0.27968718865599468 0 -0.43098419661848369 0.29848737705662681 0 -0.45212090372732222 0.29751224224269018 0 -0.46878861662768212 0.293945894508436 0 -0.46620416538631942 0.27832296974934079 0 -0.45212090372732222 0.29751224224269018 0 -0.46620416538631942 0.27832296974934079 0 -0.44106680473088589 0.27968718865599468 0 -0.45334860311094782 0.31584311053598302 0 -0.45212090372732222 0.29751224224269018 0 -0.46564504789754418 0.30545937930218209 0 -0.45212090372732222 0.29751224224269018 0 -0.46564504789754418 0.30545937930218209 0 -0.46878861662768212 0.293945894508436 0 -0.48095815418657811 0.32126940083845601 0 -0.46564504789754418 0.30545937930218209 0 -0.47422271850004488 0.30257989257828583 0 -0.48095815418657811 0.32126940083845601 0 -0.48283231389207593 0.29725753977930192 0 -0.48095815418657811 0.32126940083845601 0 -0.48283231389207593 0.29725753977930192 0 -0.48438341280173691 0.2990237851864897 0 -0.48095815418657811 0.32126940083845601 0 -0.48283231389207593 0.29725753977930192 0 -0.47422271850004488 0.30257989257828583 0 -0.5 0.32588146503443682 0 -0.48438341280173691 0.2990237851864897 0 -0.5 0.27058277969487637 0 -0.48283231389207593 0.29725753977930192 0 -0.48438341280173691 0.2990237851864897 0 -0.48283231389207593 0.29725753977930192 0 -0.47422271850004488 0.30257989257828583 0 -0.46878861662768212 0.293945894508436 0 -0.46564504789754418 0.30545937930218209 0 -0.47422271850004488 0.30257989257828583 0 -0.46878861662768212 0.293945894508436 0 -0.48283231389207593 0.29725753977930192 0 -0.46620416538631942 0.27832296974934079 0 -0.4832665619079245 0.29169392479429618 0 -0.48272378290968532 0.2745465744653578 0 -0.46620416538631942 0.27832296974934079 0 -0.48283231389207593 0.29725753977930192 0 -0.46878861662768212 0.293945894508436 0 -0.46620416538631942 0.27832296974934079 0 -0.48283231389207593 0.29725753977930192 0 -0.4832665619079245 0.29169392479429618 0 -0.46620416538631942 0.27832296974934079 0 -0.48283231389207593 0.29725753977930192 0 -0.4832665619079245 0.29169392479429618 0 -0.48438341280173691 0.2990237851864897 0 -0.48283231389207593 0.29725753977930192 0 -0.4832665619079245 0.29169392479429618 0 -0.4832665619079245 0.29169392479429618 0 -0.48438341280173691 0.2990237851864897 0 -0.5 0.27058277969487637 0 -0.48510068849613291 0.2464952989699998 0 -0.5 0.27058277969487637 0 -0.47736829551405641 0.25971614189080378 0 -0.4832665619079245 0.29169392479429618 0 -0.5 0.27058277969487637 0 -0.48272378290968532 0.2745465744653578 0 -0.5 0.27058277969487637 0 -0.48272378290968532 0.2745465744653578 0 -0.47736829551405641 0.25971614189080378 0 -0.48272378290968532 0.2745465744653578 0 -0.47736829551405641 0.25971614189080378 0 -0.46620416538631942 0.27832296974934079 0 -0.48510068849613291 0.2464952989699998 0 -0.4662317729600568 0.24711617116125539 0 -0.47736829551405641 0.25971614189080378 0 -0.4662317729600568 0.24711617116125539 0 -0.47736829551405641 0.25971614189080378 0 -0.44957601688056159 0.25938839971938082 0 -0.47736829551405641 0.25971614189080378 0 -0.46620416538631942 0.27832296974934079 0 -0.44957601688056159 0.25938839971938082 0 -0.46620416538631942 0.27832296974934079 0 -0.44957601688056159 0.25938839971938082 0 -0.46620416538631942 0.27832296974934079 0 -0.44106680473088589 0.27968718865599468 0 -0.44957601688056159 0.25938839971938082 0 -0.44106680473088589 0.27968718865599468 0 -0.44957601688056159 0.25938839971938082 0 -0.42702456861835142 0.26373592368695459 0 -0.43294786837480398 0.2404538296894207 0 -0.44957601688056159 0.25938839971938082 0 -0.42702456861835142 0.26373592368695459 0 -0.43294786837480398 0.2404538296894207 0 -0.40570253936436479 0.24856745922560119 0 -0.42702456861835142 0.26373592368695459 0 -0.40570253936436479 0.24856745922560119 0 -0.40876411657587441 0.27535931469760672 0 -0.40570253936436479 0.24856745922560119 0 -0.42702456861835142 0.26373592368695459 0 -0.40876411657587441 0.27535931469760672 0 -0.42702456861835142 0.26373592368695459 0 -0.40876411657587441 0.27535931469760672 0 -0.42393307606619501 0.28388419485335897 0 -0.44106680473088589 0.27968718865599468 0 -0.42702456861835142 0.26373592368695459 0 -0.42393307606619501 0.28388419485335897 0 -0.44106680473088589 0.27968718865599468 0 -0.42393307606619501 0.28388419485335897 0 -0.43098419661848369 0.29848737705662681 0 -0.42393307606619501 0.28388419485335897 0 -0.43098419661848369 0.29848737705662681 0 -0.41182569378737999 0.30215117016961263 0 -0.42784370751339318 0.3200782636988328 0 -0.44080014402789969 0.3112135017560464 0 -0.43098419661848369 0.29848737705662681 0 -0.42784370751339318 0.3200782636988328 0 -0.43098419661848369 0.29848737705662681 0 -0.41182569378737999 0.30215117016961263 0 -0.40876411657587441 0.27535931469760672 0 -0.42393307606619501 0.28388419485335897 0 -0.41182569378737999 0.30215117016961263 0 -0.40876411657587441 0.27535931469760672 0 -0.41182569378737999 0.30215117016961263 0 -0.40876411657587441 0.27535931469760672 0 -0.41182569378737999 0.30215117016961263 0 -0.38942632587964537 0.29641120061531351 0 -0.40876411657587441 0.27535931469760672 0 -0.38942632587964537 0.29641120061531351 0 -0.38778179087320769 0.27529621765694001 0 -0.40019053093036899 0.31727751782089808 0 -0.41182569378737999 0.30215117016961263 0 -0.38942632587964537 0.29641120061531351 0 -0.3809584867257152 0.31995934924364311 0 -0.38942632587964537 0.29641120061531351 0 -0.36990774782730562 0.30465198401604282 0 -0.3809584867257152 0.31995934924364311 0 -0.40019053093036899 0.31727751782089808 0 -0.38942632587964537 0.29641120061531351 0 -0.38942632587964537 0.29641120061531351 0 -0.38778179087320769 0.27529621765694001 0 -0.37124129201382 0.2841753332327091 0 -0.38942632587964537 0.29641120061531351 0 -0.37124129201382 0.2841753332327091 0 -0.36990774782730562 0.30465198401604282 0 -0.38778179087320769 0.27529621765694001 0 -0.37230359566927929 0.26610576231553251 0 -0.37124129201382 0.2841753332327091 0 -0.38778179087320769 0.27529621765694001 0 -0.38900306751682168 0.25733661077056619 0 -0.37230359566927929 0.26610576231553251 0 -0.38900306751682168 0.25733661077056619 0 -0.37230359566927929 0.26610576231553251 0 -0.37675611103540763 0.25409865512553548 0 -0.38900306751682168 0.25733661077056619 0 -0.37230359566927929 0.26610576231553251 0 -0.38455494932564349 0.24416718140159829 0 -0.37675611103540763 0.25409865512553548 0 -0.38900306751682168 0.25733661077056619 0 -0.40570253936436479 0.24856745922560119 0 -0.40876411657587441 0.27535931469760672 0 -0.38900306751682168 0.25733661077056619 0 -0.40570253936436479 0.24856745922560119 0 -0.38900306751682168 0.25733661077056619 0 -0.40876411657587441 0.27535931469760672 0 -0.38778179087320769 0.27529621765694001 0 -0.38900306751682168 0.25733661077056619 0 -0.35344375069401829 0.26830850112922933 0 -0.35479842748912699 0.29354782535411539 0 -0.33783775680192157 0.27023153782616838 0 -0.35344375069401829 0.26830850112922933 0 -0.35479842748912699 0.29354782535411539 0 -0.35926376548055328 0.2486735779402334 0 -0.35208907389890948 0.24306917690434299 0 -0.35344375069401829 0.26830850112922933 0 -0.35208907389890948 0.24306917690434299 0 -0.35344375069401829 0.26830850112922933 0 -0.34142207509263922 0.25572960106260723 0 -0.35208907389890948 0.24306917690434299 0 -0.35344375069401829 0.26830850112922933 0 -0.35344375069401829 0.26830850112922933 0 -0.33783775680192157 0.27023153782616838 0 -0.34142207509263922 0.25572960106260723 0 -0.35344375069401829 0.26830850112922933 0 -0.36723308052532222 0.25309369692869038 0 -0.37230359566927929 0.26610576231553251 0 -0.35926376548055328 0.2486735779402334 0 -0.35344375069401829 0.26830850112922933 0 -0.36723308052532222 0.25309369692869038 0 -0.37552267705158737 0.2431978490864326 0 -0.37675611103540763 0.25409865512553548 0 -0.36723308052532222 0.25309369692869038 0 -0.37675611103540763 0.25409865512553548 0 -0.36723308052532222 0.25309369692869038 0 -0.37230359566927929 0.26610576231553251 0 -0.35344375069401829 0.26830850112922933 0 -0.37230359566927929 0.26610576231553251 0 -0.37124129201382 0.2841753332327091 0 -0.37124129201382 0.2841753332327091 0 -0.36990774782730562 0.30465198401604282 0 -0.35479842748912699 0.29354782535411539 0 -0.35344375069401829 0.26830850112922933 0 -0.37124129201382 0.2841753332327091 0 -0.35479842748912699 0.29354782535411539 0 -0.36990774782730562 0.30465198401604282 0 -0.35479842748912699 0.29354782535411539 0 -0.35615310428423591 0.31878714957900162 0 -0.35479842748912699 0.29354782535411539 0 -0.35615310428423591 0.31878714957900162 0 -0.35479842748912699 0.29354782535411539 0 -0.33790089425573833 0.30106400074382289 0 -0.35615310428423591 0.31878714957900162 0 -0.35479842748912699 0.29354782535411539 0 -0.32994760687178648 0.28429515218691809 0 -0.33783775680192157 0.27023153782616838 0 -0.35479842748912699 0.29354782535411539 0 -0.32994760687178648 0.28429515218691809 0 -0.33790089425573833 0.30106400074382289 0 -0.33790089425573833 0.30106400074382289 0 -0.31376474629655843 0.30225304786416751 0 -0.33257481532433891 0.31836647764434117 0 -0.32994760687178648 0.28429515218691809 0 -0.33790089425573833 0.30106400074382289 0 -0.31376474629655843 0.30225304786416751 0 -0.32994760687178648 0.28429515218691809 0 -0.31376474629655843 0.30225304786416751 0 -0.30745975664346697 0.28108303278283259 0 -0.32994760687178648 0.28429515218691809 0 -0.32025265357816562 0.27050697347699348 0 -0.30745975664346697 0.28108303278283259 0 -0.32994760687178648 0.28429515218691809 0 -0.32025265357816562 0.27050697347699348 0 -0.33783775680192157 0.27023153782616838 0 -0.33783775680192157 0.27023153782616838 0 -0.34142207509263922 0.25572960106260723 0 -0.32493898666941562 0.25370598596143412 0 -0.33787454055877381 0.24529314191448051 0 -0.34142207509263922 0.25572960106260723 0 -0.32493898666941562 0.25370598596143412 0 -0.32025265357816562 0.27050697347699348 0 -0.32493898666941562 0.25370598596143412 0 -0.3017176885818823 0.26220574059556451 0 -0.32025265357816562 0.27050697347699348 0 -0.33783775680192157 0.27023153782616838 0 -0.32493898666941562 0.25370598596143412 0 -0.28392805579818597 0.24584677119781029 0 -0.30659471691689572 0.242716670786389 0 -0.3017176885818823 0.26220574059556451 0 -0.30659471691689572 0.242716670786389 0 -0.32493898666941562 0.25370598596143412 0 -0.3017176885818823 0.26220574059556451 0 -0.32025265357816562 0.27050697347699348 0 -0.3017176885818823 0.26220574059556451 0 -0.30745975664346697 0.28108303278283259 0 -0.3017176885818823 0.26220574059556451 0 -0.30745975664346697 0.28108303278283259 0 -0.28581088023419748 0.27213864639403801 0 -0.28392805579818597 0.24584677119781029 0 -0.3017176885818823 0.26220574059556451 0 -0.28392805579818597 0.24584677119781029 0 -0.3017176885818823 0.26220574059556451 0 -0.28581088023419748 0.27213864639403801 0 -0.28392805579818597 0.24584677119781029 0 -0.28581088023419748 0.27213864639403801 0 -0.26655259030946182 0.26726307071448002 0 -0.28392805579818597 0.24584677119781029 0 -0.26514282027817931 0.24842266601513599 0 -0.26655259030946182 0.26726307071448002 0 -0.28581088023419748 0.27213864639403801 0 -0.26655259030946182 0.26726307071448002 0 -0.26709784128719349 0.28662765883125513 0 -0.26655259030946182 0.26726307071448002 0 -0.26709784128719349 0.28662765883125513 0 -0.24190471242523851 0.27972751922608308 0 -0.26655259030946182 0.26726307071448002 0 -0.24943129659764751 0.26000894523212309 0 -0.24190471242523851 0.27972751922608308 0 -0.26514282027817931 0.24842266601513599 0 -0.26655259030946182 0.26726307071448002 0 -0.24943129659764751 0.26000894523212309 0 -0.26514282027817931 0.24842266601513599 0 -0.24943129659764751 0.26000894523212309 0 -0.2468893326351202 0.24329134098969171 0 -0.25616918259472732 0.30236015827283808 0 -0.26709784128719349 0.28662765883125513 0 -0.24190471242523851 0.27972751922608308 0 -0.28581088023419748 0.27213864639403801 0 -0.26709784128719349 0.28662765883125513 0 -0.29016097772449478 0.2935014559625142 0 -0.26709784128719349 0.28662765883125513 0 -0.27491611994182802 0.30516871221215541 0 -0.29016097772449478 0.2935014559625142 0 -0.25616918259472732 0.30236015827283808 0 -0.27491611994182802 0.30516871221215541 0 -0.27043365276421599 0.32499279731959319 0 -0.25616918259472732 0.30236015827283808 0 -0.26709784128719349 0.28662765883125513 0 -0.27491611994182802 0.30516871221215541 0 -0.27491611994182802 0.30516871221215541 0 -0.29016097772449478 0.2935014559625142 0 -0.29169578744288521 0.31398791816734961 0 -0.30745975664346697 0.28108303278283259 0 -0.28581088023419748 0.27213864639403801 0 -0.29016097772449478 0.2935014559625142 0 -0.31376474629655843 0.30225304786416751 0 -0.30745975664346697 0.28108303278283259 0 -0.29016097772449478 0.2935014559625142 0 -0.31376474629655843 0.30225304786416751 0 -0.29016097772449478 0.2935014559625142 0 -0.29169578744288521 0.31398791816734961 0 -0.31376474629655843 0.30225304786416751 0 -0.31074538478735791 0.32738191455196902 0 -0.29169578744288521 0.31398791816734961 0 -0.31074538478735791 0.32738191455196902 0 -0.29170910681836448 0.3316805874579164 0 -0.29169578744288521 0.31398791816734961 0 -0.31074538478735791 0.32738191455196902 0 -0.30097258616365841 0.34441487088432199 0 -0.31556783578130437 0.34561409599239279 0 -0.31074538478735791 0.32738191455196902 0 -0.29170910681836448 0.3316805874579164 0 -0.30097258616365841 0.34441487088432199 0 -0.29170910681836448 0.3316805874579164 0 -0.28469812293370489 0.34762543636634829 0 -0.30097258616365841 0.34441487088432199 0 -0.29170910681836448 0.3316805874579164 0 -0.27043365276421599 0.32499279731959319 0 -0.28469812293370489 0.34762543636634829 0 -0.29170910681836448 0.3316805874579164 0 -0.29169578744288521 0.31398791816734961 0 -0.27043365276421599 0.32499279731959319 0 -0.27491611994182802 0.30516871221215541 0 -0.29169578744288521 0.31398791816734961 0 -0.27043365276421599 0.32499279731959319 0 -0.27043365276421599 0.32499279731959319 0 -0.26243222306204511 0.35090504016953772 0 -0.28469812293370489 0.34762543636634829 0 -0.27043365276421599 0.32499279731959319 0 -0.28469812293370489 0.34762543636634829 0 -0.27043365276421599 0.32499279731959319 0 -0.25002058798003007 0.3320526588471332 0 -0.26243222306204511 0.35090504016953772 0 -0.25616918259472732 0.30236015827283808 0 -0.27043365276421599 0.32499279731959319 0 -0.25616918259472732 0.30236015827283808 0 -0.27043365276421599 0.32499279731959319 0 -0.25002058798003007 0.3320526588471332 0 -0.25717133997193298 0.37426095615225607 0 -0.26243222306204511 0.35090504016953772 0 -0.27169383631612543 0.36953364855257259 0 -0.25717133997193298 0.37426095615225607 0 -0.26243222306204511 0.35090504016953772 0 -0.24481421723968019 0.36490975255658048 0 -0.27524778858216448 0.35766291394235578 0 -0.28324842690769031 0.36508823660180101 0 -0.28469812293370489 0.34762543636634829 0 -0.26243222306204511 0.35090504016953772 0 -0.27524778858216448 0.35766291394235578 0 -0.27169383631612543 0.36953364855257259 0 -0.26243222306204511 0.35090504016953772 0 -0.27524778858216448 0.35766291394235578 0 -0.28469812293370489 0.34762543636634829 0 -0.27524778858216448 0.35766291394235578 0 -0.27169383631612543 0.36953364855257259 0 -0.28324842690769031 0.36508823660180101 0 -0.27169383631612543 0.36953364855257259 0 -0.28324842690769031 0.36508823660180101 0 -0.28209338532393202 0.38222600668133688 0 -0.28324842690769031 0.36508823660180101 0 -0.28469812293370489 0.34762543636634829 0 -0.29896259310319367 0.37025807541310352 0 -0.28324842690769031 0.36508823660180101 0 -0.29896259310319367 0.37025807541310352 0 -0.28209338532393202 0.38222600668133688 0 -0.28469812293370489 0.34762543636634829 0 -0.29896259310319367 0.37025807541310352 0 -0.28469812293370489 0.34762543636634829 0 -0.30097258616365841 0.34441487088432199 0 -0.29896259310319367 0.37025807541310352 0 -0.30097258616365841 0.34441487088432199 0 -0.30971140611047582 0.35873879640362499 0 -0.29896259310319367 0.37025807541310352 0 -0.30097258616365841 0.34441487088432199 0 -0.29896259310319367 0.37025807541310352 0 -0.30097258616365841 0.34441487088432199 0 -0.30971140611047582 0.35873879640362499 0 -0.31556783578130437 0.34561409599239279 0 -0.30971140611047582 0.35873879640362499 0 -0.29896259310319367 0.37025807541310352 0 -0.31229554397435733 0.37005867265250031 0 -0.29896259310319367 0.37025807541310352 0 -0.31229554397435733 0.37005867265250031 0 -0.30732872976294823 0.38353215772995369 0 -0.31229554397435733 0.37005867265250031 0 -0.32118050234516199 0.36201264788746418 0 -0.32091897818789411 0.37757395005697603 0 -0.30971140611047582 0.35873879640362499 0 -0.31229554397435733 0.37005867265250031 0 -0.32118050234516199 0.36201264788746418 0 -0.32118050234516199 0.36201264788746418 0 -0.33508210951592582 0.36870163953731322 0 -0.32091897818789411 0.37757395005697603 0 -0.33508210951592582 0.36870163953731322 0 -0.35209549523865291 0.37190500391828912 0 -0.33393211710626841 0.38433234248782061 0 -0.32118050234516199 0.36201264788746418 0 -0.33508210951592582 0.36870163953731322 0 -0.33321476088078839 0.35466849371962073 0 -0.33508210951592582 0.36870163953731322 0 -0.33321476088078839 0.35466849371962073 0 -0.34577529297467657 0.36353966338233001 0 -0.33321476088078839 0.35466849371962073 0 -0.34577529297467657 0.36353966338233001 0 -0.34447532111727192 0.34884924989517158 0 -0.33321476088078839 0.35466849371962073 0 -0.33003563329740881 0.33925758124412497 0 -0.34447532111727192 0.34884924989517158 0 -0.32118050234516199 0.36201264788746418 0 -0.33321476088078839 0.35466849371962073 0 -0.31556783578130437 0.34561409599239279 0 -0.30971140611047582 0.35873879640362499 0 -0.32118050234516199 0.36201264788746418 0 -0.31556783578130437 0.34561409599239279 0 -0.33321476088078839 0.35466849371962073 0 -0.31556783578130437 0.34561409599239279 0 -0.33003563329740881 0.33925758124412497 0 -0.31074538478735791 0.32738191455196902 0 -0.33257481532433891 0.31836647764434117 0 -0.33003563329740881 0.33925758124412497 0 -0.31074538478735791 0.32738191455196902 0 -0.31556783578130437 0.34561409599239279 0 -0.33003563329740881 0.33925758124412497 0 -0.31376474629655843 0.30225304786416751 0 -0.31074538478735791 0.32738191455196902 0 -0.33257481532433891 0.31836647764434117 0 -0.33790089425573833 0.30106400074382289 0 -0.33257481532433891 0.31836647764434117 0 -0.35615310428423591 0.31878714957900162 0 -0.33257481532433891 0.31836647764434117 0 -0.33003563329740881 0.33925758124412497 0 -0.34490357793898208 0.33379293979876401 0 -0.33003563329740881 0.33925758124412497 0 -0.34490357793898208 0.33379293979876401 0 -0.34447532111727192 0.34884924989517158 0 -0.34490357793898208 0.33379293979876401 0 -0.34447532111727192 0.34884924989517158 0 -0.35750778107934472 0.34402647380388779 0 -0.35615310428423591 0.31878714957900162 0 -0.35750778107934472 0.34402647380388779 0 -0.34490357793898208 0.33379293979876401 0 -0.35615310428423591 0.31878714957900162 0 -0.35750778107934472 0.34402647380388779 0 -0.33257481532433891 0.31836647764434117 0 -0.34490357793898208 0.33379293979876401 0 -0.35615310428423591 0.31878714957900162 0 -0.3809584867257152 0.31995934924364311 0 -0.36990774782730562 0.30465198401604282 0 -0.35615310428423591 0.31878714957900162 0 -0.37563375498023588 0.33893957100260502 0 -0.3809584867257152 0.31995934924364311 0 -0.35615310428423591 0.31878714957900162 0 -0.37563375498023588 0.33893957100260502 0 -0.35615310428423591 0.31878714957900162 0 -0.35750778107934472 0.34402647380388779 0 -0.37563375498023588 0.33893957100260502 0 -0.37302608715873109 0.35758434449273291 0 -0.35750778107934472 0.34402647380388779 0 -0.37302608715873109 0.35758434449273291 0 -0.35750778107934472 0.34402647380388779 0 -0.35541488053243109 0.35781034742230239 0 -0.37302608715873109 0.35758434449273291 0 -0.35209549523865291 0.37190500391828912 0 -0.35541488053243109 0.35781034742230239 0 -0.37302608715873109 0.35758434449273291 0 -0.37126589511329411 0.37377724987418581 0 -0.35209549523865291 0.37190500391828912 0 -0.37302608715873109 0.35758434449273291 0 -0.35209549523865291 0.37190500391828912 0 -0.33508210951592582 0.36870163953731322 0 -0.35209549523865291 0.37190500391828912 0 -0.34577529297467657 0.36353966338233001 0 -0.35209549523865291 0.37190500391828912 0 -0.34577529297467657 0.36353966338233001 0 -0.35209549523865291 0.37190500391828912 0 -0.34577529297467657 0.36353966338233001 0 -0.35541488053243109 0.35781034742230239 0 -0.34577529297467657 0.36353966338233001 0 -0.34447532111727192 0.34884924989517158 0 -0.35541488053243109 0.35781034742230239 0 -0.34447532111727192 0.34884924989517158 0 -0.35750778107934472 0.34402647380388779 0 -0.35541488053243109 0.35781034742230239 0 -0.35026082972236822 0.40458613969335172 0 -0.34862050747833878 0.38874946299455448 0 -0.33552343261133938 0.40009846525415782 0 -0.35026082972236822 0.40458613969335172 0 -0.34862050747833878 0.38874946299455448 0 -0.36671596826568531 0.39125647884893172 0 -0.35209549523865291 0.37190500391828912 0 -0.34862050747833878 0.38874946299455448 0 -0.33393211710626841 0.38433234248782061 0 -0.35209549523865291 0.37190500391828912 0 -0.34862050747833878 0.38874946299455448 0 -0.36671596826568531 0.39125647884893172 0 -0.35209549523865291 0.37190500391828912 0 -0.36671596826568531 0.39125647884893172 0 -0.37126589511329411 0.37377724987418581 0 -0.35209549523865291 0.37190500391828912 0 -0.36671596826568531 0.39125647884893172 0 -0.38133644129271771 0.41060795377957438 0 -0.36671596826568531 0.39125647884893172 0 -0.35026082972236822 0.40458613969335172 0 -0.36671596826568531 0.39125647884893172 0 -0.36333227490387549 0.41594406858258898 0 -0.38133644129271771 0.41060795377957438 0 -0.36671596826568531 0.39125647884893172 0 -0.36333227490387549 0.41594406858258898 0 -0.38133644129271771 0.41060795377957438 0 -0.36333227490387549 0.41594406858258898 0 -0.37388199021079188 0.43349662060099697 0 -0.36333227490387549 0.41594406858258898 0 -0.37388199021079188 0.43349662060099697 0 -0.35906691460358248 0.43302642702751659 0 -0.36333227490387549 0.41594406858258898 0 -0.35906691460358248 0.43302642702751659 0 -0.35160825139420282 0.41805423523185442 0 -0.35906691460358248 0.43302642702751659 0 -0.34586475289765162 0.42738691828786168 0 -0.34964894770477822 0.45067928662270329 0 -0.35906691460358248 0.43302642702751659 0 -0.34586475289765162 0.42738691828786168 0 -0.35160825139420282 0.41805423523185442 0 -0.35026082972236822 0.40458613969335172 0 -0.36333227490387549 0.41594406858258898 0 -0.35160825139420282 0.41805423523185442 0 -0.34586475289765162 0.42738691828786168 0 -0.35160825139420282 0.41805423523185442 0 -0.33955069738530769 0.4144169953609998 0 -0.35026082972236822 0.40458613969335172 0 -0.35160825139420282 0.41805423523185442 0 -0.33955069738530769 0.4144169953609998 0 -0.35026082972236822 0.40458613969335172 0 -0.33955069738530769 0.4144169953609998 0 -0.33552343261133938 0.40009846525415782 0 -0.33446828868340289 0.42659298183602629 0 -0.325081577553051 0.41169961094141633 0 -0.33955069738530769 0.4144169953609998 0 -0.33446828868340289 0.42659298183602629 0 -0.325081577553051 0.41169961094141633 0 -0.33955069738530769 0.4144169953609998 0 -0.325081577553051 0.41169961094141633 0 -0.33552343261133938 0.40009846525415782 0 -0.33446828868340289 0.42659298183602629 0 -0.32353211865850812 0.43458959004027897 0 -0.33054677899099522 0.44587833955602901 0 -0.34586475289765162 0.42738691828786168 0 -0.33446828868340289 0.42659298183602629 0 -0.34964894770477822 0.45067928662270329 0 -0.34586475289765162 0.42738691828786168 0 -0.33446828868340289 0.42659298183602629 0 -0.34586475289765162 0.42738691828786168 0 -0.33955069738530769 0.4144169953609998 0 -0.33446828868340289 0.42659298183602629 0 -0.33446828868340289 0.42659298183602629 0 -0.31463215430362917 0.42521109444957261 0 -0.33446828868340289 0.42659298183602629 0 -0.31463215430362917 0.42521109444957261 0 -0.32353211865850812 0.43458959004027897 0 -0.31463215430362917 0.42521109444957261 0 -0.32353211865850812 0.43458959004027897 0 -0.30632691414132052 0.4383163993433048 0 -0.325081577553051 0.41169961094141633 0 -0.31576873897388319 0.39675968105735149 0 -0.30808160252936673 0.4121977433748496 0 -0.31463215430362917 0.42521109444957261 0 -0.325081577553051 0.41169961094141633 0 -0.30808160252936673 0.4121977433748496 0 -0.33446828868340289 0.42659298183602629 0 -0.31463215430362917 0.42521109444957261 0 -0.325081577553051 0.41169961094141633 0 -0.325081577553051 0.41169961094141633 0 -0.31576873897388319 0.39675968105735149 0 -0.33552343261133938 0.40009846525415782 0 -0.325081577553051 0.41169961094141633 0 -0.31576873897388319 0.39675968105735149 0 -0.34862050747833878 0.38874946299455448 0 -0.33552343261133938 0.40009846525415782 0 -0.33393211710626841 0.38433234248782061 0 -0.31576873897388319 0.39675968105735149 0 -0.33552343261133938 0.40009846525415782 0 -0.33393211710626841 0.38433234248782061 0 -0.35209549523865291 0.37190500391828912 0 -0.33393211710626841 0.38433234248782061 0 -0.33508210951592582 0.36870163953731322 0 -0.33393211710626841 0.38433234248782061 0 -0.32091897818789411 0.37757395005697603 0 -0.31576873897388319 0.39675968105735149 0 -0.32091897818789411 0.37757395005697603 0 -0.30732872976294823 0.38353215772995369 0 -0.31576873897388319 0.39675968105735149 0 -0.33393211710626841 0.38433234248782061 0 -0.31576873897388319 0.39675968105735149 0 -0.33393211710626841 0.38433234248782061 0 -0.32091897818789411 0.37757395005697603 0 -0.31229554397435733 0.37005867265250031 0 -0.32091897818789411 0.37757395005697603 0 -0.30732872976294823 0.38353215772995369 0 -0.29896259310319367 0.37025807541310352 0 -0.30732872976294823 0.38353215772995369 0 -0.29700674132229032 0.39540516601558717 0 -0.29896259310319367 0.37025807541310352 0 -0.29700674132229032 0.39540516601558717 0 -0.31576873897388319 0.39675968105735149 0 -0.30732872976294823 0.38353215772995369 0 -0.29896259310319367 0.37025807541310352 0 -0.30732872976294823 0.38353215772995369 0 -0.29700674132229032 0.39540516601558717 0 -0.30259284054109448 0.40478096048040529 0 -0.29641605771867308 0.41403951143914192 0 -0.31576873897388319 0.39675968105735149 0 -0.29700674132229032 0.39540516601558717 0 -0.30259284054109448 0.40478096048040529 0 -0.31576873897388319 0.39675968105735149 0 -0.30732872976294823 0.38353215772995369 0 -0.29700674132229032 0.39540516601558717 0 -0.31576873897388319 0.39675968105735149 0 -0.30259284054109448 0.40478096048040529 0 -0.30808160252936673 0.4121977433748496 0 -0.29700674132229032 0.39540516601558717 0 -0.28209338532393202 0.38222600668133688 0 -0.27839968129949771 0.4031848713431353 0 -0.29896259310319367 0.37025807541310352 0 -0.29700674132229032 0.39540516601558717 0 -0.28209338532393202 0.38222600668133688 0 -0.27169383631612543 0.36953364855257259 0 -0.28209338532393202 0.38222600668133688 0 -0.26324903299479457 0.38988604216182182 0 -0.27839968129949771 0.4031848713431353 0 -0.26324903299479457 0.38988604216182182 0 -0.26044543261494202 0.40722350202507612 0 -0.28209338532393202 0.38222600668133688 0 -0.27839968129949771 0.4031848713431353 0 -0.26324903299479457 0.38988604216182182 0 -0.26324903299479457 0.38988604216182182 0 -0.26044543261494202 0.40722350202507612 0 -0.24448809762487089 0.40050868906775772 0 -0.25717133997193298 0.37426095615225607 0 -0.26324903299479457 0.38988604216182182 0 -0.24074374520667241 0.38242687998337299 0 -0.25717133997193298 0.37426095615225607 0 -0.27169383631612543 0.36953364855257259 0 -0.26324903299479457 0.38988604216182182 0 -0.25382358621835049 0.43542260228310259 0 -0.27015352040741047 0.42211248350195679 0 -0.2459368307481366 0.42042542405070832 0 -0.27015352040741047 0.42211248350195679 0 -0.2459368307481366 0.42042542405070832 0 -0.26044543261494202 0.40722350202507612 0 -0.2459368307481366 0.42042542405070832 0 -0.24448809762487089 0.40050868906775772 0 -0.26044543261494202 0.40722350202507612 0 -0.27015352040741047 0.42211248350195679 0 -0.2459368307481366 0.42042542405070832 0 -0.27839968129949771 0.4031848713431353 0 -0.26044543261494202 0.40722350202507612 0 -0.27015352040741047 0.42211248350195679 0 -0.27839968129949771 0.4031848713431353 0 -0.27015352040741047 0.42211248350195679 0 -0.2950508895413867 0.42055225661807089 0 -0.25382358621835049 0.43542260228310259 0 -0.27015352040741047 0.42211248350195679 0 -0.27451598641054692 0.44016370142941202 0 -0.27015352040741047 0.42211248350195679 0 -0.28251112199335982 0.43211478794536817 0 -0.27451598641054692 0.44016370142941202 0 -0.28251112199335982 0.43211478794536817 0 -0.29479601992385501 0.42382920706312738 0 -0.29069111349206073 0.44135124015641658 0 -0.29479601992385501 0.42382920706312738 0 -0.29069111349206073 0.44135124015641658 0 -0.27015352040741047 0.42211248350195679 0 -0.28251112199335982 0.43211478794536817 0 -0.29479601992385501 0.42382920706312738 0 -0.27015352040741047 0.42211248350195679 0 -0.29479601992385501 0.42382920706312738 0 -0.27015352040741047 0.42211248350195679 0 -0.29479601992385501 0.42382920706312738 0 -0.2950508895413867 0.42055225661807089 0 -0.29479601992385501 0.42382920706312738 0 -0.2950508895413867 0.42055225661807089 0 -0.29700674132229032 0.39540516601558717 0 -0.2950508895413867 0.42055225661807089 0 -0.29641605771867308 0.41403951143914192 0 -0.29700674132229032 0.39540516601558717 0 -0.27839968129949771 0.4031848713431353 0 -0.2950508895413867 0.42055225661807089 0 -0.29700674132229032 0.39540516601558717 0 -0.2950508895413867 0.42055225661807089 0 -0.2950508895413867 0.42055225661807089 0 -0.29641605771867308 0.41403951143914192 0 -0.31463215430362917 0.42521109444957261 0 -0.2950508895413867 0.42055225661807089 0 -0.30808160252936673 0.4121977433748496 0 -0.30259284054109448 0.40478096048040529 0 -0.29641605771867308 0.41403951143914192 0 -0.30808160252936673 0.4121977433748496 0 -0.2950508895413867 0.42055225661807089 0 -0.29641605771867308 0.41403951143914192 0 -0.30808160252936673 0.4121977433748496 0 -0.31463215430362917 0.42521109444957261 0 -0.29479601992385501 0.42382920706312738 0 -0.2950508895413867 0.42055225661807089 0 -0.31463215430362917 0.42521109444957261 0 -0.29479601992385501 0.42382920706312738 0 -0.30632691414132052 0.4383163993433048 0 -0.29479601992385501 0.42382920706312738 0 -0.30632691414132052 0.4383163993433048 0 -0.29069111349206073 0.44135124015641658 0 -0.31463215430362917 0.42521109444957261 0 -0.29479601992385501 0.42382920706312738 0 -0.30632691414132052 0.4383163993433048 0 -0.3106014077299023 0.45452137664490028 0 -0.31918078655937843 0.44538174228416588 0 -0.30632691414132052 0.4383163993433048 0 -0.29796494780926752 0.45236230629258078 0 -0.3106014077299023 0.45452137664490028 0 -0.30632691414132052 0.4383163993433048 0 -0.29796494780926752 0.45236230629258078 0 -0.29069111349206073 0.44135124015641658 0 -0.3106014077299023 0.45452137664490028 0 -0.30192672627001949 0.46374394226332799 0 -0.31684143562260331 0.46858494716702748 0 -0.30192672627001949 0.46374394226332799 0 -0.31684143562260331 0.46858494716702748 0 -0.29796494780926752 0.45236230629258078 0 -0.3106014077299023 0.45452137664490028 0 -0.30192672627001949 0.46374394226332799 0 -0.28701201691743577 0.45890293735962839 0 -0.28352738281579593 0.4755269213664215 0 -0.30192672627001949 0.46374394226332799 0 -0.28701201691743577 0.45890293735962839 0 -0.30030559437380339 0.47420586516231239 0 -0.30192672627001949 0.46374394226332799 0 -0.28701201691743577 0.45890293735962839 0 -0.29796494780926752 0.45236230629258078 0 -0.30192672627001949 0.46374394226332799 0 -0.28701201691743577 0.45890293735962839 0 -0.28701201691743577 0.45890293735962839 0 -0.29069111349206073 0.44135124015641658 0 -0.28701201691743577 0.45890293735962839 0 -0.29069111349206073 0.44135124015641658 0 -0.27451598641054692 0.44016370142941202 0 -0.29796494780926752 0.45236230629258078 0 -0.28701201691743577 0.45890293735962839 0 -0.29069111349206073 0.44135124015641658 0 -0.28251112199335982 0.43211478794536817 0 -0.29069111349206073 0.44135124015641658 0 -0.27451598641054692 0.44016370142941202 0 -0.28701201691743577 0.45890293735962839 0 -0.27451598641054692 0.44016370142941202 0 -0.2629045594346644 0.45107815732999917 0 -0.28701201691743577 0.45890293735962839 0 -0.2629045594346644 0.45107815732999917 0 -0.28701201691743577 0.45890293735962839 0 -0.27023974482395158 0.46466667776273851 0 -0.28352738281579593 0.4755269213664215 0 -0.28701201691743577 0.45890293735962839 0 -0.27023974482395158 0.46466667776273851 0 -0.2629045594346644 0.45107815732999917 0 -0.27023974482395158 0.46466667776273851 0 -0.2629045594346644 0.45107815732999917 0 -0.2489120775907421 0.45611132706247232 0 -0.27023974482395158 0.46466667776273851 0 -0.24576275637927339 0.47027392540463459 0 -0.2489120775907421 0.45611132706247232 0 -0.25382358621835049 0.43542260228310259 0 -0.2629045594346644 0.45107815732999917 0 -0.2387971019518931 0.44325337730036979 0 -0.2629045594346644 0.45107815732999917 0 -0.2387971019518931 0.44325337730036979 0 -0.2629045594346644 0.45107815732999917 0 -0.2387971019518931 0.44325337730036979 0 -0.2489120775907421 0.45611132706247232 0 -0.25382358621835049 0.43542260228310259 0 -0.27451598641054692 0.44016370142941202 0 -0.2629045594346644 0.45107815732999917 0 -0.26267046183496029 0.5 0 -0.26550391405888962 0.48189416376756322 0 -0.24740973726578031 0.48747235416832729 0 -0.26550391405888962 0.48189416376756322 0 -0.24576275637927339 0.47027392540463459 0 -0.24740973726578031 0.48747235416832729 0 -0.27023974482395158 0.46466667776273851 0 -0.26550391405888962 0.48189416376756322 0 -0.24576275637927339 0.47027392540463459 0 -0.27023974482395158 0.46466667776273851 0 -0.26550391405888962 0.48189416376756322 0 -0.28352738281579593 0.4755269213664215 0 -0.26550391405888962 0.48189416376756322 0 -0.28004274871415491 0.49215090537321432 0 -0.28352738281579593 0.4755269213664215 0 -0.26267046183496029 0.5 0 -0.26550391405888962 0.48189416376756322 0 -0.28004274871415491 0.49215090537321432 0 -0.26267046183496029 0.5 0 -0.28004274871415491 0.49215090537321432 0 -0.28977137280097909 0.5 0 -0.28004274871415491 0.49215090537321432 0 -0.29422506909847679 0.48481709335143458 0 -0.28977137280097909 0.5 0 -0.29422506909847679 0.48481709335143458 0 -0.28977137280097909 0.5 0 -0.30059562840125281 0.49523014277448563 0 -0.29422506909847679 0.48481709335143458 0 -0.28352738281579593 0.4755269213664215 0 -0.30030559437380339 0.47420586516231239 0 -0.28004274871415491 0.49215090537321432 0 -0.29422506909847679 0.48481709335143458 0 -0.28352738281579593 0.4755269213664215 0 -0.28701201691743577 0.45890293735962839 0 -0.28352738281579593 0.4755269213664215 0 -0.30030559437380339 0.47420586516231239 0 -0.28004274871415491 0.49215090537321432 0 -0.28352738281579593 0.4755269213664215 0 -0.30192672627001949 0.46374394226332799 0 -0.30030559437380339 0.47420586516231239 0 -0.31684143562260331 0.46858494716702748 0 -0.30030559437380339 0.47420586516231239 0 -0.3087338265938282 0.48140676030859753 0 -0.31684143562260331 0.46858494716702748 0 -0.29422506909847679 0.48481709335143458 0 -0.30030559437380339 0.47420586516231239 0 -0.3087338265938282 0.48140676030859753 0 -0.28977137280097909 0.5 0 -0.30059562840125281 0.49523014277448563 0 -0.31687228376699761 0.5 0 -0.3087338265938282 0.48140676030859753 0 -0.30059562840125281 0.49523014277448563 0 -0.32200695450955369 0.48840862565278359 0 -0.30059562840125281 0.49523014277448563 0 -0.32200695450955369 0.48840862565278359 0 -0.29422506909847679 0.48481709335143458 0 -0.3087338265938282 0.48140676030859753 0 -0.30059562840125281 0.49523014277448563 0 -0.30059562840125281 0.49523014277448563 0 -0.31687228376699761 0.5 0 -0.32200695450955369 0.48840862565278359 0 -0.31687228376699761 0.5 0 -0.32200695450955369 0.48840862565278359 0 -0.33307541777069588 0.49179723018598798 0 -0.32200695450955369 0.48840862565278359 0 -0.34341828061785462 0.48158710853108161 0 -0.32200695450955369 0.48840862565278359 0 -0.33307541777069588 0.49179723018598798 0 -0.34341828061785462 0.48158710853108161 0 -0.33307541777069588 0.49179723018598798 0 -0.34341828061785462 0.48158710853108161 0 -0.34397319473301619 0.5 0 -0.31687228376699761 0.5 0 -0.33307541777069588 0.49179723018598798 0 -0.34397319473301619 0.5 0 -0.32200695450955369 0.48840862565278359 0 -0.34341828061785462 0.48158710853108161 0 -0.32987443399239552 0.47516769423785971 0 -0.34341828061785462 0.48158710853108161 0 -0.32987443399239552 0.47516769423785971 0 -0.34602126269748001 0.46829680282094799 0 -0.32987443399239552 0.47516769423785971 0 -0.31870391104731738 0.47862303310617538 0 -0.31684143562260331 0.46858494716702748 0 -0.32200695450955369 0.48840862565278359 0 -0.32987443399239552 0.47516769423785971 0 -0.31870391104731738 0.47862303310617538 0 -0.3087338265938282 0.48140676030859753 0 -0.32200695450955369 0.48840862565278359 0 -0.31870391104731738 0.47862303310617538 0 -0.3087338265938282 0.48140676030859753 0 -0.31870391104731738 0.47862303310617538 0 -0.31684143562260331 0.46858494716702748 0 -0.31684143562260331 0.46858494716702748 0 -0.32297313966047753 0.4563916054492167 0 -0.33347739267942988 0.46163483110378051 0 -0.32987443399239552 0.47516769423785971 0 -0.31684143562260331 0.46858494716702748 0 -0.33347739267942988 0.46163483110378051 0 -0.3106014077299023 0.45452137664490028 0 -0.31684143562260331 0.46858494716702748 0 -0.32297313966047753 0.4563916054492167 0 -0.32353211865850812 0.43458959004027897 0 -0.30632691414132052 0.4383163993433048 0 -0.31918078655937843 0.44538174228416588 0 -0.3106014077299023 0.45452137664490028 0 -0.32297313966047753 0.4563916054492167 0 -0.31918078655937843 0.44538174228416588 0 -0.32297313966047753 0.4563916054492167 0 -0.31918078655937843 0.44538174228416588 0 -0.33054677899099522 0.44587833955602901 0 -0.32353211865850812 0.43458959004027897 0 -0.31918078655937843 0.44538174228416588 0 -0.33054677899099522 0.44587833955602901 0 -0.33054677899099522 0.44587833955602901 0 -0.33347739267942988 0.46163483110378051 0 -0.34964894770477822 0.45067928662270329 0 -0.33446828868340289 0.42659298183602629 0 -0.34964894770477822 0.45067928662270329 0 -0.33446828868340289 0.42659298183602629 0 -0.33054677899099522 0.44587833955602901 0 -0.34964894770477822 0.45067928662270329 0 -0.32297313966047753 0.4563916054492167 0 -0.33054677899099522 0.44587833955602901 0 -0.33347739267942988 0.46163483110378051 0 -0.33347739267942988 0.46163483110378051 0 -0.34602126269748001 0.46829680282094799 0 -0.34964894770477822 0.45067928662270329 0 -0.32987443399239552 0.47516769423785971 0 -0.33347739267942988 0.46163483110378051 0 -0.34602126269748001 0.46829680282094799 0 -0.34964894770477822 0.45067928662270329 0 -0.36482960672615539 0.47476559140937902 0 -0.34602126269748001 0.46829680282094799 0 -0.34964894770477822 0.45067928662270329 0 -0.36482960672615539 0.47476559140937902 0 -0.37388199021079188 0.43349662060099697 0 -0.35906691460358248 0.43302642702751659 0 -0.37006527051019528 0.45259743283909409 0 -0.35906691460358248 0.43302642702751659 0 -0.34964894770477822 0.45067928662270329 0 -0.37006527051019528 0.45259743283909409 0 -0.34964894770477822 0.45067928662270329 0 -0.37006527051019528 0.45259743283909409 0 -0.36482960672615539 0.47476559140937902 0 -0.39197467039505129 0.46611734068214988 0 -0.36580706476392733 0.47631646954851292 0 -0.36482960672615539 0.47476559140937902 0 -0.38413367002432852 0.48466820949397371 0 -0.36580706476392733 0.47631646954851292 0 -0.36922226322768142 0.48798439540463678 0 -0.36580706476392733 0.47631646954851292 0 -0.36482960672615539 0.47476559140937902 0 -0.36580706476392733 0.47631646954851292 0 -0.36011621247549508 0.48220740160321018 0 -0.36922226322768142 0.48798439540463678 0 -0.36580706476392733 0.47631646954851292 0 -0.36482960672615539 0.47476559140937902 0 -0.36011621247549508 0.48220740160321018 0 -0.38413367002432852 0.48466820949397371 0 -0.36922226322768142 0.48798439540463678 0 -0.37107410569903487 0.5 0 -0.36922226322768142 0.48798439540463678 0 -0.37107410569903487 0.5 0 -0.35730384704185653 0.49038344312244059 0 -0.36011621247549508 0.48220740160321018 0 -0.36922226322768142 0.48798439540463678 0 -0.35730384704185653 0.49038344312244059 0 -0.34341828061785462 0.48158710853108161 0 -0.36011621247549508 0.48220740160321018 0 -0.35730384704185653 0.49038344312244059 0 -0.37107410569903487 0.5 0 -0.35730384704185653 0.49038344312244059 0 -0.34397319473301619 0.5 0 -0.34341828061785462 0.48158710853108161 0 -0.35730384704185653 0.49038344312244059 0 -0.34397319473301619 0.5 0 -0.34341828061785462 0.48158710853108161 0 -0.36482960672615539 0.47476559140937902 0 -0.36011621247549508 0.48220740160321018 0 -0.34341828061785462 0.48158710853108161 0 -0.34602126269748001 0.46829680282094799 0 -0.36482960672615539 0.47476559140937902 0 -0.34341828061785462 0.48158710853108161 0 -0.36482960672615539 0.47476559140937902 0 -0.14108182703901029 0.47856052106912539 0 -0.15218575011213231 0.48928026053456308 0 -0.15838645381207381 0.47784012782054008 0 -0.14108182703901029 0.47856052106912539 0 -0.15141758041572639 0.46790752156545012 0 -0.15838645381207381 0.47784012782054008 0 -0.14108182703901029 0.47856052106912539 0 -0.15218575011213231 0.48928026053456308 0 -0.14103512141071931 0.48261116844817892 0 -0.14108182703901029 0.47856052106912539 0 -0.15218575011213231 0.48928026053456308 0 -0.14103512141071931 0.48261116844817892 0 -0.14108182703901029 0.47856052106912539 0 -0.15218575011213231 0.48928026053456308 0 -0.14247376316698551 0.5 0 -0.1632896731852537 0.50000000000000155 0 -0.15218575011213231 0.48928026053456308 0 -0.14247376316698551 0.5 0 -0.14194011071192181 0.49099964735320722 0 -0.14103512141071931 0.48261116844817892 0 -0.15218575011213231 0.48928026053456308 0 -0.14194011071192181 0.49099964735320722 0 -0.14247376316698551 0.5 0 -0.13206580815784999 0.49210716043008701 0 -0.1216578531487173 0.50000000000000155 0 -0.13206580815784999 0.49210716043008701 0 -0.1215246548466888 0.48036061179670092 0 -0.1216578531487173 0.50000000000000155 0 -0.14103512141071931 0.48261116844817892 0 -0.13206580815784999 0.49210716043008701 0 -0.1215246548466888 0.48036061179670092 0 -0.14103512141071931 0.48261116844817892 0 -0.14194011071192181 0.49099964735320722 0 -0.13206580815784999 0.49210716043008701 0 -0.14247376316698551 0.5 0 -0.14194011071192181 0.49099964735320722 0 -0.13206580815784999 0.49210716043008701 0 -0.14103512141071931 0.48261116844817892 0 -0.14108182703901029 0.47856052106912539 0 -0.1215246548466888 0.48036061179670092 0 -0.14108182703901029 0.47856052106912539 0 -0.11987972175203609 0.45809198546251739 0 -0.1215246548466888 0.48036061179670092 0 -0.14108182703901029 0.47856052106912539 0 -0.14131813266979709 0.45806640035822538 0 -0.11987972175203609 0.45809198546251739 0 -0.14108182703901029 0.47856052106912539 0 -0.11987972175203609 0.45809198546251739 0 -0.12509104342100061 0.44188941827772182 0 -0.14131813266979709 0.45806640035822538 0 -0.11987972175203609 0.45809198546251739 0 -0.12509104342100061 0.44188941827772182 0 -0.14155443830058789 0.43757227964732542 0 -0.14131813266979709 0.45806640035822538 0 -0.14155443830058789 0.43757227964732542 0 -0.1590732886589914 0.44456462379371309 0 -0.14157918638415079 0.43542594817740249 0 -0.1590732886589914 0.44456462379371309 0 -0.1665175895587078 0.4467511244817659 0 -0.14157918638415079 0.43542594817740249 0 -0.1665175895587078 0.4467511244817659 0 -0.15486041744653839 0.43233395996053492 0 -0.14157918638415079 0.43542594817740249 0 -0.14155443830058789 0.43757227964732542 0 -0.14890115189103559 0.44846787442591368 0 -0.1590732886589914 0.44456462379371309 0 -0.1665175895587078 0.4467511244817659 0 -0.14157918638415079 0.43542594817740249 0 -0.14155443830058789 0.43757227964732542 0 -0.14890115189103559 0.44846787442591368 0 -0.14131813266979709 0.45806640035822538 0 -0.14155443830058789 0.43757227964732542 0 -0.1590732886589914 0.44456462379371309 0 -0.14155443830058789 0.43757227964732542 0 -0.14131813266979709 0.45806640035822538 0 -0.14890115189103559 0.44846787442591368 0 -0.15489186999573309 0.45643812449532861 0 -0.1590732886589914 0.44456462379371309 0 -0.14108182703901029 0.47856052106912539 0 -0.14131813266979709 0.45806640035822538 0 -0.14108182703901029 0.47856052106912539 0 -0.14131813266979709 0.45806640035822538 0 -0.15141758041572639 0.46790752156545012 0 -0.14890115189103559 0.44846787442591368 0 -0.14131813266979709 0.45806640035822538 0 -0.15489186999573309 0.45643812449532861 0 -0.14131813266979709 0.45806640035822538 0 -0.15489186999573309 0.45643812449532861 0 -0.15141758041572639 0.46790752156545012 0 -0.15489186999573309 0.45643812449532861 0 -0.15141758041572639 0.46790752156545012 0 -0.1637083375647361 0.46571847743475431 0 -0.15489186999573309 0.45643812449532861 0 -0.1637083375647361 0.46571847743475431 0 -0.16576602081972819 0.45650349861697093 0 -0.1637083375647361 0.46571847743475431 0 -0.1745644688617857 0.46423929942095737 0 -0.17520348646433229 0.47613194070040032 0 -0.1637083375647361 0.46571847743475431 0 -0.16576602081972819 0.45650349861697093 0 -0.1745644688617857 0.46423929942095737 0 -0.1590732886589914 0.44456462379371309 0 -0.17659213901739471 0.45155696794010108 0 -0.1590732886589914 0.44456462379371309 0 -0.1665175895587078 0.4467511244817659 0 -0.17659213901739471 0.45155696794010108 0 -0.16576602081972819 0.45650349861697093 0 -0.1590732886589914 0.44456462379371309 0 -0.17659213901739471 0.45155696794010108 0 -0.1665175895587078 0.4467511244817659 0 -0.1659354897241099 0.43449929542802312 0 -0.15486041744653839 0.43233395996053492 0 -0.15489186999573309 0.45643812449532861 0 -0.16576602081972819 0.45650349861697093 0 -0.1590732886589914 0.44456462379371309 0 -0.1665175895587078 0.4467511244817659 0 -0.1740586998674569 0.43899754936367941 0 -0.1659354897241099 0.43449929542802312 0 -0.1740586998674569 0.43899754936367941 0 -0.17659213901739471 0.45155696794010108 0 -0.1868590329817707 0.43357197228301869 0 -0.1665175895587078 0.4467511244817659 0 -0.1740586998674569 0.43899754936367941 0 -0.17659213901739471 0.45155696794010108 0 -0.1745644688617857 0.46423929942095737 0 -0.18738907724301901 0.4651958722260251 0 -0.17520348646433229 0.47613194070040032 0 -0.17659213901739471 0.45155696794010108 0 -0.1745644688617857 0.46423929942095737 0 -0.18738907724301901 0.4651958722260251 0 -0.16576602081972819 0.45650349861697093 0 -0.17659213901739471 0.45155696794010108 0 -0.1745644688617857 0.46423929942095737 0 -0.17520348646433229 0.47613194070040032 0 -0.17737148462513211 0.4885994124146576 0 -0.1949767913905355 0.48049775525153071 0 -0.18738907724301901 0.4651958722260251 0 -0.17520348646433229 0.47613194070040032 0 -0.1949767913905355 0.48049775525153071 0 -0.17520348646433229 0.47613194070040032 0 -0.1660045063390565 0.48636736612135473 0 -0.17737148462513211 0.4885994124146576 0 -0.17520348646433229 0.47613194070040032 0 -0.15838645381207381 0.47784012782054008 0 -0.1660045063390565 0.48636736612135473 0 -0.1637083375647361 0.46571847743475431 0 -0.17520348646433229 0.47613194070040032 0 -0.15838645381207381 0.47784012782054008 0 -0.15141758041572639 0.46790752156545012 0 -0.1637083375647361 0.46571847743475431 0 -0.15838645381207381 0.47784012782054008 0 -0.15218575011213231 0.48928026053456308 0 -0.1632896731852537 0.50000000000000155 0 -0.15218575011213231 0.48928026053456308 0 -0.15838645381207381 0.47784012782054008 0 -0.1660045063390565 0.48636736612135473 0 -0.15218575011213231 0.48928026053456308 0 -0.1632896731852537 0.50000000000000155 0 -0.1660045063390565 0.48636736612135473 0 -0.1632896731852537 0.50000000000000155 0 -0.1660045063390565 0.48636736612135473 0 -0.17737148462513211 0.4885994124146576 0 -0.1632896731852537 0.50000000000000155 0 -0.18738296574648311 0.5 0 -0.17737148462513211 0.4885994124146576 0 -0.18738296574648311 0.5 0 -0.17737148462513211 0.4885994124146576 0 -0.1949767913905355 0.48049775525153071 0 -0.18738296574648311 0.5 0 -0.1949767913905355 0.48049775525153071 0 -0.21147625830771241 0.5 0 -0.1949767913905355 0.48049775525153071 0 -0.2193327115732171 0.47785732409434201 0 -0.2030958722774939 0.45571464818868052 0 -0.1949767913905355 0.48049775525153071 0 -0.21147625830771241 0.5 0 -0.2193327115732171 0.47785732409434201 0 -0.21147625830771241 0.5 0 -0.2193327115732171 0.47785732409434201 0 -0.23556955086894171 0.50000000000000278 0 -0.2193327115732171 0.47785732409434201 0 -0.24740973726578031 0.48747235416832729 0 -0.23556955086894171 0.50000000000000278 0 -0.2193327115732171 0.47785732409434201 0 -0.23556955086894171 0.50000000000000278 0 -0.2193327115732171 0.47785732409434201 0 -0.24576275637927339 0.47027392540463459 0 -0.24740973726578031 0.48747235416832729 0 -0.26267046183496029 0.5 0 -0.24740973726578031 0.48747235416832729 0 -0.23556955086894171 0.50000000000000278 0 -0.2387971019518931 0.44325337730036979 0 -0.2489120775907421 0.45611132706247232 0 -0.22784244863720851 0.45419089524536999 0 -0.24576275637927339 0.47027392540463459 0 -0.2489120775907421 0.45611132706247232 0 -0.22784244863720851 0.45419089524536999 0 -0.2193327115732171 0.47785732409434201 0 -0.24576275637927339 0.47027392540463459 0 -0.22784244863720851 0.45419089524536999 0 -0.2387971019518931 0.44325337730036979 0 -0.22784244863720851 0.45419089524536999 0 -0.22695118484456259 0.43760496865691229 0 -0.22784244863720851 0.45419089524536999 0 -0.22695118484456259 0.43760496865691229 0 -0.21077827595677989 0.43843038173964088 0 -0.2387971019518931 0.44325337730036979 0 -0.22695118484456259 0.43760496865691229 0 -0.23717077667227929 0.4322920750106754 0 -0.22784244863720851 0.45419089524536999 0 -0.21077827595677989 0.43843038173964088 0 -0.2030958722774939 0.45571464818868052 0 -0.2193327115732171 0.47785732409434201 0 -0.22784244863720851 0.45419089524536999 0 -0.2030958722774939 0.45571464818868052 0 -0.2193327115732171 0.47785732409434201 0 -0.2030958722774939 0.45571464818868052 0 -0.18738907724301901 0.4651958722260251 0 -0.1949767913905355 0.48049775525153071 0 -0.2030958722774939 0.45571464818868052 0 -0.17659213901739471 0.45155696794010108 0 -0.18738907724301901 0.4651958722260251 0 -0.2030958722774939 0.45571464818868052 0 -0.17659213901739471 0.45155696794010108 0 -0.2030958722774939 0.45571464818868052 0 -0.1868590329817707 0.43357197228301869 0 -0.21077827595677989 0.43843038173964088 0 -0.2030958722774939 0.45571464818868052 0 -0.1868590329817707 0.43357197228301869 0 -0.2030958722774939 0.45571464818868052 0 -0.1868590329817707 0.43357197228301869 0 -0.21077827595677989 0.43843038173964088 0 -0.20038953475864499 0.42285930103310698 0 -0.1868590329817707 0.43357197228301869 0 -0.20038953475864499 0.42285930103310698 0 -0.18865851951403981 0.41114723081592358 0 -0.1868590329817707 0.43357197228301869 0 -0.20038953475864499 0.42285930103310698 0 -0.18865851951403981 0.41114723081592358 0 -0.20316386533702549 0.40742415296633488 0 -0.20038953475864499 0.42285930103310698 0 -0.20316386533702549 0.40742415296633488 0 -0.22016732100465239 0.41985811398850509 0 -0.20316386533702549 0.40742415296633488 0 -0.22016732100465239 0.41985811398850509 0 -0.21769018938602511 0.40540249138439582 0 -0.20316386533702549 0.40742415296633488 0 -0.22016732100465239 0.41985811398850509 0 -0.21077827595677989 0.43843038173964088 0 -0.20038953475864499 0.42285930103310698 0 -0.22016732100465239 0.41985811398850509 0 -0.22695118484456259 0.43760496865691229 0 -0.22016732100465239 0.41985811398850509 0 -0.23717077667227929 0.4322920750106754 0 -0.22695118484456259 0.43760496865691229 0 -0.21077827595677989 0.43843038173964088 0 -0.22016732100465239 0.41985811398850509 0 -0.22016732100465239 0.41985811398850509 0 -0.23358788463652869 0.41983625247023992 0 -0.23717077667227929 0.4322920750106754 0 -0.22016732100465239 0.41985811398850509 0 -0.23717077667227929 0.4322920750106754 0 -0.22016732100465239 0.41985811398850509 0 -0.23115288141678619 0.40759276862782062 0 -0.21769018938602511 0.40540249138439582 0 -0.22016732100465239 0.41985811398850509 0 -0.23115288141678619 0.40759276862782062 0 -0.23358788463652869 0.41983625247023992 0 -0.23115288141678619 0.40759276862782062 0 -0.2459368307481366 0.42042542405070832 0 -0.24448809762487089 0.40050868906775772 0 -0.23115288141678619 0.40759276862782062 0 -0.23358788463652869 0.41983625247023992 0 -0.2459368307481366 0.42042542405070832 0 -0.25382358621835049 0.43542260228310259 0 -0.2459368307481366 0.42042542405070832 0 -0.23717077667227929 0.4322920750106754 0 -0.25382358621835049 0.43542260228310259 0 -0.2387971019518931 0.44325337730036979 0 -0.23717077667227929 0.4322920750106754 0 -0.23358788463652869 0.41983625247023992 0 -0.2459368307481366 0.42042542405070832 0 -0.23717077667227929 0.4322920750106754 0 -0.26324903299479457 0.38988604216182182 0 -0.24074374520667241 0.38242687998337299 0 -0.24448809762487089 0.40050868906775772 0 -0.24074374520667241 0.38242687998337299 0 -0.24448809762487089 0.40050868906775772 0 -0.22634736018434309 0.39356380059118778 0 -0.23115288141678619 0.40759276862782062 0 -0.24448809762487089 0.40050868906775772 0 -0.22634736018434309 0.39356380059118778 0 -0.23115288141678619 0.40759276862782062 0 -0.22634736018434309 0.39356380059118778 0 -0.21769018938602511 0.40540249138439582 0 -0.24074374520667241 0.38242687998337299 0 -0.22634736018434309 0.39356380059118778 0 -0.21798062289891881 0.38062313327343511 0 -0.24074374520667241 0.38242687998337299 0 -0.21798062289891881 0.38062313327343511 0 -0.22441740966967141 0.36662202833489849 0 -0.21798062289891881 0.38062313327343511 0 -0.2053182195646632 0.38898911660535768 0 -0.20402060209966261 0.36833430411321649 0 -0.22634736018434309 0.39356380059118778 0 -0.21798062289891881 0.38062313327343511 0 -0.2053182195646632 0.38898911660535768 0 -0.22634736018434309 0.39356380059118778 0 -0.2053182195646632 0.38898911660535768 0 -0.21769018938602511 0.40540249138439582 0 -0.20316386533702549 0.40742415296633488 0 -0.2053182195646632 0.38898911660535768 0 -0.21769018938602511 0.40540249138439582 0 -0.20316386533702549 0.40742415296633488 0 -0.2053182195646632 0.38898911660535768 0 -0.18616040966939809 0.39499019194416529 0 -0.20316386533702549 0.40742415296633488 0 -0.18616040966939809 0.39499019194416529 0 -0.18865851951403981 0.41114723081592358 0 -0.20316386533702549 0.40742415296633488 0 -0.18616040966939809 0.39499019194416529 0 -0.2053182195646632 0.38898911660535768 0 -0.1927326532436788 0.38193994064591369 0 -0.18616040966939809 0.39499019194416529 0 -0.2053182195646632 0.38898911660535768 0 -0.1927326532436788 0.38193994064591369 0 -0.20402060209966261 0.36833430411321649 0 -0.1927326532436788 0.38193994064591369 0 -0.18374665136976759 0.37937871402705908 0 -0.18616040966939809 0.39499019194416529 0 -0.1744309637910503 0.37769149803556362 0 -0.1642142843906749 0.3789418502636645 0 -0.1838985270783616 0.39091510453828221 0 -0.1642142843906749 0.3789418502636645 0 -0.18616040966939809 0.39499019194416529 0 -0.1838985270783616 0.39091510453828221 0 -0.1927326532436788 0.38193994064591369 0 -0.18374665136976759 0.37937871402705908 0 -0.18362379452965399 0.37004657989153639 0 -0.18374665136976759 0.37937871402705908 0 -0.1744309637910503 0.37769149803556362 0 -0.1838985270783616 0.39091510453828221 0 -0.1642142843906749 0.3789418502636645 0 -0.18616040966939809 0.39499019194416529 0 -0.18374665136976759 0.37937871402705908 0 -0.1744309637910503 0.37769149803556362 0 -0.18362379452965399 0.37004657989153639 0 -0.18374665136976759 0.37937871402705908 0 -0.18616040966939809 0.39499019194416529 0 -0.18374665136976759 0.37937871402705908 0 -0.1838985270783616 0.39091510453828221 0 -0.18374665136976759 0.37937871402705908 0 -0.18616040966939809 0.39499019194416529 0 -0.1838985270783616 0.39091510453828221 0 -0.1642142843906749 0.3789418502636645 0 -0.1639919076143399 0.3974747808383628 0 -0.1489802686125267 0.38257497248127392 0 -0.1642142843906749 0.3789418502636645 0 -0.1639919076143399 0.3974747808383628 0 -0.18616040966939809 0.39499019194416529 0 -0.1744309637910503 0.37769149803556362 0 -0.1642142843906749 0.3789418502636645 0 -0.15874130784498061 0.37213542046662212 0 -0.1639919076143399 0.3974747808383628 0 -0.17750104491285451 0.40432040146684922 0 -0.17119334285363949 0.41366940226894577 0 -0.18865851951403981 0.41114723081592358 0 -0.18616040966939809 0.39499019194416529 0 -0.18865851951403981 0.41114723081592358 0 -0.17750104491285451 0.40432040146684922 0 -0.18616040966939809 0.39499019194416529 0 -0.1639919076143399 0.3974747808383628 0 -0.17750104491285451 0.40432040146684922 0 -0.18616040966939809 0.39499019194416529 0 -0.18865851951403981 0.41114723081592358 0 -0.17750104491285451 0.40432040146684922 0 -0.17119334285363949 0.41366940226894577 0 -0.18865851951403981 0.41114723081592358 0 -0.17459283461559361 0.42601523789076512 0 -0.17119334285363949 0.41366940226894577 0 -0.18865851951403981 0.41114723081592358 0 -0.1868590329817707 0.43357197228301869 0 -0.17459283461559361 0.42601523789076512 0 -0.1740586998674569 0.43899754936367941 0 -0.1868590329817707 0.43357197228301869 0 -0.17459283461559361 0.42601523789076512 0 -0.1740586998674569 0.43899754936367941 0 -0.17459283461559361 0.42601523789076512 0 -0.1659354897241099 0.43449929542802312 0 -0.17459283461559361 0.42601523789076512 0 -0.1659354897241099 0.43449929542802312 0 -0.16085192275254509 0.42420597718500008 0 -0.1659354897241099 0.43449929542802312 0 -0.16085192275254509 0.42420597718500008 0 -0.15486041744653839 0.43233395996053492 0 -0.1639919076143399 0.3974747808383628 0 -0.17119334285363949 0.41366940226894577 0 -0.1558060921739825 0.41026488178479492 0 -0.17459283461559361 0.42601523789076512 0 -0.16085192275254509 0.42420597718500008 0 -0.17119334285363949 0.41366940226894577 0 -0.16085192275254509 0.42420597718500008 0 -0.17119334285363949 0.41366940226894577 0 -0.1558060921739825 0.41026488178479492 0 -0.1558060921739825 0.41026488178479492 0 -0.1418117271851779 0.41525834053060801 0 -0.14204426798620681 0.39509073288381358 0 -0.16085192275254509 0.42420597718500008 0 -0.1558060921739825 0.41026488178479492 0 -0.1418117271851779 0.41525834053060801 0 -0.1418117271851779 0.41525834053060801 0 -0.14157918638415079 0.43542594817740249 0 -0.16085192275254509 0.42420597718500008 0 -0.1418117271851779 0.41525834053060801 0 -0.15486041744653839 0.43233395996053492 0 -0.1418117271851779 0.41525834053060801 0 -0.15486041744653839 0.43233395996053492 0 -0.14157918638415079 0.43542594817740249 0 -0.14155443830058789 0.43757227964732542 0 -0.14157918638415079 0.43542594817740249 0 -0.14155443830058789 0.43757227964732542 0 -0.14157918638415079 0.43542594817740249 0 -0.12025274126089 0.42574105579372712 0 -0.14155443830058789 0.43757227964732542 0 -0.1161249595423428 0.42742254588607831 0 -0.14157918638415079 0.43542594817740249 0 -0.12025274126089 0.42574105579372712 0 -0.1418117271851779 0.41525834053060801 0 -0.14157918638415079 0.43542594817740249 0 -0.12025274126089 0.42574105579372712 0 -0.14155443830058789 0.43757227964732542 0 -0.12025274126089 0.42574105579372712 0 -0.1161249595423428 0.42742254588607831 0 -0.12509104342100061 0.44188941827772182 0 -0.14155443830058789 0.43757227964732542 0 -0.1161249595423428 0.42742254588607831 0 -0.1418117271851779 0.41525834053060801 0 -0.1277268958593005 0.40709158096490278 0 -0.12025274126089 0.42574105579372712 0 -0.1418117271851779 0.41525834053060801 0 -0.1277268958593005 0.40709158096490278 0 -0.14204426798620681 0.39509073288381358 0 -0.1277268958593005 0.40709158096490278 0 -0.14204426798620681 0.39509073288381358 0 -0.1224972888069677 0.39405447109156733 0 -0.13238272395945991 0.37847398983736519 0 -0.1224972888069677 0.39405447109156733 0 -0.13238272395945991 0.37847398983736519 0 -0.14204426798620681 0.39509073288381358 0 -0.1224972888069677 0.39405447109156733 0 -0.13238272395945991 0.37847398983736519 0 -0.1489802686125267 0.38257497248127392 0 -0.14204426798620681 0.39509073288381358 0 -0.1639919076143399 0.3974747808383628 0 -0.1558060921739825 0.41026488178479492 0 -0.14204426798620681 0.39509073288381358 0 -0.1639919076143399 0.3974747808383628 0 -0.1489802686125267 0.38257497248127392 0 -0.14204426798620681 0.39509073288381358 0 -0.1418117271851779 0.41525834053060801 0 -0.14204426798620681 0.39509073288381358 0 -0.15552397359905151 0.35856797270850038 0 -0.1422681591119519 0.36289350858316322 0 -0.15574239997404821 0.34165669361972989 0 -0.1422681591119519 0.36289350858316322 0 -0.15574239997404821 0.34165669361972989 0 -0.13774544015442541 0.3595862213862932 0 -0.1344905665345571 0.34689990383467079 0 -0.15574239997404821 0.34165669361972989 0 -0.1422681591119519 0.36289350858316322 0 -0.13774544015442541 0.3595862213862932 0 -0.15574239997404821 0.34165669361972989 0 -0.1642142843906749 0.3789418502636645 0 -0.1422681591119519 0.36289350858316322 0 -0.13238272395945991 0.37847398983736519 0 -0.1489802686125267 0.38257497248127392 0 -0.1422681591119519 0.36289350858316322 0 -0.1642142843906749 0.3789418502636645 0 -0.1422681591119519 0.36289350858316322 0 -0.15874130784498061 0.37213542046662212 0 -0.1642142843906749 0.3789418502636645 0 -0.1489802686125267 0.38257497248127392 0 -0.1422681591119519 0.36289350858316322 0 -0.15552397359905151 0.35856797270850038 0 -0.1422681591119519 0.36289350858316322 0 -0.15874130784498061 0.37213542046662212 0 -0.1422681591119519 0.36289350858316322 0 -0.13774544015442541 0.3595862213862932 0 -0.12881796099468981 0.36725667352730101 0 -0.13238272395945991 0.37847398983736519 0 -0.12881796099468981 0.36725667352730101 0 -0.114951385737499 0.37611001703161828 0 -0.1422681591119519 0.36289350858316322 0 -0.13774544015442541 0.3595862213862932 0 -0.13238272395945991 0.37847398983736519 0 -0.1422681591119519 0.36289350858316322 0 -0.13238272395945991 0.37847398983736519 0 -0.1422681591119519 0.36289350858316322 0 -0.12881796099468981 0.36725667352730101 0 -0.13774544015442541 0.3595862213862932 0 -0.12881796099468981 0.36725667352730101 0 -0.13085154266849261 0.35745626259395852 0 -0.12881796099468981 0.36725667352730101 0 -0.13085154266849261 0.35745626259395852 0 -0.1223522029902982 0.35608225162756879 0 -0.13085154266849261 0.35745626259395852 0 -0.1344905665345571 0.34689990383467079 0 -0.1223522029902982 0.35608225162756879 0 -0.1344905665345571 0.34689990383467079 0 -0.1215793900664241 0.33965542352680428 0 -0.1223522029902982 0.35608225162756879 0 -0.13774544015442541 0.3595862213862932 0 -0.13085154266849261 0.35745626259395852 0 -0.1344905665345571 0.34689990383467079 0 -0.13871584827508379 0.32805163350527011 0 -0.1213981112161233 0.32606083512094008 0 -0.1215793900664241 0.33965542352680428 0 -0.1344905665345571 0.34689990383467079 0 -0.13871584827508379 0.32805163350527011 0 -0.1215793900664241 0.33965542352680428 0 -0.13871584827508379 0.32805163350527011 0 -0.122665507124936 0.30739316482981133 0 -0.1213981112161233 0.32606083512094008 0 -0.13871584827508379 0.32805163350527011 0 -0.1433184724342442 0.30536206331891741 0 -0.122665507124936 0.30739316482981133 0 -0.13871584827508379 0.32805163350527011 0 -0.1692166408361446 0.32041987865629651 0 -0.1433184724342442 0.30536206331891741 0 -0.1344905665345571 0.34689990383467079 0 -0.13871584827508379 0.32805163350527011 0 -0.15574239997404821 0.34165669361972989 0 -0.13871584827508379 0.32805163350527011 0 -0.15574239997404821 0.34165669361972989 0 -0.1692166408361446 0.32041987865629651 0 -0.15574239997404821 0.34165669361972989 0 -0.16882657531294051 0.33343050367394028 0 -0.16727942812343491 0.34541839291957183 0 -0.16882657531294051 0.33343050367394028 0 -0.1740652221397718 0.31676208059972089 0 -0.17253785706623809 0.33742704001517521 0 -0.15574239997404821 0.34165669361972989 0 -0.1692166408361446 0.32041987865629651 0 -0.15574239997404821 0.34165669361972989 0 -0.16882657531294051 0.33343050367394028 0 -0.1692166408361446 0.32041987865629651 0 -0.17253785706623809 0.33742704001517521 0 -0.17248005025835489 0.34536210115862542 0 -0.16727942812343491 0.34541839291957183 0 -0.16882657531294051 0.33343050367394028 0 -0.17253785706623809 0.33742704001517521 0 -0.16727942812343491 0.34541839291957183 0 -0.16882657531294051 0.33343050367394028 0 -0.1692166408361446 0.32041987865629651 0 -0.1740652221397718 0.31676208059972089 0 -0.18300185264204469 0.32280423575908729 0 -0.1740652221397718 0.31676208059972089 0 -0.17819295282042311 0.34345902717413063 0 -0.18300185264204469 0.32280423575908729 0 -0.1740652221397718 0.31676208059972089 0 -0.18269088169824049 0.29918306369286279 0 -0.18300185264204469 0.32280423575908729 0 -0.17819295282042311 0.34345902717413063 0 -0.18331282358584941 0.34642540782531189 0 -0.1740652221397718 0.31676208059972089 0 -0.17819295282042311 0.34345902717413063 0 -0.1740652221397718 0.31676208059972089 0 -0.17253785706623809 0.33742704001517521 0 -0.17819295282042311 0.34345902717413063 0 -0.18300185264204469 0.32280423575908729 0 -0.18331282358584941 0.34642540782531189 0 -0.17253785706623809 0.33742704001517521 0 -0.17819295282042311 0.34345902717413063 0 -0.17248005025835489 0.34536210115862542 0 -0.17819295282042311 0.34345902717413063 0 -0.17266476351591969 0.35237730914779941 0 -0.18362379452965399 0.37004657989153639 0 -0.17819295282042311 0.34345902717413063 0 -0.18331282358584941 0.34642540782531189 0 -0.18362379452965399 0.37004657989153639 0 -0.17819295282042311 0.34345902717413063 0 -0.18362379452965399 0.37004657989153639 0 -0.18331282358584941 0.34642540782531189 0 -0.18362379452965399 0.37004657989153639 0 -0.19396205315185269 0.35773027909378607 0 -0.18331282358584941 0.34642540782531189 0 -0.18362379452965399 0.37004657989153639 0 -0.17819295282042311 0.34345902717413063 0 -0.17266476351591969 0.35237730914779941 0 -0.17248005025835489 0.34536210115862542 0 -0.17266476351591969 0.35237730914779941 0 -0.16727942812343491 0.34541839291957183 0 -0.16404697378228 0.35342911006401911 0 -0.15552397359905151 0.35856797270850038 0 -0.15574239997404821 0.34165669361972989 0 -0.16404697378228 0.35342911006401911 0 -0.17266476351591969 0.35237730914779941 0 -0.17248005025835489 0.34536210115862542 0 -0.16727942812343491 0.34541839291957183 0 -0.17266476351591969 0.35237730914779941 0 -0.1697011683865553 0.35883091161224728 0 -0.16404697378228 0.35342911006401911 0 -0.1697011683865553 0.35883091161224728 0 -0.16404697378228 0.35342911006401911 0 -0.1633701090946704 0.36372338037626623 0 -0.15552397359905151 0.35856797270850038 0 -0.16404697378228 0.35342911006401911 0 -0.1633701090946704 0.36372338037626623 0 -0.15574239997404821 0.34165669361972989 0 -0.16727942812343491 0.34541839291957183 0 -0.16404697378228 0.35342911006401911 0 -0.15874130784498061 0.37213542046662212 0 -0.18362379452965399 0.37004657989153639 0 -0.15874130784498061 0.37213542046662212 0 -0.1633701090946704 0.36372338037626623 0 -0.18362379452965399 0.37004657989153639 0 -0.15552397359905151 0.35856797270850038 0 -0.15874130784498061 0.37213542046662212 0 -0.1633701090946704 0.36372338037626623 0 -0.17266476351591969 0.35237730914779941 0 -0.1697011683865553 0.35883091161224728 0 -0.18362379452965399 0.37004657989153639 0 -0.1697011683865553 0.35883091161224728 0 -0.1633701090946704 0.36372338037626623 0 -0.18362379452965399 0.37004657989153639 0 -0.1744309637910503 0.37769149803556362 0 -0.15874130784498061 0.37213542046662212 0 -0.18362379452965399 0.37004657989153639 0 -0.18374665136976759 0.37937871402705908 0 -0.18362379452965399 0.37004657989153639 0 -0.1927326532436788 0.38193994064591369 0 -0.18362379452965399 0.37004657989153639 0 -0.20402060209966261 0.36833430411321649 0 -0.18362379452965399 0.37004657989153639 0 -0.20402060209966261 0.36833430411321649 0 -0.18362379452965399 0.37004657989153639 0 -0.19396205315185269 0.35773027909378607 0 -0.20402060209966261 0.36833430411321649 0 -0.19396205315185269 0.35773027909378607 0 -0.208999317395312 0.3446492875548014 0 -0.20402060209966261 0.36833430411321649 0 -0.18331282358584941 0.34642540782531189 0 -0.19396205315185269 0.35773027909378607 0 -0.208999317395312 0.3446492875548014 0 -0.208999317395312 0.3446492875548014 0 -0.20402060209966261 0.36833430411321649 0 -0.22441740966967141 0.36662202833489849 0 -0.20402060209966261 0.36833430411321649 0 -0.22441740966967141 0.36662202833489849 0 -0.21798062289891881 0.38062313327343511 0 -0.20402060209966261 0.36833430411321649 0 -0.22441740966967141 0.36662202833489849 0 -0.208999317395312 0.3446492875548014 0 -0.23479591562654789 0.35148704487088239 0 -0.2313273246892763 0.33558392302215828 0 -0.208999317395312 0.3446492875548014 0 -0.22441740966967141 0.36662202833489849 0 -0.23479591562654789 0.35148704487088239 0 -0.25002058798003007 0.3320526588471332 0 -0.26243222306204511 0.35090504016953772 0 -0.23479591562654789 0.35148704487088239 0 -0.26243222306204511 0.35090504016953772 0 -0.23479591562654789 0.35148704487088239 0 -0.24481421723968019 0.36490975255658048 0 -0.22441740966967141 0.36662202833489849 0 -0.24481421723968019 0.36490975255658048 0 -0.24074374520667241 0.38242687998337299 0 -0.22441740966967141 0.36662202833489849 0 -0.24481421723968019 0.36490975255658048 0 -0.22441740966967141 0.36662202833489849 0 -0.23479591562654789 0.35148704487088239 0 -0.24481421723968019 0.36490975255658048 0 -0.25717133997193298 0.37426095615225607 0 -0.24074374520667241 0.38242687998337299 0 -0.24481421723968019 0.36490975255658048 0 -0.25616918259472732 0.30236015827283808 0 -0.25002058798003007 0.3320526588471332 0 -0.23403114015321011 0.31709209002172778 0 -0.25002058798003007 0.3320526588471332 0 -0.23479591562654789 0.35148704487088239 0 -0.2313273246892763 0.33558392302215828 0 -0.25002058798003007 0.3320526588471332 0 -0.2313273246892763 0.33558392302215828 0 -0.23403114015321011 0.31709209002172778 0 -0.208999317395312 0.3446492875548014 0 -0.2313273246892763 0.33558392302215828 0 -0.21850591254547599 0.32628872173457818 0 -0.23403114015321011 0.31709209002172778 0 -0.21850591254547599 0.32628872173457818 0 -0.21603293622121081 0.30879617143541382 0 -0.2313273246892763 0.33558392302215828 0 -0.23403114015321011 0.31709209002172778 0 -0.21850591254547599 0.32628872173457818 0 -0.21850591254547599 0.32628872173457818 0 -0.20213884426837089 0.32532213663878978 0 -0.21603293622121081 0.30879617143541382 0 -0.20213884426837089 0.32532213663878978 0 -0.19725183072938909 0.30509230858372249 0 -0.21603293622121081 0.30879617143541382 0 -0.208999317395312 0.3446492875548014 0 -0.21850591254547599 0.32628872173457818 0 -0.20213884426837089 0.32532213663878978 0 -0.18331282358584941 0.34642540782531189 0 -0.208999317395312 0.3446492875548014 0 -0.20213884426837089 0.32532213663878978 0 -0.18300185264204469 0.32280423575908729 0 -0.18331282358584941 0.34642540782531189 0 -0.20213884426837089 0.32532213663878978 0 -0.18300185264204469 0.32280423575908729 0 -0.20213884426837089 0.32532213663878978 0 -0.19725183072938909 0.30509230858372249 0 -0.19725183072938909 0.30509230858372249 0 -0.1906964717749009 0.28656541518329992 0 -0.18269088169824049 0.29918306369286279 0 -0.18300185264204469 0.32280423575908729 0 -0.19725183072938909 0.30509230858372249 0 -0.18269088169824049 0.29918306369286279 0 -0.19725183072938909 0.30509230858372249 0 -0.1906964717749009 0.28656541518329992 0 -0.20894999777156681 0.28788282879288141 0 -0.1906964717749009 0.28656541518329992 0 -0.20894999777156681 0.28788282879288141 0 -0.19560748054403571 0.27391850694798181 0 -0.19725183072938909 0.30509230858372249 0 -0.20894999777156681 0.28788282879288141 0 -0.21603293622121081 0.30879617143541382 0 -0.20894999777156681 0.28788282879288141 0 -0.21603293622121081 0.30879617143541382 0 -0.23010937568771669 0.29589673977315029 0 -0.23403114015321011 0.31709209002172778 0 -0.21603293622121081 0.30879617143541382 0 -0.23010937568771669 0.29589673977315029 0 -0.20894999777156681 0.28788282879288141 0 -0.23010937568771669 0.29589673977315029 0 -0.2234747025956966 0.27824585991597089 0 -0.23010937568771669 0.29589673977315029 0 -0.24190471242523851 0.27972751922608308 0 -0.2234747025956966 0.27824585991597089 0 -0.25616918259472732 0.30236015827283808 0 -0.24190471242523851 0.27972751922608308 0 -0.25616918259472732 0.30236015827283808 0 -0.23010937568771669 0.29589673977315029 0 -0.24190471242523851 0.27972751922608308 0 -0.25616918259472732 0.30236015827283808 0 -0.23403114015321011 0.31709209002172778 0 -0.23010937568771669 0.29589673977315029 0 -0.24943129659764751 0.26000894523212309 0 -0.24190471242523851 0.27972751922608308 0 -0.22764024225575111 0.25709488017932702 0 -0.22764024225575111 0.25709488017932702 0 -0.2468893326351202 0.24329134098969171 0 -0.24943129659764751 0.26000894523212309 0 -0.22764024225575111 0.25709488017932702 0 -0.2468893326351202 0.24329134098969171 0 -0.24190471242523851 0.27972751922608308 0 -0.22764024225575111 0.25709488017932702 0 -0.24190471242523851 0.27972751922608308 0 -0.2234747025956966 0.27824585991597089 0 -0.22764024225575111 0.25709488017932702 0 -0.2234747025956966 0.27824585991597089 0 -0.22764024225575111 0.25709488017932702 0 -0.20876918483820989 0.27062733160841262 0 -0.22764024225575111 0.25709488017932702 0 -0.21239874098331929 0.25437807278244762 0 -0.20876918483820989 0.27062733160841262 0 -0.22764024225575111 0.25709488017932702 0 -0.20876918483820989 0.27062733160841262 0 -0.21239874098331929 0.25437807278244762 0 -0.20876918483820989 0.27062733160841262 0 -0.2025020270240801 0.26019521754276942 0 -0.21239874098331929 0.25437807278244762 0 -0.2025020270240801 0.26019521754276942 0 -0.2046840695697589 0.2451395929661444 0 -0.20894999777156681 0.28788282879288141 0 -0.2234747025956966 0.27824585991597089 0 -0.20876918483820989 0.27062733160841262 0 -0.20894999777156681 0.28788282879288141 0 -0.20876918483820989 0.27062733160841262 0 -0.19560748054403571 0.27391850694798181 0 -0.19560748054403571 0.27391850694798181 0 -0.18940688912330481 0.25610334311205268 0 -0.18232207730982461 0.27116889680334472 0 -0.20876918483820989 0.27062733160841262 0 -0.19560748054403571 0.27391850694798181 0 -0.2025020270240801 0.26019521754276942 0 -0.1906964717749009 0.28656541518329992 0 -0.19560748054403571 0.27391850694798181 0 -0.18232207730982461 0.27116889680334472 0 -0.19560748054403571 0.27391850694798181 0 -0.2025020270240801 0.26019521754276942 0 -0.18940688912330481 0.25610334311205268 0 -0.2025020270240801 0.26019521754276942 0 -0.18940688912330481 0.25610334311205268 0 -0.2046840695697589 0.2451395929661444 0 -0.18940688912330481 0.25610334311205268 0 -0.17508206900779469 0.25918785244088571 0 -0.18195408303730121 0.23534357450296481 0 -0.18940688912330481 0.25610334311205268 0 -0.17508206900779469 0.25918785244088571 0 -0.18232207730982461 0.27116889680334472 0 -0.16225317791305921 0.25358582624422438 0 -0.1601147340924314 0.27132493958040771 0 -0.14746997276257359 0.25293699741112718 0 -0.17508206900779469 0.25918785244088571 0 -0.16225317791305921 0.25358582624422438 0 -0.1601147340924314 0.27132493958040771 0 -0.1601147340924314 0.27132493958040771 0 -0.18232207730982461 0.27116889680334472 0 -0.1715163911286523 0.28419500503467149 0 -0.17508206900779469 0.25918785244088571 0 -0.1601147340924314 0.27132493958040771 0 -0.18232207730982461 0.27116889680334472 0 -0.1906964717749009 0.28656541518329992 0 -0.18232207730982461 0.27116889680334472 0 -0.18269088169824049 0.29918306369286279 0 -0.18232207730982461 0.27116889680334472 0 -0.18269088169824049 0.29918306369286279 0 -0.1715163911286523 0.28419500503467149 0 -0.18232207730982461 0.27116889680334472 0 -0.18269088169824049 0.29918306369286279 0 -0.1906964717749009 0.28656541518329992 0 -0.18269088169824049 0.29918306369286279 0 -0.18300185264204469 0.32280423575908729 0 -0.18269088169824049 0.29918306369286279 0 -0.1692166408361446 0.32041987865629651 0 -0.18269088169824049 0.29918306369286279 0 -0.1692166408361446 0.32041987865629651 0 -0.1740652221397718 0.31676208059972089 0 -0.18269088169824049 0.29918306369286279 0 -0.1692166408361446 0.32041987865629651 0 -0.16093787141411231 0.2951031200620709 0 -0.1433184724342442 0.30536206331891741 0 -0.1692166408361446 0.32041987865629651 0 -0.18269088169824049 0.29918306369286279 0 -0.16093787141411231 0.2951031200620709 0 -0.18269088169824049 0.29918306369286279 0 -0.1715163911286523 0.28419500503467149 0 -0.16093787141411231 0.2951031200620709 0 -0.1601147340924314 0.27132493958040771 0 -0.1715163911286523 0.28419500503467149 0 -0.16093787141411231 0.2951031200620709 0 -0.1601147340924314 0.27132493958040771 0 -0.16093787141411231 0.2951031200620709 0 -0.140940242444347 0.28770890845956881 0 -0.16093787141411231 0.2951031200620709 0 -0.140940242444347 0.28770890845956881 0 -0.16093787141411231 0.2951031200620709 0 -0.140940242444347 0.28770890845956881 0 -0.1433184724342442 0.30536206331891741 0 -0.1433184724342442 0.30536206331891741 0 -0.12743472451084159 0.29349567440048657 0 -0.122665507124936 0.30739316482981133 0 -0.140940242444347 0.28770890845956881 0 -0.1433184724342442 0.30536206331891741 0 -0.12743472451084159 0.29349567440048657 0 -0.140940242444347 0.28770890845956881 0 -0.1209426134745812 0.28031469685706822 0 -0.140940242444347 0.28770890845956881 0 -0.12743472451084159 0.29349567440048657 0 -0.1209426134745812 0.28031469685706822 0 -0.140940242444347 0.28770890845956881 0 -0.12748957136376979 0.2697364722205553 0 -0.1209426134745812 0.28031469685706822 0 -0.140940242444347 0.28770890845956881 0 -0.1385418352730507 0.26582091200169278 0 -0.12748957136376979 0.2697364722205553 0 -0.1385418352730507 0.26582091200169278 0 -0.1252623291810667 0.25912953992318971 0 -0.13357218109292621 0.2499317644564327 0 -0.1385418352730507 0.26582091200169278 0 -0.14746997276257359 0.25293699741112718 0 -0.13357218109292621 0.2499317644564327 0 -0.1385418352730507 0.26582091200169278 0 -0.12748957136376979 0.2697364722205553 0 -0.1252623291810667 0.25912953992318971 0 -0.1252623291810667 0.25912953992318971 0 -0.13357218109292621 0.2499317644564327 0 -0.1213089330464012 0.24626659804535689 0 -0.1601147340924314 0.27132493958040771 0 -0.1385418352730507 0.26582091200169278 0 -0.14746997276257359 0.25293699741112718 0 -0.1601147340924314 0.27132493958040771 0 -0.140940242444347 0.28770890845956881 0 -0.1385418352730507 0.26582091200169278 0 -0.095230237001734636 0.27080743213428882 0 -0.101831548476812 0.26048951589785008 0 -0.1165241005361865 0.26558405137515151 0 -0.095230237001734636 0.27080743213428882 0 -0.1209426134745812 0.28031469685706822 0 -0.095230237001734636 0.27080743213428882 0 -0.101831548476812 0.26048951589785008 0 -0.101831548476812 0.26048951589785008 0 -0.112097455783086 0.24444379951602521 0 -0.096974545082976191 0.25880538532589209 0 -0.101831548476812 0.26048951589785008 0 -0.112097455783086 0.24444379951602521 0 -0.095230237001734636 0.27080743213428882 0 -0.096974545082976191 0.25880538532589209 0 -0.101831548476812 0.26048951589785008 0 -0.096974545082976191 0.25880538532589209 0 -0.101831548476812 0.26048951589785008 0 -0.101831548476812 0.26048951589785008 0 -0.1165241005361865 0.26558405137515151 0 -0.101831548476812 0.26048951589785008 0 -0.11521273165378559 0.25497892835963998 0 -0.112097455783086 0.24444379951602521 0 -0.101831548476812 0.26048951589785008 0 -0.1165241005361865 0.26558405137515151 0 -0.11521273165378559 0.25497892835963998 0 -0.1252623291810667 0.25912953992318971 0 -0.11521273165378559 0.25497892835963998 0 -0.1213089330464012 0.24626659804535689 0 -0.12748957136376979 0.2697364722205553 0 -0.1252623291810667 0.25912953992318971 0 -0.1165241005361865 0.26558405137515151 0 -0.1252623291810667 0.25912953992318971 0 -0.1165241005361865 0.26558405137515151 0 -0.11521273165378559 0.25497892835963998 0 -0.12748957136376979 0.2697364722205553 0 -0.1165241005361865 0.26558405137515151 0 -0.11826192468166601 0.27279143104315778 0 -0.095230237001734636 0.27080743213428882 0 -0.1165241005361865 0.26558405137515151 0 -0.11826192468166601 0.27279143104315778 0 -0.095230237001734636 0.27080743213428882 0 -0.11826192468166601 0.27279143104315778 0 -0.1209426134745812 0.28031469685706822 0 -0.12748957136376979 0.2697364722205553 0 -0.11826192468166601 0.27279143104315778 0 -0.1209426134745812 0.28031469685706822 0 -0.1209426134745812 0.28031469685706822 0 -0.099156256926613839 0.29556062278638268 0 -0.12743472451084159 0.29349567440048657 0 -0.1209426134745812 0.28031469685706822 0 -0.099156256926613839 0.29556062278638268 0 -0.12743472451084159 0.29349567440048657 0 -0.122665507124936 0.30739316482981133 0 -0.099156256926613839 0.29556062278638268 0 -0.1041414057358224 0.31201579539373148 0 -0.099156256926613839 0.29556062278638268 0 -0.091673901452025128 0.31746800270450398 0 -0.122665507124936 0.30739316482981133 0 -0.1041414057358224 0.31201579539373148 0 -0.099156256926613839 0.29556062278638268 0 -0.095230237001734636 0.27080743213428882 0 -0.1209426134745812 0.28031469685706822 0 -0.099156256926613839 0.29556062278638268 0 -0.081993310338176556 0.29149688165626692 0 -0.071574905525993715 0.28647654560898889 0 -0.088307373389434785 0.26824767274871397 0 -0.095230237001734636 0.27080743213428882 0 -0.099156256926613839 0.29556062278638268 0 -0.081993310338176556 0.29149688165626692 0 -0.099156256926613839 0.29556062278638268 0 -0.0773699003786468 0.31080654871569757 0 -0.091673901452025128 0.31746800270450398 0 -0.099156256926613839 0.29556062278638268 0 -0.0773699003786468 0.31080654871569757 0 -0.081993310338176556 0.29149688165626692 0 -0.0773699003786468 0.31080654871569757 0 -0.099156256926613839 0.29556062278638268 0 -0.081993310338176556 0.29149688165626692 0 -0.0773699003786468 0.31080654871569757 0 -0.081993310338176556 0.29149688165626692 0 -0.0773699003786468 0.31080654871569757 0 -0.07000108740115632 0.31024084673351238 0 -0.081993310338176556 0.29149688165626692 0 -0.07000108740115632 0.31024084673351238 0 -0.07082691849754412 0.29686868922251758 0 -0.081993310338176556 0.29149688165626692 0 -0.07000108740115632 0.31024084673351238 0 -0.06406362287003417 0.30105685935529619 0 -0.07000108740115632 0.31024084673351238 0 -0.07082691849754412 0.29686868922251758 0 -0.06406362287003417 0.30105685935529619 0 -0.07000108740115632 0.31024084673351238 0 -0.05903493703298672 0.30842013861035528 0 -0.081993310338176556 0.29149688165626692 0 -0.071574905525993715 0.28647654560898889 0 -0.07082691849754412 0.29686868922251758 0 -0.071574905525993715 0.28647654560898889 0 -0.07082691849754412 0.29686868922251758 0 -0.064150197611200194 0.29028153745804169 0 -0.06406362287003417 0.30105685935529619 0 -0.07082691849754412 0.29686868922251758 0 -0.064150197611200194 0.29028153745804169 0 -0.071574905525993715 0.28647654560898889 0 -0.064150197611200194 0.29028153745804169 0 -0.066272470786091969 0.27951596978905408 0 -0.066272470786091969 0.27951596978905408 0 -0.064867048676514966 0.26815492676469338 0 -0.075116873927680253 0.27479103085629453 0 -0.066272470786091969 0.27951596978905408 0 -0.064867048676514966 0.26815492676469338 0 -0.056753075498150757 0.28085207326825551 0 -0.064867048676514966 0.26815492676469338 0 -0.075116873927680253 0.27479103085629453 0 -0.074399806026204385 0.26466482186588819 0 -0.075116873927680253 0.27479103085629453 0 -0.079975847673146208 0.26885948770409202 0 -0.074399806026204385 0.26466482186588819 0 -0.071574905525993715 0.28647654560898889 0 -0.066272470786091969 0.27951596978905408 0 -0.075116873927680253 0.27479103085629453 0 -0.095230237001734636 0.27080743213428882 0 -0.081993310338176556 0.29149688165626692 0 -0.095230237001734636 0.27080743213428882 0 -0.081993310338176556 0.29149688165626692 0 -0.088307373389434785 0.26824767274871397 0 -0.071574905525993715 0.28647654560898889 0 -0.088307373389434785 0.26824767274871397 0 -0.071574905525993715 0.28647654560898889 0 -0.075116873927680253 0.27479103085629453 0 -0.088307373389434785 0.26824767274871397 0 -0.079975847673146208 0.26885948770409202 0 -0.084329260359261832 0.26677674789216088 0 -0.074399806026204385 0.26466482186588819 0 -0.075116873927680253 0.27479103085629453 0 -0.079975847673146208 0.26885948770409202 0 -0.088307373389434785 0.26824767274871397 0 -0.079975847673146208 0.26885948770409202 0 -0.084329260359261832 0.26677674789216088 0 -0.088307373389434785 0.26824767274871397 0 -0.095230237001734636 0.27080743213428882 0 -0.096974545082976191 0.25880538532589209 0 -0.088307373389434785 0.26824767274871397 0 -0.084329260359261832 0.26677674789216088 0 -0.088307373389434785 0.26824767274871397 0 -0.095230237001734636 0.27080743213428882 0 -0.088307373389434785 0.26824767274871397 0 -0.096974545082976191 0.25880538532589209 0 -0.073553522625709841 0.25068431627396631 0 -0.088715331182393942 0.2449718195011524 0 -0.096974545082976191 0.25880538532589209 0 -0.084329260359261832 0.26677674789216088 0 -0.073553522625709841 0.25068431627396631 0 -0.096974545082976191 0.25880538532589209 0 -0.073553522625709841 0.25068431627396631 0 -0.096974545082976191 0.25880538532589209 0 -0.088307373389434785 0.26824767274871397 0 -0.096974545082976191 0.25880538532589209 0 -0.084329260359261832 0.26677674789216088 0 -0.088307373389434785 0.26824767274871397 0 -0.084329260359261832 0.26677674789216088 0 -0.073553522625709841 0.25068431627396631 0 -0.074399806026204385 0.26466482186588819 0 -0.064867048676514966 0.26815492676469338 0 -0.073553522625709841 0.25068431627396631 0 -0.050450936449665702 0.26047062327699849 0 -0.064867048676514966 0.26815492676469338 0 -0.073553522625709841 0.25068431627396631 0 -0.074399806026204385 0.26466482186588819 0 -0.073553522625709841 0.25068431627396631 0 -0.050450936449665702 0.26047062327699849 0 -0.050132500168443887 0.2425632472220397 0 -0.064867048676514966 0.26815492676469338 0 -0.050450936449665702 0.26047062327699849 0 -0.056753075498150757 0.28085207326825551 0 -0.050450936449665702 0.26047062327699849 0 -0.056753075498150757 0.28085207326825551 0 -0.041567118232982071 0.28155035039042642 0 -0.050450936449665702 0.26047062327699849 0 -0.032664289439585513 0.26886008103247921 0 -0.041567118232982071 0.28155035039042642 0 -0.032664289439585513 0.26886008103247921 0 -0.025724023578003428 0.28484302527062832 0 -0.041567118232982071 0.28155035039042642 0 -0.050450936449665702 0.26047062327699849 0 -0.032664289439585513 0.26886008103247921 0 -0.029881977245259539 0.25372898958001938 0 -0.050450936449665702 0.26047062327699849 0 -0.029881977245259539 0.25372898958001938 0 -0.050132500168443887 0.2425632472220397 0 -0.029881977245259539 0.25372898958001938 0 -0.019473314891880141 0.26767922737850353 0 -0.0082457657602449386 0.25246627485226031 0 -0.032664289439585513 0.26886008103247921 0 -0.029881977245259539 0.25372898958001938 0 -0.019473314891880141 0.26767922737850353 0 -0.019473314891880141 0.26767922737850353 0 -0.0042610585373493576 0.2771562680236046 0 -0.025724023578003428 0.28484302527062832 0 -0.032664289439585513 0.26886008103247921 0 -0.019473314891880141 0.26767922737850353 0 -0.025724023578003428 0.28484302527062832 0 -0.019473314891880141 0.26767922737850353 0 -0.0042610585373493576 0.2771562680236046 0 -0.0082457657602449386 0.25246627485226031 0 -0.0042610585373493576 0.2771562680236046 0 -0.0082457657602449386 0.25246627485226031 0 0.0071094060709509964 0.26564087220093879 0 -0.0069555348311276686 0.31079851600377723 0 -0.00058836015198596755 0.32088344941533808 0 0.0054341821912287152 0.30403492879740468 0 -0.013098506886936411 0.29875518722530359 0 -0.0069555348311276686 0.31079851600377723 0 0.0054341821912287152 0.30403492879740468 0 -0.013098506886936411 0.29875518722530359 0 -0.0069555348311276686 0.31079851600377723 0 -0.020687787070248039 0.31403805852116051 0 -0.0042610585373493576 0.2771562680236046 0 -0.013098506886936411 0.29875518722530359 0 -0.025724023578003428 0.28484302527062832 0 -0.0042610585373493576 0.2771562680236046 0 -0.013098506886936411 0.29875518722530359 0 0.0054341821912287152 0.30403492879740468 0 -0.013098506886936411 0.29875518722530359 0 -0.025724023578003428 0.28484302527062832 0 -0.02904570801181227 0.30414560716861699 0 -0.013098506886936411 0.29875518722530359 0 -0.02904570801181227 0.30414560716861699 0 -0.020687787070248039 0.31403805852116051 0 -0.02904570801181227 0.30414560716861699 0 -0.034308890996313193 0.31619803717231232 0 -0.020687787070248039 0.31403805852116051 0 -0.02904570801181227 0.30414560716861699 0 -0.04581664775108537 0.30961879620062571 0 -0.039958169045478269 0.29575445567546388 0 -0.02904570801181227 0.30414560716861699 0 -0.04581664775108537 0.30961879620062571 0 -0.034308890996313193 0.31619803717231232 0 -0.025724023578003428 0.28484302527062832 0 -0.02904570801181227 0.30414560716861699 0 -0.039958169045478269 0.29575445567546388 0 -0.025724023578003428 0.28484302527062832 0 -0.039958169045478269 0.29575445567546388 0 -0.041567118232982071 0.28155035039042642 0 -0.039958169045478269 0.29575445567546388 0 -0.041567118232982071 0.28155035039042642 0 -0.055410192489386563 0.29691908750413831 0 -0.056753075498150757 0.28085207326825551 0 -0.041567118232982071 0.28155035039042642 0 -0.055410192489386563 0.29691908750413831 0 -0.064150197611200194 0.29028153745804169 0 -0.056753075498150757 0.28085207326825551 0 -0.055410192489386563 0.29691908750413831 0 -0.06406362287003417 0.30105685935529619 0 -0.064150197611200194 0.29028153745804169 0 -0.055410192489386563 0.29691908750413831 0 -0.064150197611200194 0.29028153745804169 0 -0.066272470786091969 0.27951596978905408 0 -0.056753075498150757 0.28085207326825551 0 -0.04581664775108537 0.30961879620062571 0 -0.055410192489386563 0.29691908750413831 0 -0.05903493703298672 0.30842013861035528 0 -0.04581664775108537 0.30961879620062571 0 -0.039958169045478269 0.29575445567546388 0 -0.055410192489386563 0.29691908750413831 0 -0.06406362287003417 0.30105685935529619 0 -0.055410192489386563 0.29691908750413831 0 -0.05903493703298672 0.30842013861035528 0 -0.04581664775108537 0.30961879620062571 0 -0.05999398685661865 0.32296608029812152 0 -0.042756171354298787 0.3224483405388896 0 -0.05999398685661865 0.32296608029812152 0 -0.04261807333459134 0.33512561188054663 0 -0.042756171354298787 0.3224483405388896 0 -0.04581664775108537 0.30961879620062571 0 -0.05903493703298672 0.30842013861035528 0 -0.05999398685661865 0.32296608029812152 0 -0.05999398685661865 0.32296608029812152 0 -0.056804034856699187 0.33429177223338907 0 -0.04261807333459134 0.33512561188054663 0 -0.056804034856699187 0.33429177223338907 0 -0.046192251460743447 0.34598703554363702 0 -0.071259793987160716 0.33632540193228971 0 -0.046192251460743447 0.34598703554363702 0 -0.071259793987160716 0.33632540193228971 0 -0.05999398685661865 0.32296608029812152 0 -0.04261807333459134 0.33512561188054663 0 -0.05999398685661865 0.32296608029812152 0 -0.056804034856699187 0.33429177223338907 0 -0.064831017760781137 0.32924814232959693 0 -0.056804034856699187 0.33429177223338907 0 -0.04261807333459134 0.33512561188054663 0 -0.046192251460743447 0.34598703554363702 0 -0.04261807333459134 0.33512561188054663 0 -0.034276320251641283 0.34282206612864702 0 -0.046192251460743447 0.34598703554363702 0 -0.04261807333459134 0.33512561188054663 0 -0.034276320251641283 0.34282206612864702 0 -0.031043257832885369 0.32833317714284199 0 -0.04261807333459134 0.33512561188054663 0 -0.042756171354298787 0.3224483405388896 0 -0.031043257832885369 0.32833317714284199 0 -0.04581664775108537 0.30961879620062571 0 -0.042756171354298787 0.3224483405388896 0 -0.034308890996313193 0.31619803717231232 0 -0.042756171354298787 0.3224483405388896 0 -0.034308890996313193 0.31619803717231232 0 -0.031043257832885369 0.32833317714284199 0 -0.020687787070248039 0.31403805852116051 0 -0.031043257832885369 0.32833317714284199 0 -0.01426308592107553 0.32709781564023149 0 -0.034308890996313193 0.31619803717231232 0 -0.020687787070248039 0.31403805852116051 0 -0.031043257832885369 0.32833317714284199 0 -0.025032962324117471 0.33875149869244531 0 -0.01426308592107553 0.32709781564023149 0 -0.014716180493599089 0.34442071988127893 0 -0.031043257832885369 0.32833317714284199 0 -0.025032962324117471 0.33875149869244531 0 -0.01426308592107553 0.32709781564023149 0 -0.034276320251641283 0.34282206612864702 0 -0.025032962324117471 0.33875149869244531 0 -0.023787543000920942 0.34541073846433867 0 -0.034276320251641283 0.34282206612864702 0 -0.031043257832885369 0.32833317714284199 0 -0.025032962324117471 0.33875149869244531 0 -0.025032962324117471 0.33875149869244531 0 -0.014716180493599089 0.34442071988127893 0 -0.023787543000920942 0.34541073846433867 0 -0.0025616559074486049 0.3329031852911295 0 -0.01426308592107553 0.32709781564023149 0 -0.014716180493599089 0.34442071988127893 0 -0.0025616559074486049 0.3329031852911295 0 -0.002583240235104544 0.34489224502179239 0 -0.014716180493599089 0.34442071988127893 0 -0.0069555348311276686 0.31079851600377723 0 -0.020687787070248039 0.31403805852116051 0 -0.01426308592107553 0.32709781564023149 0 -0.0025616559074486049 0.3329031852911295 0 -0.00058836015198596755 0.32088344941533808 0 -0.01426308592107553 0.32709781564023149 0 -0.0069555348311276686 0.31079851600377723 0 -0.00058836015198596755 0.32088344941533808 0 -0.01426308592107553 0.32709781564023149 0 -0.012102714267097759 0.36590539057294968 0 -0.001064505034491721 0.37161458349227261 0 0.0039428335920915006 0.36531030276633031 0 -0.021124708934325921 0.35564866915498361 0 0.0039428335920915006 0.36531030276633031 0 -0.001064505034491721 0.37161458349227261 0 -0.017677659244944521 0.37122807787390621 0 -0.017803283764421592 0.37921609746689411 0 -0.012102714267097759 0.36590539057294968 0 -0.001064505034491721 0.37161458349227261 0 -0.017677659244944521 0.37122807787390621 0 -0.012102714267097759 0.36590539057294968 0 -0.021124708934325921 0.35564866915498361 0 0.0039428335920915006 0.36531030276633031 0 -0.0064988099748367559 0.35299106404641623 0 -0.021124708934325921 0.35564866915498361 0 0.0039428335920915006 0.36531030276633031 0 -0.0064988099748367559 0.35299106404641623 0 -0.002583240235104544 0.34489224502179239 0 0.0032447233134405931 0.35422125060834359 0 -0.0064988099748367559 0.35299106404641623 0 -0.002583240235104544 0.34489224502179239 0 -0.014716180493599089 0.34442071988127893 0 -0.0064988099748367559 0.35299106404641623 0 -0.014716180493599089 0.34442071988127893 0 -0.021124708934325921 0.35564866915498361 0 -0.021124708934325921 0.35564866915498361 0 -0.03312405361854439 0.36059385714354403 0 -0.039104805720823227 0.35618275869992938 0 -0.014716180493599089 0.34442071988127893 0 -0.021124708934325921 0.35564866915498361 0 -0.023787543000920942 0.34541073846433867 0 -0.034276320251641283 0.34282206612864702 0 -0.021124708934325921 0.35564866915498361 0 -0.023787543000920942 0.34541073846433867 0 -0.021124708934325921 0.35564866915498361 0 -0.0246585823330631 0.36616539344166837 0 -0.03312405361854439 0.36059385714354403 0 -0.0246585823330631 0.36616539344166837 0 -0.033447590357386023 0.36570071259042941 0 -0.03312405361854439 0.36059385714354403 0 -0.012102714267097759 0.36590539057294968 0 -0.021124708934325921 0.35564866915498361 0 -0.0246585823330631 0.36616539344166837 0 -0.017677659244944521 0.37122807787390621 0 -0.032897312064139907 0.37411907212457252 0 -0.017803283764421592 0.37921609746689411 0 -0.012102714267097759 0.36590539057294968 0 -0.0246585823330631 0.36616539344166837 0 -0.017677659244944521 0.37122807787390621 0 -0.0246585823330631 0.36616539344166837 0 -0.017677659244944521 0.37122807787390621 0 -0.032897312064139907 0.37411907212457252 0 -0.0246585823330631 0.36616539344166837 0 -0.032897312064139907 0.37411907212457252 0 -0.0246585823330631 0.36616539344166837 0 -0.032897312064139907 0.37411907212457252 0 -0.033447590357386023 0.36570071259042941 0 -0.032897312064139907 0.37411907212457252 0 -0.059723517795068168 0.36506026769318489 0 -0.032897312064139907 0.37411907212457252 0 -0.033447590357386023 0.36570071259042941 0 -0.04311041341379776 0.36192452765193173 0 -0.032897312064139907 0.37411907212457252 0 -0.046925961112427347 0.36446589286881009 0 -0.059723517795068168 0.36506026769318489 0 -0.032897312064139907 0.37411907212457252 0 -0.049098878804771373 0.3725140996878949 0 -0.043775979817191349 0.37615739516056462 0 -0.03312405361854439 0.36059385714354403 0 -0.04311041341379776 0.36192452765193173 0 -0.039104805720823227 0.35618275869992938 0 -0.033447590357386023 0.36570071259042941 0 -0.03312405361854439 0.36059385714354403 0 -0.04311041341379776 0.36192452765193173 0 -0.032897312064139907 0.37411907212457252 0 -0.04311041341379776 0.36192452765193173 0 -0.046925961112427347 0.36446589286881009 0 -0.034276320251641283 0.34282206612864702 0 -0.021124708934325921 0.35564866915498361 0 -0.046192251460743447 0.34598703554363702 0 -0.021124708934325921 0.35564866915498361 0 -0.039104805720823227 0.35618275869992938 0 -0.046192251460743447 0.34598703554363702 0 -0.021124708934325921 0.35564866915498361 0 -0.046192251460743447 0.34598703554363702 0 -0.039104805720823227 0.35618275869992938 0 -0.046192251460743447 0.34598703554363702 0 -0.051972601176704672 0.35675970400555063 0 -0.04311041341379776 0.36192452765193173 0 -0.039104805720823227 0.35618275869992938 0 -0.051972601176704672 0.35675970400555063 0 -0.046192251460743447 0.34598703554363702 0 -0.066911938965716039 0.35448421406914471 0 -0.071259793987160716 0.33632540193228971 0 -0.046192251460743447 0.34598703554363702 0 -0.051972601176704672 0.35675970400555063 0 -0.066911938965716039 0.35448421406914471 0 -0.051972601176704672 0.35675970400555063 0 -0.059723517795068168 0.36506026769318489 0 -0.066911938965716039 0.35448421406914471 0 -0.032897312064139907 0.37411907212457252 0 -0.049098878804771373 0.3725140996878949 0 -0.059723517795068168 0.36506026769318489 0 -0.049098878804771373 0.3725140996878949 0 -0.056089193364373929 0.37273715424054699 0 -0.050724207312953518 0.37700173675436199 0 -0.051972601176704672 0.35675970400555063 0 -0.046925961112427347 0.36446589286881009 0 -0.059723517795068168 0.36506026769318489 0 -0.04311041341379776 0.36192452765193173 0 -0.051972601176704672 0.35675970400555063 0 -0.046925961112427347 0.36446589286881009 0 -0.049098878804771373 0.3725140996878949 0 -0.059723517795068168 0.36506026769318489 0 -0.056089193364373929 0.37273715424054699 0 -0.059723517795068168 0.36506026769318489 0 -0.056089193364373929 0.37273715424054699 0 -0.062564083944274151 0.37264302620600032 0 -0.062075486208271788 0.37468365416042188 0 -0.062564083944274151 0.37264302620600032 0 -0.062075486208271788 0.37468365416042188 0 -0.062564083944274151 0.37264302620600032 0 -0.064607287490063475 0.3752877934920828 0 -0.069626031180744216 0.37451783031500979 0 -0.079039419043354958 0.3748493973737258 0 -0.082597891671162132 0.35089307241393791 0 -0.062564083944274151 0.37264302620600032 0 -0.066911938965716039 0.35448421406914471 0 -0.062564083944274151 0.37264302620600032 0 -0.069626031180744216 0.37451783031500979 0 -0.064607287490063475 0.3752877934920828 0 -0.062564083944274151 0.37264302620600032 0 -0.069626031180744216 0.37451783031500979 0 -0.082597891671162132 0.35089307241393791 0 -0.062564083944274151 0.37264302620600032 0 -0.082597891671162132 0.35089307241393791 0 -0.059723517795068168 0.36506026769318489 0 -0.062564083944274151 0.37264302620600032 0 -0.066911938965716039 0.35448421406914471 0 -0.090941745129797052 0.36956363188929697 0 -0.082597891671162132 0.35089307241393791 0 -0.097939085056313616 0.35825468271447503 0 -0.079039419043354958 0.3748493973737258 0 -0.090941745129797052 0.36956363188929697 0 -0.082597891671162132 0.35089307241393791 0 -0.082597891671162132 0.35089307241393791 0 -0.097939085056313616 0.35825468271447503 0 -0.099795521962392192 0.34663223796478099 0 -0.066911938965716039 0.35448421406914471 0 -0.071259793987160716 0.33632540193228971 0 -0.082597891671162132 0.35089307241393791 0 -0.066911938965716039 0.35448421406914471 0 -0.079003984513522238 0.34200566120660753 0 -0.066911938965716039 0.35448421406914471 0 -0.071259793987160716 0.33632540193228971 0 -0.079003984513522238 0.34200566120660753 0 -0.062564083944274151 0.37264302620600032 0 -0.082597891671162132 0.35089307241393791 0 -0.066911938965716039 0.35448421406914471 0 -0.056804034856699187 0.33429177223338907 0 -0.064831017760781137 0.32924814232959693 0 -0.071259793987160716 0.33632540193228971 0 -0.071259793987160716 0.33632540193228971 0 -0.079659291821908368 0.33308803351003258 0 -0.071259793987160716 0.33632540193228971 0 -0.079003984513522238 0.34200566120660753 0 -0.079659291821908368 0.33308803351003258 0 -0.0773699003786468 0.31080654871569757 0 -0.07000108740115632 0.31024084673351238 0 -0.05999398685661865 0.32296608029812152 0 -0.0773699003786468 0.31080654871569757 0 -0.071259793987160716 0.33632540193228971 0 -0.0773699003786468 0.31080654871569757 0 -0.071259793987160716 0.33632540193228971 0 -0.079659291821908368 0.33308803351003258 0 -0.0773699003786468 0.31080654871569757 0 -0.05999398685661865 0.32296608029812152 0 -0.0773699003786468 0.31080654871569757 0 -0.064831017760781137 0.32924814232959693 0 -0.071259793987160716 0.33632540193228971 0 -0.0773699003786468 0.31080654871569757 0 -0.05999398685661865 0.32296608029812152 0 -0.064831017760781137 0.32924814232959693 0 -0.07000108740115632 0.31024084673351238 0 -0.05903493703298672 0.30842013861035528 0 -0.05999398685661865 0.32296608029812152 0 -0.091673901452025128 0.31746800270450398 0 -0.079659291821908368 0.33308803351003258 0 -0.1026316993980491 0.32914311862187462 0 -0.0773699003786468 0.31080654871569757 0 -0.091673901452025128 0.31746800270450398 0 -0.079659291821908368 0.33308803351003258 0 -0.082597891671162132 0.35089307241393791 0 -0.1026316993980491 0.32914311862187462 0 -0.082597891671162132 0.35089307241393791 0 -0.079003984513522238 0.34200566120660753 0 -0.1026316993980491 0.32914311862187462 0 -0.079003984513522238 0.34200566120660753 0 -0.079659291821908368 0.33308803351003258 0 -0.1026316993980491 0.32914311862187462 0 -0.082597891671162132 0.35089307241393791 0 -0.1026316993980491 0.32914311862187462 0 -0.099795521962392192 0.34663223796478099 0 -0.1026316993980491 0.32914311862187462 0 -0.11309959964963499 0.35023802862820708 0 -0.099795521962392192 0.34663223796478099 0 -0.1041414057358224 0.31201579539373148 0 -0.091673901452025128 0.31746800270450398 0 -0.1026316993980491 0.32914311862187462 0 -0.122665507124936 0.30739316482981133 0 -0.1041414057358224 0.31201579539373148 0 -0.1026316993980491 0.32914311862187462 0 -0.122665507124936 0.30739316482981133 0 -0.1026316993980491 0.32914311862187462 0 -0.1213981112161233 0.32606083512094008 0 -0.122665507124936 0.30739316482981133 0 -0.1026316993980491 0.32914311862187462 0 -0.1026316993980491 0.32914311862187462 0 -0.1215793900664241 0.33965542352680428 0 -0.11309959964963499 0.35023802862820708 0 -0.1026316993980491 0.32914311862187462 0 -0.1213981112161233 0.32606083512094008 0 -0.1215793900664241 0.33965542352680428 0 -0.1215793900664241 0.33965542352680428 0 -0.11309959964963499 0.35023802862820708 0 -0.1223522029902982 0.35608225162756879 0 -0.11309959964963499 0.35023802862820708 0 -0.1223522029902982 0.35608225162756879 0 -0.1091573093543224 0.361674516205302 0 -0.12881796099468981 0.36725667352730101 0 -0.1223522029902982 0.35608225162756879 0 -0.11881971476920231 0.36528086459794751 0 -0.12881796099468981 0.36725667352730101 0 -0.11881971476920231 0.36528086459794751 0 -0.114951385737499 0.37611001703161828 0 -0.11881971476920231 0.36528086459794751 0 -0.1091573093543224 0.361674516205302 0 -0.114951385737499 0.37611001703161828 0 -0.1223522029902982 0.35608225162756879 0 -0.11881971476920231 0.36528086459794751 0 -0.1091573093543224 0.361674516205302 0 -0.1091573093543224 0.361674516205302 0 -0.1012990589455684 0.36953412384373102 0 -0.097939085056313616 0.35825468271447503 0 -0.1091573093543224 0.361674516205302 0 -0.1012990589455684 0.36953412384373102 0 -0.114951385737499 0.37611001703161828 0 -0.090941745129797052 0.36956363188929697 0 -0.1012990589455684 0.36953412384373102 0 -0.098890550417286477 0.38099249480062602 0 -0.090941745129797052 0.36956363188929697 0 -0.1012990589455684 0.36953412384373102 0 -0.097939085056313616 0.35825468271447503 0 -0.11309959964963499 0.35023802862820708 0 -0.097939085056313616 0.35825468271447503 0 -0.099795521962392192 0.34663223796478099 0 -0.11309959964963499 0.35023802862820708 0 -0.1091573093543224 0.361674516205302 0 -0.097939085056313616 0.35825468271447503 0 -0.094424665366596924 0.39634464281418252 0 -0.11202845405726 0.40531330452479791 0 -0.098926296137628822 0.41605616341005208 0 -0.1085605322944487 0.39079571404043828 0 -0.094424665366596924 0.39634464281418252 0 -0.11202845405726 0.40531330452479791 0 -0.1085605322944487 0.39079571404043828 0 -0.098890550417286477 0.38099249480062602 0 -0.114951385737499 0.37611001703161828 0 -0.1085605322944487 0.39079571404043828 0 -0.094424665366596924 0.39634464281418252 0 -0.098890550417286477 0.38099249480062602 0 -0.1012990589455684 0.36953412384373102 0 -0.098890550417286477 0.38099249480062602 0 -0.114951385737499 0.37611001703161828 0 -0.1085605322944487 0.39079571404043828 0 -0.114951385737499 0.37611001703161828 0 -0.1224972888069677 0.39405447109156733 0 -0.13238272395945991 0.37847398983736519 0 -0.114951385737499 0.37611001703161828 0 -0.1224972888069677 0.39405447109156733 0 -0.1277268958593005 0.40709158096490278 0 -0.1224972888069677 0.39405447109156733 0 -0.11202845405726 0.40531330452479791 0 -0.1085605322944487 0.39079571404043828 0 -0.1224972888069677 0.39405447109156733 0 -0.11202845405726 0.40531330452479791 0 -0.11202845405726 0.40531330452479791 0 -0.12025274126089 0.42574105579372712 0 -0.098926296137628822 0.41605616341005208 0 -0.12025274126089 0.42574105579372712 0 -0.098926296137628822 0.41605616341005208 0 -0.1277268958593005 0.40709158096490278 0 -0.11202845405726 0.40531330452479791 0 -0.12025274126089 0.42574105579372712 0 -0.12025274126089 0.42574105579372712 0 -0.1161249595423428 0.42742254588607831 0 -0.098926296137628822 0.41605616341005208 0 -0.12509104342100061 0.44188941827772182 0 -0.1161249595423428 0.42742254588607831 0 -0.098677616465060528 0.43762344985591101 0 -0.1161249595423428 0.42742254588607831 0 -0.090695480784097504 0.41727281212483158 0 -0.1161249595423428 0.42742254588607831 0 -0.090695480784097504 0.41727281212483158 0 -0.098677616465060528 0.43762344985591101 0 -0.1161249595423428 0.42742254588607831 0 -0.098926296137628822 0.41605616341005208 0 -0.090695480784097504 0.41727281212483158 0 -0.098926296137628822 0.41605616341005208 0 -0.077599851014367602 0.40637127102637732 0 -0.094424665366596924 0.39634464281418252 0 -0.098926296137628822 0.41605616341005208 0 -0.077599851014367602 0.40637127102637732 0 -0.098926296137628822 0.41605616341005208 0 -0.090695480784097504 0.41727281212483158 0 -0.077599851014367602 0.40637127102637732 0 -0.090695480784097504 0.41727281212483158 0 -0.077599851014367602 0.40637127102637732 0 -0.077475511178084946 0.4171549142493044 0 -0.077475511178084946 0.4171549142493044 0 -0.098677616465060528 0.43762344985591101 0 -0.090695480784097504 0.41727281212483158 0 -0.077475511178084946 0.4171549142493044 0 -0.098677616465060528 0.43762344985591101 0 -0.077475511178084946 0.4171549142493044 0 -0.078698858269308614 0.44343419105434712 0 -0.098677616465060528 0.43762344985591101 0 -0.077475511178084946 0.4171549142493044 0 -0.059178928229814701 0.4365201208845606 0 -0.055106871557328428 0.42305161159228227 0 -0.077475511178084946 0.4171549142493044 0 -0.059178928229814701 0.4365201208845606 0 -0.078698858269308614 0.44343419105434712 0 -0.077475511178084946 0.4171549142493044 0 -0.056273405891107527 0.39668637864269979 0 -0.077599851014367602 0.40637127102637732 0 -0.077475511178084946 0.4171549142493044 0 -0.056273405891107527 0.39668637864269979 0 -0.077599851014367602 0.40637127102637732 0 -0.056273405891107527 0.39668637864269979 0 -0.077599851014367602 0.40637127102637732 0 -0.078331801269405671 0.3911923311589619 0 -0.056273405891107527 0.39668637864269979 0 -0.094424665366596924 0.39634464281418252 0 -0.077599851014367602 0.40637127102637732 0 -0.078331801269405671 0.3911923311589619 0 -0.094424665366596924 0.39634464281418252 0 -0.078331801269405671 0.3911923311589619 0 -0.087166581823546807 0.38268142547449258 0 -0.079039419043354958 0.3748493973737258 0 -0.078331801269405671 0.3911923311589619 0 -0.087166581823546807 0.38268142547449258 0 -0.090941745129797052 0.36956363188929697 0 -0.098890550417286477 0.38099249480062602 0 -0.087166581823546807 0.38268142547449258 0 -0.094424665366596924 0.39634464281418252 0 -0.098890550417286477 0.38099249480062602 0 -0.087166581823546807 0.38268142547449258 0 -0.079039419043354958 0.3748493973737258 0 -0.090941745129797052 0.36956363188929697 0 -0.087166581823546807 0.38268142547449258 0 -0.078331801269405671 0.3911923311589619 0 -0.070241768304658683 0.38125320512289401 0 -0.062400115896225239 0.38328565763688038 0 -0.078331801269405671 0.3911923311589619 0 -0.047880784994249512 0.38858413326022379 0 -0.069626031180744216 0.37451783031500979 0 -0.079039419043354958 0.3748493973737258 0 -0.070241768304658683 0.38125320512289401 0 -0.078331801269405671 0.3911923311589619 0 -0.062400115896225239 0.38328565763688038 0 -0.047880784994249512 0.38858413326022379 0 -0.079039419043354958 0.3748493973737258 0 -0.078331801269405671 0.3911923311589619 0 -0.070241768304658683 0.38125320512289401 0 -0.070241768304658683 0.38125320512289401 0 -0.064210651178174066 0.37904237845721811 0 -0.062400115896225239 0.38328565763688038 0 -0.069626031180744216 0.37451783031500979 0 -0.070241768304658683 0.38125320512289401 0 -0.064210651178174066 0.37904237845721811 0 -0.069626031180744216 0.37451783031500979 0 -0.064210651178174066 0.37904237845721811 0 -0.064607287490063475 0.3752877934920828 0 -0.062075486208271788 0.37468365416042188 0 -0.064210651178174066 0.37904237845721811 0 -0.064607287490063475 0.3752877934920828 0 -0.062075486208271788 0.37468365416042188 0 -0.064210651178174066 0.37904237845721811 0 -0.059083848751135488 0.37840884602566088 0 -0.059083848751135488 0.37840884602566088 0 -0.062400115896225239 0.38328565763688038 0 -0.054293362626053041 0.38162223819359442 0 -0.062075486208271788 0.37468365416042188 0 -0.062564083944274151 0.37264302620600032 0 -0.059083848751135488 0.37840884602566088 0 -0.062564083944274151 0.37264302620600032 0 -0.054293362626053041 0.38162223819359442 0 -0.062564083944274151 0.37264302620600032 0 -0.059083848751135488 0.37840884602566088 0 -0.054293362626053041 0.38162223819359442 0 -0.056089193364373929 0.37273715424054699 0 -0.062564083944274151 0.37264302620600032 0 -0.054293362626053041 0.38162223819359442 0 -0.059083848751135488 0.37840884602566088 0 -0.054293362626053041 0.38162223819359442 0 -0.064210651178174066 0.37904237845721811 0 -0.059083848751135488 0.37840884602566088 0 -0.062400115896225239 0.38328565763688038 0 -0.062400115896225239 0.38328565763688038 0 -0.047880784994249512 0.38858413326022379 0 -0.054293362626053041 0.38162223819359442 0 -0.047880784994249512 0.38858413326022379 0 -0.054293362626053041 0.38162223819359442 0 -0.047880784994249512 0.38858413326022379 0 -0.054293362626053041 0.38162223819359442 0 -0.046254793771615982 0.3870143995575549 0 -0.047836657145122599 0.38128015361824008 0 -0.054293362626053041 0.38162223819359442 0 -0.046254793771615982 0.3870143995575549 0 -0.054293362626053041 0.38162223819359442 0 -0.046254793771615982 0.3870143995575549 0 -0.047880784994249512 0.38858413326022379 0 -0.046254793771615982 0.3870143995575549 0 -0.056089193364373929 0.37273715424054699 0 -0.050724207312953518 0.37700173675436199 0 -0.054293362626053041 0.38162223819359442 0 -0.049098878804771373 0.3725140996878949 0 -0.050724207312953518 0.37700173675436199 0 -0.043775979817191349 0.37615739516056462 0 -0.047836657145122599 0.38128015361824008 0 -0.050724207312953518 0.37700173675436199 0 -0.043775979817191349 0.37615739516056462 0 -0.047836657145122599 0.38128015361824008 0 -0.050724207312953518 0.37700173675436199 0 -0.054293362626053041 0.38162223819359442 0 -0.078331801269405671 0.3911923311589619 0 -0.047880784994249512 0.38858413326022379 0 -0.056273405891107527 0.39668637864269979 0 -0.047880784994249512 0.38858413326022379 0 -0.056273405891107527 0.39668637864269979 0 -0.045094078598563243 0.39160955589403151 0 -0.056273405891107527 0.39668637864269979 0 -0.048342871606355781 0.40097934792702961 0 -0.045094078598563243 0.39160955589403151 0 -0.047880784994249512 0.38858413326022379 0 -0.056273405891107527 0.39668637864269979 0 -0.056273405891107527 0.39668637864269979 0 -0.045094078598563243 0.39160955589403151 0 -0.056273405891107527 0.39668637864269979 0 -0.048342871606355781 0.40097934792702961 0 -0.051161828253680347 0.40954535298997258 0 -0.04342775431262437 0.39341862168501102 0 -0.028839939204686131 0.40925606551247828 0 -0.042973684961738069 0.41592643291826231 0 -0.048342871606355781 0.40097934792702961 0 -0.04342775431262437 0.39341862168501102 0 -0.042973684961738069 0.41592643291826231 0 -0.041701311968281377 0.39006881248802111 0 -0.02243782954129785 0.40299049140363558 0 -0.041701311968281377 0.39006881248802111 0 -0.03457878247319518 0.38683428693719679 0 -0.02243782954129785 0.40299049140363558 0 -0.04342775431262437 0.39341862168501102 0 -0.041701311968281377 0.39006881248802111 0 -0.02243782954129785 0.40299049140363558 0 -0.04342775431262437 0.39341862168501102 0 -0.028839939204686131 0.40925606551247828 0 -0.04342775431262437 0.39341862168501102 0 -0.042973684961738069 0.41592643291826231 0 -0.04342775431262437 0.39341862168501102 0 -0.02243782954129785 0.40299049140363558 0 -0.028839939204686131 0.40925606551247828 0 -0.048342871606355781 0.40097934792702961 0 -0.04342775431262437 0.39341862168501102 0 -0.045094078598563243 0.39160955589403151 0 -0.04342775431262437 0.39341862168501102 0 -0.045094078598563243 0.39160955589403151 0 -0.043479046219812342 0.39087612776318198 0 -0.04342775431262437 0.39341862168501102 0 -0.043479046219812342 0.39087612776318198 0 -0.045094078598563243 0.39160955589403151 0 -0.043479046219812342 0.39087612776318198 0 -0.045094078598563243 0.39160955589403151 0 -0.043479046219812342 0.39087612776318198 0 -0.045172553619539632 0.38973569244798251 0 -0.04342775431262437 0.39341862168501102 0 -0.045094078598563243 0.39160955589403151 0 -0.04342775431262437 0.39341862168501102 0 -0.043479046219812342 0.39087612776318198 0 -0.041701311968281377 0.39006881248802111 0 -0.047836657145122599 0.38128015361824008 0 -0.043775979817191349 0.37615739516056462 0 -0.043608491196287617 0.38445965616034072 0 -0.043775979817191349 0.37615739516056462 0 -0.043608491196287617 0.38445965616034072 0 -0.032897312064139907 0.37411907212457252 0 -0.043775979817191349 0.37615739516056462 0 -0.043608491196287617 0.38445965616034072 0 -0.047836657145122599 0.38128015361824008 0 -0.043608491196287617 0.38445965616034072 0 -0.046254793771615982 0.3870143995575549 0 -0.043542573639619581 0.38772713043400647 0 -0.041701311968281377 0.39006881248802111 0 -0.03457878247319518 0.38683428693719679 0 -0.043608491196287617 0.38445965616034072 0 -0.043542573639619581 0.38772713043400647 0 -0.03457878247319518 0.38683428693719679 0 -0.043608491196287617 0.38445965616034072 0 -0.046254793771615982 0.3870143995575549 0 -0.043608491196287617 0.38445965616034072 0 -0.046254793771615982 0.3870143995575549 0 -0.043542573639619581 0.38772713043400647 0 -0.043608491196287617 0.38445965616034072 0 -0.043542573639619581 0.38772713043400647 0 -0.047880784994249512 0.38858413326022379 0 -0.045094078598563243 0.39160955589403151 0 -0.047880784994249512 0.38858413326022379 0 -0.045094078598563243 0.39160955589403151 0 -0.045172553619539632 0.38973569244798251 0 -0.047880784994249512 0.38858413326022379 0 -0.045172553619539632 0.38973569244798251 0 -0.046254793771615982 0.3870143995575549 0 -0.045172553619539632 0.38973569244798251 0 -0.046254793771615982 0.3870143995575549 0 -0.043542573639619581 0.38772713043400647 0 -0.046254793771615982 0.3870143995575549 0 -0.043542573639619581 0.38772713043400647 0 -0.043479046219812342 0.39087612776318198 0 -0.045172553619539632 0.38973569244798251 0 -0.043542573639619581 0.38772713043400647 0 -0.043479046219812342 0.39087612776318198 0 -0.043542573639619581 0.38772713043400647 0 -0.043542573639619581 0.38772713043400647 0 -0.041701311968281377 0.39006881248802111 0 -0.043479046219812342 0.39087612776318198 0 -0.043542573639619581 0.38772713043400647 0 -0.041701311968281377 0.39006881248802111 0 -0.043479046219812342 0.39087612776318198 0 -0.041701311968281377 0.39006881248802111 0 -0.043542573639619581 0.38772713043400647 0 -0.03457878247319518 0.38683428693719679 0 -0.041701311968281377 0.39006881248802111 0 -0.03457878247319518 0.38683428693719679 0 -0.032897312064139907 0.37411907212457252 0 -0.043608491196287617 0.38445965616034072 0 -0.032897312064139907 0.37411907212457252 0 -0.043608491196287617 0.38445965616034072 0 -0.03457878247319518 0.38683428693719679 0 -0.03457878247319518 0.38683428693719679 0 -0.017803283764421592 0.37921609746689411 0 -0.03457878247319518 0.38683428693719679 0 -0.017803283764421592 0.37921609746689411 0 -0.019390911734903489 0.38532149046890818 0 -0.032897312064139907 0.37411907212457252 0 -0.017803283764421592 0.37921609746689411 0 -0.032897312064139907 0.37411907212457252 0 -0.03457878247319518 0.38683428693719679 0 -0.017803283764421592 0.37921609746689411 0 -0.03457878247319518 0.38683428693719679 0 -0.019390911734903489 0.38532149046890818 0 -0.019390911734903489 0.38532149046890818 0 -0.02243782954129785 0.40299049140363558 0 -0.0064316016559190746 0.3999483233353413 0 -0.03457878247319518 0.38683428693719679 0 -0.019390911734903489 0.38532149046890818 0 -0.02243782954129785 0.40299049140363558 0 -0.0064316016559190746 0.3999483233353413 0 -0.0042030409966118051 0.38380869400061962 0 0.010437450069317761 0.40463061763750507 0 -0.001064505034491721 0.37161458349227261 0 -0.017803283764421592 0.37921609746689411 0 -0.001064505034491721 0.37161458349227261 0 -0.017803283764421592 0.37921609746689411 0 -0.0042030409966118051 0.38380869400061962 0 -0.019390911734903489 0.38532149046890818 0 -0.0064316016559190746 0.3999483233353413 0 -0.0042030409966118051 0.38380869400061962 0 -0.017803283764421592 0.37921609746689411 0 -0.0042030409966118051 0.38380869400061962 0 -0.017803283764421592 0.37921609746689411 0 -0.019390911734903489 0.38532149046890818 0 -0.0042030409966118051 0.38380869400061962 0 -0.019390911734903489 0.38532149046890818 0 -0.0042030409966118051 0.38380869400061962 0 -0.014252124096747171 0.42509350933994478 0 0.0048617880261327502 0.44584476697033082 0 -0.014252124096747171 0.42509350933994478 0 -0.010454900682288101 0.44126855924159908 0 0.0048617880261327502 0.44584476697033082 0 -0.014252124096747171 0.42509350933994478 0 -0.0026301228576318379 0.42717885202372191 0 0.0048617880261327502 0.44584476697033082 0 -0.014252124096747171 0.42509350933994478 0 -0.0026301228576318379 0.42717885202372191 0 -0.003174347114314008 0.41591217031924949 0 -0.02243782954129785 0.40299049140363558 0 -0.0064316016559190746 0.3999483233353413 0 -0.003174347114314008 0.41591217031924949 0 -0.02243782954129785 0.40299049140363558 0 -0.003174347114314008 0.41591217031924949 0 -0.02243782954129785 0.40299049140363558 0 -0.014252124096747171 0.42509350933994478 0 -0.003174347114314008 0.41591217031924949 0 -0.014252124096747171 0.42509350933994478 0 -0.003174347114314008 0.41591217031924949 0 -0.014252124096747171 0.42509350933994478 0 -0.028839939204686131 0.40925606551247828 0 -0.02243782954129785 0.40299049140363558 0 -0.014252124096747171 0.42509350933994478 0 -0.028839939204686131 0.40925606551247828 0 -0.014252124096747171 0.42509350933994478 0 -0.028839939204686131 0.40925606551247828 0 -0.022470349574322469 0.43190483207895858 0 -0.014252124096747171 0.42509350933994478 0 -0.022470349574322469 0.43190483207895858 0 -0.010454900682288101 0.44126855924159908 0 -0.014252124096747171 0.42509350933994478 0 -0.022470349574322469 0.43190483207895858 0 -0.022470349574322469 0.43190483207895858 0 -0.010454900682288101 0.44126855924159908 0 -0.022470349574322469 0.43190483207895858 0 -0.042646571141636773 0.43214117214318359 0 -0.04231945732153318 0.44835591136810488 0 -0.022470349574322469 0.43190483207895858 0 -0.042646571141636773 0.43214117214318359 0 -0.042973684961738069 0.41592643291826231 0 -0.042646571141636773 0.43214117214318359 0 -0.042973684961738069 0.41592643291826231 0 -0.022470349574322469 0.43190483207895858 0 -0.042973684961738069 0.41592643291826231 0 -0.028839939204686131 0.40925606551247828 0 -0.022470349574322469 0.43190483207895858 0 -0.042973684961738069 0.41592643291826231 0 -0.077475511178084946 0.4171549142493044 0 -0.051161828253680347 0.40954535298997258 0 -0.055106871557328428 0.42305161159228227 0 -0.077475511178084946 0.4171549142493044 0 -0.056273405891107527 0.39668637864269979 0 -0.051161828253680347 0.40954535298997258 0 -0.048342871606355781 0.40097934792702961 0 -0.042973684961738069 0.41592643291826231 0 -0.051161828253680347 0.40954535298997258 0 -0.042973684961738069 0.41592643291826231 0 -0.051161828253680347 0.40954535298997258 0 -0.042973684961738069 0.41592643291826231 0 -0.051161828253680347 0.40954535298997258 0 -0.055106871557328428 0.42305161159228227 0 -0.042646571141636773 0.43214117214318359 0 -0.059178928229814701 0.4365201208845606 0 -0.055106871557328428 0.42305161159228227 0 -0.042646571141636773 0.43214117214318359 0 -0.042973684961738069 0.41592643291826231 0 -0.055106871557328428 0.42305161159228227 0 -0.042646571141636773 0.43214117214318359 0 -0.059178928229814701 0.4365201208845606 0 -0.049245987713513212 0.44319563894678482 0 -0.059178928229814701 0.4365201208845606 0 -0.050742244958162368 0.46439359559444437 0 -0.049245987713513212 0.44319563894678482 0 -0.050742244958162368 0.46439359559444437 0 -0.044608833217136261 0.45025336211807931 0 -0.059178928229814701 0.4365201208845606 0 -0.050742244958162368 0.46439359559444437 0 -0.065484051744298263 0.4513847118260722 0 -0.059178928229814701 0.4365201208845606 0 -0.049245987713513212 0.44319563894678482 0 -0.050742244958162368 0.46439359559444437 0 -0.050742244958162368 0.46439359559444437 0 -0.061707257777874093 0.47273252787991399 0 -0.073231504917427276 0.46237159316971249 0 -0.050742244958162368 0.46439359559444437 0 -0.073231504917427276 0.46237159316971249 0 -0.0419800222431604 0.46518140433549732 0 -0.04231945732153318 0.44835591136810488 0 -0.025697431038521311 0.45487791879973932 0 -0.0419800222431604 0.46518140433549732 0 -0.04231945732153318 0.44835591136810488 0 -0.0419800222431604 0.46518140433549732 0 -0.044608833217136261 0.45025336211807931 0 -0.04231945732153318 0.44835591136810488 0 -0.050742244958162368 0.46439359559444437 0 -0.0419800222431604 0.46518140433549732 0 -0.050742244958162368 0.46439359559444437 0 -0.0419800222431604 0.46518140433549732 0 -0.044608833217136261 0.45025336211807931 0 -0.022470349574322469 0.43190483207895858 0 -0.04231945732153318 0.44835591136810488 0 -0.042646571141636773 0.43214117214318359 0 -0.049245987713513212 0.44319563894678482 0 -0.04231945732153318 0.44835591136810488 0 -0.042646571141636773 0.43214117214318359 0 -0.04231945732153318 0.44835591136810488 0 -0.049245987713513212 0.44319563894678482 0 -0.044608833217136261 0.45025336211807931 0 -0.04231945732153318 0.44835591136810488 0 -0.044608833217136261 0.45025336211807931 0 -0.04231945732153318 0.44835591136810488 0 -0.022470349574322469 0.43190483207895858 0 -0.04231945732153318 0.44835591136810488 0 -0.022362297003099281 0.44511471557515531 0 -0.04231945732153318 0.44835591136810488 0 -0.022362297003099281 0.44511471557515531 0 -0.025697431038521311 0.45487791879973932 0 -0.022470349574322469 0.43190483207895858 0 -0.022362297003099281 0.44511471557515531 0 -0.010454900682288101 0.44126855924159908 0 -0.022362297003099281 0.44511471557515531 0 -0.025697431038521311 0.45487791879973932 0 -0.01311544116488466 0.453963754661173 0 -0.0419800222431604 0.46518140433549732 0 -0.025697431038521311 0.45487791879973932 0 -0.01345201465746383 0.46774634869629322 0 -0.0419800222431604 0.46518140433549732 0 -0.01345201465746383 0.46774634869629322 0 -0.025697431038521311 0.45487791879973932 0 -0.01311544116488466 0.453963754661173 0 -0.01345201465746383 0.46774634869629322 0 -0.0094095992007081283 0.46654139838691122 0 -0.010427957625441169 0.46801824073108461 0 0.0053167838454733218 0.46943384557929257 0 -0.0094095992007081283 0.46654139838691122 0 0.0015605482097463411 0.45063228640423969 0 -0.010427957625441169 0.46801824073108461 0 0.0053167838454733218 0.46943384557929257 0 -0.0094095992007081283 0.46654139838691122 0 0.0080738590363113663 0.46132998490476868 0 -0.01311544116488466 0.453963754661173 0 -0.0094095992007081283 0.46654139838691122 0 0.0015605482097463411 0.45063228640423969 0 -0.01311544116488466 0.453963754661173 0 -0.01345201465746383 0.46774634869629322 0 -0.0094095992007081283 0.46654139838691122 0 -0.01345201465746383 0.46774634869629322 0 -0.010427957625441169 0.46801824073108461 0 -0.01345201465746383 0.46774634869629322 0 -0.0094095992007081283 0.46654139838691122 0 -0.01345201465746383 0.46774634869629322 0 -0.0094095992007081283 0.46654139838691122 0 -0.010427957625441169 0.46801824073108461 0 -0.0094095992007081283 0.46654139838691122 0 -0.010427957625441169 0.46801824073108461 0 -0.01311544116488466 0.453963754661173 0 -0.010454900682288101 0.44126855924159908 0 0.0015605482097463411 0.45063228640423969 0 -0.010454900682288101 0.44126855924159908 0 0.0048617880261327502 0.44584476697033082 0 0.0015605482097463411 0.45063228640423969 0 -0.010454900682288101 0.44126855924159908 0 0.0015605482097463411 0.45063228640423969 0 -0.022362297003099281 0.44511471557515531 0 -0.01311544116488466 0.453963754661173 0 -0.010454900682288101 0.44126855924159908 0 -0.0067005321321746969 0.5 0 -0.003880604538310756 0.48346324919380129 0 -0.021454488019086362 0.48400912036554289 0 -0.01345201465746383 0.46774634869629322 0 -0.010427957625441169 0.46801824073108461 0 -0.021454488019086362 0.48400912036554289 0 -0.010427957625441169 0.46801824073108461 0 -0.003880604538310756 0.48346324919380129 0 -0.021454488019086362 0.48400912036554289 0 -0.010427957625441169 0.46801824073108461 0 -0.001026908195020756 0.47486914558720472 0 0.0053167838454733218 0.46943384557929257 0 -0.010427957625441169 0.46801824073108461 0 -0.003880604538310756 0.48346324919380129 0 -0.001026908195020756 0.47486914558720472 0 -0.010427957625441169 0.46801824073108461 0 -0.021454488019086362 0.48400912036554289 0 -0.01345201465746383 0.46774634869629322 0 -0.021454488019086362 0.48400912036554289 0 -0.032447842195153342 0.48378293317924542 0 -0.01345201465746383 0.46774634869629322 0 -0.032447842195153342 0.48378293317924542 0 -0.041758062999807367 0.47618372532725728 0 -0.01345201465746383 0.46774634869629322 0 -0.041758062999807367 0.47618372532725728 0 -0.021454488019086362 0.48400912036554289 0 -0.032481018412731863 0.50000000000000089 0 -0.033555046977316587 0.49207813668870121 0 -0.021454488019086362 0.48400912036554289 0 -0.032481018412731863 0.50000000000000089 0 -0.021454488019086362 0.48400912036554289 0 -0.033555046977316587 0.49207813668870121 0 -0.032447842195153342 0.48378293317924542 0 -0.0067005321321746969 0.5 0 -0.021454488019086362 0.48400912036554289 0 -0.032481018412731863 0.50000000000000089 0 -0.033555046977316587 0.49207813668870121 0 -0.039964975186860582 0.49999999999999872 0 -0.042139887415076342 0.49281443204190178 0 -0.032481018412731863 0.50000000000000089 0 -0.033555046977316587 0.49207813668870121 0 -0.039964975186860582 0.49999999999999872 0 -0.042139887415076342 0.49281443204190178 0 -0.041758062999807367 0.47618372532725728 0 -0.033555046977316587 0.49207813668870121 0 -0.042139887415076342 0.49281443204190178 0 -0.032447842195153342 0.48378293317924542 0 -0.042139887415076342 0.49281443204190178 0 -0.046725468384182907 0.47766439368476649 0 -0.039964975186860582 0.49999999999999872 0 -0.042139887415076342 0.49281443204190178 0 -0.053580454847170257 0.49193017513362319 0 -0.039964975186860582 0.49999999999999872 0 -0.042139887415076342 0.49281443204190178 0 -0.042139887415076342 0.49281443204190178 0 -0.046725468384182907 0.47766439368476649 0 -0.041758062999807367 0.47618372532725728 0 -0.0419800222431604 0.46518140433549732 0 -0.01345201465746383 0.46774634869629322 0 -0.041758062999807367 0.47618372532725728 0 -0.042139887415076342 0.49281443204190178 0 -0.032447842195153342 0.48378293317924542 0 -0.041758062999807367 0.47618372532725728 0 -0.046725468384182907 0.47766439368476649 0 -0.041758062999807367 0.47618372532725728 0 -0.0419800222431604 0.46518140433549732 0 -0.046725468384182907 0.47766439368476649 0 -0.041758062999807367 0.47618372532725728 0 -0.050742244958162368 0.46439359559444437 0 -0.0419800222431604 0.46518140433549732 0 -0.046725468384182907 0.47766439368476649 0 -0.0419800222431604 0.46518140433549732 0 -0.041758062999807367 0.47618372532725728 0 -0.046725468384182907 0.47766439368476649 0 -0.061707257777874093 0.47273252787991399 0 -0.071702929972361051 0.48510959578984503 0 -0.046725468384182907 0.47766439368476649 0 -0.071702929972361051 0.48510959578984503 0 -0.050742244958162368 0.46439359559444437 0 -0.046725468384182907 0.47766439368476649 0 -0.061707257777874093 0.47273252787991399 0 -0.050742244958162368 0.46439359559444437 0 -0.046725468384182907 0.47766439368476649 0 -0.046725468384182907 0.47766439368476649 0 -0.053580454847170257 0.49193017513362319 0 -0.071702929972361051 0.48510959578984503 0 -0.039964975186860582 0.49999999999999872 0 -0.053580454847170257 0.49193017513362319 0 -0.067195934507479516 0.5 0 -0.042139887415076342 0.49281443204190178 0 -0.046725468384182907 0.47766439368476649 0 -0.053580454847170257 0.49193017513362319 0 -0.053580454847170257 0.49193017513362319 0 -0.067195934507479516 0.5 0 -0.071702929972361051 0.48510959578984503 0 -0.067195934507479516 0.5 0 -0.071702929972361051 0.48510959578984503 0 -0.094426893828098324 0.5 0 -0.071702929972361051 0.48510959578984503 0 -0.096680391560538939 0.49255479789492401 0 -0.071702929972361051 0.48510959578984503 0 -0.094426893828098324 0.5 0 -0.096680391560538939 0.49255479789492401 0 -0.071702929972361051 0.48510959578984503 0 -0.094342239683345888 0.46564946071770819 0 -0.096680391560538939 0.49255479789492401 0 -0.071702929972361051 0.48510959578984503 0 -0.073231504917427276 0.46237159316971249 0 -0.094342239683345888 0.46564946071770819 0 -0.061707257777874093 0.47273252787991399 0 -0.071702929972361051 0.48510959578984503 0 -0.073231504917427276 0.46237159316971249 0 -0.050742244958162368 0.46439359559444437 0 -0.073231504917427276 0.46237159316971249 0 -0.065484051744298263 0.4513847118260722 0 -0.059178928229814701 0.4365201208845606 0 -0.065484051744298263 0.4513847118260722 0 -0.078698858269308614 0.44343419105434712 0 -0.073231504917427276 0.46237159316971249 0 -0.065484051744298263 0.4513847118260722 0 -0.078698858269308614 0.44343419105434712 0 -0.078698858269308614 0.44343419105434712 0 -0.094342239683345888 0.46564946071770819 0 -0.098677616465060528 0.43762344985591101 0 -0.073231504917427276 0.46237159316971249 0 -0.078698858269308614 0.44343419105434712 0 -0.094342239683345888 0.46564946071770819 0 -0.094342239683345888 0.46564946071770819 0 -0.098677616465060528 0.43762344985591101 0 -0.11987972175203609 0.45809198546251739 0 -0.098677616465060528 0.43762344985591101 0 -0.11987972175203609 0.45809198546251739 0 -0.12509104342100061 0.44188941827772182 0 -0.098677616465060528 0.43762344985591101 0 -0.11987972175203609 0.45809198546251739 0 -0.094342239683345888 0.46564946071770819 0 -0.11987972175203609 0.45809198546251739 0 -0.1215246548466888 0.48036061179670092 0 -0.1215246548466888 0.48036061179670092 0 -0.1216578531487173 0.50000000000000155 0 -0.096680391560538939 0.49255479789492401 0 -0.1216578531487173 0.50000000000000155 0 -0.094426893828098324 0.5 0 -0.096680391560538939 0.49255479789492401 0 -0.1216578531487173 0.50000000000000155 0 -0.096680391560538939 0.49255479789492401 0 -0.094342239683345888 0.46564946071770819 0 -0.1215246548466888 0.48036061179670092 0 -0.096680391560538939 0.49255479789492401 0 -0.16310986573530631 0.084156321085019567 0 -0.17544541039362899 0.09436804860009354 0 -0.15783765240444911 0.096274401630791262 0 -0.16310986573530631 0.084156321085019567 0 -0.15783765240444911 0.096274401630791262 0 -0.16310986573530631 0.084156321085019567 0 -0.1657815390990264 0.070802932860687437 0 -0.15463431661472629 0.07014553381523804 0 -0.16310986573530631 0.084156321085019567 0 -0.1657815390990264 0.070802932860687437 0 -0.17966236107341149 0.074300518116336353 0 -0.1657815390990264 0.070802932860687437 0 -0.17966236107341149 0.074300518116336353 0 -0.1657196129726615 0.054609358426155781 0 -0.1657815390990264 0.070802932860687437 0 -0.15463431661472629 0.07014553381523804 0 -0.1657196129726615 0.054609358426155781 0 -0.17966236107341149 0.074300518116336353 0 -0.1657196129726615 0.054609358426155781 0 -0.19326118210642521 0.060262893486061127 0 -0.17966236107341149 0.074300518116336353 0 -0.1657196129726615 0.054609358426155781 0 -0.16310986573530631 0.084156321085019567 0 -0.17966236107341149 0.074300518116336353 0 -0.17544541039362899 0.09436804860009354 0 -0.17966236107341149 0.074300518116336353 0 -0.17544541039362899 0.09436804860009354 0 -0.19360510917416149 0.093991677806516877 0 -0.17966236107341149 0.074300518116336353 0 -0.19360510917416149 0.093991677806516877 0 -0.17544541039362899 0.09436804860009354 0 -0.18934336527218601 0.1087413065502997 0 -0.19360510917416149 0.093991677806516877 0 -0.17544541039362899 0.09436804860009354 0 -0.16911410870225951 0.1087440664115976 0 -0.18934336527218601 0.1087413065502997 0 -0.18039056500006781 0.12121373119240569 0 -0.16911410870225951 0.1087440664115976 0 -0.18934336527218601 0.1087413065502997 0 -0.18039056500006781 0.12121373119240569 0 -0.16911410870225951 0.1087440664115976 0 -0.18039056500006781 0.12121373119240569 0 -0.16911410870225951 0.1087440664115976 0 -0.15507510040999009 0.1056512286087255 0 -0.18039056500006781 0.12121373119240569 0 -0.15507510040999009 0.1056512286087255 0 -0.1628447509754036 0.1248738178506951 0 -0.15507510040999009 0.1056512286087255 0 -0.15358711882774939 0.11801712706942639 0 -0.18039056500006781 0.12121373119240569 0 -0.1628447509754036 0.1248738178506951 0 -0.15507510040999009 0.1056512286087255 0 -0.17544541039362899 0.09436804860009354 0 -0.16911410870225951 0.1087440664115976 0 -0.15783765240444911 0.096274401630791262 0 -0.16911410870225951 0.1087440664115976 0 -0.15783765240444911 0.096274401630791262 0 -0.16911410870225951 0.1087440664115976 0 -0.15783765240444911 0.096274401630791262 0 -0.15507510040999009 0.1056512286087255 0 -0.15783765240444911 0.096274401630791262 0 -0.14455303356647331 0.096744639073681929 0 -0.15139402388202119 0.11108495737684999 0 -0.14455303356647331 0.096744639073681929 0 -0.15139402388202119 0.11108495737684999 0 -0.12991930243541749 0.1020465165188278 0 -0.15783765240444911 0.096274401630791262 0 -0.15507510040999009 0.1056512286087255 0 -0.15139402388202119 0.11108495737684999 0 -0.15783765240444911 0.096274401630791262 0 -0.15139402388202119 0.11108495737684999 0 -0.15139402388202119 0.11108495737684999 0 -0.12991930243541749 0.1020465165188278 0 -0.14495039535959489 0.12589551312290931 0 -0.1628447509754036 0.1248738178506951 0 -0.15358711882774939 0.11801712706942639 0 -0.14495039535959489 0.12589551312290931 0 -0.15358711882774939 0.11801712706942639 0 -0.15139402388202119 0.11108495737684999 0 -0.14495039535959489 0.12589551312290931 0 -0.15507510040999009 0.1056512286087255 0 -0.15358711882774939 0.11801712706942639 0 -0.15139402388202119 0.11108495737684999 0 -0.15139402388202119 0.11108495737684999 0 -0.14495039535959489 0.12589551312290931 0 -0.12991930243541749 0.1020465165188278 0 -0.14495039535959489 0.12589551312290931 0 -0.12991930243541749 0.1020465165188278 0 -0.14495039535959489 0.12589551312290931 0 -0.13028426483969929 0.13221647237215789 0 -0.14455303356647331 0.096744639073681929 0 -0.12991930243541749 0.1020465165188278 0 -0.13683438329036771 0.088098653177494879 0 -0.12991930243541749 0.1020465165188278 0 -0.13683438329036771 0.088098653177494879 0 -0.1248370695698198 0.083226530136874921 0 -0.13683438329036771 0.088098653177494879 0 -0.13729578978526799 0.073558919561796721 0 -0.1248370695698198 0.083226530136874921 0 -0.13683438329036771 0.088098653177494879 0 -0.14756672109485969 0.08491666059629295 0 -0.13729578978526799 0.073558919561796721 0 -0.14455303356647331 0.096744639073681929 0 -0.13683438329036771 0.088098653177494879 0 -0.14756672109485969 0.08491666059629295 0 -0.14756672109485969 0.08491666059629295 0 -0.13729578978526799 0.073558919561796721 0 -0.16310986573530631 0.084156321085019567 0 -0.14756672109485969 0.08491666059629295 0 -0.15463431661472629 0.07014553381523804 0 -0.16310986573530631 0.084156321085019567 0 -0.15783765240444911 0.096274401630791262 0 -0.14756672109485969 0.08491666059629295 0 -0.15783765240444911 0.096274401630791262 0 -0.14756672109485969 0.08491666059629295 0 -0.15783765240444911 0.096274401630791262 0 -0.14455303356647331 0.096744639073681929 0 -0.14756672109485969 0.08491666059629295 0 -0.14756672109485969 0.08491666059629295 0 -0.15463431661472629 0.07014553381523804 0 -0.13729578978526799 0.073558919561796721 0 -0.15463431661472629 0.07014553381523804 0 -0.13729578978526799 0.073558919561796721 0 -0.14428807100988511 0.057223156242914672 0 -0.13729578978526799 0.073558919561796721 0 -0.1311901693420546 0.060374133793646992 0 -0.14428807100988511 0.057223156242914672 0 -0.13729578978526799 0.073558919561796721 0 -0.12498233095038511 0.069533312171706482 0 -0.1248370695698198 0.083226530136874921 0 -0.13729578978526799 0.073558919561796721 0 -0.1311901693420546 0.060374133793646992 0 -0.12498233095038511 0.069533312171706482 0 -0.1311901693420546 0.060374133793646992 0 -0.1304591025064194 0.044551821316570157 0 -0.1169815729820268 0.057446916627697332 0 -0.1311901693420546 0.060374133793646992 0 -0.1304591025064194 0.044551821316570157 0 -0.14428807100988511 0.057223156242914672 0 -0.1304591025064194 0.044551821316570157 0 -0.1338093633065561 0.031702984145267947 0 -0.14718764802187309 0.041237794311798179 0 -0.1304591025064194 0.044551821316570157 0 -0.1338093633065561 0.031702984145267947 0 -0.120950474974805 0.030974477430810402 0 -0.14718764802187309 0.041237794311798179 0 -0.14507935476777459 0.024735833563247479 0 -0.16332082262574071 0.033969476032413119 0 -0.1338093633065561 0.031702984145267947 0 -0.14718764802187309 0.041237794311798179 0 -0.14507935476777459 0.024735833563247479 0 -0.1304591025064194 0.044551821316570157 0 -0.14718764802187309 0.041237794311798179 0 -0.14428807100988511 0.057223156242914672 0 -0.15463431661472629 0.07014553381523804 0 -0.14428807100988511 0.057223156242914672 0 -0.1657196129726615 0.054609358426155781 0 -0.14718764802187309 0.041237794311798179 0 -0.14428807100988511 0.057223156242914672 0 -0.1657196129726615 0.054609358426155781 0 -0.1273771369441013 0.0023450629401116992 0 -0.12537023626190849 0.01701499410391356 0 -0.14358534871595791 0.0085390787577918573 0 -0.14275634286812811 -0.006203461430080404 0 -0.1273771369441013 0.0023450629401116992 0 -0.14358534871595791 0.0085390787577918573 0 -0.1338093633065561 0.031702984145267947 0 -0.12537023626190849 0.01701499410391356 0 -0.14507935476777459 0.024735833563247479 0 -0.12537023626190849 0.01701499410391356 0 -0.14507935476777459 0.024735833563247479 0 -0.14358534871595791 0.0085390787577918573 0 -0.1338093633065561 0.031702984145267947 0 -0.12537023626190849 0.01701499410391356 0 -0.120950474974805 0.030974477430810402 0 -0.14507935476777459 0.024735833563247479 0 -0.14358534871595791 0.0085390787577918573 0 -0.1631610812614456 0.0141265482177085 0 -0.15796117991031841 -0.00029962151665172479 0 -0.14358534871595791 0.0085390787577918573 0 -0.1631610812614456 0.0141265482177085 0 -0.14275634286812811 -0.006203461430080404 0 -0.15796117991031841 -0.00029962151665172479 0 -0.14358534871595791 0.0085390787577918573 0 -0.15796117991031841 -0.00029962151665172479 0 -0.17967452986780849 -0.0030086181600807401 0 -0.1631610812614456 0.0141265482177085 0 -0.1631610812614456 0.0141265482177085 0 -0.18063081477410151 0.02444866588981499 0 -0.16332082262574071 0.033969476032413119 0 -0.14507935476777459 0.024735833563247479 0 -0.1631610812614456 0.0141265482177085 0 -0.16332082262574071 0.033969476032413119 0 -0.17967452986780849 -0.0030086181600807401 0 -0.1631610812614456 0.0141265482177085 0 -0.18063081477410151 0.02444866588981499 0 -0.17967452986780849 -0.0030086181600807401 0 -0.18063081477410151 0.02444866588981499 0 -0.19591489879339791 0.012499298725408061 0 -0.1657196129726615 0.054609358426155781 0 -0.16332082262574071 0.033969476032413119 0 -0.1853408533429271 0.041769259974547668 0 -0.14718764802187309 0.041237794311798179 0 -0.1657196129726615 0.054609358426155781 0 -0.16332082262574071 0.033969476032413119 0 -0.18063081477410151 0.02444866588981499 0 -0.16332082262574071 0.033969476032413119 0 -0.1853408533429271 0.041769259974547668 0 -0.1657196129726615 0.054609358426155781 0 -0.1853408533429271 0.041769259974547668 0 -0.19326118210642521 0.060262893486061127 0 -0.1853408533429271 0.041769259974547668 0 -0.19326118210642521 0.060262893486061127 0 -0.20638984228336041 0.047204147208118788 0 -0.18063081477410151 0.02444866588981499 0 -0.1853408533429271 0.041769259974547668 0 -0.2003712226561333 0.029120430419108619 0 -0.1853408533429271 0.041769259974547668 0 -0.20638984228336041 0.047204147208118788 0 -0.2003712226561333 0.029120430419108619 0 -0.20638984228336041 0.047204147208118788 0 -0.2003712226561333 0.029120430419108619 0 -0.21890969838457369 0.03387481538926377 0 -0.20638984228336041 0.047204147208118788 0 -0.2248274879423891 0.050626958701997932 0 -0.21890969838457369 0.03387481538926377 0 -0.20638984228336041 0.047204147208118788 0 -0.2248274879423891 0.050626958701997932 0 -0.21240822864659401 0.064474545157398255 0 -0.19326118210642521 0.060262893486061127 0 -0.20638984228336041 0.047204147208118788 0 -0.21240822864659401 0.064474545157398255 0 -0.17967452986780849 -0.0030086181600807401 0 -0.20680301002479959 -0.0020434230711429339 0 -0.19591489879339791 0.012499298725408061 0 -0.18063081477410151 0.02444866588981499 0 -0.19591489879339791 0.012499298725408061 0 -0.2003712226561333 0.029120430419108619 0 -0.2003712226561333 0.029120430419108619 0 -0.2150412283584397 0.01492639532749848 0 -0.21890969838457369 0.03387481538926377 0 -0.19591489879339791 0.012499298725408061 0 -0.2003712226561333 0.029120430419108619 0 -0.2150412283584397 0.01492639532749848 0 -0.20680301002479959 -0.0020434230711429339 0 -0.19591489879339791 0.012499298725408061 0 -0.2150412283584397 0.01492639532749848 0 -0.20680301002479959 -0.0020434230711429339 0 -0.2150412283584397 0.01492639532749848 0 -0.22850437187820721 0.00061554774341724197 0 -0.2150412283584397 0.01492639532749848 0 -0.22850437187820721 0.00061554774341724197 0 -0.23416676111704099 0.01917273774715204 0 -0.23416676111704099 0.01917273774715204 0 -0.21890969838457369 0.03387481538926377 0 -0.23451298379830759 0.036058925104307242 0 -0.2150412283584397 0.01492639532749848 0 -0.23416676111704099 0.01917273774715204 0 -0.21890969838457369 0.03387481538926377 0 -0.25132042997239518 0.0027134119798401068 0 -0.25642639863326749 0.02710060176493858 0 -0.23416676111704099 0.01917273774715204 0 -0.25642639863326749 0.02710060176493858 0 -0.23416676111704099 0.01917273774715204 0 -0.23451298379830759 0.036058925104307242 0 -0.25132042997239518 0.0027134119798401068 0 -0.22850437187820721 0.00061554774341724197 0 -0.23416676111704099 0.01917273774715204 0 -0.2248274879423891 0.050626958701997932 0 -0.234130504556473 0.067172247096954504 0 -0.21240822864659401 0.064474545157398255 0 -0.2248274879423891 0.050626958701997932 0 -0.21890969838457369 0.03387481538926377 0 -0.23451298379830759 0.036058925104307242 0 -0.25642639863326749 0.02710060176493858 0 -0.23451298379830759 0.036058925104307242 0 -0.24534917185526489 0.049526218608574313 0 -0.2248274879423891 0.050626958701997932 0 -0.23451298379830759 0.036058925104307242 0 -0.24534917185526489 0.049526218608574313 0 -0.26195798501385009 0.070226375813507561 0 -0.24534917185526489 0.049526218608574313 0 -0.234130504556473 0.067172247096954504 0 -0.2248274879423891 0.050626958701997932 0 -0.24534917185526489 0.049526218608574313 0 -0.234130504556473 0.067172247096954504 0 -0.26195798501385009 0.070226375813507561 0 -0.24382127576753621 0.084711863041238192 0 -0.234130504556473 0.067172247096954504 0 -0.24382127576753621 0.084711863041238192 0 -0.22568456652122221 0.099197350268968809 0 -0.24382127576753621 0.084711863041238192 0 -0.221160002309051 0.081738136999685213 0 -0.22568456652122221 0.099197350268968809 0 -0.221160002309051 0.081738136999685213 0 -0.20949418686790969 0.097522886253834359 0 -0.22568456652122221 0.099197350268968809 0 -0.24382127576753621 0.084711863041238192 0 -0.221160002309051 0.081738136999685213 0 -0.234130504556473 0.067172247096954504 0 -0.221160002309051 0.081738136999685213 0 -0.234130504556473 0.067172247096954504 0 -0.21240822864659401 0.064474545157398255 0 -0.221160002309051 0.081738136999685213 0 -0.21240822864659401 0.064474545157398255 0 -0.19789508720454749 0.077516785054754192 0 -0.221160002309051 0.081738136999685213 0 -0.19789508720454749 0.077516785054754192 0 -0.20949418686790969 0.097522886253834359 0 -0.17966236107341149 0.074300518116336353 0 -0.19789508720454749 0.077516785054754192 0 -0.19360510917416149 0.093991677806516877 0 -0.19789508720454749 0.077516785054754192 0 -0.19360510917416149 0.093991677806516877 0 -0.20949418686790969 0.097522886253834359 0 -0.19326118210642521 0.060262893486061127 0 -0.21240822864659401 0.064474545157398255 0 -0.19789508720454749 0.077516785054754192 0 -0.17966236107341149 0.074300518116336353 0 -0.19326118210642521 0.060262893486061127 0 -0.19789508720454749 0.077516785054754192 0 -0.20040659369392541 0.1193864456313013 0 -0.18934336527218601 0.1087413065502997 0 -0.2075478572749084 0.11368283749669961 0 -0.18039056500006781 0.12121373119240569 0 -0.20040659369392541 0.1193864456313013 0 -0.18934336527218601 0.1087413065502997 0 -0.19360510917416149 0.093991677806516877 0 -0.2075478572749084 0.11368283749669961 0 -0.18934336527218601 0.1087413065502997 0 -0.19360510917416149 0.093991677806516877 0 -0.2075478572749084 0.11368283749669961 0 -0.19360510917416149 0.093991677806516877 0 -0.20949418686790969 0.097522886253834359 0 -0.2075478572749084 0.11368283749669961 0 -0.2075478572749084 0.11368283749669961 0 -0.22568456652122221 0.099197350268968809 0 -0.20949418686790969 0.097522886253834359 0 -0.2075478572749084 0.11368283749669961 0 -0.22568456652122221 0.099197350268968809 0 -0.2075478572749084 0.11368283749669961 0 -0.22488407219564061 0.1186598638475915 0 -0.22370276663374011 0.1364982034250237 0 -0.20040659369392541 0.1193864456313013 0 -0.2075478572749084 0.11368283749669961 0 -0.20214902218410111 0.13458958866239301 0 -0.20040659369392541 0.1193864456313013 0 -0.2075478572749084 0.11368283749669961 0 -0.2075478572749084 0.11368283749669961 0 -0.22488407219564061 0.1186598638475915 0 -0.22568456652122221 0.099197350268968809 0 -0.22488407219564061 0.1186598638475915 0 -0.23975573915859391 0.1186480270080747 0 -0.23562440086935879 0.12869665656040569 0 -0.22488407219564061 0.1186598638475915 0 -0.22568456652122221 0.099197350268968809 0 -0.23888908650362611 0.1045060591559635 0 -0.24382127576753621 0.084711863041238192 0 -0.22568456652122221 0.099197350268968809 0 -0.23888908650362611 0.1045060591559635 0 -0.25364395357421121 0.10678394025260531 0 -0.24382127576753621 0.084711863041238192 0 -0.23888908650362611 0.1045060591559635 0 -0.25033803458298193 0.12914144363467839 0 -0.25364395357421121 0.10678394025260531 0 -0.23975573915859391 0.1186480270080747 0 -0.22488407219564061 0.1186598638475915 0 -0.23888908650362611 0.1045060591559635 0 -0.23975573915859391 0.1186480270080747 0 -0.25364395357421121 0.10678394025260531 0 -0.23888908650362611 0.1045060591559635 0 -0.23975573915859391 0.1186480270080747 0 -0.25033803458298193 0.12914144363467839 0 -0.23975573915859391 0.1186480270080747 0 -0.23562440086935879 0.12869665656040569 0 -0.25033803458298193 0.12914144363467839 0 -0.2394413917758374 0.14053574488666021 0 -0.23562440086935879 0.12869665656040569 0 -0.2394413917758374 0.14053574488666021 0 -0.23562440086935879 0.12869665656040569 0 -0.22370276663374011 0.1364982034250237 0 -0.22488407219564061 0.1186598638475915 0 -0.23562440086935879 0.12869665656040569 0 -0.22370276663374011 0.1364982034250237 0 -0.2394413917758374 0.14053574488666021 0 -0.22370276663374011 0.1364982034250237 0 -0.22390747936813421 0.14796544613238069 0 -0.22390747936813421 0.14796544613238069 0 -0.22774584105848089 0.15976823357977049 0 -0.2168312664826515 0.15850745189495519 0 -0.2394413917758374 0.14053574488666021 0 -0.22390747936813421 0.14796544613238069 0 -0.24566593655216731 0.1613413036023684 0 -0.22390747936813421 0.14796544613238069 0 -0.24566593655216731 0.1613413036023684 0 -0.26077588748637798 0.14053443996503889 0 -0.2394413917758374 0.14053574488666021 0 -0.24566593655216731 0.1613413036023684 0 -0.24566593655216731 0.1613413036023684 0 -0.2425545525554833 0.18325607046718431 0 -0.22457868183097049 0.171258732689378 0 -0.2425545525554833 0.18325607046718431 0 -0.2235130486054053 0.18492553164669809 0 -0.22457868183097049 0.171258732689378 0 -0.2425545525554833 0.18325607046718431 0 -0.2235130486054053 0.18492553164669809 0 -0.2315679775879351 0.19375458513227489 0 -0.2235130486054053 0.18492553164669809 0 -0.22457868183097049 0.171258732689378 0 -0.209750232499154 0.17791844316711489 0 -0.24566593655216731 0.1613413036023684 0 -0.22774584105848089 0.15976823357977049 0 -0.22457868183097049 0.171258732689378 0 -0.22390747936813421 0.14796544613238069 0 -0.24566593655216731 0.1613413036023684 0 -0.22774584105848089 0.15976823357977049 0 -0.22774584105848089 0.15976823357977049 0 -0.22457868183097049 0.171258732689378 0 -0.2168312664826515 0.15850745189495519 0 -0.2168312664826515 0.15850745189495519 0 -0.21186753860838101 0.16733255095299371 0 -0.20758447520558959 0.15683863127083711 0 -0.22457868183097049 0.171258732689378 0 -0.2168312664826515 0.15850745189495519 0 -0.21186753860838101 0.16733255095299371 0 -0.21186753860838101 0.16733255095299371 0 -0.209750232499154 0.17791844316711489 0 -0.20173639765426299 0.1643971743801825 0 -0.21186753860838101 0.16733255095299371 0 -0.20758447520558959 0.15683863127083711 0 -0.20173639765426299 0.1643971743801825 0 -0.20758447520558959 0.15683863127083711 0 -0.20173639765426299 0.1643971743801825 0 -0.20024290349544879 0.15519061181074151 0 -0.22457868183097049 0.171258732689378 0 -0.21186753860838101 0.16733255095299371 0 -0.209750232499154 0.17791844316711489 0 -0.19610042498268601 0.17522502183351021 0 -0.19038698318195549 0.16711234260031069 0 -0.17752183765376101 0.1775748035498933 0 -0.19610042498268601 0.17522502183351021 0 -0.19785886193094021 0.18900131099286041 0 -0.17752183765376101 0.1775748035498933 0 -0.19785886193094021 0.18900131099286041 0 -0.17752183765376101 0.1775748035498933 0 -0.209750232499154 0.17791844316711489 0 -0.19610042498268601 0.17522502183351021 0 -0.19785886193094021 0.18900131099286041 0 -0.209750232499154 0.17791844316711489 0 -0.19610042498268601 0.17522502183351021 0 -0.20173639765426299 0.1643971743801825 0 -0.20173639765426299 0.1643971743801825 0 -0.1927705130470404 0.15866088515044 0 -0.20024290349544879 0.15519061181074151 0 -0.19610042498268601 0.17522502183351021 0 -0.20173639765426299 0.1643971743801825 0 -0.19038698318195549 0.16711234260031069 0 -0.20173639765426299 0.1643971743801825 0 -0.19038698318195549 0.16711234260031069 0 -0.1927705130470404 0.15866088515044 0 -0.19038698318195549 0.16711234260031069 0 -0.1927705130470404 0.15866088515044 0 -0.18413510522225521 0.16259499244525211 0 -0.1927705130470404 0.15866088515044 0 -0.19507878308752141 0.1486405391940768 0 -0.1852646507768699 0.1545619776798173 0 -0.19507878308752141 0.1486405391940768 0 -0.18706065072040501 0.14468661846275019 0 -0.1852646507768699 0.1545619776798173 0 -0.19507878308752141 0.1486405391940768 0 -0.20024290349544879 0.15519061181074151 0 -0.20390252305447459 0.15036513687703029 0 -0.1927705130470404 0.15866088515044 0 -0.19507878308752141 0.1486405391940768 0 -0.20024290349544879 0.15519061181074151 0 -0.19507878308752141 0.1486405391940768 0 -0.202312374299252 0.1441640524023215 0 -0.19563802519160789 0.13807458821396759 0 -0.19507878308752141 0.1486405391940768 0 -0.202312374299252 0.1441640524023215 0 -0.20390252305447459 0.15036513687703029 0 -0.19507878308752141 0.1486405391940768 0 -0.19563802519160789 0.13807458821396759 0 -0.18706065072040501 0.14468661846275019 0 -0.18039056500006781 0.12121373119240569 0 -0.20214902218410111 0.13458958866239301 0 -0.18039056500006781 0.12121373119240569 0 -0.20040659369392541 0.1193864456313013 0 -0.20214902218410111 0.13458958866239301 0 -0.18039056500006781 0.12121373119240569 0 -0.19563802519160789 0.13807458821396759 0 -0.20214902218410111 0.13458958866239301 0 -0.18039056500006781 0.12121373119240569 0 -0.19563802519160789 0.13807458821396759 0 -0.202312374299252 0.1441640524023215 0 -0.19563802519160789 0.13807458821396759 0 -0.20214902218410111 0.13458958866239301 0 -0.2075478572749084 0.11368283749669961 0 -0.22370276663374011 0.1364982034250237 0 -0.20214902218410111 0.13458958866239301 0 -0.2075478572749084 0.11368283749669961 0 -0.22370276663374011 0.1364982034250237 0 -0.22370276663374011 0.1364982034250237 0 -0.22390747936813421 0.14796544613238069 0 -0.20214902218410111 0.13458958866239301 0 -0.22390747936813421 0.14796544613238069 0 -0.20214902218410111 0.13458958866239301 0 -0.22390747936813421 0.14796544613238069 0 -0.20214902218410111 0.13458958866239301 0 -0.20948943058945241 0.14863997276184041 0 -0.22390747936813421 0.14796544613238069 0 -0.2168312664826515 0.15850745189495519 0 -0.20948943058945241 0.14863997276184041 0 -0.2168312664826515 0.15850745189495519 0 -0.20758447520558959 0.15683863127083711 0 -0.20948943058945241 0.14863997276184041 0 -0.20758447520558959 0.15683863127083711 0 -0.20948943058945241 0.14863997276184041 0 -0.20390252305447459 0.15036513687703029 0 -0.20758447520558959 0.15683863127083711 0 -0.20024290349544879 0.15519061181074151 0 -0.20390252305447459 0.15036513687703029 0 -0.202312374299252 0.1441640524023215 0 -0.20214902218410111 0.13458958866239301 0 -0.20948943058945241 0.14863997276184041 0 -0.202312374299252 0.1441640524023215 0 -0.20948943058945241 0.14863997276184041 0 -0.20390252305447459 0.15036513687703029 0 -0.22764024225575111 0.25709488017932702 0 -0.2151106411052526 0.2372148610219694 0 -0.22764024225575111 0.25709488017932702 0 -0.2283272457552897 0.2411225242229286 0 -0.2468893326351202 0.24329134098969171 0 -0.22764024225575111 0.25709488017932702 0 -0.2283272457552897 0.2411225242229286 0 -0.2151106411052526 0.2372148610219694 0 -0.2283272457552897 0.2411225242229286 0 -0.22236430254422471 0.22707510271615991 0 -0.2151106411052526 0.2372148610219694 0 -0.2283272457552897 0.2411225242229286 0 -0.2468893326351202 0.24329134098969171 0 -0.2329273297721271 0.2301735095518313 0 -0.25250373055295899 0.22903132158689779 0 -0.2468893326351202 0.24329134098969171 0 -0.24260825180894061 0.22311859240920151 0 -0.2468893326351202 0.24329134098969171 0 -0.24260825180894061 0.22311859240920151 0 -0.2329273297721271 0.2301735095518313 0 -0.25326648915379463 0.21765104414027969 0 -0.25250373055295899 0.22903132158689779 0 -0.24260825180894061 0.22311859240920151 0 -0.24260825180894061 0.22311859240920151 0 -0.23239639752576971 0.22100751879425451 0 -0.2329273297721271 0.2301735095518313 0 -0.23239639752576971 0.22100751879425451 0 -0.2329273297721271 0.2301735095518313 0 -0.22236430254422471 0.22707510271615991 0 -0.2283272457552897 0.2411225242229286 0 -0.2329273297721271 0.2301735095518313 0 -0.22236430254422471 0.22707510271615991 0 -0.23239639752576971 0.22100751879425451 0 -0.22236430254422471 0.22707510271615991 0 -0.2228431611521535 0.2155973608413651 0 -0.2228431611521535 0.2155973608413651 0 -0.2385329104852989 0.2118543258787943 0 -0.21819588620811961 0.20042781843582741 0 -0.2385329104852989 0.2118543258787943 0 -0.21819588620811961 0.20042781843582741 0 -0.23239639752576971 0.22100751879425451 0 -0.2228431611521535 0.2155973608413651 0 -0.2385329104852989 0.2118543258787943 0 -0.2385329104852989 0.2118543258787943 0 -0.24039455529309961 0.2058142864805034 0 -0.21819588620811961 0.20042781843582741 0 -0.24260825180894061 0.22311859240920151 0 -0.23239639752576971 0.22100751879425451 0 -0.2385329104852989 0.2118543258787943 0 -0.25326648915379463 0.21765104414027969 0 -0.24039455529309961 0.2058142864805034 0 -0.25326648915379463 0.21765104414027969 0 -0.2385329104852989 0.2118543258787943 0 -0.24039455529309961 0.2058142864805034 0 -0.25326648915379463 0.21765104414027969 0 -0.24260825180894061 0.22311859240920151 0 -0.2385329104852989 0.2118543258787943 0 -0.25264776582176801 0.2054066783297176 0 -0.25326648915379463 0.21765104414027969 0 -0.24039455529309961 0.2058142864805034 0 -0.25846339158769432 0.19477026040294029 0 -0.2425545525554833 0.18325607046718431 0 -0.24512564856919611 0.1966003761625241 0 -0.24039455529309961 0.2058142864805034 0 -0.24512564856919611 0.1966003761625241 0 -0.2315679775879351 0.19375458513227489 0 -0.25264776582176801 0.2054066783297176 0 -0.24039455529309961 0.2058142864805034 0 -0.24512564856919611 0.1966003761625241 0 -0.2425545525554833 0.18325607046718431 0 -0.24512564856919611 0.1966003761625241 0 -0.2315679775879351 0.19375458513227489 0 -0.24039455529309961 0.2058142864805034 0 -0.2315679775879351 0.19375458513227489 0 -0.21819588620811961 0.20042781843582741 0 -0.2235130486054053 0.18492553164669809 0 -0.2315679775879351 0.19375458513227489 0 -0.21819588620811961 0.20042781843582741 0 -0.21819588620811961 0.20042781843582741 0 -0.19785886193094021 0.18900131099286041 0 -0.2235130486054053 0.18492553164669809 0 -0.209750232499154 0.17791844316711489 0 -0.21819588620811961 0.20042781843582741 0 -0.209750232499154 0.17791844316711489 0 -0.21819588620811961 0.20042781843582741 0 -0.19785886193094021 0.18900131099286041 0 -0.21819588620811961 0.20042781843582741 0 -0.20376966825666501 0.2022924765927995 0 -0.19785886193094021 0.18900131099286041 0 -0.19785886193094021 0.18900131099286041 0 -0.19005143880425829 0.1974548227072519 0 -0.17752183765376101 0.1775748035498933 0 -0.20376966825666501 0.2022924765927995 0 -0.19785886193094021 0.18900131099286041 0 -0.19005143880425829 0.1974548227072519 0 -0.19005143880425829 0.1974548227072519 0 -0.187650486280975 0.21451757224245291 0 -0.20258103995475549 0.21733484186461069 0 -0.19005143880425829 0.1974548227072519 0 -0.20258103995475549 0.21733484186461069 0 -0.20376966825666501 0.2022924765927995 0 -0.19005143880425829 0.1974548227072519 0 -0.20258103995475549 0.21733484186461069 0 -0.2228431611521535 0.2155973608413651 0 -0.21819588620811961 0.20042781843582741 0 -0.20258103995475549 0.21733484186461069 0 -0.21819588620811961 0.20042781843582741 0 -0.20376966825666501 0.2022924765927995 0 -0.20258103995475549 0.21733484186461069 0 -0.20258103995475549 0.21733484186461069 0 -0.19839606398960871 0.22991008851962841 0 -0.2151106411052526 0.2372148610219694 0 -0.22236430254422471 0.22707510271615991 0 -0.2228431611521535 0.2155973608413651 0 -0.20258103995475549 0.21733484186461069 0 -0.22236430254422471 0.22707510271615991 0 -0.20258103995475549 0.21733484186461069 0 -0.2151106411052526 0.2372148610219694 0 -0.20258103995475549 0.21733484186461069 0 -0.2151106411052526 0.2372148610219694 0 -0.187650486280975 0.21451757224245291 0 -0.20258103995475549 0.21733484186461069 0 -0.19839606398960871 0.22991008851962841 0 -0.187650486280975 0.21451757224245291 0 -0.19839606398960871 0.22991008851962841 0 -0.18195408303730121 0.23534357450296481 0 -0.18940688912330481 0.25610334311205268 0 -0.2046840695697589 0.2451395929661444 0 -0.18195408303730121 0.23534357450296481 0 -0.2046840695697589 0.2451395929661444 0 -0.18195408303730121 0.23534357450296481 0 -0.19839606398960871 0.22991008851962841 0 -0.2046840695697589 0.2451395929661444 0 -0.18195408303730121 0.23534357450296481 0 -0.21239874098331929 0.25437807278244762 0 -0.2046840695697589 0.2451395929661444 0 -0.2151106411052526 0.2372148610219694 0 -0.19839606398960871 0.22991008851962841 0 -0.2046840695697589 0.2451395929661444 0 -0.2151106411052526 0.2372148610219694 0 -0.22764024225575111 0.25709488017932702 0 -0.21239874098331929 0.25437807278244762 0 -0.2151106411052526 0.2372148610219694 0 -0.16225317791305921 0.25358582624422438 0 -0.18195408303730121 0.23534357450296481 0 -0.155242522585569 0.24016045739440639 0 -0.17508206900779469 0.25918785244088571 0 -0.16225317791305921 0.25358582624422438 0 -0.18195408303730121 0.23534357450296481 0 -0.187650486280975 0.21451757224245291 0 -0.18195408303730121 0.23534357450296481 0 -0.17144823439391829 0.2141895330645725 0 -0.18195408303730121 0.23534357450296481 0 -0.15922409650484359 0.2255475560397853 0 -0.18195408303730121 0.23534357450296481 0 -0.15922409650484359 0.2255475560397853 0 -0.155242522585569 0.24016045739440639 0 -0.18195408303730121 0.23534357450296481 0 -0.15922409650484359 0.2255475560397853 0 -0.17144823439391829 0.2141895330645725 0 -0.15922409650484359 0.2255475560397853 0 -0.15900733689739069 0.21062159977010589 0 -0.17144823439391829 0.2141895330645725 0 -0.15900733689739069 0.21062159977010589 0 -0.1653418357915476 0.2018213455952054 0 -0.15361129879784891 0.20139719057542019 0 -0.17144823439391829 0.2141895330645725 0 -0.17723797391968729 0.20390802022475071 0 -0.1653418357915476 0.2018213455952054 0 -0.15900733689739069 0.21062159977010589 0 -0.17144823439391829 0.2141895330645725 0 -0.1653418357915476 0.2018213455952054 0 -0.187650486280975 0.21451757224245291 0 -0.17144823439391829 0.2141895330645725 0 -0.17723797391968729 0.20390802022475071 0 -0.19005143880425829 0.1974548227072519 0 -0.187650486280975 0.21451757224245291 0 -0.17723797391968729 0.20390802022475071 0 -0.19005143880425829 0.1974548227072519 0 -0.17169787432773731 0.19155682751427069 0 -0.17752183765376101 0.1775748035498933 0 -0.19005143880425829 0.1974548227072519 0 -0.17723797391968729 0.20390802022475071 0 -0.17169787432773731 0.19155682751427069 0 -0.19005143880425829 0.1974548227072519 0 -0.17752183765376101 0.1775748035498933 0 -0.17169787432773731 0.19155682751427069 0 -0.1653418357915476 0.2018213455952054 0 -0.15791164184663151 0.19274793286901881 0 -0.17723797391968729 0.20390802022475071 0 -0.17169787432773731 0.19155682751427069 0 -0.1653418357915476 0.2018213455952054 0 -0.1653418357915476 0.2018213455952054 0 -0.15791164184663151 0.19274793286901881 0 -0.15361129879784891 0.20139719057542019 0 -0.17169787432773731 0.19155682751427069 0 -0.15791164184663151 0.19274793286901881 0 -0.16134243263699979 0.18146195783717889 0 -0.15791164184663151 0.19274793286901881 0 -0.15361129879784891 0.20139719057542019 0 -0.14754997702249989 0.19123102061556399 0 -0.15791164184663151 0.19274793286901881 0 -0.14754997702249989 0.19123102061556399 0 -0.15378055215212841 0.1853342336718547 0 -0.15361129879784891 0.20139719057542019 0 -0.144337775963609 0.20069921068637719 0 -0.14754997702249989 0.19123102061556399 0 -0.14754997702249989 0.19123102061556399 0 -0.13411435042981179 0.19106266128805069 0 -0.1463292802833521 0.18023770330257241 0 -0.144337775963609 0.20069921068637719 0 -0.14754997702249989 0.19123102061556399 0 -0.13411435042981179 0.19106266128805069 0 -0.13411435042981179 0.19106266128805069 0 -0.12967955466007261 0.2074258594294596 0 -0.1235431789710726 0.1969801993001162 0 -0.13411435042981179 0.19106266128805069 0 -0.13770187294137159 0.2043383794177894 0 -0.12967955466007261 0.2074258594294596 0 -0.144337775963609 0.20069921068637719 0 -0.13411435042981179 0.19106266128805069 0 -0.13770187294137159 0.2043383794177894 0 -0.13770187294137159 0.2043383794177894 0 -0.13855706597983281 0.21350408889879899 0 -0.14247480998137141 0.20718589651263181 0 -0.1364941099723872 0.21575153757660309 0 -0.120958802369795 0.22183359367242919 0 -0.11894773722242739 0.20818951851535461 0 -0.12967955466007261 0.2074258594294596 0 -0.1364941099723872 0.21575153757660309 0 -0.11894773722242739 0.20818951851535461 0 -0.13770187294137159 0.2043383794177894 0 -0.12967955466007261 0.2074258594294596 0 -0.13855706597983281 0.21350408889879899 0 -0.1364941099723872 0.21575153757660309 0 -0.11894773722242739 0.20818951851535461 0 -0.12967955466007261 0.2074258594294596 0 -0.1364941099723872 0.21575153757660309 0 -0.13855706597983281 0.21350408889879899 0 -0.1364941099723872 0.21575153757660309 0 -0.13855706597983281 0.21350408889879899 0 -0.15922409650484359 0.2255475560397853 0 -0.1364941099723872 0.21575153757660309 0 -0.13855706597983281 0.21350408889879899 0 -0.15922409650484359 0.2255475560397853 0 -0.13855706597983281 0.21350408889879899 0 -0.14930252504067221 0.21020190704756139 0 -0.13855706597983281 0.21350408889879899 0 -0.14247480998137141 0.20718589651263181 0 -0.14930252504067221 0.21020190704756139 0 -0.144337775963609 0.20069921068637719 0 -0.14247480998137141 0.20718589651263181 0 -0.14930252504067221 0.21020190704756139 0 -0.144337775963609 0.20069921068637719 0 -0.13770187294137159 0.2043383794177894 0 -0.14247480998137141 0.20718589651263181 0 -0.15900733689739069 0.21062159977010589 0 -0.15361129879784891 0.20139719057542019 0 -0.14930252504067221 0.21020190704756139 0 -0.15361129879784891 0.20139719057542019 0 -0.144337775963609 0.20069921068637719 0 -0.14930252504067221 0.21020190704756139 0 -0.15922409650484359 0.2255475560397853 0 -0.15900733689739069 0.21062159977010589 0 -0.14930252504067221 0.21020190704756139 0 -0.15922409650484359 0.2255475560397853 0 -0.13635804662702189 0.23039018670563211 0 -0.14207867318260539 0.23889574066385899 0 -0.15922409650484359 0.2255475560397853 0 -0.1364941099723872 0.21575153757660309 0 -0.13635804662702189 0.23039018670563211 0 -0.15922409650484359 0.2255475560397853 0 -0.1364941099723872 0.21575153757660309 0 -0.1364941099723872 0.21575153757660309 0 -0.13635804662702189 0.23039018670563211 0 -0.11673432752768111 0.2372784614512472 0 -0.1364941099723872 0.21575153757660309 0 -0.11673432752768111 0.2372784614512472 0 -0.13635804662702189 0.23039018670563211 0 -0.12961957513534 0.23973743310435161 0 -0.11673432752768111 0.2372784614512472 0 -0.13635804662702189 0.23039018670563211 0 -0.12961957513534 0.23973743310435161 0 -0.14207867318260539 0.23889574066385899 0 -0.12961957513534 0.23973743310435161 0 -0.13357218109292621 0.2499317644564327 0 -0.1213089330464012 0.24626659804535689 0 -0.12961957513534 0.23973743310435161 0 -0.13357218109292621 0.2499317644564327 0 -0.14207867318260539 0.23889574066385899 0 -0.14746997276257359 0.25293699741112718 0 -0.13357218109292621 0.2499317644564327 0 -0.14207867318260539 0.23889574066385899 0 -0.15922409650484359 0.2255475560397853 0 -0.14207867318260539 0.23889574066385899 0 -0.155242522585569 0.24016045739440639 0 -0.14746997276257359 0.25293699741112718 0 -0.14207867318260539 0.23889574066385899 0 -0.155242522585569 0.24016045739440639 0 -0.16225317791305921 0.25358582624422438 0 -0.14746997276257359 0.25293699741112718 0 -0.155242522585569 0.24016045739440639 0 -0.166988808872575 0.14091924592242799 0 -0.1736883691443292 0.1501381655411517 0 -0.1666646902223726 0.16034837340756511 0 -0.166988808872575 0.14091924592242799 0 -0.1666646902223726 0.16034837340756511 0 -0.15580754279098399 0.143121943265237 0 -0.1666646902223726 0.16034837340756511 0 -0.1549726550285947 0.15674585516748279 0 -0.15580754279098399 0.143121943265237 0 -0.1666646902223726 0.16034837340756511 0 -0.15580754279098399 0.143121943265237 0 -0.1628447509754036 0.1248738178506951 0 -0.166988808872575 0.14091924592242799 0 -0.17824709647023271 0.1379937977022469 0 -0.1628447509754036 0.1248738178506951 0 -0.166988808872575 0.14091924592242799 0 -0.15580754279098399 0.143121943265237 0 -0.18039056500006781 0.12121373119240569 0 -0.1628447509754036 0.1248738178506951 0 -0.17824709647023271 0.1379937977022469 0 -0.19563802519160789 0.13807458821396759 0 -0.17824709647023271 0.1379937977022469 0 -0.18706065072040501 0.14468661846275019 0 -0.18039056500006781 0.12121373119240569 0 -0.19563802519160789 0.13807458821396759 0 -0.17824709647023271 0.1379937977022469 0 -0.17824709647023271 0.1379937977022469 0 -0.18706065072040501 0.14468661846275019 0 -0.1811623126986891 0.14793864394101769 0 -0.166988808872575 0.14091924592242799 0 -0.17824709647023271 0.1379937977022469 0 -0.1736883691443292 0.1501381655411517 0 -0.17824709647023271 0.1379937977022469 0 -0.1811623126986891 0.14793864394101769 0 -0.1736883691443292 0.1501381655411517 0 -0.1811623126986891 0.14793864394101769 0 -0.1736883691443292 0.1501381655411517 0 -0.17666515903818969 0.15970684649729899 0 -0.1811623126986891 0.14793864394101769 0 -0.1852646507768699 0.1545619776798173 0 -0.17666515903818969 0.15970684649729899 0 -0.18706065072040501 0.14468661846275019 0 -0.1811623126986891 0.14793864394101769 0 -0.1852646507768699 0.1545619776798173 0 -0.17752183765376101 0.1775748035498933 0 -0.1666646902223726 0.16034837340756511 0 -0.1927705130470404 0.15866088515044 0 -0.1852646507768699 0.1545619776798173 0 -0.18413510522225521 0.16259499244525211 0 -0.17666515903818969 0.15970684649729899 0 -0.17752183765376101 0.1775748035498933 0 -0.1666646902223726 0.16034837340756511 0 -0.1852646507768699 0.1545619776798173 0 -0.18413510522225521 0.16259499244525211 0 -0.17666515903818969 0.15970684649729899 0 -0.18413510522225521 0.16259499244525211 0 -0.17666515903818969 0.15970684649729899 0 -0.17752183765376101 0.1775748035498933 0 -0.19038698318195549 0.16711234260031069 0 -0.18413510522225521 0.16259499244525211 0 -0.17752183765376101 0.1775748035498933 0 -0.1736883691443292 0.1501381655411517 0 -0.17666515903818969 0.15970684649729899 0 -0.1666646902223726 0.16034837340756511 0 -0.17169787432773731 0.19155682751427069 0 -0.17752183765376101 0.1775748035498933 0 -0.16134243263699979 0.18146195783717889 0 -0.17752183765376101 0.1775748035498933 0 -0.160166055014445 0.16782332876165751 0 -0.17752183765376101 0.1775748035498933 0 -0.16134243263699979 0.18146195783717889 0 -0.160166055014445 0.16782332876165751 0 -0.16134243263699979 0.18146195783717889 0 -0.160166055014445 0.16782332876165751 0 -0.1543363168372556 0.17604552304072019 0 -0.16134243263699979 0.18146195783717889 0 -0.15378055215212841 0.1853342336718547 0 -0.1543363168372556 0.17604552304072019 0 -0.15791164184663151 0.19274793286901881 0 -0.16134243263699979 0.18146195783717889 0 -0.15378055215212841 0.1853342336718547 0 -0.17752183765376101 0.1775748035498933 0 -0.1666646902223726 0.16034837340756511 0 -0.160166055014445 0.16782332876165751 0 -0.1666646902223726 0.16034837340756511 0 -0.160166055014445 0.16782332876165751 0 -0.1549726550285947 0.15674585516748279 0 -0.160166055014445 0.16782332876165751 0 -0.1549726550285947 0.15674585516748279 0 -0.14281027237512919 0.15807185397342149 0 -0.160166055014445 0.16782332876165751 0 -0.14281027237512919 0.15807185397342149 0 -0.160166055014445 0.16782332876165751 0 -0.1483000089644074 0.1706867490983929 0 -0.14281027237512919 0.15807185397342149 0 -0.160166055014445 0.16782332876165751 0 -0.1483000089644074 0.1706867490983929 0 -0.1543363168372556 0.17604552304072019 0 -0.1483000089644074 0.1706867490983929 0 -0.14281027237512919 0.15807185397342149 0 -0.13856119746919621 0.1732320213376258 0 -0.14754997702249989 0.19123102061556399 0 -0.15378055215212841 0.1853342336718547 0 -0.1463292802833521 0.18023770330257241 0 -0.15378055215212841 0.1853342336718547 0 -0.1543363168372556 0.17604552304072019 0 -0.1463292802833521 0.18023770330257241 0 -0.1483000089644074 0.1706867490983929 0 -0.1543363168372556 0.17604552304072019 0 -0.1463292802833521 0.18023770330257241 0 -0.1483000089644074 0.1706867490983929 0 -0.1463292802833521 0.18023770330257241 0 -0.13856119746919621 0.1732320213376258 0 -0.13411435042981179 0.19106266128805069 0 -0.13856119746919621 0.1732320213376258 0 -0.12609153575556739 0.16924223779836581 0 -0.13411435042981179 0.19106266128805069 0 -0.12609153575556739 0.16924223779836581 0 -0.1152399272795421 0.1851742901109647 0 -0.13411435042981179 0.19106266128805069 0 -0.1463292802833521 0.18023770330257241 0 -0.13856119746919621 0.1732320213376258 0 -0.14281027237512919 0.15807185397342149 0 -0.12609153575556739 0.16924223779836581 0 -0.135520965557581 0.14756887546063741 0 -0.12609153575556739 0.16924223779836581 0 -0.135520965557581 0.14756887546063741 0 -0.14281027237512919 0.15807185397342149 0 -0.13856119746919621 0.1732320213376258 0 -0.12609153575556739 0.16924223779836581 0 -0.135520965557581 0.14756887546063741 0 -0.13028426483969929 0.13221647237215789 0 -0.1192914655824909 0.15059360814623801 0 -0.12609153575556739 0.16924223779836581 0 -0.135520965557581 0.14756887546063741 0 -0.1192914655824909 0.15059360814623801 0 -0.1549726550285947 0.15674585516748279 0 -0.14281027237512919 0.15807185397342149 0 -0.14652630769324659 0.14708303210739521 0 -0.14281027237512919 0.15807185397342149 0 -0.135520965557581 0.14756887546063741 0 -0.14652630769324659 0.14708303210739521 0 -0.1549726550285947 0.15674585516748279 0 -0.14652630769324659 0.14708303210739521 0 -0.15580754279098399 0.143121943265237 0 -0.1628447509754036 0.1248738178506951 0 -0.15580754279098399 0.143121943265237 0 -0.14495039535959489 0.12589551312290931 0 -0.135520965557581 0.14756887546063741 0 -0.14652630769324659 0.14708303210739521 0 -0.14495039535959489 0.12589551312290931 0 -0.15580754279098399 0.143121943265237 0 -0.14495039535959489 0.12589551312290931 0 -0.14652630769324659 0.14708303210739521 0 -0.15580754279098399 0.143121943265237 0 -0.14495039535959489 0.12589551312290931 0 -0.135520965557581 0.14756887546063741 0 -0.14495039535959489 0.12589551312290931 0 -0.135520965557581 0.14756887546063741 0 -0.14495039535959489 0.12589551312290931 0 -0.13028426483969929 0.13221647237215789 0 -0.13028426483969929 0.13221647237215789 0 -0.1131006250587715 0.12959615498317961 0 -0.1192914655824909 0.15059360814623801 0 -0.1131006250587715 0.12959615498317961 0 -0.10078539792307099 0.15464240809582361 0 -0.092802426943272898 0.12960292979422991 0 -0.1131006250587715 0.12959615498317961 0 -0.10078539792307099 0.15464240809582361 0 -0.1192914655824909 0.15059360814623801 0 -0.10078539792307099 0.15464240809582361 0 -0.1192914655824909 0.15059360814623801 0 -0.10897534263953949 0.16967833346669081 0 -0.12609153575556739 0.16924223779836581 0 -0.1192914655824909 0.15059360814623801 0 -0.10897534263953949 0.16967833346669081 0 -0.12609153575556739 0.16924223779836581 0 -0.1152399272795421 0.1851742901109647 0 -0.10897534263953949 0.16967833346669081 0 -0.1152399272795421 0.1851742901109647 0 -0.098409264142157865 0.1851788001203086 0 -0.10897534263953949 0.16967833346669081 0 -0.098409264142157865 0.1851788001203086 0 -0.10897534263953949 0.16967833346669081 0 -0.082277471490505807 0.17420718144711089 0 -0.10078539792307099 0.15464240809582361 0 -0.10897534263953949 0.16967833346669081 0 -0.082277471490505807 0.17420718144711089 0 -0.10078539792307099 0.15464240809582361 0 -0.082277471490505807 0.17420718144711089 0 -0.082277471490505807 0.17420718144711089 0 -0.065615427061545384 0.16058384892905991 0 -0.074642854581774637 0.14147916649728479 0 -0.10078539792307099 0.15464240809582361 0 -0.082277471490505807 0.17420718144711089 0 -0.074642854581774637 0.14147916649728479 0 -0.098409264142157865 0.1851788001203086 0 -0.082277471490505807 0.17420718144711089 0 -0.084152214828733252 0.19620669612267311 0 -0.082277471490505807 0.17420718144711089 0 -0.063769545057940663 0.19377195479839809 0 -0.082277471490505807 0.17420718144711089 0 -0.063769545057940663 0.19377195479839809 0 -0.051824687549248197 0.17345858692208871 0 -0.082277471490505807 0.17420718144711089 0 -0.065615427061545384 0.16058384892905991 0 -0.051824687549248197 0.17345858692208871 0 -0.074642854581774637 0.14147916649728479 0 -0.055186524828957063 0.1281687789626855 0 -0.07438317581125764 0.1124407737129243 0 -0.074642854581774637 0.14147916649728479 0 -0.092802426943272898 0.12960292979422991 0 -0.07438317581125764 0.1124407737129243 0 -0.10078539792307099 0.15464240809582361 0 -0.074642854581774637 0.14147916649728479 0 -0.092802426943272898 0.12960292979422991 0 -0.10058650277722481 0.24229521027045481 0 -0.11673432752768111 0.2372784614512472 0 -0.1053270170515283 0.2324499666522013 0 -0.096974545082976191 0.25880538532589209 0 -0.10058650277722481 0.24229521027045481 0 -0.088715331182393942 0.2449718195011524 0 -0.096974545082976191 0.25880538532589209 0 -0.10058650277722481 0.24229521027045481 0 -0.11673432752768111 0.2372784614512472 0 -0.096974545082976191 0.25880538532589209 0 -0.112097455783086 0.24444379951602521 0 -0.11673432752768111 0.2372784614512472 0 -0.096974545082976191 0.25880538532589209 0 -0.11673432752768111 0.2372784614512472 0 -0.10058650277722481 0.24229521027045481 0 -0.091983872440322634 0.23323291704093771 0 -0.088715331182393942 0.2449718195011524 0 -0.10058650277722481 0.24229521027045481 0 -0.1053270170515283 0.2324499666522013 0 -0.091983872440322634 0.23323291704093771 0 -0.11521273165378559 0.25497892835963998 0 -0.112097455783086 0.24444379951602521 0 -0.1213089330464012 0.24626659804535689 0 -0.112097455783086 0.24444379951602521 0 -0.1213089330464012 0.24626659804535689 0 -0.11673432752768111 0.2372784614512472 0 -0.12961957513534 0.23973743310435161 0 -0.1213089330464012 0.24626659804535689 0 -0.11673432752768111 0.2372784614512472 0 -0.11673432752768111 0.2372784614512472 0 -0.111977792011399 0.2261119040305537 0 -0.1053270170515283 0.2324499666522013 0 -0.1364941099723872 0.21575153757660309 0 -0.11673432752768111 0.2372784614512472 0 -0.120958802369795 0.22183359367242919 0 -0.11673432752768111 0.2372784614512472 0 -0.120958802369795 0.22183359367242919 0 -0.111977792011399 0.2261119040305537 0 -0.120958802369795 0.22183359367242919 0 -0.111977792011399 0.2261119040305537 0 -0.11263418842693861 0.21654350143059611 0 -0.111977792011399 0.2261119040305537 0 -0.1027476190553803 0.22153268259517769 0 -0.11263418842693861 0.21654350143059611 0 -0.1027476190553803 0.22153268259517769 0 -0.088008266818085573 0.21525264443096179 0 -0.091983872440322634 0.23323291704093771 0 -0.111977792011399 0.2261119040305537 0 -0.1027476190553803 0.22153268259517769 0 -0.1053270170515283 0.2324499666522013 0 -0.1027476190553803 0.22153268259517769 0 -0.1053270170515283 0.2324499666522013 0 -0.091983872440322634 0.23323291704093771 0 -0.1027476190553803 0.22153268259517769 0 -0.1014013644724687 0.20062749945410349 0 -0.088008266818085573 0.21525264443096179 0 -0.1027476190553803 0.22153268259517769 0 -0.11263418842693861 0.21654350143059611 0 -0.1014013644724687 0.20062749945410349 0 -0.11263418842693861 0.21654350143059611 0 -0.11894773722242739 0.20818951851535461 0 -0.1014013644724687 0.20062749945410349 0 -0.11894773722242739 0.20818951851535461 0 -0.1014013644724687 0.20062749945410349 0 -0.120958802369795 0.22183359367242919 0 -0.11263418842693861 0.21654350143059611 0 -0.11894773722242739 0.20818951851535461 0 -0.12967955466007261 0.2074258594294596 0 -0.11894773722242739 0.20818951851535461 0 -0.1235431789710726 0.1969801993001162 0 -0.11894773722242739 0.20818951851535461 0 -0.1235431789710726 0.1969801993001162 0 -0.1014013644724687 0.20062749945410349 0 -0.13411435042981179 0.19106266128805069 0 -0.1152399272795421 0.1851742901109647 0 -0.1235431789710726 0.1969801993001162 0 -0.1152399272795421 0.1851742901109647 0 -0.1235431789710726 0.1969801993001162 0 -0.1014013644724687 0.20062749945410349 0 -0.1152399272795421 0.1851742901109647 0 -0.098409264142157865 0.1851788001203086 0 -0.1014013644724687 0.20062749945410349 0 -0.098409264142157865 0.1851788001203086 0 -0.1014013644724687 0.20062749945410349 0 -0.084152214828733252 0.19620669612267311 0 -0.084152214828733252 0.19620669612267311 0 -0.063769545057940663 0.19377195479839809 0 -0.072142849724606259 0.2099260872470029 0 -0.082277471490505807 0.17420718144711089 0 -0.084152214828733252 0.19620669612267311 0 -0.063769545057940663 0.19377195479839809 0 -0.072142849724606259 0.2099260872470029 0 -0.088008266818085573 0.21525264443096179 0 -0.068407602306599244 0.22780678473085289 0 -0.084152214828733252 0.19620669612267311 0 -0.072142849724606259 0.2099260872470029 0 -0.088008266818085573 0.21525264443096179 0 -0.1014013644724687 0.20062749945410349 0 -0.084152214828733252 0.19620669612267311 0 -0.088008266818085573 0.21525264443096179 0 -0.091983872440322634 0.23323291704093771 0 -0.068407602306599244 0.22780678473085289 0 -0.080478212985736569 0.23984126859451149 0 -0.088008266818085573 0.21525264443096179 0 -0.091983872440322634 0.23323291704093771 0 -0.068407602306599244 0.22780678473085289 0 -0.073553522625709841 0.25068431627396631 0 -0.068407602306599244 0.22780678473085289 0 -0.080478212985736569 0.23984126859451149 0 -0.073553522625709841 0.25068431627396631 0 -0.068407602306599244 0.22780678473085289 0 -0.050132500168443887 0.2425632472220397 0 -0.073553522625709841 0.25068431627396631 0 -0.080478212985736569 0.23984126859451149 0 -0.088715331182393942 0.2449718195011524 0 -0.091983872440322634 0.23323291704093771 0 -0.080478212985736569 0.23984126859451149 0 -0.088715331182393942 0.2449718195011524 0 -0.050132500168443887 0.2425632472220397 0 -0.026711477711177899 0.23444217817011309 0 -0.029881977245259539 0.25372898958001938 0 -0.050132500168443887 0.2425632472220397 0 -0.026711477711177899 0.23444217817011309 0 -0.050132500168443887 0.2425632472220397 0 -0.042100384295285467 0.22888272761933071 0 -0.026711477711177899 0.23444217817011309 0 -0.073553522625709841 0.25068431627396631 0 -0.050132500168443887 0.2425632472220397 0 -0.068407602306599244 0.22780678473085289 0 -0.050132500168443887 0.2425632472220397 0 -0.042100384295285467 0.22888272761933071 0 -0.068407602306599244 0.22780678473085289 0 -0.042100384295285467 0.22888272761933071 0 -0.045261618625375449 0.21333672814968549 0 -0.045261618625375449 0.21333672814968549 0 -0.02675369219281019 0.23290150150097291 0 -0.045261618625375449 0.21333672814968549 0 -0.02772339752401377 0.22169904798743939 0 -0.02675369219281019 0.23290150150097291 0 -0.042100384295285467 0.22888272761933071 0 -0.045261618625375449 0.21333672814968549 0 -0.02675369219281019 0.23290150150097291 0 -0.042100384295285467 0.22888272761933071 0 -0.02675369219281019 0.23290150150097291 0 -0.026711477711177899 0.23444217817011309 0 -0.045261618625375449 0.21333672814968549 0 -0.025983012380334781 0.2115930184476672 0 -0.02772339752401377 0.22169904798743939 0 -0.045261618625375449 0.21333672814968549 0 -0.029252980350323681 0.1977376245802884 0 -0.025983012380334781 0.2115930184476672 0 -0.063769545057940663 0.19377195479839809 0 -0.045261618625375449 0.21333672814968549 0 -0.063769545057940663 0.19377195479839809 0 -0.072142849724606259 0.2099260872470029 0 -0.045261618625375449 0.21333672814968549 0 -0.072142849724606259 0.2099260872470029 0 -0.068407602306599244 0.22780678473085289 0 -0.045261618625375449 0.21333672814968549 0 -0.063769545057940663 0.19377195479839809 0 -0.045261618625375449 0.21333672814968549 0 -0.041349789320347038 0.18749549167170951 0 -0.029252980350323681 0.1977376245802884 0 -0.041349789320347038 0.18749549167170951 0 -0.02440704960050057 0.1813667693045137 0 -0.045261618625375449 0.21333672814968549 0 -0.029252980350323681 0.1977376245802884 0 -0.041349789320347038 0.18749549167170951 0 -0.029252980350323681 0.1977376245802884 0 -0.01949536222664228 0.1923427933584827 0 -0.02440704960050057 0.1813667693045137 0 -0.029252980350323681 0.1977376245802884 0 -0.019383630886315679 0.20246845033521829 0 -0.01949536222664228 0.1923427933584827 0 -0.019383630886315679 0.20246845033521829 0 -0.01949536222664228 0.1923427933584827 0 -0.011799668219416901 0.19617813045667529 0 -0.01949536222664228 0.1923427933584827 0 -0.011799668219416901 0.19617813045667529 0 -0.0099503170468955675 0.185467411183286 0 -0.0047591026019954026 0.19332022418589959 0 -0.011799668219416901 0.19617813045667529 0 -0.0099503170468955675 0.185467411183286 0 -0.0047591026019954026 0.19332022418589959 0 -0.003081975793268537 0.18782002811878001 0 -0.0099503170468955675 0.185467411183286 0 -0.0047591026019954026 0.19332022418589959 0 -2.3422743153838069e-05 0.1988005567515452 0 0.0015327128313205251 0.1915709431207247 0 -0.0047591026019954026 0.19332022418589959 0 -0.003081975793268537 0.18782002811878001 0 0.0015327128313205251 0.1915709431207247 0 -2.3422743153838069e-05 0.1988005567515452 0 -0.0064134676939889088 0.1997865992100484 0 -0.0042090490499692894 0.20625736901624969 0 -0.0047591026019954026 0.19332022418589959 0 -2.3422743153838069e-05 0.1988005567515452 0 -0.0064134676939889088 0.1997865992100484 0 -0.0047591026019954026 0.19332022418589959 0 -0.0064134676939889088 0.1997865992100484 0 -0.011799668219416901 0.19617813045667529 0 -0.019383630886315679 0.20246845033521829 0 -0.011799668219416901 0.19617813045667529 0 -0.01127609585540912 0.20437671563987239 0 -0.0064134676939889088 0.1997865992100484 0 -0.011799668219416901 0.19617813045667529 0 -0.01127609585540912 0.20437671563987239 0 -0.019383630886315679 0.20246845033521829 0 -0.01127609585540912 0.20437671563987239 0 -0.015975625416527989 0.21106072298800291 0 -0.0098363755348389904 0.2097806401996784 0 -0.01127609585540912 0.20437671563987239 0 -0.015975625416527989 0.21106072298800291 0 -0.0098363755348389904 0.2097806401996784 0 -0.01127609585540912 0.20437671563987239 0 -0.0042090490499692894 0.20625736901624969 0 -0.0042090490499692894 0.20625736901624969 0 0.00083142932333707279 0.21381627434491049 0 0.0029581381265264858 0.20519393183106241 0 -0.0064134676939889088 0.1997865992100484 0 -0.01127609585540912 0.20437671563987239 0 -0.0042090490499692894 0.20625736901624969 0 -0.0098363755348389904 0.2097806401996784 0 -0.0042090490499692894 0.20625736901624969 0 -0.0060196598873338584 0.21321125444391051 0 -2.3422743153838069e-05 0.1988005567515452 0 -0.0042090490499692894 0.20625736901624969 0 0.0029581381265264858 0.20519393183106241 0 -0.0055559642639475869 0.21913689448513271 0 0.0001093474821353509 0.22215689039817851 0 0.00083142932333707279 0.21381627434491049 0 -0.0060196598873338584 0.21321125444391051 0 -0.0055559642639475869 0.21913689448513271 0 0.00083142932333707279 0.21381627434491049 0 -0.0042090490499692894 0.20625736901624969 0 -0.0060196598873338584 0.21321125444391051 0 0.00083142932333707279 0.21381627434491049 0 -0.0060196598873338584 0.21321125444391051 0 -0.01091493828254137 0.21625783395607551 0 -0.0055559642639475869 0.21913689448513271 0 -0.01091493828254137 0.21625783395607551 0 -0.015975625416527989 0.21106072298800291 0 -0.017588491814277241 0.22188462813269769 0 -0.0098363755348389904 0.2097806401996784 0 -0.0060196598873338584 0.21321125444391051 0 -0.01091493828254137 0.21625783395607551 0 -0.0098363755348389904 0.2097806401996784 0 -0.01091493828254137 0.21625783395607551 0 -0.015975625416527989 0.21106072298800291 0 -0.015975625416527989 0.21106072298800291 0 -0.025983012380334781 0.2115930184476672 0 -0.017588491814277241 0.22188462813269769 0 -0.019383630886315679 0.20246845033521829 0 -0.015975625416527989 0.21106072298800291 0 -0.025983012380334781 0.2115930184476672 0 -0.029252980350323681 0.1977376245802884 0 -0.019383630886315679 0.20246845033521829 0 -0.025983012380334781 0.2115930184476672 0 -0.025983012380334781 0.2115930184476672 0 -0.02772339752401377 0.22169904798743939 0 -0.017588491814277241 0.22188462813269769 0 -0.02772339752401377 0.22169904798743939 0 -0.02675369219281019 0.23290150150097291 0 -0.022352419066048221 0.22652947853539249 0 -0.02675369219281019 0.23290150150097291 0 -0.017344094733091689 0.22963273652046001 0 -0.01246950101347712 0.23792538229425519 0 -0.02675369219281019 0.23290150150097291 0 -0.017344094733091689 0.22963273652046001 0 -0.022352419066048221 0.22652947853539249 0 -0.017344094733091689 0.22963273652046001 0 -0.017588491814277241 0.22188462813269769 0 -0.01350500053265637 0.2263729039251991 0 -0.017344094733091689 0.22963273652046001 0 -0.022352419066048221 0.22652947853539249 0 -0.017588491814277241 0.22188462813269769 0 -0.02772339752401377 0.22169904798743939 0 -0.022352419066048221 0.22652947853539249 0 -0.017588491814277241 0.22188462813269769 0 -0.01091493828254137 0.21625783395607551 0 -0.017588491814277241 0.22188462813269769 0 -0.01009356448405245 0.2229710377255022 0 -0.017588491814277241 0.22188462813269769 0 -0.01350500053265637 0.2263729039251991 0 -0.01009356448405245 0.2229710377255022 0 -0.01091493828254137 0.21625783395607551 0 -0.01009356448405245 0.2229710377255022 0 -0.0055559642639475869 0.21913689448513271 0 -0.01009356448405245 0.2229710377255022 0 -0.0055559642639475869 0.21913689448513271 0 -0.0046023563546483629 0.22639127835839259 0 -0.0055559642639475869 0.21913689448513271 0 -0.0046023563546483629 0.22639127835839259 0 0.0001093474821353509 0.22215689039817851 0 -0.0046023563546483629 0.22639127835839259 0 0.0010433620948100131 0.23240638127880581 0 0.0001093474821353509 0.22215689039817851 0 -0.0046023563546483629 0.22639127835839259 0 -0.0089938510992040935 0.23100321332213661 0 0.0010433620948100131 0.23240638127880581 0 -0.017344094733091689 0.22963273652046001 0 -0.0089938510992040935 0.23100321332213661 0 -0.01246950101347712 0.23792538229425519 0 -0.01009356448405245 0.2229710377255022 0 -0.0046023563546483629 0.22639127835839259 0 -0.0089938510992040935 0.23100321332213661 0 -0.017344094733091689 0.22963273652046001 0 -0.01350500053265637 0.2263729039251991 0 -0.0089938510992040935 0.23100321332213661 0 -0.01350500053265637 0.2263729039251991 0 -0.01009356448405245 0.2229710377255022 0 -0.0089938510992040935 0.23100321332213661 0 -0.0089938510992040935 0.23100321332213661 0 -0.001965278602122185 0.24182690426762959 0 0.0010433620948100131 0.23240638127880581 0 -0.0089938510992040935 0.23100321332213661 0 -0.01246950101347712 0.23792538229425519 0 -0.001965278602122185 0.24182690426762959 0 -0.0082457657602449386 0.25246627485226031 0 -0.01246950101347712 0.23792538229425519 0 -0.001965278602122185 0.24182690426762959 0 -0.0082457657602449386 0.25246627485226031 0 -0.02675369219281019 0.23290150150097291 0 -0.01246950101347712 0.23792538229425519 0 -0.029881977245259539 0.25372898958001938 0 -0.0082457657602449386 0.25246627485226031 0 -0.026711477711177899 0.23444217817011309 0 -0.0082457657602449386 0.25246627485226031 0 -0.02675369219281019 0.23290150150097291 0 -0.026711477711177899 0.23444217817011309 0 -0.0082457657602449386 0.25246627485226031 0 -0.02675369219281019 0.23290150150097291 0 -0.046893106203257602 0.1507880314475378 0 -0.033582854738693747 0.16530128627528251 0 -0.03096555907766051 0.14775731769023701 0 -0.035508455794597132 0.13046501110523001 0 -0.046893106203257602 0.1507880314475378 0 -0.03096555907766051 0.14775731769023701 0 -0.035508455794597132 0.13046501110523001 0 -0.046893106203257602 0.1507880314475378 0 -0.035508455794597132 0.13046501110523001 0 -0.055186524828957063 0.1281687789626855 0 -0.046893106203257602 0.1507880314475378 0 -0.035508455794597132 0.13046501110523001 0 -0.055186524828957063 0.1281687789626855 0 -0.04045215309894238 0.1165912735558266 0 -0.074642854581774637 0.14147916649728479 0 -0.055186524828957063 0.1281687789626855 0 -0.046893106203257602 0.1507880314475378 0 -0.065615427061545384 0.16058384892905991 0 -0.074642854581774637 0.14147916649728479 0 -0.046893106203257602 0.1507880314475378 0 -0.065615427061545384 0.16058384892905991 0 -0.046893106203257602 0.1507880314475378 0 -0.051824687549248197 0.17345858692208871 0 -0.063769545057940663 0.19377195479839809 0 -0.051824687549248197 0.17345858692208871 0 -0.041349789320347038 0.18749549167170951 0 -0.041349789320347038 0.18749549167170951 0 -0.033582854738693747 0.16530128627528251 0 -0.02440704960050057 0.1813667693045137 0 -0.051824687549248197 0.17345858692208871 0 -0.041349789320347038 0.18749549167170951 0 -0.033582854738693747 0.16530128627528251 0 -0.046893106203257602 0.1507880314475378 0 -0.051824687549248197 0.17345858692208871 0 -0.033582854738693747 0.16530128627528251 0 -0.033582854738693747 0.16530128627528251 0 -0.022139091883514501 0.16815071126606429 0 -0.02440704960050057 0.1813667693045137 0 -0.033582854738693747 0.16530128627528251 0 -0.022139091883514501 0.16815071126606429 0 -0.016648491277264341 0.15771365056650341 0 -0.033582854738693747 0.16530128627528251 0 -0.016648491277264341 0.15771365056650341 0 -0.03096555907766051 0.14775731769023701 0 -0.022139091883514501 0.16815071126606429 0 -0.02440704960050057 0.1813667693045137 0 -0.01283771780100665 0.17547196173435681 0 -0.01949536222664228 0.1923427933584827 0 -0.02440704960050057 0.1813667693045137 0 -0.0099503170468955675 0.185467411183286 0 -0.02440704960050057 0.1813667693045137 0 -0.0099503170468955675 0.185467411183286 0 -0.01283771780100665 0.17547196173435681 0 -0.0099503170468955675 0.185467411183286 0 -0.01283771780100665 0.17547196173435681 0 -0.00450206117857799 0.17688747855202069 0 -0.01283771780100665 0.17547196173435681 0 -0.00450206117857799 0.17688747855202069 0 -0.0026654791677323511 0.16604552865166611 0 -0.00450206117857799 0.17688747855202069 0 -0.0026654791677323511 0.16604552865166611 0 0.0024081860720475369 0.17557227428335351 0 -0.00450206117857799 0.17688747855202069 0 0.00053502205069707774 0.18188021690744111 0 0.0024081860720475369 0.17557227428335351 0 -0.0099503170468955675 0.185467411183286 0 -0.00450206117857799 0.17688747855202069 0 0.00053502205069707774 0.18188021690744111 0 -0.003081975793268537 0.18782002811878001 0 -0.0099503170468955675 0.185467411183286 0 0.00053502205069707774 0.18188021690744111 0 -0.022139091883514501 0.16815071126606429 0 -0.016648491277264341 0.15771365056650341 0 -0.0026654791677323511 0.16604552865166611 0 -0.022139091883514501 0.16815071126606429 0 -0.01283771780100665 0.17547196173435681 0 -0.0026654791677323511 0.16604552865166611 0 -0.016648491277264341 0.15771365056650341 0 -0.0026654791677323511 0.16604552865166611 0 0.00151890392611572 0.15456094484017679 0 -0.016648491277264341 0.15771365056650341 0 -0.0026654791677323511 0.16604552865166611 0 -0.0082797250895681185 0.13474448294352481 0 0.00151890392611572 0.15456094484017679 0 -0.016648491277264341 0.15771365056650341 0 -0.0082797250895681185 0.13474448294352481 0 0.00151890392611572 0.15456094484017679 0 -0.016648491277264341 0.15771365056650341 0 -0.03096555907766051 0.14775731769023701 0 -0.022194887374489752 0.13451860905663129 0 -0.016648491277264341 0.15771365056650341 0 -0.022194887374489752 0.13451860905663129 0 -0.0082797250895681185 0.13474448294352481 0 -0.035508455794597132 0.13046501110523001 0 -0.03096555907766051 0.14775731769023701 0 -0.022194887374489752 0.13451860905663129 0 -0.035508455794597132 0.13046501110523001 0 -0.022194887374489752 0.13451860905663129 0 -0.02222625157844095 0.1227088344756834 0 -0.022194887374489752 0.13451860905663129 0 -0.012678773622269129 0.1213748672570316 0 -0.02222625157844095 0.1227088344756834 0 -0.022194887374489752 0.13451860905663129 0 -0.0082797250895681185 0.13474448294352481 0 -0.012678773622269129 0.1213748672570316 0 -0.0082797250895681185 0.13474448294352481 0 -0.012678773622269129 0.1213748672570316 0 0.0010393500416724941 0.12595831854165979 0 -0.012678773622269129 0.1213748672570316 0 -0.0069683050282923539 0.11495619240176071 0 0.0010393500416724941 0.12595831854165979 0 -0.0069683050282923539 0.11495619240176071 0 0.00039794405216867472 0.112072386291362 0 0.0010393500416724941 0.12595831854165979 0 -0.012678773622269129 0.1213748672570316 0 -0.012248850971573841 0.1125208075020822 0 -0.01744198128355802 0.11503771634109559 0 -0.012678773622269129 0.1213748672570316 0 -0.012248850971573841 0.1125208075020822 0 -0.0069683050282923539 0.11495619240176071 0 -0.012248850971573841 0.1125208075020822 0 -0.0069683050282923539 0.11495619240176071 0 -0.0083997351711877014 0.10895079227570641 0 -0.0069683050282923539 0.11495619240176071 0 -0.0083997351711877014 0.10895079227570641 0 0.00039794405216867472 0.112072386291362 0 -0.011506603279544361 0.087618711973773578 0 0.0058206420146291954 0.1114089238878985 0 0.00039794405216867472 0.112072386291362 0 -0.015837719346710199 0.095350294128549784 0 -0.011506603279544361 0.087618711973773578 0 0.00039794405216867472 0.112072386291362 0 -0.011506603279544361 0.087618711973773578 0 0.0058206420146291954 0.1114089238878985 0 -0.015837719346710199 0.095350294128549784 0 0.00039794405216867472 0.112072386291362 0 -0.0083997351711877014 0.10895079227570641 0 -0.015837719346710199 0.095350294128549784 0 0.00039794405216867472 0.112072386291362 0 -0.011506603279544361 0.087618711973773578 0 0.0017142141577850001 0.096485027642689541 0 0.0058206420146291954 0.1114089238878985 0 -0.0083997351711877014 0.10895079227570641 0 -0.013221823848225379 0.1065091018144344 0 -0.015837719346710199 0.095350294128549784 0 -0.012248850971573841 0.1125208075020822 0 -0.0083997351711877014 0.10895079227570641 0 -0.013221823848225379 0.1065091018144344 0 -0.012248850971573841 0.1125208075020822 0 -0.013221823848225379 0.1065091018144344 0 -0.017997844109414411 0.1087655018954708 0 -0.017997844109414411 0.1087655018954708 0 -0.015837719346710199 0.095350294128549784 0 -0.024123805385937312 0.11014199076292169 0 -0.013221823848225379 0.1065091018144344 0 -0.017997844109414411 0.1087655018954708 0 -0.015837719346710199 0.095350294128549784 0 -0.024123805385937312 0.11014199076292169 0 -0.032300333499350402 0.090057470672271281 0 -0.015837719346710199 0.095350294128549784 0 -0.024123805385937312 0.11014199076292169 0 -0.032300333499350402 0.090057470672271281 0 -0.015837719346710199 0.095350294128549784 0 -0.024123805385937312 0.11014199076292169 0 -0.035508455794597132 0.13046501110523001 0 -0.024123805385937312 0.11014199076292169 0 -0.023307159817290739 0.1121479686184283 0 -0.035508455794597132 0.13046501110523001 0 -0.02222625157844095 0.1227088344756834 0 -0.023307159817290739 0.1121479686184283 0 -0.035508455794597132 0.13046501110523001 0 -0.024123805385937312 0.11014199076292169 0 -0.024123805385937312 0.11014199076292169 0 -0.023307159817290739 0.1121479686184283 0 -0.012678773622269129 0.1213748672570316 0 -0.02222625157844095 0.1227088344756834 0 -0.01744198128355802 0.11503771634109559 0 -0.02222625157844095 0.1227088344756834 0 -0.01744198128355802 0.11503771634109559 0 -0.023307159817290739 0.1121479686184283 0 -0.012248850971573841 0.1125208075020822 0 -0.017997844109414411 0.1087655018954708 0 -0.01744198128355802 0.11503771634109559 0 -0.017997844109414411 0.1087655018954708 0 -0.024123805385937312 0.11014199076292169 0 -0.023307159817290739 0.1121479686184283 0 -0.017997844109414411 0.1087655018954708 0 -0.01744198128355802 0.11503771634109559 0 -0.023307159817290739 0.1121479686184283 0 -0.0046988296279310846 0.075465987257500103 0 -0.004471055932428975 0.061346262570306953 0 0.0079626054049135586 0.052863747179962457 0 -0.0093767874180366029 0.073051079923104223 0 -0.014915188529848109 0.07157527628023079 0 -0.011506603279544361 0.087618711973773578 0 -0.0096267601800840239 0.066065855624376196 0 -0.01690032334888349 0.065021557104339434 0 -0.015766095144715799 0.059221925757037469 0 -0.0096267601800840239 0.066065855624376196 0 -0.014915188529848109 0.07157527628023079 0 -0.01690032334888349 0.065021557104339434 0 -0.0096267601800840239 0.066065855624376196 0 -0.0093767874180366029 0.073051079923104223 0 -0.014915188529848109 0.07157527628023079 0 -0.0096267601800840239 0.066065855624376196 0 -0.0046988296279310846 0.075465987257500103 0 -0.004471055932428975 0.061346262570306953 0 -0.0046988296279310846 0.075465987257500103 0 -0.0093767874180366029 0.073051079923104223 0 -0.0096267601800840239 0.066065855624376196 0 -0.0046988296279310846 0.075465987257500103 0 -0.0093767874180366029 0.073051079923104223 0 -0.0046988296279310846 0.075465987257500103 0 -0.011506603279544361 0.087618711973773578 0 -0.0046988296279310846 0.075465987257500103 0 -0.0093767874180366029 0.073051079923104223 0 -0.011506603279544361 0.087618711973773578 0 -0.0046988296279310846 0.075465987257500103 0 -0.011506603279544361 0.087618711973773578 0 0.00056903788424511365 0.086682396089073327 0 -0.011506603279544361 0.087618711973773578 0 0.00056903788424511365 0.086682396089073327 0 0.0017142141577850001 0.096485027642689541 0 -0.015837719346710199 0.095350294128549784 0 -0.011506603279544361 0.087618711973773578 0 -0.011506603279544361 0.087618711973773578 0 -0.028157290479737571 0.082661622355085798 0 -0.027165468422692102 0.066119176775560506 0 -0.015837719346710199 0.095350294128549784 0 -0.011506603279544361 0.087618711973773578 0 -0.028157290479737571 0.082661622355085798 0 -0.015837719346710199 0.095350294128549784 0 -0.028157290479737571 0.082661622355085798 0 -0.032300333499350402 0.090057470672271281 0 -0.015837719346710199 0.095350294128549784 0 -0.028157290479737571 0.082661622355085798 0 -0.014915188529848109 0.07157527628023079 0 -0.011506603279544361 0.087618711973773578 0 -0.027165468422692102 0.066119176775560506 0 -0.011506603279544361 0.087618711973773578 0 -0.027165468422692102 0.066119176775560506 0 -0.027165468422692102 0.066119176775560506 0 -0.01690032334888349 0.065021557104339434 0 -0.021155304748881689 0.062203044053262727 0 -0.014915188529848109 0.07157527628023079 0 -0.027165468422692102 0.066119176775560506 0 -0.01690032334888349 0.065021557104339434 0 -0.027165468422692102 0.066119176775560506 0 -0.040476861612764189 0.069972950581621118 0 -0.047888547298180387 0.051767161035057033 0 -0.028157290479737571 0.082661622355085798 0 -0.027165468422692102 0.066119176775560506 0 -0.040476861612764189 0.069972950581621118 0 -0.040476861612764189 0.069972950581621118 0 -0.049934811086014087 0.07186746235717667 0 -0.047859912164240369 0.063897566148078455 0 -0.028157290479737571 0.082661622355085798 0 -0.040476861612764189 0.069972950581621118 0 -0.040476861612764189 0.069972950581621118 0 -0.032300333499350402 0.090057470672271281 0 -0.028157290479737571 0.082661622355085798 0 -0.040476861612764189 0.069972950581621118 0 -0.032300333499350402 0.090057470672271281 0 -0.032300333499350402 0.090057470672271281 0 -0.052294403454901703 0.081174947256086191 0 -0.05578440732887191 0.096170589739797752 0 -0.040476861612764189 0.069972950581621118 0 -0.032300333499350402 0.090057470672271281 0 -0.052294403454901703 0.081174947256086191 0 -0.052294403454901703 0.081174947256086191 0 -0.05578440732887191 0.096170589739797752 0 -0.071620526940906107 0.087533684005701329 0 -0.052294403454901703 0.081174947256086191 0 -0.071620526940906107 0.087533684005701329 0 -0.062515526400001881 0.068377579792855414 0 -0.040476861612764189 0.069972950581621118 0 -0.052294403454901703 0.081174947256086191 0 -0.049934811086014087 0.07186746235717667 0 -0.052294403454901703 0.081174947256086191 0 -0.049934811086014087 0.07186746235717667 0 -0.062515526400001881 0.068377579792855414 0 -0.049934811086014087 0.07186746235717667 0 -0.052204780428632629 0.062945341387988421 0 -0.062515526400001881 0.068377579792855414 0 -0.052204780428632629 0.062945341387988421 0 -0.062515526400001881 0.068377579792855414 0 -0.055379183454653792 0.058514889464143828 0 -0.049934811086014087 0.07186746235717667 0 -0.052204780428632629 0.062945341387988421 0 -0.047859912164240369 0.063897566148078455 0 -0.024123805385937312 0.11014199076292169 0 -0.04045215309894238 0.1165912735558266 0 -0.041170092212669533 0.1046411265361262 0 -0.035508455794597132 0.13046501110523001 0 -0.024123805385937312 0.11014199076292169 0 -0.04045215309894238 0.1165912735558266 0 -0.04045215309894238 0.1165912735558266 0 -0.041170092212669533 0.1046411265361262 0 -0.052159737415513489 0.1112025467171566 0 -0.032300333499350402 0.090057470672271281 0 -0.041170092212669533 0.1046411265361262 0 -0.05578440732887191 0.096170589739797752 0 -0.024123805385937312 0.11014199076292169 0 -0.032300333499350402 0.090057470672271281 0 -0.041170092212669533 0.1046411265361262 0 -0.05578440732887191 0.096170589739797752 0 -0.052159737415513489 0.1112025467171566 0 -0.07438317581125764 0.1124407737129243 0 -0.041170092212669533 0.1046411265361262 0 -0.05578440732887191 0.096170589739797752 0 -0.052159737415513489 0.1112025467171566 0 -0.055186524828957063 0.1281687789626855 0 -0.04045215309894238 0.1165912735558266 0 -0.052159737415513489 0.1112025467171566 0 -0.055186524828957063 0.1281687789626855 0 -0.052159737415513489 0.1112025467171566 0 -0.07438317581125764 0.1124407737129243 0 -0.092802426943272898 0.12960292979422991 0 -0.07438317581125764 0.1124407737129243 0 -0.10110008134148971 0.1098561456819369 0 -0.07438317581125764 0.1124407737129243 0 -0.086834659998143784 0.098004038152668241 0 -0.10110008134148971 0.1098561456819369 0 -0.07438317581125764 0.1124407737129243 0 -0.086834659998143784 0.098004038152668241 0 -0.071620526940906107 0.087533684005701329 0 -0.05578440732887191 0.096170589739797752 0 -0.07438317581125764 0.1124407737129243 0 -0.071620526940906107 0.087533684005701329 0 -0.071620526940906107 0.087533684005701329 0 -0.062515526400001881 0.068377579792855414 0 -0.077633089280774809 0.070659037798975324 0 -0.062515526400001881 0.068377579792855414 0 -0.077633089280774809 0.070659037798975324 0 -0.069862538744371955 0.057777113150521288 0 -0.077633089280774809 0.070659037798975324 0 -0.081860045586377939 0.060182951188062161 0 -0.069862538744371955 0.057777113150521288 0 -0.077633089280774809 0.070659037798975324 0 -0.09054666164713164 0.067286880848174316 0 -0.081860045586377939 0.060182951188062161 0 -0.077633089280774809 0.070659037798975324 0 -0.09054666164713164 0.067286880848174316 0 -0.091096470542610469 0.082323341280698709 0 -0.071620526940906107 0.087533684005701329 0 -0.077633089280774809 0.070659037798975324 0 -0.091096470542610469 0.082323341280698709 0 -0.086834659998143784 0.098004038152668241 0 -0.071620526940906107 0.087533684005701329 0 -0.091096470542610469 0.082323341280698709 0 -0.086834659998143784 0.098004038152668241 0 -0.091096470542610469 0.082323341280698709 0 -0.1074822184466613 0.088136729408796272 0 -0.091096470542610469 0.082323341280698709 0 -0.1074822184466613 0.088136729408796272 0 -0.10104646070399111 0.074349611526457776 0 -0.1074822184466613 0.088136729408796272 0 -0.10104646070399111 0.074349611526457776 0 -0.1134486320906168 0.071653759806922179 0 -0.09054666164713164 0.067286880848174316 0 -0.10104646070399111 0.074349611526457776 0 -0.1026583207929353 0.062347346287697412 0 -0.09054666164713164 0.067286880848174316 0 -0.091096470542610469 0.082323341280698709 0 -0.10104646070399111 0.074349611526457776 0 -0.10104646070399111 0.074349611526457776 0 -0.1134486320906168 0.071653759806922179 0 -0.1026583207929353 0.062347346287697412 0 -0.1134486320906168 0.071653759806922179 0 -0.1169815729820268 0.057446916627697332 0 -0.1026583207929353 0.062347346287697412 0 -0.1134486320906168 0.071653759806922179 0 -0.12498233095038511 0.069533312171706482 0 -0.1248370695698198 0.083226530136874921 0 -0.1134486320906168 0.071653759806922179 0 -0.12498233095038511 0.069533312171706482 0 -0.1169815729820268 0.057446916627697332 0 -0.1074822184466613 0.088136729408796272 0 -0.1134486320906168 0.071653759806922179 0 -0.1248370695698198 0.083226530136874921 0 -0.12991930243541749 0.1020465165188278 0 -0.1074822184466613 0.088136729408796272 0 -0.1248370695698198 0.083226530136874921 0 -0.12991930243541749 0.1020465165188278 0 -0.1074822184466613 0.088136729408796272 0 -0.10110008134148971 0.1098561456819369 0 -0.12991930243541749 0.1020465165188278 0 -0.1131006250587715 0.12959615498317961 0 -0.10110008134148971 0.1098561456819369 0 -0.12991930243541749 0.1020465165188278 0 -0.13028426483969929 0.13221647237215789 0 -0.1131006250587715 0.12959615498317961 0 -0.1131006250587715 0.12959615498317961 0 -0.092802426943272898 0.12960292979422991 0 -0.10110008134148971 0.1098561456819369 0 -0.086834659998143784 0.098004038152668241 0 -0.1074822184466613 0.088136729408796272 0 -0.10110008134148971 0.1098561456819369 0 -0.1061587232064081 0.029080734372794698 0 -0.094449021505079139 0.018227913303066591 0 -0.1094215753963574 0.0115277712725063 0 -0.1061587232064081 0.029080734372794698 0 -0.094924595462104619 0.030399760044886301 0 -0.094449021505079139 0.018227913303066591 0 -0.094449021505079139 0.018227913303066591 0 -0.097507665945787692 0.0040820149966005574 0 -0.1094215753963574 0.0115277712725063 0 -0.097507665945787692 0.0040820149966005574 0 -0.1058521268010089 0.00073384547527136773 0 -0.1094215753963574 0.0115277712725063 0 -0.1152652699767374 -0.0044733142422073097 0 -0.1273771369441013 0.0023450629401116992 0 -0.1094215753963574 0.0115277712725063 0 -0.1152652699767374 -0.0044733142422073097 0 -0.1058521268010089 0.00073384547527136773 0 -0.1094215753963574 0.0115277712725063 0 -0.1273771369441013 0.0023450629401116992 0 -0.12537023626190849 0.01701499410391356 0 -0.1094215753963574 0.0115277712725063 0 -0.12537023626190849 0.01701499410391356 0 -0.1094215753963574 0.0115277712725063 0 -0.1154752524598698 0.02214949429500624 0 -0.12537023626190849 0.01701499410391356 0 -0.1154752524598698 0.02214949429500624 0 -0.120950474974805 0.030974477430810402 0 -0.1061587232064081 0.029080734372794698 0 -0.1094215753963574 0.0115277712725063 0 -0.1154752524598698 0.02214949429500624 0 -0.1061587232064081 0.029080734372794698 0 -0.1154752524598698 0.02214949429500624 0 -0.120950474974805 0.030974477430810402 0 -0.1304591025064194 0.044551821316570157 0 -0.120950474974805 0.030974477430810402 0 -0.112428546201817 0.041955624634692393 0 -0.1061587232064081 0.029080734372794698 0 -0.120950474974805 0.030974477430810402 0 -0.112428546201817 0.041955624634692393 0 -0.1304591025064194 0.044551821316570157 0 -0.112428546201817 0.041955624634692393 0 -0.1169815729820268 0.057446916627697332 0 -0.1311901693420546 0.060374133793646992 0 -0.12498233095038511 0.069533312171706482 0 -0.1169815729820268 0.057446916627697332 0 -0.112428546201817 0.041955624634692393 0 -0.1169815729820268 0.057446916627697332 0 -0.10210071185166431 0.050014029354961582 0 -0.1169815729820268 0.057446916627697332 0 -0.1026583207929353 0.062347346287697412 0 -0.10210071185166431 0.050014029354961582 0 -0.10210071185166431 0.050014029354961582 0 -0.091201579857211959 0.041080799774458047 0 -0.091131717688311603 0.055225201160547438 0 -0.1026583207929353 0.062347346287697412 0 -0.10210071185166431 0.050014029354961582 0 -0.091131717688311603 0.055225201160547438 0 -0.09054666164713164 0.067286880848174316 0 -0.1026583207929353 0.062347346287697412 0 -0.091131717688311603 0.055225201160547438 0 -0.1061587232064081 0.029080734372794698 0 -0.112428546201817 0.041955624634692393 0 -0.1016080011228369 0.039407166226836883 0 -0.112428546201817 0.041955624634692393 0 -0.10210071185166431 0.050014029354961582 0 -0.1016080011228369 0.039407166226836883 0 -0.10210071185166431 0.050014029354961582 0 -0.1016080011228369 0.039407166226836883 0 -0.091201579857211959 0.041080799774458047 0 -0.1061587232064081 0.029080734372794698 0 -0.094924595462104619 0.030399760044886301 0 -0.1016080011228369 0.039407166226836883 0 -0.094924595462104619 0.030399760044886301 0 -0.1016080011228369 0.039407166226836883 0 -0.091201579857211959 0.041080799774458047 0 -0.094924595462104619 0.030399760044886301 0 -0.091201579857211959 0.041080799774458047 0 -0.083613433652756419 0.02825823648094046 0 -0.091201579857211959 0.041080799774458047 0 -0.080163505572120847 0.038728335950810322 0 -0.0801262205712997 0.049966522982092462 0 -0.091201579857211959 0.041080799774458047 0 -0.080163505572120847 0.038728335950810322 0 -0.083613433652756419 0.02825823648094046 0 -0.080163505572120847 0.038728335950810322 0 -0.075199828102842814 0.032505994045140242 0 -0.083613433652756419 0.02825823648094046 0 -0.09054666164713164 0.067286880848174316 0 -0.091131717688311603 0.055225201160547438 0 -0.081860045586377939 0.060182951188062161 0 -0.091201579857211959 0.041080799774458047 0 -0.091131717688311603 0.055225201160547438 0 -0.0801262205712997 0.049966522982092462 0 -0.091131717688311603 0.055225201160547438 0 -0.0801262205712997 0.049966522982092462 0 -0.081860045586377939 0.060182951188062161 0 -0.0801262205712997 0.049966522982092462 0 -0.069862538744371955 0.057777113150521288 0 -0.06901267431079619 0.039797487593251017 0 -0.069862538744371955 0.057777113150521288 0 -0.06901267431079619 0.039797487593251017 0 -0.058907879691800273 0.050969475640674493 0 -0.062515526400001881 0.068377579792855414 0 -0.069862538744371955 0.057777113150521288 0 -0.058907879691800273 0.050969475640674493 0 -0.0801262205712997 0.049966522982092462 0 -0.081860045586377939 0.060182951188062161 0 -0.069862538744371955 0.057777113150521288 0 -0.06901267431079619 0.039797487593251017 0 -0.068009698875697827 0.023239916155559141 0 -0.055300232983598208 0.033561371488493641 0 -0.075199828102842814 0.032505994045140242 0 -0.06901267431079619 0.039797487593251017 0 -0.068009698875697827 0.023239916155559141 0 -0.080163505572120847 0.038728335950810322 0 -0.075199828102842814 0.032505994045140242 0 -0.06901267431079619 0.039797487593251017 0 -0.080163505572120847 0.038728335950810322 0 -0.0801262205712997 0.049966522982092462 0 -0.06901267431079619 0.039797487593251017 0 -0.068009698875697827 0.023239916155559141 0 -0.066123158358303874 0.0069763394170788487 0 -0.055300232983598208 0.033561371488493641 0 -0.068009698875697827 0.023239916155559141 0 -0.083613433652756419 0.02825823648094046 0 -0.080050012301679602 0.015705407900093959 0 -0.068009698875697827 0.023239916155559141 0 -0.080050012301679602 0.015705407900093959 0 -0.07274845615251338 0.0135364418571977 0 -0.075199828102842814 0.032505994045140242 0 -0.068009698875697827 0.023239916155559141 0 -0.083613433652756419 0.02825823648094046 0 -0.094449021505079139 0.018227913303066591 0 -0.083613433652756419 0.02825823648094046 0 -0.080050012301679602 0.015705407900093959 0 -0.094924595462104619 0.030399760044886301 0 -0.094449021505079139 0.018227913303066591 0 -0.083613433652756419 0.02825823648094046 0 -0.089124004628701792 -0.0040277377021705899 0 -0.097507665945787692 0.0040820149966005574 0 -0.086098134196158846 0.0059583430860626887 0 -0.094449021505079139 0.018227913303066591 0 -0.080050012301679602 0.015705407900093959 0 -0.086098134196158846 0.0059583430860626887 0 -0.094449021505079139 0.018227913303066591 0 -0.097507665945787692 0.0040820149966005574 0 -0.086098134196158846 0.0059583430860626887 0 -0.080050012301679602 0.015705407900093959 0 -0.086098134196158846 0.0059583430860626887 0 -0.076810955074372203 0.0082241039560588727 0 -0.079764572027605563 -0.001208843295517239 0 -0.086098134196158846 0.0059583430860626887 0 -0.076810955074372203 0.0082241039560588727 0 -0.079764572027605563 -0.001208843295517239 0 -0.089124004628701792 -0.0040277377021705899 0 -0.086098134196158846 0.0059583430860626887 0 -0.079764572027605563 -0.001208843295517239 0 -0.076810955074372203 0.0082241039560588727 0 -0.066123158358303874 0.0069763394170788487 0 -0.068009698875697827 0.023239916155559141 0 -0.07274845615251338 0.0135364418571977 0 -0.066123158358303874 0.0069763394170788487 0 -0.076810955074372203 0.0082241039560588727 0 -0.07274845615251338 0.0135364418571977 0 -0.066123158358303874 0.0069763394170788487 0 -0.080050012301679602 0.015705407900093959 0 -0.076810955074372203 0.0082241039560588727 0 -0.07274845615251338 0.0135364418571977 0 -0.047617207273071643 -0.0035118018543059538 0 -0.059664616745900671 -0.0040500510012267867 0 -0.050798470683601923 0.01183886002179501 0 -0.059664616745900671 -0.0040500510012267867 0 -0.066123158358303874 0.0069763394170788487 0 -0.050798470683601923 0.01183886002179501 0 -0.059664616745900671 -0.0040500510012267867 0 -0.050798470683601923 0.01183886002179501 0 -0.047617207273071643 -0.0035118018543059538 0 -0.050798470683601923 0.01183886002179501 0 -0.050798470683601923 0.01183886002179501 0 -0.055300232983598208 0.033561371488493641 0 -0.04692109718252771 0.035386244484329407 0 -0.066123158358303874 0.0069763394170788487 0 -0.055300232983598208 0.033561371488493641 0 -0.066123158358303874 0.0069763394170788487 0 -0.050798470683601923 0.01183886002179501 0 -0.055300232983598208 0.033561371488493641 0 -0.050798470683601923 0.01183886002179501 0 -0.055300232983598208 0.033561371488493641 0 -0.050798470683601923 0.01183886002179501 0 -0.034391162446891957 0.018187238464497092 0 -0.037793901381418679 0.035144188298954319 0 -0.034391162446891957 0.018187238464497092 0 -0.037793901381418679 0.035144188298954319 0 -0.022455882408961961 0.026825405924253771 0 -0.050798470683601923 0.01183886002179501 0 -0.037793901381418679 0.035144188298954319 0 -0.050798470683601923 0.01183886002179501 0 -0.04692109718252771 0.035386244484329407 0 -0.037793901381418679 0.035144188298954319 0 -0.050798470683601923 0.01183886002179501 0 -0.034391162446891957 0.018187238464497092 0 -0.03671052455766443 0.0037031618858211421 0 -0.034391162446891957 0.018187238464497092 0 -0.03671052455766443 0.0037031618858211421 0 -0.022890364083827771 0.01081673007749915 0 -0.047617207273071643 -0.0035118018543059538 0 -0.050798470683601923 0.01183886002179501 0 -0.03671052455766443 0.0037031618858211421 0 -0.062515526400001881 0.068377579792855414 0 -0.058907879691800273 0.050969475640674493 0 -0.062515526400001881 0.068377579792855414 0 -0.055379183454653792 0.058514889464143828 0 -0.058907879691800273 0.050969475640674493 0 -0.052204780428632629 0.062945341387988421 0 -0.047859912164240369 0.063897566148078455 0 -0.047888547298180387 0.051767161035057033 0 -0.052204780428632629 0.062945341387988421 0 -0.055379183454653792 0.058514889464143828 0 -0.047888547298180387 0.051767161035057033 0 -0.055379183454653792 0.058514889464143828 0 -0.058907879691800273 0.050969475640674493 0 -0.047888547298180387 0.051767161035057033 0 -0.06901267431079619 0.039797487593251017 0 -0.058907879691800273 0.050969475640674493 0 -0.055300232983598208 0.033561371488493641 0 -0.047888547298180387 0.051767161035057033 0 -0.055300232983598208 0.033561371488493641 0 -0.04692109718252771 0.035386244484329407 0 -0.058907879691800273 0.050969475640674493 0 -0.047888547298180387 0.051767161035057033 0 -0.055300232983598208 0.033561371488493641 0 -0.047888547298180387 0.051767161035057033 0 -0.055300232983598208 0.033561371488493641 0 -0.058907879691800273 0.050969475640674493 0 -0.055300232983598208 0.033561371488493641 0 -0.037793901381418679 0.035144188298954319 0 -0.024789332079235359 0.058449516576113518 0 -0.047888547298180387 0.051767161035057033 0 -0.04692109718252771 0.035386244484329407 0 -0.042824333565839388 0.044619641577347061 0 -0.037793901381418679 0.035144188298954319 0 -0.042824333565839388 0.044619641577347061 0 -0.024789332079235359 0.058449516576113518 0 -0.04692109718252771 0.035386244484329407 0 -0.037793901381418679 0.035144188298954319 0 -0.042824333565839388 0.044619641577347061 0 -0.027165468422692102 0.066119176775560506 0 -0.047888547298180387 0.051767161035057033 0 -0.042824333565839388 0.044619641577347061 0 -0.040476861612764189 0.069972950581621118 0 -0.047859912164240369 0.063897566148078455 0 -0.047888547298180387 0.051767161035057033 0 -0.040476861612764189 0.069972950581621118 0 -0.047888547298180387 0.051767161035057033 0 -0.027165468422692102 0.066119176775560506 0 -0.042824333565839388 0.044619641577347061 0 -0.027165468422692102 0.066119176775560506 0 -0.042824333565839388 0.044619641577347061 0 -0.024789332079235359 0.058449516576113518 0 -0.015766095144715799 0.059221925757037469 0 -0.024789332079235359 0.058449516576113518 0 -0.0190365636870411 0.05257699221554326 0 -0.015766095144715799 0.059221925757037469 0 -0.021155304748881689 0.062203044053262727 0 -0.024789332079235359 0.058449516576113518 0 -0.01690032334888349 0.065021557104339434 0 -0.015766095144715799 0.059221925757037469 0 -0.021155304748881689 0.062203044053262727 0 -0.027165468422692102 0.066119176775560506 0 -0.021155304748881689 0.062203044053262727 0 -0.024789332079235359 0.058449516576113518 0 -0.024789332079235359 0.058449516576113518 0 -0.0190365636870411 0.05257699221554326 0 -0.02501616098884394 0.043295095323351421 0 -0.0190365636870411 0.05257699221554326 0 -0.02501616098884394 0.043295095323351421 0 -0.010574666535369299 0.049341431205670631 0 -0.037793901381418679 0.035144188298954319 0 -0.024789332079235359 0.058449516576113518 0 -0.02501616098884394 0.043295095323351421 0 -0.037793901381418679 0.035144188298954319 0 -0.02501616098884394 0.043295095323351421 0 -0.022455882408961961 0.026825405924253771 0 -0.02501616098884394 0.043295095323351421 0 -0.01174883101074616 0.035626247072063598 0 -0.022455882408961961 0.026825405924253771 0 -0.02501616098884394 0.043295095323351421 0 -0.01174883101074616 0.035626247072063598 0 -0.010574666535369299 0.049341431205670631 0 -0.01174883101074616 0.035626247072063598 0 -0.010574666535369299 0.049341431205670631 0 0.0050554059078342702 0.036817447586302399 0 -0.010574666535369299 0.049341431205670631 0 -0.004471055932428975 0.061346262570306953 0 0.0079626054049135586 0.052863747179962457 0 -0.015766095144715799 0.059221925757037469 0 -0.0190365636870411 0.05257699221554326 0 -0.010574666535369299 0.049341431205670631 0 -0.015766095144715799 0.059221925757037469 0 -0.010574666535369299 0.049341431205670631 0 -0.004471055932428975 0.061346262570306953 0 -0.0096267601800840239 0.066065855624376196 0 -0.015766095144715799 0.059221925757037469 0 -0.004471055932428975 0.061346262570306953 0 -0.025670282478897081 -0.0054027298625421993 0 -0.03671052455766443 0.0037031618858211421 0 -0.022890364083827771 0.01081673007749915 0 -0.025670282478897081 -0.0054027298625421993 0 -0.022890364083827771 0.01081673007749915 0 -0.010105069976996849 0.0023765649732562961 0 -0.022890364083827771 0.01081673007749915 0 -0.022455882408961961 0.026825405924253771 0 -0.0028948745420432241 0.01788293630915707 0 -0.034391162446891957 0.018187238464497092 0 -0.022890364083827771 0.01081673007749915 0 -0.022455882408961961 0.026825405924253771 0 -0.01174883101074616 0.035626247072063598 0 -0.022455882408961961 0.026825405924253771 0 -0.0028948745420432241 0.01788293630915707 0 -0.01174883101074616 0.035626247072063598 0 -0.0028948745420432241 0.01788293630915707 0 0.0050554059078342702 0.036817447586302399 0 -0.022890364083827771 0.01081673007749915 0 -0.0028948745420432241 0.01788293630915707 0 -0.010105069976996849 0.0023765649732562961 0 -0.0028948745420432241 0.01788293630915707 0 -0.010105069976996849 0.0023765649732562961 0 0.0047038114401232534 -0.001040937293712483 0 -0.0028948745420432241 0.01788293630915707 0 0.020415517075116841 0.0076517724901667356 0 0.0047038114401232534 -0.001040937293712483 0 -0.0028948745420432241 0.01788293630915707 0 0.020342672512877309 0.02491627604112644 0 0.020415517075116841 0.0076517724901667356 0 -0.0028948745420432241 0.01788293630915707 0 0.020342672512877309 0.02491627604112644 0 0.0050554059078342702 0.036817447586302399 0 0.020342672512877309 0.02491627604112644 0 0.020415517075116841 0.0076517724901667356 0 0.04034715667016759 0.018897687307637179 0 0.020342672512877309 0.02491627604112644 0 0.02507841675544124 0.048354097280414877 0 0.04034715667016759 0.018897687307637179 0 0.0079626054049135586 0.052863747179962457 0 0.02507841675544124 0.048354097280414877 0 0.010722424996073881 0.068121568230846891 0 -0.010574666535369299 0.049341431205670631 0 0.0079626054049135586 0.052863747179962457 0 0.0050554059078342702 0.036817447586302399 0 0.0079626054049135586 0.052863747179962457 0 0.0050554059078342702 0.036817447586302399 0 0.02507841675544124 0.048354097280414877 0 0.020342672512877309 0.02491627604112644 0 0.0050554059078342702 0.036817447586302399 0 0.02507841675544124 0.048354097280414877 0 0.02507841675544124 0.048354097280414877 0 0.050251726499931808 0.044842678424317363 0 0.039807943620716157 0.068946520475498749 0 0.050251726499931808 0.044842678424317363 0 0.039807943620716157 0.068946520475498749 0 0.02507841675544124 0.048354097280414877 0 0.050251726499931808 0.044842678424317363 0 0.04034715667016759 0.018897687307637179 0 0.050251726499931808 0.044842678424317363 0 0.060695509379147472 0.02073883637313596 0 0.066628286533047365 0.040173783681243101 0 0.050251726499931808 0.044842678424317363 0 0.060695509379147472 0.02073883637313596 0 0.050251726499931808 0.044842678424317363 0 0.066628286533047365 0.040173783681243101 0 0.063756980967503582 0.059761195325569103 0 0.050251726499931808 0.044842678424317363 0 0.063756980967503582 0.059761195325569103 0 0.039807943620716157 0.068946520475498749 0 0.020415517075116841 0.0076517724901667356 0 0.04034715667016759 0.018897687307637179 0 0.039787151186370009 -0.0039594854922263374 0 0.04034715667016759 0.018897687307637179 0 0.053306813386582982 0.0056008818424343951 0 0.039787151186370009 -0.0039594854922263374 0 0.050251726499931808 0.044842678424317363 0 0.04034715667016759 0.018897687307637179 0 0.060695509379147472 0.02073883637313596 0 0.04034715667016759 0.018897687307637179 0 0.060695509379147472 0.02073883637313596 0 0.053306813386582982 0.0056008818424343951 0 0.060695509379147472 0.02073883637313596 0 0.053306813386582982 0.0056008818424343951 0 0.065940651683257009 0.0024831850618150888 0 0.060695509379147472 0.02073883637313596 0 0.065940651683257009 0.0024831850618150888 0 0.07992851590561921 0.0082161523869754144 0 0.065940651683257009 0.0024831850618150888 0 0.07992851590561921 0.0082161523869754144 0 0.074177093133044117 -0.010507922444979889 0 0.07992851590561921 0.0082161523869754144 0 0.1009244284881298 0.0078078577834924806 0 0.09649789417263642 -0.0037639840011086311 0 0.07992851590561921 0.0082161523869754144 0 0.1009244284881298 0.0078078577834924806 0 0.09893654195113713 0.02570505514797651 0 0.07992851590561921 0.0082161523869754144 0 0.08516149451907469 0.032589503251719387 0 0.07992851590561921 0.0082161523869754144 0 0.08516149451907469 0.032589503251719387 0 0.09893654195113713 0.02570505514797651 0 0.060695509379147472 0.02073883637313596 0 0.07992851590561921 0.0082161523869754144 0 0.08516149451907469 0.032589503251719387 0 0.060695509379147472 0.02073883637313596 0 0.066628286533047365 0.040173783681243101 0 0.08516149451907469 0.032589503251719387 0 0.066628286533047365 0.040173783681243101 0 0.076734924211177571 0.049535316522237388 0 0.08516149451907469 0.032589503251719387 0 0.066628286533047365 0.040173783681243101 0 0.063756980967503582 0.059761195325569103 0 0.076734924211177571 0.049535316522237388 0 0.063756980967503582 0.059761195325569103 0 0.076734924211177571 0.049535316522237388 0 0.078896317813284711 0.063130005487330554 0 0.076734924211177571 0.049535316522237388 0 0.090394473132530156 0.056962854116463339 0 0.078896317813284711 0.063130005487330554 0 0.090394473132530156 0.056962854116463339 0 0.08516149451907469 0.032589503251719387 0 0.076734924211177571 0.049535316522237388 0 0.090394473132530156 0.056962854116463339 0 0.08516149451907469 0.032589503251719387 0 0.090394473132530156 0.056962854116463339 0 0.08516149451907469 0.032589503251719387 0 0.096764564946639139 0.043178279343160431 0 0.08516149451907469 0.032589503251719387 0 0.096764564946639139 0.043178279343160431 0 0.09893654195113713 0.02570505514797651 0 0.096764564946639139 0.043178279343160431 0 0.10666951487556919 0.040720151324231749 0 0.09893654195113713 0.02570505514797651 0 0.096764564946639139 0.043178279343160431 0 0.10666951487556919 0.040720151324231749 0 0.10388747543703999 0.053358399551525167 0 0.10666951487556919 0.040720151324231749 0 0.1142736493139349 0.03087626799389703 0 0.09893654195113713 0.02570505514797651 0 0.10388747543703999 0.053358399551525167 0 0.11892469151436 0.060175562481194378 0 0.096340815718618328 0.066677421107029802 0 0.090394473132530156 0.056962854116463339 0 0.10388747543703999 0.053358399551525167 0 0.096340815718618328 0.066677421107029802 0 0.090394473132530156 0.056962854116463339 0 0.096764564946639139 0.043178279343160431 0 0.10388747543703999 0.053358399551525167 0 0.10666951487556919 0.040720151324231749 0 0.10388747543703999 0.053358399551525167 0 0.1137328545953389 0.049471119462924477 0 0.1137328545953389 0.049471119462924477 0 0.11892469151436 0.060175562481194378 0 0.12367169586596689 0.04413069599522032 0 0.10388747543703999 0.053358399551525167 0 0.1137328545953389 0.049471119462924477 0 0.11892469151436 0.060175562481194378 0 0.10666951487556919 0.040720151324231749 0 0.12367169586596689 0.04413069599522032 0 0.1142736493139349 0.03087626799389703 0 0.12367169586596689 0.04413069599522032 0 0.1142736493139349 0.03087626799389703 0 0.13034027439662041 0.028127834929059549 0 0.10666951487556919 0.040720151324231749 0 0.1137328545953389 0.049471119462924477 0 0.12367169586596689 0.04413069599522032 0 0.1142736493139349 0.03087626799389703 0 0.111750219480381 0.015697602572997061 0 0.13034027439662041 0.028127834929059549 0 0.11917198148314 0.002581966002757949 0 0.13034027439662041 0.028127834929059549 0 0.111750219480381 0.015697602572997061 0 0.11917198148314 0.002581966002757949 0 0.13034027439662041 0.028127834929059549 0 0.11917198148314 0.002581966002757949 0 0.1309849453148588 0.01811654968683717 0 0.1228376310831711 -0.00076623140119310329 0 0.11917198148314 0.002581966002757949 0 0.1228376310831711 -0.00076623140119310329 0 0.11917198148314 0.002581966002757949 0 0.1133629416093747 0.002418872237081233 0 0.1105415625726717 -0.0014271332550589229 0 0.11917198148314 0.002581966002757949 0 0.1133629416093747 0.002418872237081233 0 0.11092652002007269 0.0067640166461111727 0 0.1133629416093747 0.002418872237081233 0 0.1078625722471533 0.0022823866337398822 0 0.1105415625726717 -0.0014271332550589229 0 0.1133629416093747 0.002418872237081233 0 0.11092652002007269 0.0067640166461111727 0 0.1078625722471533 0.0022823866337398822 0 0.111750219480381 0.015697602572997061 0 0.11917198148314 0.002581966002757949 0 0.11092652002007269 0.0067640166461111727 0 0.111750219480381 0.015697602572997061 0 0.11092652002007269 0.0067640166461111727 0 0.1009244284881298 0.0078078577834924806 0 0.1078625722471533 0.0022823866337398822 0 0.1009244284881298 0.0078078577834924806 0 0.1039166904039584 -0.0028966343462391718 0 0.11092652002007269 0.0067640166461111727 0 0.1078625722471533 0.0022823866337398822 0 0.1009244284881298 0.0078078577834924806 0 0.1009244284881298 0.0078078577834924806 0 0.1039166904039584 -0.0028966343462391718 0 0.09649789417263642 -0.0037639840011086311 0 0.111750219480381 0.015697602572997061 0 0.1009244284881298 0.0078078577834924806 0 0.09893654195113713 0.02570505514797651 0 0.1142736493139349 0.03087626799389703 0 0.111750219480381 0.015697602572997061 0 0.09893654195113713 0.02570505514797651 0 0.10086043035944101 0.1057095558459509 0 0.088353675930770217 0.1090445403681379 0 0.098136173783193614 0.12855261503670501 0 0.10086043035944101 0.1057095558459509 0 0.11707998843366239 0.12090166170324231 0 0.098136173783193614 0.12855261503670501 0 0.10086043035944101 0.1057095558459509 0 0.11707998843366239 0.12090166170324231 0 0.12018819637303869 0.10164151191590461 0 0.11707998843366239 0.12090166170324231 0 0.12018819637303869 0.10164151191590461 0 0.1368974078767736 0.107501873099266 0 0.10086043035944101 0.1057095558459509 0 0.12018819637303869 0.10164151191590461 0 0.11039993896964689 0.089589601033300492 0 0.12018819637303869 0.10164151191590461 0 0.1225478872688979 0.090713611373926736 0 0.11039993896964689 0.089589601033300492 0 0.1225478872688979 0.090713611373926736 0 0.1210037722340596 0.082520495593825793 0 0.11039993896964689 0.089589601033300492 0 0.1210037722340596 0.082520495593825793 0 0.11039993896964689 0.089589601033300492 0 0.1079674466630436 0.07575227550831827 0 0.1243405792371938 0.066503547411893488 0 0.1152310018430296 0.068591719667449438 0 0.13121537104960351 0.072689189806444385 0 0.1152310018430296 0.068591719667449438 0 0.1079674466630436 0.07575227550831827 0 0.13121537104960351 0.072689189806444385 0 0.11892469151436 0.060175562481194378 0 0.1152310018430296 0.068591719667449438 0 0.096340815718618328 0.066677421107029802 0 0.1210037722340596 0.082520495593825793 0 0.1079674466630436 0.07575227550831827 0 0.13121537104960351 0.072689189806444385 0 0.1079674466630436 0.07575227550831827 0 0.13121537104960351 0.072689189806444385 0 0.11892469151436 0.060175562481194378 0 0.1243405792371938 0.066503547411893488 0 0.1152310018430296 0.068591719667449438 0 0.090394473132530156 0.056962854116463339 0 0.096340815718618328 0.066677421107029802 0 0.095627451745985609 0.081336204981207194 0 0.11892469151436 0.060175562481194378 0 0.096340815718618328 0.066677421107029802 0 0.1152310018430296 0.068591719667449438 0 0.1079674466630436 0.07575227550831827 0 0.096340815718618328 0.066677421107029802 0 0.1079674466630436 0.07575227550831827 0 0.096340815718618328 0.066677421107029802 0 0.095627451745985609 0.081336204981207194 0 0.10086043035944101 0.1057095558459509 0 0.095627451745985609 0.081336204981207194 0 0.10086043035944101 0.1057095558459509 0 0.095627451745985609 0.081336204981207194 0 0.085469831166676849 0.087436677031336632 0 0.10086043035944101 0.1057095558459509 0 0.11039993896964689 0.089589601033300492 0 0.095627451745985609 0.081336204981207194 0 0.11039993896964689 0.089589601033300492 0 0.1079674466630436 0.07575227550831827 0 0.095627451745985609 0.081336204981207194 0 0.095627451745985609 0.081336204981207194 0 0.085469831166676849 0.087436677031336632 0 0.085588317529406169 0.073238424790440806 0 0.085469831166676849 0.087436677031336632 0 0.085588317529406169 0.073238424790440806 0 0.076873554133312927 0.079435143693455501 0 0.085469831166676849 0.087436677031336632 0 0.070098818600398835 0.095008337279511162 0 0.081838863589211913 0.097859807548057495 0 0.085588317529406169 0.073238424790440806 0 0.078896317813284711 0.063130005487330554 0 0.076873554133312927 0.079435143693455501 0 0.090394473132530156 0.056962854116463339 0 0.095627451745985609 0.081336204981207194 0 0.090394473132530156 0.056962854116463339 0 0.095627451745985609 0.081336204981207194 0 0.085588317529406169 0.073238424790440806 0 0.090394473132530156 0.056962854116463339 0 0.085588317529406169 0.073238424790440806 0 0.078896317813284711 0.063130005487330554 0 0.063756980967503582 0.059761195325569103 0 0.076873554133312927 0.079435143693455501 0 0.058428932400687923 0.080576723114904505 0 0.063756980967503582 0.059761195325569103 0 0.078896317813284711 0.063130005487330554 0 0.076873554133312927 0.079435143693455501 0 0.076873554133312927 0.079435143693455501 0 0.070098818600398835 0.095008337279511162 0 0.058428932400687923 0.080576723114904505 0 0.085469831166676849 0.087436677031336632 0 0.076873554133312927 0.079435143693455501 0 0.070098818600398835 0.095008337279511162 0 0.076873554133312927 0.079435143693455501 0 0.070098818600398835 0.095008337279511162 0 0.070098818600398835 0.095008337279511162 0 0.063324083067484813 0.1105815308655668 0 0.056772327777908818 0.093355456469435216 0 0.070098818600398835 0.095008337279511162 0 0.073686861685182473 0.1058294153104071 0 0.063324083067484813 0.1105815308655668 0 0.070098818600398835 0.095008337279511162 0 0.063324083067484813 0.1105815308655668 0 0.070098818600398835 0.095008337279511162 0 0.073686861685182473 0.1058294153104071 0 0.081838863589211913 0.097859807548057495 0 0.10086043035944101 0.1057095558459509 0 0.088353675930770217 0.1090445403681379 0 0.081838863589211913 0.097859807548057495 0 0.10086043035944101 0.1057095558459509 0 0.085469831166676849 0.087436677031336632 0 0.081838863589211913 0.097859807548057495 0 0.073686861685182473 0.1058294153104071 0 0.081838863589211913 0.097859807548057495 0 0.081058066011519173 0.11973636453468819 0 0.081838863589211913 0.097859807548057495 0 0.081058066011519173 0.11973636453468819 0 0.088353675930770217 0.1090445403681379 0 0.081838863589211913 0.097859807548057495 0 0.081058066011519173 0.11973636453468819 0 0.081058066011519173 0.11973636453468819 0 0.098136173783193614 0.12855261503670501 0 0.088353675930770217 0.1090445403681379 0 0.081058066011519173 0.11973636453468819 0 0.098136173783193614 0.12855261503670501 0 0.081058066011519173 0.11973636453468819 0 0.063324083067484813 0.1105815308655668 0 0.068402942841081005 0.12865021266463919 0 0.081058066011519173 0.11973636453468819 0 0.063324083067484813 0.1105815308655668 0 0.073686861685182473 0.1058294153104071 0 0.081058066011519173 0.11973636453468819 0 0.063324083067484813 0.1105815308655668 0 0.063324083067484813 0.1105815308655668 0 0.047212646671147621 0.11637508280246631 0 0.046344121904492837 0.10181594669612309 0 0.063324083067484813 0.1105815308655668 0 0.047212646671147621 0.11637508280246631 0 0.054704645729867107 0.1303951701743557 0 0.063324083067484813 0.1105815308655668 0 0.054704645729867107 0.1303951701743557 0 0.068402942841081005 0.12865021266463919 0 0.063324083067484813 0.1105815308655668 0 0.054704645729867107 0.1303951701743557 0 0.063324083067484813 0.1105815308655668 0 0.046344121904492837 0.10181594669612309 0 0.056772327777908818 0.093355456469435216 0 0.063324083067484813 0.1105815308655668 0 0.046344121904492837 0.10181594669612309 0 0.046344121904492837 0.10181594669612309 0 0.056772327777908818 0.093355456469435216 0 0.045320775007697253 0.087378911453508054 0 0.046344121904492837 0.10181594669612309 0 0.0293641607415005 0.093050362526680058 0 0.027539824430943272 0.097260859315675907 0 0.046344121904492837 0.10181594669612309 0 0.0293641607415005 0.093050362526680058 0 0.046344121904492837 0.10181594669612309 0 0.045320775007697253 0.087378911453508054 0 0.0293641607415005 0.093050362526680058 0 0.046344121904492837 0.10181594669612309 0 0.034802580128522533 0.108370238657299 0 0.027539824430943272 0.097260859315675907 0 0.047212646671147621 0.11637508280246631 0 0.046344121904492837 0.10181594669612309 0 0.034802580128522533 0.108370238657299 0 0.034802580128522533 0.108370238657299 0 0.02295827912300942 0.1143792008990337 0 0.036209801575650402 0.12755429465012871 0 0.047212646671147621 0.11637508280246631 0 0.054704645729867107 0.1303951701743557 0 0.036209801575650402 0.12755429465012871 0 0.047212646671147621 0.11637508280246631 0 0.034802580128522533 0.108370238657299 0 0.036209801575650402 0.12755429465012871 0 0.063756980967503582 0.059761195325569103 0 0.058428932400687923 0.080576723114904505 0 0.039807943620716157 0.068946520475498749 0 0.058428932400687923 0.080576723114904505 0 0.045320775007697253 0.087378911453508054 0 0.039807943620716157 0.068946520475498749 0 0.070098818600398835 0.095008337279511162 0 0.058428932400687923 0.080576723114904505 0 0.056772327777908818 0.093355456469435216 0 0.058428932400687923 0.080576723114904505 0 0.056772327777908818 0.093355456469435216 0 0.045320775007697253 0.087378911453508054 0 0.039807943620716157 0.068946520475498749 0 0.02523443473854358 0.074793540318702806 0 0.0293641607415005 0.093050362526680058 0 0.045320775007697253 0.087378911453508054 0 0.039807943620716157 0.068946520475498749 0 0.0293641607415005 0.093050362526680058 0 0.039807943620716157 0.068946520475498749 0 0.0293641607415005 0.093050362526680058 0 0.02507841675544124 0.048354097280414877 0 0.039807943620716157 0.068946520475498749 0 0.02523443473854358 0.074793540318702806 0 0.02523443473854358 0.074793540318702806 0 0.01233266555678463 0.084258174892090337 0 0.010722424996073881 0.068121568230846891 0 0.02507841675544124 0.048354097280414877 0 0.02523443473854358 0.074793540318702806 0 0.010722424996073881 0.068121568230846891 0 0.0293641607415005 0.093050362526680058 0 0.01233266555678463 0.084258174892090337 0 0.0293641607415005 0.093050362526680058 0 0.01233266555678463 0.084258174892090337 0 0.019584721545335231 0.095933386042030777 0 0.02523443473854358 0.074793540318702806 0 0.0293641607415005 0.093050362526680058 0 0.01233266555678463 0.084258174892090337 0 -0.0046988296279310846 0.075465987257500103 0 0.01233266555678463 0.084258174892090337 0 -0.0046988296279310846 0.075465987257500103 0 0.00056903788424511365 0.086682396089073327 0 0.01233266555678463 0.084258174892090337 0 0.01233266555678463 0.084258174892090337 0 0.019584721545335231 0.095933386042030777 0 0.0096773837387348072 0.094713106344260181 0 0.00056903788424511365 0.086682396089073327 0 0.0096773837387348072 0.094713106344260181 0 0.0017142141577850001 0.096485027642689541 0 0.00056903788424511365 0.086682396089073327 0 0.01233266555678463 0.084258174892090337 0 0.0096773837387348072 0.094713106344260181 0 -0.0046988296279310846 0.075465987257500103 0 0.0079626054049135586 0.052863747179962457 0 -0.0046988296279310846 0.075465987257500103 0 0.01233266555678463 0.084258174892090337 0 0.010722424996073881 0.068121568230846891 0 -0.0046988296279310846 0.075465987257500103 0 0.0079626054049135586 0.052863747179962457 0 0.010722424996073881 0.068121568230846891 0 0.02295827912300942 0.1143792008990337 0 0.016633607451047409 0.12879447845417449 0 0.036209801575650402 0.12755429465012871 0 0.02295827912300942 0.1143792008990337 0 0.02320798257890765 0.1047443639128517 0 0.017264926825327171 0.1093249123190818 0 0.02295827912300942 0.1143792008990337 0 0.017264926825327171 0.1093249123190818 0 0.01360187540002143 0.11722717171449371 0 0.02295827912300942 0.1143792008990337 0 0.01360187540002143 0.11722717171449371 0 0.016633607451047409 0.12879447845417449 0 0.034802580128522533 0.108370238657299 0 0.027539824430943272 0.097260859315675907 0 0.02320798257890765 0.1047443639128517 0 0.034802580128522533 0.108370238657299 0 0.02295827912300942 0.1143792008990337 0 0.02320798257890765 0.1047443639128517 0 0.0293641607415005 0.093050362526680058 0 0.027539824430943272 0.097260859315675907 0 0.019584721545335231 0.095933386042030777 0 0.027539824430943272 0.097260859315675907 0 0.019584721545335231 0.095933386042030777 0 0.02320798257890765 0.1047443639128517 0 0.0293641607415005 0.093050362526680058 0 0.027539824430943272 0.097260859315675907 0 0.019584721545335231 0.095933386042030777 0 0.02320798257890765 0.1047443639128517 0 0.01504081682007688 0.10253598369847031 0 0.02320798257890765 0.1047443639128517 0 0.017264926825327171 0.1093249123190818 0 0.01504081682007688 0.10253598369847031 0 0.0088228464681819972 0.10238366970120689 0 0.01151568020462046 0.1077378413705596 0 0.0058206420146291954 0.1114089238878985 0 0.017264926825327171 0.1093249123190818 0 0.01504081682007688 0.10253598369847031 0 0.01151568020462046 0.1077378413705596 0 0.01504081682007688 0.10253598369847031 0 0.0088228464681819972 0.10238366970120689 0 0.01151568020462046 0.1077378413705596 0 0.019584721545335231 0.095933386042030777 0 0.01504081682007688 0.10253598369847031 0 0.0096773837387348072 0.094713106344260181 0 0.01504081682007688 0.10253598369847031 0 0.0088228464681819972 0.10238366970120689 0 0.0096773837387348072 0.094713106344260181 0 0.0088228464681819972 0.10238366970120689 0 0.0096773837387348072 0.094713106344260181 0 0.0017142141577850001 0.096485027642689541 0 0.0088228464681819972 0.10238366970120689 0 0.0017142141577850001 0.096485027642689541 0 0.0058206420146291954 0.1114089238878985 0 0.0058206420146291954 0.1114089238878985 0 0.00039794405216867472 0.112072386291362 0 0.01360187540002143 0.11722717171449371 0 0.00039794405216867472 0.112072386291362 0 0.016633607451047409 0.12879447845417449 0 0.00039794405216867472 0.112072386291362 0 0.01360187540002143 0.11722717171449371 0 0.016633607451047409 0.12879447845417449 0 0.00039794405216867472 0.112072386291362 0 0.0010393500416724941 0.12595831854165979 0 0.016633607451047409 0.12879447845417449 0 0.01151568020462046 0.1077378413705596 0 0.0058206420146291954 0.1114089238878985 0 0.01360187540002143 0.11722717171449371 0 0.017264926825327171 0.1093249123190818 0 0.01151568020462046 0.1077378413705596 0 0.01360187540002143 0.11722717171449371 0 -0.0082797250895681185 0.13474448294352481 0 0.0010393500416724941 0.12595831854165979 0 0.01291562537333717 0.14373886088149129 0 0.0010393500416724941 0.12595831854165979 0 0.016633607451047409 0.12879447845417449 0 0.01291562537333717 0.14373886088149129 0 0.016633607451047409 0.12879447845417449 0 0.030096440749716711 0.14309687622970299 0 0.036209801575650402 0.12755429465012871 0 0.016633607451047409 0.12879447845417449 0 0.030096440749716711 0.14309687622970299 0 0.01291562537333717 0.14373886088149129 0 0.030096440749716711 0.14309687622970299 0 0.01291562537333717 0.14373886088149129 0 0.026789162612504271 0.15663130254031199 0 0.01291562537333717 0.14373886088149129 0 0.015650655317666261 0.15865613344587939 0 0.026789162612504271 0.15663130254031199 0 0.01291562537333717 0.14373886088149129 0 0.00151890392611572 0.15456094484017679 0 0.015650655317666261 0.15865613344587939 0 -0.0082797250895681185 0.13474448294352481 0 0.01291562537333717 0.14373886088149129 0 0.00151890392611572 0.15456094484017679 0 0.00151890392611572 0.15456094484017679 0 0.01131753294179963 0.17437740673682869 0 0.00151890392611572 0.15456094484017679 0 0.012386788017382491 0.1641388541230504 0 0.01131753294179963 0.17437740673682869 0 -0.0026654791677323511 0.16604552865166611 0 0.00151890392611572 0.15456094484017679 0 0.01131753294179963 0.17437740673682869 0 -0.0026654791677323511 0.16604552865166611 0 0.01131753294179963 0.17437740673682869 0 0.012386788017382491 0.1641388541230504 0 0.01131753294179963 0.17437740673682869 0 0.021060059883948341 0.16896093146931659 0 0.00151890392611572 0.15456094484017679 0 0.012386788017382491 0.1641388541230504 0 0.015650655317666261 0.15865613344587939 0 0.0072367552089822543 0.1840346549744645 0 0.003085550936940849 0.18695469644268639 0 0.007927604969267173 0.18944813828794729 0 0.0072367552089822543 0.1840346549744645 0 0.003085550936940849 0.18695469644268639 0 0.00053502205069707774 0.18188021690744111 0 -0.003081975793268537 0.18782002811878001 0 0.003085550936940849 0.18695469644268639 0 0.00053502205069707774 0.18188021690744111 0 0.0072367552089822543 0.1840346549744645 0 0.00053502205069707774 0.18188021690744111 0 0.0082701590199136289 0.17900500476799119 0 -0.0026654791677323511 0.16604552865166611 0 0.0024081860720475369 0.17557227428335351 0 0.01131753294179963 0.17437740673682869 0 0.0024081860720475369 0.17557227428335351 0 0.01131753294179963 0.17437740673682869 0 0.0082701590199136289 0.17900500476799119 0 0.00053502205069707774 0.18188021690744111 0 0.0024081860720475369 0.17557227428335351 0 0.0082701590199136289 0.17900500476799119 0 0.01131753294179963 0.17437740673682869 0 0.013543000689093809 0.1790660034635034 0 0.021389494149062459 0.18037885708243739 0 0.01131753294179963 0.17437740673682869 0 0.013543000689093809 0.1790660034635034 0 0.01131753294179963 0.17437740673682869 0 0.013543000689093809 0.1790660034635034 0 0.0082701590199136289 0.17900500476799119 0 0.013543000689093809 0.1790660034635034 0 0.0115175493401282 0.18523262863701309 0 0.016985704636488509 0.19275209946522329 0 0.0072367552089822543 0.1840346549744645 0 0.0082701590199136289 0.17900500476799119 0 0.0115175493401282 0.18523262863701309 0 0.013543000689093809 0.1790660034635034 0 0.0082701590199136289 0.17900500476799119 0 0.0115175493401282 0.18523262863701309 0 0.0072367552089822543 0.1840346549744645 0 0.0115175493401282 0.18523262863701309 0 0.007927604969267173 0.18944813828794729 0 0.021389494149062459 0.18037885708243739 0 0.039453436217199322 0.18340126598870379 0 0.013543000689093809 0.1790660034635034 0 0.021389494149062459 0.18037885708243739 0 0.02230428843080948 0.19662630733770359 0 0.013543000689093809 0.1790660034635034 0 0.021389494149062459 0.18037885708243739 0 0.01131753294179963 0.17437740673682869 0 0.021389494149062459 0.18037885708243739 0 0.01131753294179963 0.17437740673682869 0 0.021389494149062459 0.18037885708243739 0 0.021060059883948341 0.16896093146931659 0 0.021389494149062459 0.18037885708243739 0 0.021060059883948341 0.16896093146931659 0 0.034487576316221548 0.17006964541133651 0 0.021389494149062459 0.18037885708243739 0 0.036772518206031037 0.18954494233072339 0 0.012386788017382491 0.1641388541230504 0 0.015650655317666261 0.15865613344587939 0 0.021060059883948341 0.16896093146931659 0 0.015650655317666261 0.15865613344587939 0 0.021060059883948341 0.16896093146931659 0 0.026789162612504271 0.15663130254031199 0 0.021060059883948341 0.16896093146931659 0 0.026789162612504271 0.15663130254031199 0 0.034487576316221548 0.17006964541133651 0 0.026789162612504271 0.15663130254031199 0 0.034487576316221548 0.17006964541133651 0 0.046085208392249437 0.15020880948314461 0 0.034487576316221548 0.17006964541133651 0 0.049790080527993393 0.16878629006039211 0 0.046085208392249437 0.15020880948314461 0 0.021389494149062459 0.18037885708243739 0 0.039453436217199322 0.18340126598870379 0 0.036772518206031037 0.18954494233072339 0 0.021389494149062459 0.18037885708243739 0 0.034487576316221548 0.17006964541133651 0 0.039453436217199322 0.18340126598870379 0 0.034487576316221548 0.17006964541133651 0 0.039453436217199322 0.18340126598870379 0 0.049790080527993393 0.16878629006039211 0 0.039453436217199322 0.18340126598870379 0 0.057517378285335978 0.18642367489497111 0 0.049790080527993393 0.16878629006039211 0 0.057517378285335978 0.18642367489497111 0 0.06670876632053821 0.16536039993208129 0 0.039453436217199322 0.18340126598870379 0 0.057517378285335978 0.18642367489497111 0 0.039453436217199322 0.18340126598870379 0 0.057517378285335978 0.18642367489497111 0 0.046621016020550923 0.1898787739154234 0 0.057517378285335978 0.18642367489497111 0 0.049790080527993393 0.16878629006039211 0 0.06670876632053821 0.16536039993208129 0 0.056759789081437029 0.15816783404816359 0 0.049790080527993393 0.16878629006039211 0 0.06670876632053821 0.16536039993208129 0 0.056759789081437029 0.15816783404816359 0 0.049790080527993393 0.16878629006039211 0 0.046085208392249437 0.15020880948314461 0 0.056759789081437029 0.15816783404816359 0 0.046085208392249437 0.15020880948314461 0 0.06445510108496709 0.14831583671703669 0 0.054704645729867107 0.1303951701743557 0 0.046085208392249437 0.15020880948314461 0 0.06445510108496709 0.14831583671703669 0 0.054704645729867107 0.1303951701743557 0 0.046085208392249437 0.15020880948314461 0 0.054704645729867107 0.1303951701743557 0 0.036209801575650402 0.12755429465012871 0 0.046085208392249437 0.15020880948314461 0 0.030096440749716711 0.14309687622970299 0 0.036209801575650402 0.12755429465012871 0 0.046085208392249437 0.15020880948314461 0 0.030096440749716711 0.14309687622970299 0 0.026789162612504271 0.15663130254031199 0 0.046085208392249437 0.15020880948314461 0 0.02117589590128718 0.2395927914801684 0 0.012156823249103331 0.25259817100369902 0 0.030652172791378579 0.25229956247347313 0 0.02117589590128718 0.2395927914801684 0 0.034188277432347557 0.23988537883147459 0 0.030652172791378579 0.25229956247347313 0 0.02117589590128718 0.2395927914801684 0 0.030323397599499081 0.22959965211839081 0 0.034188277432347557 0.23988537883147459 0 -0.0082457657602449386 0.25246627485226031 0 -0.001965278602122185 0.24182690426762959 0 0.012156823249103331 0.25259817100369902 0 0.02117589590128718 0.2395927914801684 0 0.008579196815527634 0.23953031834541311 0 0.012156823249103331 0.25259817100369902 0 -0.001965278602122185 0.24182690426762959 0 0.008579196815527634 0.23953031834541311 0 0.012156823249103331 0.25259817100369902 0 -0.001965278602122185 0.24182690426762959 0 0.008579196815527634 0.23953031834541311 0 0.0010433620948100131 0.23240638127880581 0 0.02117589590128718 0.2395927914801684 0 0.008579196815527634 0.23953031834541311 0 0.01115565641706814 0.2303537873583584 0 0.008579196815527634 0.23953031834541311 0 0.01115565641706814 0.2303537873583584 0 0.0010433620948100131 0.23240638127880581 0 0.01115565641706814 0.2303537873583584 0 0.0010433620948100131 0.23240638127880581 0 0.0091084557899102862 0.2202403998025296 0 0.0010433620948100131 0.23240638127880581 0 0.0001093474821353509 0.22215689039817851 0 0.0091084557899102862 0.2202403998025296 0 0.01115565641706814 0.2303537873583584 0 0.0091084557899102862 0.2202403998025296 0 0.016496999093422449 0.223541986747673 0 0.0091084557899102862 0.2202403998025296 0 0.016496999093422449 0.223541986747673 0 0.01612020317490017 0.2152275371535412 0 0.016496999093422449 0.223541986747673 0 0.02147394042148347 0.23028557103733549 0 0.024626739663750161 0.22160263838659999 0 0.016496999093422449 0.223541986747673 0 0.024626739663750161 0.22160263838659999 0 0.01612020317490017 0.2152275371535412 0 0.01115565641706814 0.2303537873583584 0 0.016496999093422449 0.223541986747673 0 0.02147394042148347 0.23028557103733549 0 0.02117589590128718 0.2395927914801684 0 0.01115565641706814 0.2303537873583584 0 0.02147394042148347 0.23028557103733549 0 0.02147394042148347 0.23028557103733549 0 0.030323397599499081 0.22959965211839081 0 0.024626739663750161 0.22160263838659999 0 0.02117589590128718 0.2395927914801684 0 0.02147394042148347 0.23028557103733549 0 0.030323397599499081 0.22959965211839081 0 0.024626739663750161 0.22160263838659999 0 0.027508903383077599 0.21474836631904051 0 0.034268755792753257 0.2207932912834846 0 0.030323397599499081 0.22959965211839081 0 0.024626739663750161 0.22160263838659999 0 0.034268755792753257 0.2207932912834846 0 0.027508903383077599 0.21474836631904051 0 0.023943201944243639 0.1999111919537408 0 0.034268755792753257 0.2207932912834846 0 0.023943201944243639 0.1999111919537408 0 0.034268755792753257 0.2207932912834846 0 0.027508903383077599 0.21474836631904051 0 0.023922045305692211 0.20684028787671799 0 0.022699459496289199 0.2141990688659105 0 0.024626739663750161 0.22160263838659999 0 0.027508903383077599 0.21474836631904051 0 0.022699459496289199 0.2141990688659105 0 0.027508903383077599 0.21474836631904051 0 0.023922045305692211 0.20684028787671799 0 0.023943201944243639 0.1999111919537408 0 0.01896544066016782 0.20973745132843891 0 0.01612020317490017 0.2152275371535412 0 0.013247665380499421 0.20734461508933349 0 0.023922045305692211 0.20684028787671799 0 0.01896544066016782 0.20973745132843891 0 0.022699459496289199 0.2141990688659105 0 0.023922045305692211 0.20684028787671799 0 0.021734838082019509 0.20302577286306159 0 0.023943201944243639 0.1999111919537408 0 0.023922045305692211 0.20684028787671799 0 0.018650848458870179 0.20436341187488569 0 0.021734838082019509 0.20302577286306159 0 0.023922045305692211 0.20684028787671799 0 0.018650848458870179 0.20436341187488569 0 0.01896544066016782 0.20973745132843891 0 0.018650848458870179 0.20436341187488569 0 0.01896544066016782 0.20973745132843891 0 0.013247665380499421 0.20734461508933349 0 0.024626739663750161 0.22160263838659999 0 0.022699459496289199 0.2141990688659105 0 0.01612020317490017 0.2152275371535412 0 0.01896544066016782 0.20973745132843891 0 0.022699459496289199 0.2141990688659105 0 0.01612020317490017 0.2152275371535412 0 0.01612020317490017 0.2152275371535412 0 0.0085100262700745465 0.21094865931476009 0 0.013247665380499421 0.20734461508933349 0 0.0091084557899102862 0.2202403998025296 0 0.01612020317490017 0.2152275371535412 0 0.0085100262700745465 0.21094865931476009 0 0.0001093474821353509 0.22215689039817851 0 0.0091084557899102862 0.2202403998025296 0 0.00083142932333707279 0.21381627434491049 0 0.0091084557899102862 0.2202403998025296 0 0.0085100262700745465 0.21094865931476009 0 0.00083142932333707279 0.21381627434491049 0 0.0085100262700745465 0.21094865931476009 0 0.00083142932333707279 0.21381627434491049 0 0.0029581381265264858 0.20519393183106241 0 0.0085100262700745465 0.21094865931476009 0 0.0029581381265264858 0.20519393183106241 0 0.0087942658252738396 0.20386919766718339 0 0.0029581381265264858 0.20519393183106241 0 0.0087942658252738396 0.20386919766718339 0 0.0056326315351633537 0.2004899601979887 0 0.0085100262700745465 0.21094865931476009 0 0.0087942658252738396 0.20386919766718339 0 0.013247665380499421 0.20734461508933349 0 0.0087942658252738396 0.20386919766718339 0 0.013247665380499421 0.20734461508933349 0 0.013927284278231049 0.2027684573698135 0 0.018650848458870179 0.20436341187488569 0 0.013247665380499421 0.20734461508933349 0 0.013927284278231049 0.2027684573698135 0 0.013927284278231049 0.2027684573698135 0 0.010260103200158849 0.1991700010832006 0 0.016231602148303749 0.1987520895161983 0 0.010260103200158849 0.1991700010832006 0 0.01183675088797494 0.19419665586736051 0 0.016231602148303749 0.1987520895161983 0 0.010260103200158849 0.1991700010832006 0 0.0061740732670114221 0.19541611365695169 0 0.01183675088797494 0.19419665586736051 0 0.0087942658252738396 0.20386919766718339 0 0.010260103200158849 0.1991700010832006 0 0.0056326315351633537 0.2004899601979887 0 0.0087942658252738396 0.20386919766718339 0 0.013927284278231049 0.2027684573698135 0 0.010260103200158849 0.1991700010832006 0 0.010260103200158849 0.1991700010832006 0 0.0056326315351633537 0.2004899601979887 0 0.0061740732670114221 0.19541611365695169 0 -2.3422743153838069e-05 0.1988005567515452 0 0.0056326315351633537 0.2004899601979887 0 0.0061740732670114221 0.19541611365695169 0 -2.3422743153838069e-05 0.1988005567515452 0 0.0029581381265264858 0.20519393183106241 0 0.0056326315351633537 0.2004899601979887 0 -0.003081975793268537 0.18782002811878001 0 0.003085550936940849 0.18695469644268639 0 0.0015327128313205251 0.1915709431207247 0 -2.3422743153838069e-05 0.1988005567515452 0 0.0061740732670114221 0.19541611365695169 0 0.0015327128313205251 0.1915709431207247 0 0.0061740732670114221 0.19541611365695169 0 0.0015327128313205251 0.1915709431207247 0 0.007927604969267173 0.18944813828794729 0 0.003085550936940849 0.18695469644268639 0 0.0015327128313205251 0.1915709431207247 0 0.007927604969267173 0.18944813828794729 0 0.007927604969267173 0.18944813828794729 0 0.01183675088797494 0.19419665586736051 0 0.012456110925155389 0.1902446129755902 0 0.0115175493401282 0.18523262863701309 0 0.007927604969267173 0.18944813828794729 0 0.012456110925155389 0.1902446129755902 0 0.0061740732670114221 0.19541611365695169 0 0.007927604969267173 0.18944813828794729 0 0.01183675088797494 0.19419665586736051 0 0.01183675088797494 0.19419665586736051 0 0.012456110925155389 0.1902446129755902 0 0.016985704636488509 0.19275209946522329 0 0.01183675088797494 0.19419665586736051 0 0.016985704636488509 0.19275209946522329 0 0.016231602148303749 0.1987520895161983 0 0.0115175493401282 0.18523262863701309 0 0.012456110925155389 0.1902446129755902 0 0.016985704636488509 0.19275209946522329 0 0.021389494149062459 0.18037885708243739 0 0.02230428843080948 0.19662630733770359 0 0.036772518206031037 0.18954494233072339 0 0.013543000689093809 0.1790660034635034 0 0.02230428843080948 0.19662630733770359 0 0.013543000689093809 0.1790660034635034 0 0.016985704636488509 0.19275209946522329 0 0.02230428843080948 0.19662630733770359 0 0.016985704636488509 0.19275209946522329 0 0.019428477636303031 0.19812266709439569 0 0.016231602148303749 0.1987520895161983 0 0.019428477636303031 0.19812266709439569 0 0.016231602148303749 0.1987520895161983 0 0.020423256619271999 0.20098819974690199 0 0.018650848458870179 0.20436341187488569 0 0.016231602148303749 0.1987520895161983 0 0.020423256619271999 0.20098819974690199 0 0.018650848458870179 0.20436341187488569 0 0.013927284278231049 0.2027684573698135 0 0.016231602148303749 0.1987520895161983 0 0.019428477636303031 0.19812266709439569 0 0.020423256619271999 0.20098819974690199 0 0.023943201944243639 0.1999111919537408 0 0.018650848458870179 0.20436341187488569 0 0.020423256619271999 0.20098819974690199 0 0.021734838082019509 0.20302577286306159 0 0.020423256619271999 0.20098819974690199 0 0.021734838082019509 0.20302577286306159 0 0.023943201944243639 0.1999111919537408 0 0.016985704636488509 0.19275209946522329 0 0.02230428843080948 0.19662630733770359 0 0.023943201944243639 0.1999111919537408 0 0.016985704636488509 0.19275209946522329 0 0.019428477636303031 0.19812266709439569 0 0.023943201944243639 0.1999111919537408 0 0.02230428843080948 0.19662630733770359 0 0.023943201944243639 0.1999111919537408 0 0.02230428843080948 0.19662630733770359 0 0.023943201944243639 0.1999111919537408 0 0.035957366435008513 0.20647473970990701 0 0.02230428843080948 0.19662630733770359 0 0.050897121833006063 0.20159486356051531 0 0.035957366435008513 0.20647473970990701 0 0.02230428843080948 0.19662630733770359 0 0.036772518206031037 0.18954494233072339 0 0.050897121833006063 0.20159486356051531 0 0.02230428843080948 0.19662630733770359 0 0.050897121833006063 0.20159486356051531 0 0.036772518206031037 0.18954494233072339 0 0.050897121833006063 0.20159486356051531 0 0.052155542262999663 0.1987110275790093 0 0.036772518206031037 0.18954494233072339 0 0.052155542262999663 0.1987110275790093 0 0.036772518206031037 0.18954494233072339 0 0.046621016020550923 0.1898787739154234 0 0.052155542262999663 0.1987110275790093 0 0.039453436217199322 0.18340126598870379 0 0.036772518206031037 0.18954494233072339 0 0.046621016020550923 0.1898787739154234 0 0.057517378285335978 0.18642367489497111 0 0.046621016020550923 0.1898787739154234 0 0.052155542262999663 0.1987110275790093 0 0.057517378285335978 0.18642367489497111 0 0.052155542262999663 0.1987110275790093 0 0.057517378285335978 0.18642367489497111 0 0.057090951257530269 0.197109929087698 0 0.052155542262999663 0.1987110275790093 0 0.057517378285335978 0.18642367489497111 0 0.060667890749981898 0.1933513013873914 0 0.057090951257530269 0.197109929087698 0 0.060667890749981898 0.1933513013873914 0 0.057090951257530269 0.197109929087698 0 0.058031923789004708 0.2022125116707813 0 0.060667890749981898 0.1933513013873914 0 0.058031923789004708 0.2022125116707813 0 0.060667890749981898 0.1933513013873914 0 0.058031923789004708 0.2022125116707813 0 0.059673977213942478 0.20319094098477611 0 0.058031923789004708 0.2022125116707813 0 0.059673977213942478 0.20319094098477611 0 0.057090951257530269 0.197109929087698 0 0.058031923789004708 0.2022125116707813 0 0.052155542262999663 0.1987110275790093 0 0.058031923789004708 0.2022125116707813 0 0.052155542262999663 0.1987110275790093 0 0.058031923789004708 0.2022125116707813 0 0.050897121833006063 0.20159486356051531 0 0.052155542262999663 0.1987110275790093 0 0.058031923789004708 0.2022125116707813 0 0.050897121833006063 0.20159486356051531 0 0.050897121833006063 0.20159486356051531 0 0.052155542262999663 0.1987110275790093 0 0.050897121833006063 0.20159486356051531 0 0.042542699632676838 0.22074012119599501 0 0.053005439111290922 0.21910981667301421 0 0.058031923789004708 0.2022125116707813 0 0.050897121833006063 0.20159486356051531 0 0.053005439111290922 0.21910981667301421 0 0.058031923789004708 0.2022125116707813 0 0.053005439111290922 0.21910981667301421 0 0.058031923789004708 0.2022125116707813 0 0.061718375040706958 0.21244198365854619 0 0.053005439111290922 0.21910981667301421 0 0.058031923789004708 0.2022125116707813 0 0.059673977213942478 0.20319094098477611 0 0.061718375040706958 0.21244198365854619 0 0.061718375040706958 0.21244198365854619 0 0.053005439111290922 0.21910981667301421 0 0.062081063031912492 0.22413796841031719 0 0.050897121833006063 0.20159486356051531 0 0.042542699632676838 0.22074012119599501 0 0.023943201944243639 0.1999111919537408 0 0.035957366435008513 0.20647473970990701 0 0.034268755792753257 0.2207932912834846 0 0.050897121833006063 0.20159486356051531 0 0.038363073609551428 0.21412918370060571 0 0.042542699632676838 0.22074012119599501 0 0.050897121833006063 0.20159486356051531 0 0.035957366435008513 0.20647473970990701 0 0.038363073609551428 0.21412918370060571 0 0.038363073609551428 0.21412918370060571 0 0.034268755792753257 0.2207932912834846 0 0.042542699632676838 0.22074012119599501 0 0.035957366435008513 0.20647473970990701 0 0.038363073609551428 0.21412918370060571 0 0.034268755792753257 0.2207932912834846 0 0.042542699632676838 0.22074012119599501 0 0.034188277432347557 0.23988537883147459 0 0.042542699632676838 0.22074012119599501 0 0.04817080422001134 0.23536218897101929 0 0.044937254539659167 0.2379713478153713 0 0.030323397599499081 0.22959965211839081 0 0.042542699632676838 0.22074012119599501 0 0.034188277432347557 0.23988537883147459 0 0.042542699632676838 0.22074012119599501 0 0.044937254539659167 0.2379713478153713 0 0.034188277432347557 0.23988537883147459 0 0.030323397599499081 0.22959965211839081 0 0.034268755792753257 0.2207932912834846 0 0.042542699632676838 0.22074012119599501 0 0.053005439111290922 0.21910981667301421 0 0.04817080422001134 0.23536218897101929 0 0.053005439111290922 0.21910981667301421 0 0.062081063031912492 0.22413796841031719 0 0.04817080422001134 0.23536218897101929 0 0.062081063031912492 0.22413796841031719 0 0.04817080422001134 0.23536218897101929 0 0.059531729096570118 0.24099028160929839 0 0.042542699632676838 0.22074012119599501 0 0.053005439111290922 0.21910981667301421 0 0.04817080422001134 0.23536218897101929 0 0.062081063031912492 0.22413796841031719 0 0.04817080422001134 0.23536218897101929 0 0.04817080422001134 0.23536218897101929 0 0.052294646587479003 0.2493466198794505 0 0.04073495957405681 0.26035892983227987 0 0.04817080422001134 0.23536218897101929 0 0.059531729096570118 0.24099028160929839 0 0.052294646587479003 0.2493466198794505 0 0.059531729096570118 0.24099028160929839 0 0.067445722382230539 0.24771064348785149 0 0.06034442261467237 0.25120339486286308 0 0.059531729096570118 0.24099028160929839 0 0.052294646587479003 0.2493466198794505 0 0.06034442261467237 0.25120339486286308 0 0.04817080422001134 0.23536218897101929 0 0.04073495957405681 0.26035892983227987 0 0.04817080422001134 0.23536218897101929 0 0.044937254539659167 0.2379713478153713 0 0.04073495957405681 0.26035892983227987 0 0.04817080422001134 0.23536218897101929 0 0.044937254539659167 0.2379713478153713 0 0.044937254539659167 0.2379713478153713 0 0.034188277432347557 0.23988537883147459 0 0.030652172791378579 0.25229956247347313 0 0.085975255819246227 0.24304742420893821 0 0.091760355399887042 0.24149966876957779 0 0.085886262968569133 0.25948379364412733 0 0.091760355399887042 0.24149966876957779 0 0.10166443252893551 0.23659000017624271 0 0.085886262968569133 0.25948379364412733 0 0.085975255819246227 0.24304742420893821 0 0.091760355399887042 0.24149966876957779 0 0.090327239942362525 0.2312920649275291 0 0.085975255819246227 0.24304742420893821 0 0.075396639696560977 0.24390878816167419 0 0.077103558767455421 0.230534611802553 0 0.085975255819246227 0.24304742420893821 0 0.077103558767455421 0.230534611802553 0 0.090327239942362525 0.2312920649275291 0 0.085975255819246227 0.24304742420893821 0 0.075396639696560977 0.24390878816167419 0 0.080478695998155714 0.25165019938018113 0 0.075396639696560977 0.24390878816167419 0 0.074707437689247702 0.25389633834412328 0 0.080478695998155714 0.25165019938018113 0 0.075396639696560977 0.24390878816167419 0 0.067445722382230539 0.24771064348785149 0 0.068934414955804643 0.23628801399858909 0 0.075396639696560977 0.24390878816167419 0 0.067445722382230539 0.24771064348785149 0 0.074707437689247702 0.25389633834412328 0 0.059531729096570118 0.24099028160929839 0 0.067445722382230539 0.24771064348785149 0 0.068934414955804643 0.23628801399858909 0 0.075396639696560977 0.24390878816167419 0 0.068934414955804643 0.23628801399858909 0 0.077103558767455421 0.230534611802553 0 0.062081063031912492 0.22413796841031719 0 0.059531729096570118 0.24099028160929839 0 0.068934414955804643 0.23628801399858909 0 0.062081063031912492 0.22413796841031719 0 0.077103558767455421 0.230534611802553 0 0.077696208689423979 0.21392961690810641 0 0.077103558767455421 0.230534611802553 0 0.077696208689423979 0.21392961690810641 0 0.062081063031912492 0.22413796841031719 0 0.068934414955804643 0.23628801399858909 0 0.077103558767455421 0.230534611802553 0 0.077103558767455421 0.230534611802553 0 0.086723057100410644 0.21930832929599969 0 0.077696208689423979 0.21392961690810641 0 0.077103558767455421 0.230534611802553 0 0.090327239942362525 0.2312920649275291 0 0.086723057100410644 0.21930832929599969 0 0.090327239942362525 0.2312920649275291 0 0.086723057100410644 0.21930832929599969 0 0.099258091607832458 0.22228701345730209 0 0.08282365066700062 0.20740072564839451 0 0.1001331263781514 0.21054846617837791 0 0.08282365066700062 0.20740072564839451 0 0.0830920941513177 0.21288940176841251 0 0.1001331263781514 0.21054846617837791 0 0.086723057100410644 0.21930832929599969 0 0.0830920941513177 0.21288940176841251 0 0.1001331263781514 0.21054846617837791 0 0.08282365066700062 0.20740072564839451 0 0.077960793866212394 0.2065164116634538 0 0.08282365066700062 0.20740072564839451 0 0.07778409662064556 0.21146715366449201 0 0.077960793866212394 0.2065164116634538 0 0.08282365066700062 0.20740072564839451 0 0.0830920941513177 0.21288940176841251 0 0.07778409662064556 0.21146715366449201 0 0.08282365066700062 0.20740072564839451 0 0.07778409662064556 0.21146715366449201 0 0.086723057100410644 0.21930832929599969 0 0.077696208689423979 0.21392961690810641 0 0.086723057100410644 0.21930832929599969 0 0.0830920941513177 0.21288940176841251 0 0.077696208689423979 0.21392961690810641 0 0.0830920941513177 0.21288940176841251 0 0.07778409662064556 0.21146715366449201 0 0.077696208689423979 0.21392961690810641 0 0.059673977213942478 0.20319094098477611 0 0.077960793866212394 0.2065164116634538 0 0.062081063031912492 0.22413796841031719 0 0.077696208689423979 0.21392961690810641 0 0.075991321843812007 0.21291374784961289 0 0.059673977213942478 0.20319094098477611 0 0.075991321843812007 0.21291374784961289 0 0.059673977213942478 0.20319094098477611 0 0.061718375040706958 0.21244198365854619 0 0.075991321843812007 0.21291374784961289 0 0.059673977213942478 0.20319094098477611 0 0.075991321843812007 0.21291374784961289 0 0.077960793866212394 0.2065164116634538 0 0.07778409662064556 0.21146715366449201 0 0.077696208689423979 0.21392961690810641 0 0.075991321843812007 0.21291374784961289 0 0.07778409662064556 0.21146715366449201 0 0.077696208689423979 0.21392961690810641 0 0.07778409662064556 0.21146715366449201 0 0.075991321843812007 0.21291374784961289 0 0.077696208689423979 0.21392961690810641 0 0.075991321843812007 0.21291374784961289 0 0.062081063031912492 0.22413796841031719 0 0.075991321843812007 0.21291374784961289 0 0.061718375040706958 0.21244198365854619 0 0.062081063031912492 0.22413796841031719 0 0.075991321843812007 0.21291374784961289 0 0.07778409662064556 0.21146715366449201 0 0.075991321843812007 0.21291374784961289 0 0.077960793866212394 0.2065164116634538 0 0.07778409662064556 0.21146715366449201 0 0.077960793866212394 0.2065164116634538 0 0.060667890749981898 0.1933513013873914 0 0.069391780603767286 0.1985353247034998 0 0.078552310067739675 0.1899431815963343 0 0.059673977213942478 0.20319094098477611 0 0.077960793866212394 0.2065164116634538 0 0.069391780603767286 0.1985353247034998 0 0.057517378285335978 0.18642367489497111 0 0.060667890749981898 0.1933513013873914 0 0.078552310067739675 0.1899431815963343 0 0.077960793866212394 0.2065164116634538 0 0.069391780603767286 0.1985353247034998 0 0.078552310067739675 0.1899431815963343 0 0.057517378285335978 0.18642367489497111 0 0.078552310067739675 0.1899431815963343 0 0.060667890749981898 0.1933513013873914 0 0.059673977213942478 0.20319094098477611 0 0.069391780603767286 0.1985353247034998 0 0.077960793866212394 0.2065164116634538 0 0.078552310067739675 0.1899431815963343 0 0.08282365066700062 0.20740072564839451 0 0.078552310067739675 0.1899431815963343 0 0.1000095862482286 0.19353335379614581 0 0.08282365066700062 0.20740072564839451 0 0.077960793866212394 0.2065164116634538 0 0.078552310067739675 0.1899431815963343 0 0.08282365066700062 0.20740072564839451 0 0.1000095862482286 0.19353335379614581 0 0.078552310067739675 0.1899431815963343 0 0.1000095862482286 0.19353335379614581 0 0.1000095862482286 0.19353335379614581 0 0.1119621855324581 0.18388877331391679 0 0.1119621855324581 0.18388877331391679 0 0.12809949413598259 0.1982332796183166 0 0.12623709760602039 0.18867627876683751 0 0.1000095862482286 0.19353335379614581 0 0.12809949413598259 0.1982332796183166 0 0.1000095862482286 0.19353335379614581 0 0.1174426020893027 0.21369620670835879 0 0.12809949413598259 0.1982332796183166 0 0.1000095862482286 0.19353335379614581 0 0.1119621855324581 0.18388877331391679 0 0.12809949413598259 0.1982332796183166 0 0.1174426020893027 0.21369620670835879 0 0.12809949413598259 0.1982332796183166 0 0.1174426020893027 0.21369620670835879 0 0.13079881134157489 0.21612504290720769 0 0.1174426020893027 0.21369620670835879 0 0.1001331263781514 0.21054846617837791 0 0.1000095862482286 0.19353335379614581 0 0.1174426020893027 0.21369620670835879 0 0.1001331263781514 0.21054846617837791 0 0.08282365066700062 0.20740072564839451 0 0.1000095862482286 0.19353335379614581 0 0.1001331263781514 0.21054846617837791 0 0.1174426020893027 0.21369620670835879 0 0.1001331263781514 0.21054846617837791 0 0.099258091607832458 0.22228701345730209 0 0.086723057100410644 0.21930832929599969 0 0.1001331263781514 0.21054846617837791 0 0.099258091607832458 0.22228701345730209 0 0.1174426020893027 0.21369620670835879 0 0.099258091607832458 0.22228701345730209 0 0.10166443252893551 0.23659000017624271 0 0.090327239942362525 0.2312920649275291 0 0.099258091607832458 0.22228701345730209 0 0.10166443252893551 0.23659000017624271 0 0.11193009187841341 0.23778907333103991 0 0.1233060832280653 0.2372070654073864 0 0.13079881134157489 0.21612504290720769 0 0.1174426020893027 0.21369620670835879 0 0.11193009187841341 0.23778907333103991 0 0.10166443252893551 0.23659000017624271 0 0.1174426020893027 0.21369620670835879 0 0.11193009187841341 0.23778907333103991 0 0.13079881134157489 0.21612504290720769 0 0.11193009187841341 0.23778907333103991 0 0.13079881134157489 0.21612504290720769 0 0.1174426020893027 0.21369620670835879 0 0.10166443252893551 0.23659000017624271 0 0.11193009187841341 0.23778907333103991 0 0.1233060832280653 0.2372070654073864 0 0.1152979079485152 0.2467056018988516 0 0.1233060832280653 0.2372070654073864 0 0.1152979079485152 0.2467056018988516 0 0.1250676346401875 0.24796443701554319 0 0.11193009187841341 0.23778907333103991 0 0.1152979079485152 0.2467056018988516 0 0.10650461767427161 0.25132517155921902 0 0.11193009187841341 0.23778907333103991 0 0.10166443252893551 0.23659000017624271 0 0.093061372415253377 0.25945310375487363 0 0.10166443252893551 0.23659000017624271 0 0.085886262968569133 0.25948379364412733 0 0.11193009187841341 0.23778907333103991 0 0.093061372415253377 0.25945310375487363 0 0.11193009187841341 0.23778907333103991 0 0.093061372415253377 0.25945310375487363 0 0.10650461767427161 0.25132517155921902 0 0.091760355399887042 0.24149966876957779 0 0.090327239942362525 0.2312920649275291 0 0.10166443252893551 0.23659000017624271 0 0.08022281403025916 0.14313863688857029 0 0.093167312330706492 0.16073073013935579 0 0.097579150219516186 0.1459852772673329 0 0.08022281403025916 0.14313863688857029 0 0.079387562048995053 0.16654090924245221 0 0.08022281403025916 0.14313863688857029 0 0.097579150219516186 0.1459852772673329 0 0.098136173783193614 0.12855261503670501 0 0.081058066011519173 0.11973636453468819 0 0.08022281403025916 0.14313863688857029 0 0.081058066011519173 0.11973636453468819 0 0.08022281403025916 0.14313863688857029 0 0.098136173783193614 0.12855261503670501 0 0.054704645729867107 0.1303951701743557 0 0.068402942841081005 0.12865021266463919 0 0.06445510108496709 0.14831583671703669 0 0.081058066011519173 0.11973636453468819 0 0.08022281403025916 0.14313863688857029 0 0.068402942841081005 0.12865021266463919 0 0.08022281403025916 0.14313863688857029 0 0.068402942841081005 0.12865021266463919 0 0.06445510108496709 0.14831583671703669 0 0.08022281403025916 0.14313863688857029 0 0.06445510108496709 0.14831583671703669 0 0.079387562048995053 0.16654090924245221 0 0.06445510108496709 0.14831583671703669 0 0.06670876632053821 0.16536039993208129 0 0.079387562048995053 0.16654090924245221 0 0.056759789081437029 0.15816783404816359 0 0.06445510108496709 0.14831583671703669 0 0.06670876632053821 0.16536039993208129 0 0.06670876632053821 0.16536039993208129 0 0.071220178094475839 0.177519435916074 0 0.079387562048995053 0.16654090924245221 0 0.078552310067739675 0.1899431815963343 0 0.071220178094475839 0.177519435916074 0 0.079387562048995053 0.16654090924245221 0 0.057517378285335978 0.18642367489497111 0 0.078552310067739675 0.1899431815963343 0 0.071220178094475839 0.177519435916074 0 0.057517378285335978 0.18642367489497111 0 0.06670876632053821 0.16536039993208129 0 0.071220178094475839 0.177519435916074 0 0.078552310067739675 0.1899431815963343 0 0.079387562048995053 0.16654090924245221 0 0.078552310067739675 0.1899431815963343 0 0.079387562048995053 0.16654090924245221 0 0.094656188726405799 0.1772984468475671 0 0.078552310067739675 0.1899431815963343 0 0.1000095862482286 0.19353335379614581 0 0.094656188726405799 0.1772984468475671 0 0.079387562048995053 0.16654090924245221 0 0.093167312330706492 0.16073073013935579 0 0.094656188726405799 0.1772984468475671 0 0.08022281403025916 0.14313863688857029 0 0.079387562048995053 0.16654090924245221 0 0.093167312330706492 0.16073073013935579 0 0.093167312330706492 0.16073073013935579 0 0.1051682117550992 0.16863341283049499 0 0.094656188726405799 0.1772984468475671 0 0.093167312330706492 0.16073073013935579 0 0.1051682117550992 0.16863341283049499 0 0.10738037989590581 0.15691718048007991 0 0.1051682117550992 0.16863341283049499 0 0.094656188726405799 0.1772984468475671 0 0.1119621855324581 0.18388877331391679 0 0.1000095862482286 0.19353335379614581 0 0.094656188726405799 0.1772984468475671 0 0.1119621855324581 0.18388877331391679 0 0.1051682117550992 0.16863341283049499 0 0.1119621855324581 0.18388877331391679 0 0.1176573055604207 0.16965843036111 0 0.1119621855324581 0.18388877331391679 0 0.1176573055604207 0.16965843036111 0 0.12502668500631101 0.18003223183350331 0 0.1119621855324581 0.18388877331391679 0 0.12502668500631101 0.18003223183350331 0 0.12623709760602039 0.18867627876683751 0 0.10738037989590581 0.15691718048007991 0 0.1176573055604207 0.16965843036111 0 0.1263510041100718 0.15412713222648239 0 0.1051682117550992 0.16863341283049499 0 0.10738037989590581 0.15691718048007991 0 0.1176573055604207 0.16965843036111 0 0.10738037989590581 0.15691718048007991 0 0.1089890710575158 0.14058722379195329 0 0.1263510041100718 0.15412713222648239 0 0.1089890710575158 0.14058722379195329 0 0.1243116374868449 0.136850619307404 0 0.1263510041100718 0.15412713222648239 0 0.10738037989590581 0.15691718048007991 0 0.097579150219516186 0.1459852772673329 0 0.1089890710575158 0.14058722379195329 0 0.093167312330706492 0.16073073013935579 0 0.10738037989590581 0.15691718048007991 0 0.097579150219516186 0.1459852772673329 0 0.097579150219516186 0.1459852772673329 0 0.1089890710575158 0.14058722379195329 0 0.098136173783193614 0.12855261503670501 0 0.11707998843366239 0.12090166170324231 0 0.1089890710575158 0.14058722379195329 0 0.098136173783193614 0.12855261503670501 0 0.11707998843366239 0.12090166170324231 0 0.1089890710575158 0.14058722379195329 0 0.1243116374868449 0.136850619307404 0 0.11707998843366239 0.12090166170324231 0 0.1243116374868449 0.136850619307404 0 0.14061487869327599 0.12738787364596069 0 0.1243116374868449 0.136850619307404 0 0.14061487869327599 0.12738787364596069 0 0.1450893294801871 0.15084825440961219 0 0.14061487869327599 0.12738787364596069 0 0.1450893294801871 0.15084825440961219 0 0.16208469833826319 0.13464304631642149 0 0.1450893294801871 0.15084825440961219 0 0.16208469833826319 0.13464304631642149 0 0.1243116374868449 0.136850619307404 0 0.1450893294801871 0.15084825440961219 0 0.1263510041100718 0.15412713222648239 0 0.1450893294801871 0.15084825440961219 0 0.1263510041100718 0.15412713222648239 0 0.13434892063135129 0.1709012650253654 0 0.1176573055604207 0.16965843036111 0 0.1263510041100718 0.15412713222648239 0 0.13434892063135129 0.1709012650253654 0 0.1176573055604207 0.16965843036111 0 0.13434892063135129 0.1709012650253654 0 0.12502668500631101 0.18003223183350331 0 0.12502668500631101 0.18003223183350331 0 0.13317066441191511 0.18549658195139779 0 0.12623709760602039 0.18867627876683751 0 0.13434892063135129 0.1709012650253654 0 0.12502668500631101 0.18003223183350331 0 0.13317066441191511 0.18549658195139779 0 0.13434892063135129 0.1709012650253654 0 0.13317066441191511 0.18549658195139779 0 0.14289571148574401 0.18421669799074539 0 0.13434892063135129 0.1709012650253654 0 0.14289571148574401 0.18421669799074539 0 0.15014598838012391 0.16812378435884931 0 0.14289571148574401 0.18421669799074539 0 0.15014598838012391 0.16812378435884931 0 0.16340295837154781 0.17869074671240681 0 0.1450893294801871 0.15084825440961219 0 0.15014598838012391 0.16812378435884931 0 0.17025484901730581 0.156442106610301 0 0.1450893294801871 0.15084825440961219 0 0.13434892063135129 0.1709012650253654 0 0.15014598838012391 0.16812378435884931 0 0.15014598838012391 0.16812378435884931 0 0.17025484901730581 0.156442106610301 0 0.16340295837154781 0.17869074671240681 0 0.17025484901730581 0.156442106610301 0 0.16340295837154781 0.17869074671240681 0 0.18344157371591241 0.18406997535271 0 0.17025484901730581 0.156442106610301 0 0.18344157371591241 0.18406997535271 0 0.1981233639171355 0.16578679509823521 0 0.17025484901730581 0.156442106610301 0 0.1886017155567373 0.14211231666073301 0 0.1981233639171355 0.16578679509823521 0 0.17025484901730581 0.156442106610301 0 0.16208469833826319 0.13464304631642149 0 0.1886017155567373 0.14211231666073301 0 0.1886017155567373 0.14211231666073301 0 0.1790800671963392 0.1184378382232308 0 0.16208469833826319 0.13464304631642149 0 0.1886017155567373 0.14211231666073301 0 0.1790800671963392 0.1184378382232308 0 0.19325819231563421 0.12959887947710741 0 0.1886017155567373 0.14211231666073301 0 0.1790800671963392 0.1184378382232308 0 0.16208469833826319 0.13464304631642149 0 0.1790800671963392 0.1184378382232308 0 0.1450893294801871 0.15084825440961219 0 0.17025484901730581 0.156442106610301 0 0.16208469833826319 0.13464304631642149 0 0.1514273965657848 0.24085309905483679 0 0.13478444466321229 0.23767678351231611 0 0.14386495534927929 0.22895205141331151 0 0.1514273965657848 0.24085309905483679 0 0.13478444466321229 0.23767678351231611 0 0.1384713120865835 0.25773302092121009 0 0.1250676346401875 0.24796443701554319 0 0.13478444466321229 0.23767678351231611 0 0.1384713120865835 0.25773302092121009 0 0.1233060832280653 0.2372070654073864 0 0.1250676346401875 0.24796443701554319 0 0.13478444466321229 0.23767678351231611 0 0.1233060832280653 0.2372070654073864 0 0.13478444466321229 0.23767678351231611 0 0.13079881134157489 0.21612504290720769 0 0.13478444466321229 0.23767678351231611 0 0.14386495534927929 0.22895205141331151 0 0.13079881134157489 0.21612504290720769 0 0.14386495534927929 0.22895205141331151 0 0.13079881134157489 0.21612504290720769 0 0.15844916882654519 0.22115328017888419 0 0.1514273965657848 0.24085309905483679 0 0.14386495534927929 0.22895205141331151 0 0.15844916882654519 0.22115328017888419 0 0.13079881134157489 0.21612504290720769 0 0.15844916882654519 0.22115328017888419 0 0.13079881134157489 0.21612504290720769 0 0.14405659807402271 0.2009031781863346 0 0.15844916882654519 0.22115328017888419 0 0.13079881134157489 0.21612504290720769 0 0.12809949413598259 0.1982332796183166 0 0.14405659807402271 0.2009031781863346 0 0.1174426020893027 0.21369620670835879 0 0.13079881134157489 0.21612504290720769 0 0.12809949413598259 0.1982332796183166 0 0.13079881134157489 0.21612504290720769 0 0.14405659807402271 0.2009031781863346 0 0.12809949413598259 0.1982332796183166 0 0.14405659807402271 0.2009031781863346 0 0.12809949413598259 0.1982332796183166 0 0.1377541084679488 0.19338203871321119 0 0.14405659807402271 0.2009031781863346 0 0.12809949413598259 0.1982332796183166 0 0.13022991801334199 0.19514207920620891 0 0.1377541084679488 0.19338203871321119 0 0.12809949413598259 0.1982332796183166 0 0.13022991801334199 0.19514207920620891 0 0.12809949413598259 0.1982332796183166 0 0.12623709760602039 0.18867627876683751 0 0.13022991801334199 0.19514207920620891 0 0.13317066441191511 0.18549658195139779 0 0.12623709760602039 0.18867627876683751 0 0.13022991801334199 0.19514207920620891 0 0.13317066441191511 0.18549658195139779 0 0.14289571148574401 0.18421669799074539 0 0.1377541084679488 0.19338203871321119 0 0.13317066441191511 0.18549658195139779 0 0.13022991801334199 0.19514207920620891 0 0.1377541084679488 0.19338203871321119 0 0.14289571148574401 0.18421669799074539 0 0.1377541084679488 0.19338203871321119 0 0.14405659807402271 0.2009031781863346 0 0.14405659807402271 0.2009031781863346 0 0.1684266189286579 0.20498070278197239 0 0.14289571148574401 0.18421669799074539 0 0.16340295837154781 0.17869074671240681 0 0.14405659807402271 0.2009031781863346 0 0.16340295837154781 0.17869074671240681 0 0.14405659807402271 0.2009031781863346 0 0.16340295837154781 0.17869074671240681 0 0.18344157371591241 0.18406997535271 0 0.1684266189286579 0.20498070278197239 0 0.16340295837154781 0.17869074671240681 0 0.14405659807402271 0.2009031781863346 0 0.1684266189286579 0.20498070278197239 0 0.18344157371591241 0.18406997535271 0 0.1684266189286579 0.20498070278197239 0 0.19279663978329381 0.20905822737760699 0 0.1684266189286579 0.20498070278197239 0 0.19279663978329381 0.20905822737760699 0 0.17869659642439559 0.21414630976549021 0 0.1684266189286579 0.20498070278197239 0 0.19279663978329381 0.20905822737760699 0 0.17869659642439559 0.21414630976549021 0 0.18609952631151591 0.22618151745055959 0 0.19279663978329381 0.20905822737760699 0 0.14405659807402271 0.2009031781863346 0 0.1684266189286579 0.20498070278197239 0 0.15844916882654519 0.22115328017888419 0 0.17869659642439559 0.21414630976549021 0 0.1684266189286579 0.20498070278197239 0 0.15844916882654519 0.22115328017888419 0 0.1514273965657848 0.24085309905483679 0 0.15844916882654519 0.22115328017888419 0 0.1691493644934341 0.23606856512045299 0 0.15844916882654519 0.22115328017888419 0 0.18609952631151591 0.22618151745055959 0 0.1691493644934341 0.23606856512045299 0 0.17869659642439559 0.21414630976549021 0 0.15844916882654519 0.22115328017888419 0 0.18609952631151591 0.22618151745055959 0 0.15844916882654519 0.22115328017888419 0 0.18609952631151591 0.22618151745055959 0 0.18609952631151591 0.22618151745055959 0 0.1971008006350988 0.24422433182354611 0 0.17660728565697029 0.25284173787090108 0 0.18609952631151591 0.22618151745055959 0 0.1691493644934341 0.23606856512045299 0 0.17660728565697029 0.25284173787090108 0 0.1514273965657848 0.24085309905483679 0 0.17660728565697029 0.25284173787090108 0 0.1514273965657848 0.24085309905483679 0 0.1691493644934341 0.23606856512045299 0 0.17660728565697029 0.25284173787090108 0 0.1971008006350988 0.24422433182354611 0 0.21374988379648621 0.2312097547222359 0 0.2257125065402284 0.25431107802280528 0 0.18609952631151591 0.22618151745055959 0 0.19919001424274069 0.21902366269476331 0 0.2102140220753515 0.22438156273492879 0 0.18609952631151591 0.22618151745055959 0 0.1971008006350988 0.24422433182354611 0 0.21374988379648621 0.2312097547222359 0 0.18609952631151591 0.22618151745055959 0 0.21374988379648621 0.2312097547222359 0 0.18609952631151591 0.22618151745055959 0 0.2102140220753515 0.22438156273492879 0 0.21374988379648621 0.2312097547222359 0 0.19919001424274069 0.21902366269476331 0 0.2102140220753515 0.22438156273492879 0 0.22326984787173351 0.22831062181695069 0 0.19919001424274069 0.21902366269476331 0 0.21716666063792969 0.21313575197324039 0 0.22326984787173351 0.22831062181695069 0 0.19919001424274069 0.21902366269476331 0 0.22326984787173351 0.22831062181695069 0 0.2102140220753515 0.22438156273492879 0 0.21374988379648621 0.2312097547222359 0 0.2102140220753515 0.22438156273492879 0 0.21374988379648621 0.2312097547222359 0 0.22326984787173351 0.22831062181695069 0 0.21716666063792969 0.21313575197324039 0 0.19279663978329381 0.20905822737760699 0 0.20764501227753371 0.18946127353573741 0 0.21716666063792969 0.21313575197324039 0 0.19279663978329381 0.20905822737760699 0 0.19919001424274069 0.21902366269476331 0 0.21716666063792969 0.21313575197324039 0 0.19279663978329381 0.20905822737760699 0 0.18609952631151591 0.22618151745055959 0 0.19919001424274069 0.21902366269476331 0 0.19279663978329381 0.20905822737760699 0 0.18344157371591241 0.18406997535271 0 0.19279663978329381 0.20905822737760699 0 0.20764501227753371 0.18946127353573741 0 0.21716666063792969 0.21313575197324039 0 0.20764501227753371 0.18946127353573741 0 0.21716666063792969 0.21313575197324039 0 0.20764501227753371 0.18946127353573741 0 0.22349524510262589 0.1882929917077163 0 0.21716666063792969 0.21313575197324039 0 0.22349524510262589 0.1882929917077163 0 0.23482300448504159 0.1984970970255906 0 0.22349524510262589 0.1882929917077163 0 0.23482300448504159 0.1984970970255906 0 0.23800281531175979 0.18073324988006281 0 0.23482300448504159 0.1984970970255906 0 0.24828008483854189 0.20295934428596721 0 0.25113643024109478 0.19094495075723769 0 0.23482300448504159 0.1984970970255906 0 0.23800281531175979 0.18073324988006281 0 0.25113643024109478 0.19094495075723769 0 0.23482300448504159 0.1984970970255906 0 0.24828008483854189 0.20295934428596721 0 0.24332195560292991 0.2175119837032847 0 0.21716666063792969 0.21313575197324039 0 0.23482300448504159 0.1984970970255906 0 0.24332195560292991 0.2175119837032847 0 0.21716666063792969 0.21313575197324039 0 0.24332195560292991 0.2175119837032847 0 0.22527908084694109 0.23330634744632109 0 0.22326984787173351 0.22831062181695069 0 0.2459873280094696 0.23707215699401071 0 0.21716666063792969 0.21313575197324039 0 0.24332195560292991 0.2175119837032847 0 0.22326984787173351 0.22831062181695069 0 0.21716666063792969 0.21313575197324039 0 0.22326984787173351 0.22831062181695069 0 0.21374988379648621 0.2312097547222359 0 0.22527908084694109 0.23330634744632109 0 0.22326984787173351 0.22831062181695069 0 0.21374988379648621 0.2312097547222359 0 0.22527908084694109 0.23330634744632109 0 0.22527908084694109 0.23330634744632109 0 0.22326984787173351 0.22831062181695069 0 0.22326984787173351 0.22831062181695069 0 0.2459873280094696 0.23707215699401071 0 0.24332195560292991 0.2175119837032847 0 0.22326984787173351 0.22831062181695069 0 0.2459873280094696 0.23707215699401071 0 0.22527908084694109 0.23330634744632109 0 0.2459873280094696 0.23707215699401071 0 0.22527908084694109 0.23330634744632109 0 0.2459873280094696 0.23707215699401071 0 0.23435940432808119 0.2558835225658645 0 0.22527908084694109 0.23330634744632109 0 0.23435940432808119 0.2558835225658645 0 0.21374988379648621 0.2312097547222359 0 0.2257125065402284 0.25431107802280528 0 0.21374988379648621 0.2312097547222359 0 0.22527908084694109 0.23330634744632109 0 0.2257125065402284 0.25431107802280528 0 0.22527908084694109 0.23330634744632109 0 0.2257125065402284 0.25431107802280528 0 0.23435940432808119 0.2558835225658645 0 0.207677409848747 0.15265436726913009 0 0.20799191400454739 0.1375227668896451 0 0.22134903716669199 0.14708536363501609 0 0.20799191400454739 0.1375227668896451 0 0.22703691245497479 0.13189098412415109 0 0.21251029914637609 0.1192952894197942 0 0.20799191400454739 0.1375227668896451 0 0.19325819231563421 0.12959887947710741 0 0.21251029914637609 0.1192952894197942 0 0.20799191400454739 0.1375227668896451 0 0.19325819231563421 0.12959887947710741 0 0.1886017155567373 0.14211231666073301 0 0.1886017155567373 0.14211231666073301 0 0.1981233639171355 0.16578679509823521 0 0.207677409848747 0.15265436726913009 0 0.20799191400454739 0.1375227668896451 0 0.1886017155567373 0.14211231666073301 0 0.207677409848747 0.15265436726913009 0 0.1886017155567373 0.14211231666073301 0 0.1981233639171355 0.16578679509823521 0 0.20764501227753371 0.18946127353573741 0 0.1981233639171355 0.16578679509823521 0 0.18344157371591241 0.18406997535271 0 0.20764501227753371 0.18946127353573741 0 0.1981233639171355 0.16578679509823521 0 0.20764501227753371 0.18946127353573741 0 0.1981233639171355 0.16578679509823521 0 0.22193333897365611 0.16940236618161161 0 0.20764501227753371 0.18946127353573741 0 0.22349524510262589 0.1882929917077163 0 0.22193333897365611 0.16940236618161161 0 0.207677409848747 0.15265436726913009 0 0.1981233639171355 0.16578679509823521 0 0.22193333897365611 0.16940236618161161 0 0.207677409848747 0.15265436726913009 0 0.22193333897365611 0.16940236618161161 0 0.22134903716669199 0.14708536363501609 0 0.22349524510262589 0.1882929917077163 0 0.22193333897365611 0.16940236618161161 0 0.23800281531175979 0.18073324988006281 0 0.23800281531175979 0.18073324988006281 0 0.24342118736862761 0.16410875332904781 0 0.25421457754785548 0.17528354573505059 0 0.23800281531175979 0.18073324988006281 0 0.25421457754785548 0.17528354573505059 0 0.25113643024109478 0.19094495075723769 0 0.22193333897365611 0.16940236618161161 0 0.23800281531175979 0.18073324988006281 0 0.24342118736862761 0.16410875332904781 0 0.22193333897365611 0.16940236618161161 0 0.24342118736862761 0.16410875332904781 0 0.2381959797174126 0.14809141417820801 0 0.2381959797174126 0.14809141417820801 0 0.2471064899150823 0.133463067737116 0 0.25227113898158787 0.14916335431643429 0 0.24342118736862761 0.16410875332904781 0 0.2381959797174126 0.14809141417820801 0 0.25227113898158787 0.14916335431643429 0 0.2381959797174126 0.14809141417820801 0 0.22134903716669199 0.14708536363501609 0 0.22703691245497479 0.13189098412415109 0 0.22193333897365611 0.16940236618161161 0 0.2381959797174126 0.14809141417820801 0 0.22134903716669199 0.14708536363501609 0 0.20799191400454739 0.1375227668896451 0 0.22134903716669199 0.14708536363501609 0 0.22703691245497479 0.13189098412415109 0 0.22703691245497479 0.13189098412415109 0 0.2471064899150823 0.133463067737116 0 0.2348532799323845 0.1126728752525727 0 0.2381959797174126 0.14809141417820801 0 0.22703691245497479 0.13189098412415109 0 0.2471064899150823 0.133463067737116 0 0.2471064899150823 0.133463067737116 0 0.2496952397761337 0.1160329650041991 0 0.2348532799323845 0.1126728752525727 0 0.2348532799323845 0.1126728752525727 0 0.23238347446995899 0.09878858498409393 0 0.25089272908716931 0.092982859712809007 0 0.2496952397761337 0.1160329650041991 0 0.2348532799323845 0.1126728752525727 0 0.25089272908716931 0.092982859712809007 0 0.23238347446995899 0.09878858498409393 0 0.21965336389696419 0.1029970115124081 0 0.22413452496331809 0.086501593458585962 0 0.2348532799323845 0.1126728752525727 0 0.23238347446995899 0.09878858498409393 0 0.21965336389696419 0.1029970115124081 0 0.2348532799323845 0.1126728752525727 0 0.21965336389696419 0.1029970115124081 0 0.21251029914637609 0.1192952894197942 0 0.22703691245497479 0.13189098412415109 0 0.2348532799323845 0.1126728752525727 0 0.21251029914637609 0.1192952894197942 0 0.21965336389696419 0.1029970115124081 0 0.21251029914637609 0.1192952894197942 0 0.20714728240524249 0.10617251279081751 0 0.21251029914637609 0.1192952894197942 0 0.20714728240524249 0.10617251279081751 0 0.2007454095485067 0.1153730887768626 0 0.21965336389696419 0.1029970115124081 0 0.21155544327336909 0.093494818701204518 0 0.22413452496331809 0.086501593458585962 0 0.21965336389696419 0.1029970115124081 0 0.20714728240524249 0.10617251279081751 0 0.21155544327336909 0.093494818701204518 0 0.20029711589946361 0.098207227624031723 0 0.20055037116402991 0.091606906531847498 0 0.21155544327336909 0.093494818701204518 0 0.20714728240524249 0.10617251279081751 0 0.20029711589946361 0.098207227624031723 0 0.21155544327336909 0.093494818701204518 0 0.19812206266677551 0.107667640710604 0 0.20029711589946361 0.098207227624031723 0 0.1885688884481975 0.1093901779912298 0 0.20714728240524249 0.10617251279081751 0 0.19812206266677551 0.107667640710604 0 0.20029711589946361 0.098207227624031723 0 0.20029711589946361 0.098207227624031723 0 0.1929726046438287 0.094705252597794665 0 0.20055037116402991 0.091606906531847498 0 0.1929726046438287 0.094705252597794665 0 0.1885688884481975 0.1093901779912298 0 0.1832996600419958 0.1003897382564244 0 0.20029711589946361 0.098207227624031723 0 0.1929726046438287 0.094705252597794665 0 0.1885688884481975 0.1093901779912298 0 0.20029711589946361 0.098207227624031723 0 0.1885688884481975 0.1093901779912298 0 0.1929726046438287 0.094705252597794665 0 0.1885688884481975 0.1093901779912298 0 0.19812206266677551 0.107667640710604 0 0.19247123508700151 0.1156451737142033 0 0.1885688884481975 0.1093901779912298 0 0.19247123508700151 0.1156451737142033 0 0.1885688884481975 0.1093901779912298 0 0.1858372065203453 0.1184994265274882 0 0.19325819231563421 0.12959887947710741 0 0.21251029914637609 0.1192952894197942 0 0.2007454095485067 0.1153730887768626 0 0.19325819231563421 0.12959887947710741 0 0.19247123508700151 0.1156451737142033 0 0.1858372065203453 0.1184994265274882 0 0.19325819231563421 0.12959887947710741 0 0.19247123508700151 0.1156451737142033 0 0.2007454095485067 0.1153730887768626 0 0.20714728240524249 0.10617251279081751 0 0.19812206266677551 0.107667640710604 0 0.2007454095485067 0.1153730887768626 0 0.19812206266677551 0.107667640710604 0 0.19247123508700151 0.1156451737142033 0 0.2007454095485067 0.1153730887768626 0 0.20238686903042469 0.063311819413239129 0 0.1973763208394673 0.08002032720436178 0 0.18079222374313991 0.066157073385880324 0 0.20238686903042469 0.063311819413239129 0 0.18079222374313991 0.066157073385880324 0 0.1973763208394673 0.08002032720436178 0 0.17868141559437861 0.075492121278057239 0 0.20238686903042469 0.063311819413239129 0 0.1973763208394673 0.08002032720436178 0 0.1929726046438287 0.094705252597794665 0 0.1973763208394673 0.08002032720436178 0 0.1929726046438287 0.094705252597794665 0 0.1973763208394673 0.08002032720436178 0 0.18493574174144031 0.087819629641268118 0 0.1929726046438287 0.094705252597794665 0 0.20055037116402991 0.091606906531847498 0 0.1973763208394673 0.08002032720436178 0 0.1973763208394673 0.08002032720436178 0 0.22413452496331809 0.086501593458585962 0 0.1973763208394673 0.08002032720436178 0 0.21155544327336909 0.093494818701204518 0 0.22413452496331809 0.086501593458585962 0 0.1973763208394673 0.08002032720436178 0 0.21581045027983861 0.072515516379325212 0 0.22413452496331809 0.086501593458585962 0 0.20055037116402991 0.091606906531847498 0 0.1973763208394673 0.08002032720436178 0 0.21155544327336909 0.093494818701204518 0 0.20238686903042469 0.063311819413239129 0 0.21581045027983861 0.072515516379325212 0 0.22639199231908241 0.060148967164815811 0 0.20238686903042469 0.063311819413239129 0 0.1973763208394673 0.08002032720436178 0 0.21581045027983861 0.072515516379325212 0 0.21581045027983861 0.072515516379325212 0 0.22413452496331809 0.086501593458585962 0 0.23571274181676019 0.070187616308315881 0 0.21581045027983861 0.072515516379325212 0 0.23571274181676019 0.070187616308315881 0 0.22639199231908241 0.060148967164815811 0 0.23571274181676019 0.070187616308315881 0 0.23935269316475091 0.05797056278501677 0 0.22639199231908241 0.060148967164815811 0 0.22413452496331809 0.086501593458585962 0 0.25089272908716931 0.092982859712809007 0 0.22413452496331809 0.086501593458585962 0 0.23571274181676019 0.070187616308315881 0 0.25089272908716931 0.092982859712809007 0 0.23238347446995899 0.09878858498409393 0 0.22413452496331809 0.086501593458585962 0 0.25089272908716931 0.092982859712809007 0 0.23571274181676019 0.070187616308315881 0 0.25089272908716931 0.092982859712809007 0 0.23571274181676019 0.070187616308315881 0 0.25282536794073712 0.073272794188635415 0 0.25089272908716931 0.092982859712809007 0 0.23935269316475091 0.05797056278501677 0 0.25425538404847059 0.057624927133231481 0 0.25282536794073712 0.073272794188635415 0 0.23571274181676019 0.070187616308315881 0 0.23935269316475091 0.05797056278501677 0 0.25282536794073712 0.073272794188635415 0 0.2368345322212535 0.044434942105003657 0 0.25425538404847059 0.057624927133231481 0 0.23935269316475091 0.05797056278501677 0 0.2368345322212535 0.044434942105003657 0 0.25425538404847059 0.057624927133231481 0 0.23935269316475091 0.05797056278501677 0 0.2368345322212535 0.044434942105003657 0 0.23127016951469481 0.052559852354376588 0 0.2368345322212535 0.044434942105003657 0 0.25291178968964928 0.037547667281027097 0 0.25425538404847059 0.057624927133231481 0 0.2368345322212535 0.044434942105003657 0 0.24190969492169709 0.024768393557462999 0 0.25291178968964928 0.037547667281027097 0 0.2368345322212535 0.044434942105003657 0 0.21941368039403211 0.031244957076781411 0 0.2368345322212535 0.044434942105003657 0 0.22121604545690071 0.040326540279582428 0 0.22250146035369231 0.047684937362670127 0 0.2368345322212535 0.044434942105003657 0 0.22121604545690071 0.040326540279582428 0 0.21941368039403211 0.031244957076781411 0 0.2368345322212535 0.044434942105003657 0 0.24190969492169709 0.024768393557462999 0 0.21941368039403211 0.031244957076781411 0 0.22121604545690071 0.040326540279582428 0 0.22250146035369231 0.047684937362670127 0 0.2151241054634794 0.043140718643033253 0 0.22250146035369231 0.047684937362670127 0 0.22639199231908241 0.060148967164815811 0 0.21464985550632831 0.05254647609126252 0 0.23935269316475091 0.05797056278501677 0 0.22639199231908241 0.060148967164815811 0 0.23127016951469481 0.052559852354376588 0 0.2368345322212535 0.044434942105003657 0 0.22250146035369231 0.047684937362670127 0 0.23127016951469481 0.052559852354376588 0 0.22250146035369231 0.047684937362670127 0 0.22639199231908241 0.060148967164815811 0 0.23127016951469481 0.052559852354376588 0 0.23517440673197429 0.0051848507458196356 0 0.24190969492169709 0.024768393557462999 0 0.22860778246280219 0.01441509204728152 0 0.23517440673197429 0.0051848507458196356 0 0.2485551203034157 0.0102848256948572 0 0.24190969492169709 0.024768393557462999 0 0.23517440673197429 0.0051848507458196356 0 0.2429424487767215 0.0026164120279975069 0 0.24005113852307369 -0.0027355710512556022 0 0.23517440673197429 0.0051848507458196356 0 0.2429424487767215 0.0026164120279975069 0 0.2485551203034157 0.0102848256948572 0 0.2429424487767215 0.0026164120279975069 0 0.2485551203034157 0.0102848256948572 0 0.2479891295484222 -0.0022684572774312019 0 0.2237082671027216 0.020648212041472009 0 0.22100796739575951 0.001216664300799794 0 0.21337432104441539 0.026672329963493752 0 0.24190969492169709 0.024768393557462999 0 0.21941368039403211 0.031244957076781411 0 0.24190969492169709 0.024768393557462999 0 0.21941368039403211 0.031244957076781411 0 0.2237082671027216 0.020648212041472009 0 0.24190969492169709 0.024768393557462999 0 0.2237082671027216 0.020648212041472009 0 0.22860778246280219 0.01441509204728152 0 0.21941368039403211 0.031244957076781411 0 0.2237082671027216 0.020648212041472009 0 0.21337432104441539 0.026672329963493752 0 0.2237082671027216 0.020648212041472009 0 0.22860778246280219 0.01441509204728152 0 0.22100796739575951 0.001216664300799794 0 0.23517440673197429 0.0051848507458196356 0 0.22860778246280219 0.01441509204728152 0 0.22100796739575951 0.001216664300799794 0 0.22100796739575951 0.001216664300799794 0 0.21337432104441539 0.026672329963493752 0 0.22100796739575951 0.001216664300799794 0 0.21213365429295861 0.01041237886839381 0 0.21337432104441539 0.026672329963493752 0 0.20938161325362409 0.0025060029461209908 0 0.21213365429295861 0.01041237886839381 0 0.19981118715584381 0.0070254328827108366 0 0.20938161325362409 0.0025060029461209908 0 0.19981118715584381 0.0070254328827108366 0 0.20239897911060981 -0.0049616950454924097 0 0.22100796739575951 0.001216664300799794 0 0.21476518088515931 0.0026345493870347861 0 0.21213365429295861 0.01041237886839381 0 0.20938161325362409 0.0025060029461209908 0 0.21476518088515931 0.0026345493870347861 0 0.21653748859829491 -0.0035968485671754561 0 0.20938161325362409 0.0025060029461209908 0 0.21476518088515931 0.0026345493870347861 0 0.21213365429295861 0.01041237886839381 0 0.22100796739575951 0.001216664300799794 0 0.21476518088515931 0.0026345493870347861 0 0.21653748859829491 -0.0035968485671754561 0 0.21213365429295861 0.01041237886839381 0 0.20775643638324501 0.022418817258943329 0 0.19981118715584381 0.0070254328827108366 0 0.20775643638324501 0.022418817258943329 0 0.19981118715584381 0.0070254328827108366 0 0.21213365429295861 0.01041237886839381 0 0.20775643638324501 0.022418817258943329 0 0.21337432104441539 0.026672329963493752 0 0.20775643638324501 0.022418817258943329 0 0.21337432104441539 0.026672329963493752 0 0.21211661331991941 0.030866365927793071 0 0.21941368039403211 0.031244957076781411 0 0.21337432104441539 0.026672329963493752 0 0.21211661331991941 0.030866365927793071 0 0.21941368039403211 0.031244957076781411 0 0.21337432104441539 0.026672329963493752 0 0.21337432104441539 0.026672329963493752 0 0.21211661331991941 0.030866365927793071 0 0.20775643638324501 0.022418817258943329 0 0.21211661331991941 0.030866365927793071 0 0.2008624239423544 0.027751844864101351 0 0.21211661331991941 0.030866365927793071 0 0.2008624239423544 0.027751844864101351 0 0.21130283169949521 0.033580056331867662 0 0.20775643638324501 0.022418817258943329 0 0.21211661331991941 0.030866365927793071 0 0.20775643638324501 0.022418817258943329 0 0.21337432104441539 0.026672329963493752 0 0.2008624239423544 0.027751844864101351 0 0.1914807756371078 0.039286791852227318 0 0.1874867753674215 0.0231110496262097 0 0.2008624239423544 0.027751844864101351 0 0.19503111124693581 0.017247988187571551 0 0.1874867753674215 0.0231110496262097 0 0.19503111124693581 0.017247988187571551 0 0.18734518720319909 0.015281891910368059 0 0.1874867753674215 0.0231110496262097 0 0.20775643638324501 0.022418817258943329 0 0.2008624239423544 0.027751844864101351 0 0.19503111124693581 0.017247988187571551 0 0.20775643638324501 0.022418817258943329 0 0.19503111124693581 0.017247988187571551 0 0.18660242445042999 0.0064023156866817926 0 0.20775643638324501 0.022418817258943329 0 0.18660242445042999 0.0064023156866817926 0 0.20775643638324501 0.022418817258943329 0 0.1894192936343001 0.0060385698470956234 0 0.19981118715584381 0.0070254328827108366 0 0.20775643638324501 0.022418817258943329 0 0.1894192936343001 0.0060385698470956234 0 0.18660242445042999 0.0064023156866817926 0 0.19503111124693581 0.017247988187571551 0 0.18832376542685261 0.012450231659139751 0 0.18660242445042999 0.0064023156866817926 0 0.19503111124693581 0.017247988187571551 0 0.18832376542685261 0.012450231659139751 0 0.18734518720319909 0.015281891910368059 0 0.1894192936343001 0.0060385698470956234 0 0.19981118715584381 0.0070254328827108366 0 0.1918659379284415 -0.0083679514935210662 0 0.20238686903042469 0.063311819413239129 0 0.22639199231908241 0.060148967164815811 0 0.21464985550632831 0.05254647609126252 0 0.20238686903042469 0.063311819413239129 0 0.22639199231908241 0.060148967164815811 0 0.20238686903042469 0.063311819413239129 0 0.20684485036496281 0.04844593787255428 0 0.21464985550632831 0.05254647609126252 0 0.20238686903042469 0.063311819413239129 0 0.20684485036496281 0.04844593787255428 0 0.20684485036496281 0.04844593787255428 0 0.21464985550632831 0.05254647609126252 0 0.2151241054634794 0.043140718643033253 0 0.22250146035369231 0.047684937362670127 0 0.21464985550632831 0.05254647609126252 0 0.2151241054634794 0.043140718643033253 0 0.20684485036496281 0.04844593787255428 0 0.2151241054634794 0.043140718643033253 0 0.21130283169949521 0.033580056331867662 0 0.20684485036496281 0.04844593787255428 0 0.21130283169949521 0.033580056331867662 0 0.1914807756371078 0.039286791852227318 0 0.2151241054634794 0.043140718643033253 0 0.21130283169949521 0.033580056331867662 0 0.21323078658658201 0.03302500146766809 0 0.22121604545690071 0.040326540279582428 0 0.2151241054634794 0.043140718643033253 0 0.21323078658658201 0.03302500146766809 0 0.22121604545690071 0.040326540279582428 0 0.21941368039403211 0.031244957076781411 0 0.21323078658658201 0.03302500146766809 0 0.21941368039403211 0.031244957076781411 0 0.21211661331991941 0.030866365927793071 0 0.21323078658658201 0.03302500146766809 0 0.21941368039403211 0.031244957076781411 0 0.21323078658658201 0.03302500146766809 0 0.21130283169949521 0.033580056331867662 0 0.21323078658658201 0.03302500146766809 0 0.21211661331991941 0.030866365927793071 0 0.21130283169949521 0.033580056331867662 0 0.21323078658658201 0.03302500146766809 0 0.21211661331991941 0.030866365927793071 0 0.21130283169949521 0.033580056331867662 0 0.21211661331991941 0.030866365927793071 0 0.21323078658658201 0.03302500146766809 0 0.20684485036496281 0.04844593787255428 0 0.21130283169949521 0.033580056331867662 0 0.20684485036496281 0.04844593787255428 0 0.1914807756371078 0.039286791852227318 0 0.1906326876700713 0.052439029979298252 0 0.21130283169949521 0.033580056331867662 0 0.1914807756371078 0.039286791852227318 0 0.2008624239423544 0.027751844864101351 0 0.21130283169949521 0.033580056331867662 0 0.1914807756371078 0.039286791852227318 0 0.20238686903042469 0.063311819413239129 0 0.20684485036496281 0.04844593787255428 0 0.1906326876700713 0.052439029979298252 0 0.20238686903042469 0.063311819413239129 0 0.1906326876700713 0.052439029979298252 0 0.18079222374313991 0.066157073385880324 0 0.1906326876700713 0.052439029979298252 0 0.1716587195747214 0.044993527372590117 0 0.18079222374313991 0.066157073385880324 0 0.1914807756371078 0.039286791852227318 0 0.17895959729017549 0.03270519686463521 0 0.1874867753674215 0.0231110496262097 0 0.1914807756371078 0.039286791852227318 0 0.1906326876700713 0.052439029979298252 0 0.1716587195747214 0.044993527372590117 0 0.1914807756371078 0.039286791852227318 0 0.1716587195747214 0.044993527372590117 0 0.1914807756371078 0.039286791852227318 0 0.17895959729017549 0.03270519686463521 0 0.1716587195747214 0.044993527372590117 0 0.17895959729017549 0.03270519686463521 0 0.1716587195747214 0.044993527372590117 0 0.1692336025848987 0.033942773786365128 0 0.1716587195747214 0.044993527372590117 0 0.1692336025848987 0.033942773786365128 0 0.1566962317421734 0.039838803654011962 0 0.1716587195747214 0.044993527372590117 0 0.1566962317421734 0.039838803654011962 0 0.15183666351233449 0.050700262892952028 0 0.1692336025848987 0.033942773786365128 0 0.1566962317421734 0.039838803654011962 0 0.158601754226253 0.030081739901262169 0 0.1716587195747214 0.044993527372590117 0 0.15183666351233449 0.050700262892952028 0 0.15919757845585511 0.069002327358520896 0 0.1716587195747214 0.044993527372590117 0 0.18079222374313991 0.066157073385880324 0 0.15919757845585511 0.069002327358520896 0 0.1716587195747214 0.044993527372590117 0 0.15183666351233449 0.050700262892952028 0 0.17227434920368959 0.00081991249798677823 0 0.17658810010716819 0.0040568459827444014 0 0.17786282304025339 -0.001583287003114023 0 0.17227434920368959 0.00081991249798677823 0 0.17658810010716819 0.0040568459827444014 0 0.17233771352019589 0.0083561011481188656 0 0.17658810010716819 0.0040568459827444014 0 0.18177514670000741 0.0039010391453388991 0 0.17943453638861959 0.0091511058078182841 0 0.17658810010716819 0.0040568459827444014 0 0.17943453638861959 0.0091511058078182841 0 0.17233771352019589 0.0083561011481188656 0 0.17658810010716819 0.0040568459827444014 0 0.18177514670000741 0.0039010391453388991 0 0.17786282304025339 -0.001583287003114023 0 0.18177514670000741 0.0039010391453388991 0 0.18580903226614379 -0.0011502469314075439 0 0.17786282304025339 -0.001583287003114023 0 0.1894192936343001 0.0060385698470956234 0 0.18660242445042999 0.0064023156866817926 0 0.18580903226614379 -0.0011502469314075439 0 0.18177514670000741 0.0039010391453388991 0 0.18660242445042999 0.0064023156866817926 0 0.18580903226614379 -0.0011502469314075439 0 0.18177514670000741 0.0039010391453388991 0 0.18660242445042999 0.0064023156866817926 0 0.18303211158647559 0.0075807978729441382 0 0.18177514670000741 0.0039010391453388991 0 0.18303211158647559 0.0075807978729441382 0 0.17943453638861959 0.0091511058078182841 0 0.18303211158647559 0.0075807978729441382 0 0.18431633880684531 0.01086873085193758 0 0.17943453638861959 0.0091511058078182841 0 0.18660242445042999 0.0064023156866817926 0 0.18303211158647559 0.0075807978729441382 0 0.18431633880684531 0.01086873085193758 0 0.18832376542685261 0.012450231659139751 0 0.18660242445042999 0.0064023156866817926 0 0.18431633880684531 0.01086873085193758 0 0.18431633880684531 0.01086873085193758 0 0.18734518720319909 0.015281891910368059 0 0.18195036267736389 0.015275800378046231 0 0.18832376542685261 0.012450231659139751 0 0.18431633880684531 0.01086873085193758 0 0.18734518720319909 0.015281891910368059 0 0.18431633880684531 0.01086873085193758 0 0.18195036267736389 0.015275800378046231 0 0.17943453638861959 0.0091511058078182841 0 0.18195036267736389 0.015275800378046231 0 0.1761571917665653 0.013806221612761949 0 0.17943453638861959 0.0091511058078182841 0 0.1761571917665653 0.013806221612761949 0 0.17943453638861959 0.0091511058078182841 0 0.17233771352019589 0.0083561011481188656 0 0.1761571917665653 0.013806221612761949 0 0.17233771352019589 0.0083561011481188656 0 0.1709247624247007 0.01466984692398882 0 0.1761571917665653 0.013806221612761949 0 0.17493811328672779 0.022191841685783802 0 0.1709247624247007 0.01466984692398882 0 0.18195036267736389 0.015275800378046231 0 0.1761571917665653 0.013806221612761949 0 0.17493811328672779 0.022191841685783802 0 0.18734518720319909 0.015281891910368059 0 0.18195036267736389 0.015275800378046231 0 0.1874867753674215 0.0231110496262097 0 0.18195036267736389 0.015275800378046231 0 0.17493811328672779 0.022191841685783802 0 0.1874867753674215 0.0231110496262097 0 0.17895959729017549 0.03270519686463521 0 0.17493811328672779 0.022191841685783802 0 0.1874867753674215 0.0231110496262097 0 0.17895959729017549 0.03270519686463521 0 0.1692336025848987 0.033942773786365128 0 0.17493811328672779 0.022191841685783802 0 0.1692336025848987 0.033942773786365128 0 0.1660519956958274 0.025200646889517071 0 0.158601754226253 0.030081739901262169 0 0.1692336025848987 0.033942773786365128 0 0.17493811328672779 0.022191841685783802 0 0.1660519956958274 0.025200646889517071 0 0.1660519956958274 0.025200646889517071 0 0.158601754226253 0.030081739901262169 0 0.15656323758401319 0.020842958383828041 0 0.15656323758401319 0.020842958383828041 0 0.1655425680131333 0.017645951334422452 0 0.15799820797772829 0.01069464001977203 0 0.1660519956958274 0.025200646889517071 0 0.15656323758401319 0.020842958383828041 0 0.1655425680131333 0.017645951334422452 0 0.17493811328672779 0.022191841685783802 0 0.1660519956958274 0.025200646889517071 0 0.1655425680131333 0.017645951334422452 0 0.17493811328672779 0.022191841685783802 0 0.1655425680131333 0.017645951334422452 0 0.1709247624247007 0.01466984692398882 0 0.17233771352019589 0.0083561011481188656 0 0.1709247624247007 0.01466984692398882 0 0.16528784937855559 0.0099045707114697821 0 0.1655425680131333 0.017645951334422452 0 0.1709247624247007 0.01466984692398882 0 0.16528784937855559 0.0099045707114697821 0 0.1655425680131333 0.017645951334422452 0 0.16528784937855559 0.0099045707114697821 0 0.15799820797772829 0.01069464001977203 0 0.16528784937855559 0.0099045707114697821 0 0.15830422717032419 0.0026668804518291322 0 0.16550177429739321 0.001625335581948511 0 0.16528784937855559 0.0099045707114697821 0 0.15799820797772829 0.01069464001977203 0 0.15830422717032419 0.0026668804518291322 0 0.17233771352019589 0.0083561011481188656 0 0.16528784937855559 0.0099045707114697821 0 0.16550177429739321 0.001625335581948511 0 0.17227434920368959 0.00081991249798677823 0 0.17233771352019589 0.0083561011481188656 0 0.16550177429739321 0.001625335581948511 0 0.14127976741107601 0.00215554095495248 0 0.15230472087545879 0.0045339035350271751 0 0.14873370341600839 0.01190124285016711 0 0.15799820797772829 0.01069464001977203 0 0.15830422717032419 0.0026668804518291322 0 0.15230472087545879 0.0045339035350271751 0 0.14127976741107601 0.00215554095495248 0 0.15230472087545879 0.0045339035350271751 0 0.1552076984021574 -0.0047487866015848753 0 0.15830422717032419 0.0026668804518291322 0 0.15230472087545879 0.0045339035350271751 0 0.1552076984021574 -0.0047487866015848753 0 0.15656323758401319 0.020842958383828041 0 0.15799820797772829 0.01069464001977203 0 0.14873370341600839 0.01190124285016711 0 0.15799820797772829 0.01069464001977203 0 0.15230472087545879 0.0045339035350271751 0 0.14873370341600839 0.01190124285016711 0 0.14873370341600839 0.01190124285016711 0 0.1458857290053831 0.021389540043380069 0 0.13967636330765321 0.013174792475989121 0 0.14127976741107601 0.00215554095495248 0 0.14873370341600839 0.01190124285016711 0 0.13967636330765321 0.013174792475989121 0 0.1458857290053831 0.021389540043380069 0 0.13916191736165201 0.019633136795163032 0 0.13967636330765321 0.013174792475989121 0 0.1458857290053831 0.021389540043380069 0 0.14010063181871271 0.02585166497444577 0 0.13916191736165201 0.019633136795163032 0 0.15656323758401319 0.020842958383828041 0 0.1458857290053831 0.021389540043380069 0 0.15175299049851881 0.02729842449465077 0 0.15656323758401319 0.020842958383828041 0 0.14873370341600839 0.01190124285016711 0 0.1458857290053831 0.021389540043380069 0 0.158601754226253 0.030081739901262169 0 0.15656323758401319 0.020842958383828041 0 0.15175299049851881 0.02729842449465077 0 0.158601754226253 0.030081739901262169 0 0.15175299049851881 0.02729842449465077 0 0.15159127196488009 0.032471007951428398 0 0.15175299049851881 0.02729842449465077 0 0.14523576613563741 0.02976945682372012 0 0.15159127196488009 0.032471007951428398 0 0.1458857290053831 0.021389540043380069 0 0.14523576613563741 0.02976945682372012 0 0.14010063181871271 0.02585166497444577 0 0.14523576613563741 0.02976945682372012 0 0.14010063181871271 0.02585166497444577 0 0.1391322595465444 0.03699933077486834 0 0.1458857290053831 0.021389540043380069 0 0.15175299049851881 0.02729842449465077 0 0.14523576613563741 0.02976945682372012 0 0.1309849453148588 0.01811654968683717 0 0.1391322595465444 0.03699933077486834 0 0.14010063181871271 0.02585166497444577 0 0.1309849453148588 0.01811654968683717 0 0.1391322595465444 0.03699933077486834 0 0.11917198148314 0.002581966002757949 0 0.13034027439662041 0.028127834929059549 0 0.1309849453148588 0.01811654968683717 0 0.13034027439662041 0.028127834929059549 0 0.1309849453148588 0.01811654968683717 0 0.1391322595465444 0.03699933077486834 0 0.1309849453148588 0.01811654968683717 0 0.13916191736165201 0.019633136795163032 0 0.13967636330765321 0.013174792475989121 0 0.14010063181871271 0.02585166497444577 0 0.1309849453148588 0.01811654968683717 0 0.13916191736165201 0.019633136795163032 0 0.14127976741107601 0.00215554095495248 0 0.13362755423293271 0.0080562160832345926 0 0.1228376310831711 -0.00076623140119310329 0 0.1309849453148588 0.01811654968683717 0 0.13362755423293271 0.0080562160832345926 0 0.1228376310831711 -0.00076623140119310329 0 0.1309849453148588 0.01811654968683717 0 0.1228376310831711 -0.00076623140119310329 0 0.1309849453148588 0.01811654968683717 0 0.13362755423293271 0.0080562160832345926 0 0.13967636330765321 0.013174792475989121 0 0.14127976741107601 0.00215554095495248 0 0.13362755423293271 0.0080562160832345926 0 0.13967636330765321 0.013174792475989121 0 0.15183666351233449 0.050700262892952028 0 0.15919757845585511 0.069002327358520896 0 0.15048711395973299 0.060532750562707877 0 0.15183666351233449 0.050700262892952028 0 0.15919757845585511 0.069002327358520896 0 0.14215194880052681 0.055145346777992182 0 0.15048711395973299 0.060532750562707877 0 0.13253998066004699 0.064315925604492674 0 0.1415085673101022 0.053673703855360522 0 0.14215194880052681 0.055145346777992182 0 0.15183666351233449 0.050700262892952028 0 0.1415085673101022 0.053673703855360522 0 0.15183666351233449 0.050700262892952028 0 0.1415085673101022 0.053673703855360522 0 0.15183666351233449 0.050700262892952028 0 0.14453550543306221 0.044729731242042367 0 0.1415085673101022 0.053673703855360522 0 0.14215194880052681 0.055145346777992182 0 0.14215194880052681 0.055145346777992182 0 0.15048711395973299 0.060532750562707877 0 0.15183666351233449 0.050700262892952028 0 0.1415085673101022 0.053673703855360522 0 0.14453550543306221 0.044729731242042367 0 0.1391322595465444 0.03699933077486834 0 0.15183666351233449 0.050700262892952028 0 0.14566961722181801 0.035366614883496988 0 0.1566962317421734 0.039838803654011962 0 0.15183666351233449 0.050700262892952028 0 0.14566961722181801 0.035366614883496988 0 0.1566962317421734 0.039838803654011962 0 0.15159127196488009 0.032471007951428398 0 0.14566961722181801 0.035366614883496988 0 0.1566962317421734 0.039838803654011962 0 0.158601754226253 0.030081739901262169 0 0.15159127196488009 0.032471007951428398 0 0.14566961722181801 0.035366614883496988 0 0.14453550543306221 0.044729731242042367 0 0.1391322595465444 0.03699933077486834 0 0.14523576613563741 0.02976945682372012 0 0.15159127196488009 0.032471007951428398 0 0.14566961722181801 0.035366614883496988 0 0.14523576613563741 0.02976945682372012 0 0.14566961722181801 0.035366614883496988 0 0.1391322595465444 0.03699933077486834 0 0.15183666351233449 0.050700262892952028 0 0.14566961722181801 0.035366614883496988 0 0.14453550543306221 0.044729731242042367 0 0.13034027439662041 0.028127834929059549 0 0.1415085673101022 0.053673703855360522 0 0.13034027439662041 0.028127834929059549 0 0.1415085673101022 0.053673703855360522 0 0.1391322595465444 0.03699933077486834 0 0.12367169586596689 0.04413069599522032 0 0.13034027439662041 0.028127834929059549 0 0.1415085673101022 0.053673703855360522 0 0.11892469151436 0.060175562481194378 0 0.12367169586596689 0.04413069599522032 0 0.1415085673101022 0.053673703855360522 0 0.11892469151436 0.060175562481194378 0 0.1415085673101022 0.053673703855360522 0 0.11892469151436 0.060175562481194378 0 0.1415085673101022 0.053673703855360522 0 0.13253998066004699 0.064315925604492674 0 0.1415085673101022 0.053673703855360522 0 0.14215194880052681 0.055145346777992182 0 0.13253998066004699 0.064315925604492674 0 0.13253998066004699 0.064315925604492674 0 0.13121537104960351 0.072689189806444385 0 0.15446329543616341 0.069626104104570485 0 0.1243405792371938 0.066503547411893488 0 0.13253998066004699 0.064315925604492674 0 0.13121537104960351 0.072689189806444385 0 0.11892469151436 0.060175562481194378 0 0.1243405792371938 0.066503547411893488 0 0.13253998066004699 0.064315925604492674 0 0.13121537104960351 0.072689189806444385 0 0.14336397744542301 0.076431171561807093 0 0.13288821721910599 0.083857800247139097 0 0.15048711395973299 0.060532750562707877 0 0.13253998066004699 0.064315925604492674 0 0.15446329543616341 0.069626104104570485 0 0.13121537104960351 0.072689189806444385 0 0.15446329543616341 0.069626104104570485 0 0.13121537104960351 0.072689189806444385 0 0.14336397744542301 0.076431171561807093 0 0.15446329543616341 0.069626104104570485 0 0.13253998066004699 0.064315925604492674 0 0.15446329543616341 0.069626104104570485 0 0.14336397744542301 0.076431171561807093 0 0.15145508435945571 0.07730097997971673 0 0.15446329543616341 0.069626104104570485 0 0.15145508435945571 0.07730097997971673 0 0.15998651034928929 0.070963915351755544 0 0.15635019231632599 0.084708360937410687 0 0.15145508435945571 0.07730097997971673 0 0.15446329543616341 0.069626104104570485 0 0.15998651034928929 0.070963915351755544 0 0.15048711395973299 0.060532750562707877 0 0.15446329543616341 0.069626104104570485 0 0.15919757845585511 0.069002327358520896 0 0.1449478564828334 0.088262465871273704 0 0.15304430801011831 0.09759233646353245 0 0.15635019231632599 0.084708360937410687 0 0.15145508435945571 0.07730097997971673 0 0.1449478564828334 0.088262465871273704 0 0.15635019231632599 0.084708360937410687 0 0.14336397744542301 0.076431171561807093 0 0.15145508435945571 0.07730097997971673 0 0.1449478564828334 0.088262465871273704 0 0.1449478564828334 0.088262465871273704 0 0.13288821721910599 0.083857800247139097 0 0.1333435253298102 0.095432768439741328 0 0.14336397744542301 0.076431171561807093 0 0.1449478564828334 0.088262465871273704 0 0.13288821721910599 0.083857800247139097 0 0.1225478872688979 0.090713611373926736 0 0.1210037722340596 0.082520495593825793 0 0.13288821721910599 0.083857800247139097 0 0.1210037722340596 0.082520495593825793 0 0.13121537104960351 0.072689189806444385 0 0.13288821721910599 0.083857800247139097 0 0.1225478872688979 0.090713611373926736 0 0.13288821721910599 0.083857800247139097 0 0.1333435253298102 0.095432768439741328 0 0.1449478564828334 0.088262465871273704 0 0.1368974078767736 0.107501873099266 0 0.1333435253298102 0.095432768439741328 0 0.12018819637303869 0.10164151191590461 0 0.1368974078767736 0.107501873099266 0 0.1333435253298102 0.095432768439741328 0 0.12018819637303869 0.10164151191590461 0 0.1225478872688979 0.090713611373926736 0 0.1333435253298102 0.095432768439741328 0 0.11707998843366239 0.12090166170324231 0 0.14061487869327599 0.12738787364596069 0 0.1368974078767736 0.107501873099266 0 0.14061487869327599 0.12738787364596069 0 0.1368974078767736 0.107501873099266 0 0.1574927946018469 0.1127881056222175 0 0.14061487869327599 0.12738787364596069 0 0.16208469833826319 0.13464304631642149 0 0.1574927946018469 0.1127881056222175 0 0.1368974078767736 0.107501873099266 0 0.15304430801011831 0.09759233646353245 0 0.1574927946018469 0.1127881056222175 0 0.1449478564828334 0.088262465871273704 0 0.1368974078767736 0.107501873099266 0 0.15304430801011831 0.09759233646353245 0 0.15304430801011831 0.09759233646353245 0 0.1695332887728116 0.094700876787494351 0 0.1574927946018469 0.1127881056222175 0 0.1695332887728116 0.094700876787494351 0 0.1574927946018469 0.1127881056222175 0 0.1790800671963392 0.1184378382232308 0 0.16208469833826319 0.13464304631642149 0 0.1574927946018469 0.1127881056222175 0 0.1790800671963392 0.1184378382232308 0 0.1885688884481975 0.1093901779912298 0 0.1790800671963392 0.1184378382232308 0 0.1832996600419958 0.1003897382564244 0 0.1885688884481975 0.1093901779912298 0 0.1790800671963392 0.1184378382232308 0 0.1858372065203453 0.1184994265274882 0 0.1885688884481975 0.1093901779912298 0 0.1858372065203453 0.1184994265274882 0 0.1885688884481975 0.1093901779912298 0 0.1790800671963392 0.1184378382232308 0 0.19325819231563421 0.12959887947710741 0 0.1790800671963392 0.1184378382232308 0 0.1858372065203453 0.1184994265274882 0 0.1695332887728116 0.094700876787494351 0 0.1790800671963392 0.1184378382232308 0 0.1695332887728116 0.094700876787494351 0 0.1790800671963392 0.1184378382232308 0 0.1832996600419958 0.1003897382564244 0 0.1695332887728116 0.094700876787494351 0 0.1832996600419958 0.1003897382564244 0 0.18493574174144031 0.087819629641268118 0 0.1929726046438287 0.094705252597794665 0 0.1832996600419958 0.1003897382564244 0 0.18493574174144031 0.087819629641268118 0 0.1973763208394673 0.08002032720436178 0 0.18493574174144031 0.087819629641268118 0 0.17868141559437861 0.075492121278057239 0 0.1695332887728116 0.094700876787494351 0 0.18493574174144031 0.087819629641268118 0 0.17868141559437861 0.075492121278057239 0 0.1973763208394673 0.08002032720436178 0 0.17868141559437861 0.075492121278057239 0 0.18079222374313991 0.066157073385880324 0 0.17868141559437861 0.075492121278057239 0 0.18079222374313991 0.066157073385880324 0 0.15998651034928929 0.070963915351755544 0 0.18079222374313991 0.066157073385880324 0 0.15919757845585511 0.069002327358520896 0 0.18079222374313991 0.066157073385880324 0 0.15919757845585511 0.069002327358520896 0 0.15998651034928929 0.070963915351755544 0 0.17868141559437861 0.075492121278057239 0 0.15998651034928929 0.070963915351755544 0 0.15446329543616341 0.069626104104570485 0 0.15919757845585511 0.069002327358520896 0 0.15998651034928929 0.070963915351755544 0 0.15446329543616341 0.069626104104570485 0 0.15919757845585511 0.069002327358520896 0 0.15446329543616341 0.069626104104570485 0 0.15998651034928929 0.070963915351755544 0 0.15919757845585511 0.069002327358520896 0 0.15998651034928929 0.070963915351755544 0 0.1695332887728116 0.094700876787494351 0 0.17868141559437861 0.075492121278057239 0 0.15998651034928929 0.070963915351755544 0 0.15304430801011831 0.09759233646353245 0 0.1695332887728116 0.094700876787494351 0 0.15635019231632599 0.084708360937410687 0 0.1695332887728116 0.094700876787494351 0 0.15998651034928929 0.070963915351755544 0 0.1695332887728116 0.094700876787494351 0 0.15998651034928929 0.070963915351755544 0 0.15635019231632599 0.084708360937410687 0 0.097740131103692757 0.47211576306312553 0 0.10228396963995549 0.48764264937867408 0 0.092199203719590395 0.48872928857719472 0 0.097740131103692757 0.47211576306312553 0 0.1146358595090817 0.48605788153156299 0 0.097740131103692757 0.47211576306312553 0 0.10228396963995549 0.48764264937867408 0 0.1146358595090817 0.48605788153156299 0 0.1038255785689283 0.5 0 0.10228396963995549 0.48764264937867408 0 0.092199203719590395 0.48872928857719472 0 0.1038255785689283 0.5 0 0.10228396963995549 0.48764264937867408 0 0.1146358595090817 0.48605788153156299 0 0.1146358595090817 0.48605788153156299 0 0.13153158791447089 0.50000000000000033 0 0.1038255785689283 0.5 0 0.1146358595090817 0.48605788153156299 0 0.13153158791447089 0.50000000000000033 0 0.097740131103692757 0.47211576306312553 0 0.1146358595090817 0.48605788153156299 0 0.1160915578241386 0.4641835533930308 0 0.1146358595090817 0.48605788153156299 0 0.1160915578241386 0.4641835533930308 0 0.13792901651589951 0.46760966493884959 0 0.1160915578241386 0.4641835533930308 0 0.1237280261196836 0.44463014715047522 0 0.10202961426548091 0.45002724093957291 0 0.1237280261196836 0.44463014715047522 0 0.1057649319772677 0.43759517983083812 0 0.10202961426548091 0.45002724093957291 0 0.1057649319772677 0.43759517983083812 0 0.10202961426548091 0.45002724093957291 0 0.08764391112498858 0.43163178618934439 0 0.097740131103692757 0.47211576306312553 0 0.1160915578241386 0.4641835533930308 0 0.10202961426548091 0.45002724093957291 0 0.080844402698305312 0.45817364459468618 0 0.076730675362011974 0.47423156549521001 0 0.097740131103692757 0.47211576306312553 0 0.080844402698305312 0.45817364459468618 0 0.097740131103692757 0.47211576306312553 0 0.10202961426548091 0.45002724093957291 0 0.080844402698305312 0.45817364459468618 0 0.097740131103692757 0.47211576306312553 0 0.080844402698305312 0.45817364459468618 0 0.076730675362011974 0.47423156549521001 0 0.080844402698305312 0.45817364459468618 0 0.08764391112498858 0.43163178618934439 0 0.10202961426548091 0.45002724093957291 0 0.080844402698305312 0.45817364459468618 0 0.08764391112498858 0.43163178618934439 0 0.080844402698305312 0.45817364459468618 0 0.07540768018483697 0.44030754071393319 0 0.08764391112498858 0.43163178618934439 0 0.080844402698305312 0.45817364459468618 0 0.07540768018483697 0.44030754071393319 0 0.061556592319121653 0.44225761358074578 0 0.080844402698305312 0.45817364459468618 0 0.061556592319121653 0.44225761358074578 0 0.080844402698305312 0.45817364459468618 0 0.067859653170709522 0.45426422462270638 0 0.061556592319121653 0.44225761358074578 0 0.080844402698305312 0.45817364459468618 0 0.064346854003363874 0.46736183993319841 0 0.076730675362011974 0.47423156549521001 0 0.064346854003363874 0.46736183993319841 0 0.067859653170709522 0.45426422462270638 0 0.056076759981020123 0.44443419347066321 0 0.080844402698305312 0.45817364459468618 0 0.064346854003363874 0.46736183993319841 0 0.067859653170709522 0.45426422462270638 0 0.076730675362011974 0.47423156549521001 0 0.072616948025712127 0.490289486395732 0 0.064346854003363874 0.46736183993319841 0 0.072616948025712127 0.490289486395732 0 0.058055043786226751 0.49051055052906067 0 0.064346854003363874 0.46736183993319841 0 0.072616948025712127 0.490289486395732 0 0.064346854003363874 0.46736183993319841 0 0.076730675362011974 0.47423156549521001 0 0.072616948025712127 0.490289486395732 0 0.076730675362011974 0.47423156549521001 0 0.082075002421626492 0.48449271935339733 0 0.072616948025712127 0.490289486395732 0 0.097740131103692757 0.47211576306312553 0 0.076730675362011974 0.47423156549521001 0 0.082075002421626492 0.48449271935339733 0 0.097740131103692757 0.47211576306312553 0 0.092199203719590395 0.48872928857719472 0 0.082075002421626492 0.48449271935339733 0 0.1038255785689283 0.5 0 0.092199203719590395 0.48872928857719472 0 0.076119569223385697 0.50000000000000089 0 0.092199203719590395 0.48872928857719472 0 0.082075002421626492 0.48449271935339733 0 0.076119569223385697 0.50000000000000089 0 0.072616948025712127 0.490289486395732 0 0.07012930311136284 0.49999999999999661 0 0.076119569223385697 0.50000000000000089 0 0.072616948025712127 0.490289486395732 0 0.07012930311136284 0.49999999999999661 0 0.076119569223385697 0.50000000000000089 0 0.072616948025712127 0.490289486395732 0 0.082075002421626492 0.48449271935339733 0 0.076119569223385697 0.50000000000000089 0 0.072616948025712127 0.490289486395732 0 0.072616948025712127 0.490289486395732 0 0.07012930311136284 0.49999999999999661 0 0.058055043786226751 0.49051055052906067 0 0.058055043786226751 0.49051055052906067 0 0.046280597366186747 0.47957307303049429 0 0.044860440428939378 0.4999999999999995 0 0.07012930311136284 0.49999999999999661 0 0.058055043786226751 0.49051055052906067 0 0.044860440428939378 0.4999999999999995 0 0.064346854003363874 0.46736183993319841 0 0.058055043786226751 0.49051055052906067 0 0.046280597366186747 0.47957307303049429 0 0.046280597366186747 0.47957307303049429 0 0.047700754303434179 0.45914614606098908 0 0.046280597366186747 0.47957307303049429 0 0.029897162037545319 0.4839753813588808 0 0.03521852719449324 0.46736449501777538 0 0.044860440428939378 0.4999999999999995 0 0.01907995414838232 0.5 0 0.029897162037545319 0.4839753813588808 0 0.046280597366186747 0.47957307303049429 0 0.044860440428939378 0.4999999999999995 0 0.046280597366186747 0.47957307303049429 0 0.044860440428939378 0.4999999999999995 0 0.029897162037545319 0.4839753813588808 0 0.01907995414838232 0.5 0 0.029897162037545319 0.4839753813588808 0 0.01223017135109394 0.48399563131022733 0 0.029897162037545319 0.4839753813588808 0 0.02313076419329519 0.4718947066398041 0 0.01223017135109394 0.48399563131022733 0 0.029897162037545319 0.4839753813588808 0 0.02313076419329519 0.4718947066398041 0 0.03521852719449324 0.46736449501777538 0 0.02313076419329519 0.4718947066398041 0 0.01223017135109394 0.48399563131022733 0 0.01319884020628341 0.47022233111689332 0 -0.003880604538310756 0.48346324919380129 0 0.01223017135109394 0.48399563131022733 0 0.0050866533922729329 0.47701524235381432 0 0.01223017135109394 0.48399563131022733 0 0.01319884020628341 0.47022233111689332 0 0.0050866533922729329 0.47701524235381432 0 0.01319884020628341 0.47022233111689332 0 0.0053167838454733218 0.46943384557929257 0 0.0050866533922729329 0.47701524235381432 0 -0.001026908195020756 0.47486914558720472 0 0.0053167838454733218 0.46943384557929257 0 0.0050866533922729329 0.47701524235381432 0 -0.003880604538310756 0.48346324919380129 0 -0.001026908195020756 0.47486914558720472 0 0.0050866533922729329 0.47701524235381432 0 -0.0067005321321746969 0.5 0 0.01907995414838232 0.5 0 0.01223017135109394 0.48399563131022733 0 -0.0067005321321746969 0.5 0 -0.003880604538310756 0.48346324919380129 0 0.01223017135109394 0.48399563131022733 0 0.0094816941431487278 0.45086042579757712 0 0.01399183751309625 0.44462120914047132 0 0.0048617880261327502 0.44584476697033082 0 0.0094816941431487278 0.45086042579757712 0 0.01399183751309625 0.44462120914047132 0 0.016302396861864351 0.45114502888407948 0 0.01049598620797234 0.43767394788706171 0 0.01399183751309625 0.44462120914047132 0 0.0048617880261327502 0.44584476697033082 0 0.01049598620797234 0.43767394788706171 0 0.01399183751309625 0.44462120914047132 0 0.020379531913139331 0.43685778481219928 0 0.01049598620797234 0.43767394788706171 0 0.0048617880261327502 0.44584476697033082 0 0.01049598620797234 0.43767394788706171 0 0.0048617880261327502 0.44584476697033082 0 0.0065189226172944724 0.43188650626448272 0 0.0094816941431487278 0.45086042579757712 0 0.0048617880261327502 0.44584476697033082 0 0.0015605482097463411 0.45063228640423969 0 0.0048617880261327502 0.44584476697033082 0 0.0015605482097463411 0.45063228640423969 0 0.0094816941431487278 0.45086042579757712 0 0.0048617880261327502 0.44584476697033082 0 0.0015605482097463411 0.45063228640423969 0 0.0080738590363113663 0.46132998490476868 0 0.01222090350615627 0.45893997922115709 0 0.0015605482097463411 0.45063228640423969 0 0.01222090350615627 0.45893997922115709 0 -0.0094095992007081283 0.46654139838691122 0 0.0053167838454733218 0.46943384557929257 0 0.0080738590363113663 0.46132998490476868 0 0.0094816941431487278 0.45086042579757712 0 0.0015605482097463411 0.45063228640423969 0 0.01222090350615627 0.45893997922115709 0 -0.0094095992007081283 0.46654139838691122 0 0.0015605482097463411 0.45063228640423969 0 0.0080738590363113663 0.46132998490476868 0 0.0080738590363113663 0.46132998490476868 0 0.01222090350615627 0.45893997922115709 0 0.025557317273330941 0.45611857142262657 0 0.01319884020628341 0.47022233111689332 0 0.0080738590363113663 0.46132998490476868 0 0.025557317273330941 0.45611857142262657 0 0.01319884020628341 0.47022233111689332 0 0.0053167838454733218 0.46943384557929257 0 0.0080738590363113663 0.46132998490476868 0 0.0094816941431487278 0.45086042579757712 0 0.01222090350615627 0.45893997922115709 0 0.016302396861864351 0.45114502888407948 0 0.01222090350615627 0.45893997922115709 0 0.025557317273330941 0.45611857142262657 0 0.016302396861864351 0.45114502888407948 0 0.0080738590363113663 0.46132998490476868 0 0.025557317273330941 0.45611857142262657 0 0.02313076419329519 0.4718947066398041 0 0.01319884020628341 0.47022233111689332 0 0.025557317273330941 0.45611857142262657 0 0.02313076419329519 0.4718947066398041 0 0.025557317273330941 0.45611857142262657 0 0.03521852719449324 0.46736449501777538 0 0.025557317273330941 0.45611857142262657 0 0.029497972404799989 0.4465970104894148 0 0.021231693005787571 0.44530579808828252 0 0.025557317273330941 0.45611857142262657 0 0.016302396861864351 0.45114502888407948 0 0.021231693005787571 0.44530579808828252 0 0.01399183751309625 0.44462120914047132 0 0.016302396861864351 0.45114502888407948 0 0.021231693005787571 0.44530579808828252 0 0.01399183751309625 0.44462120914047132 0 0.021231693005787571 0.44530579808828252 0 0.020379531913139331 0.43685778481219928 0 0.029497972404799989 0.4465970104894148 0 0.021231693005787571 0.44530579808828252 0 0.030311313049230751 0.43763339856834432 0 0.021231693005787571 0.44530579808828252 0 0.030311313049230751 0.43763339856834432 0 0.020379531913139331 0.43685778481219928 0 0.038697605999956301 0.44825738244890739 0 0.047700754303434179 0.45914614606098908 0 0.049120911240681603 0.43871921909148398 0 0.029497972404799989 0.4465970104894148 0 0.038697605999956301 0.44825738244890739 0 0.040333793699140981 0.43958103258297831 0 0.029497972404799989 0.4465970104894148 0 0.030311313049230751 0.43763339856834432 0 0.040333793699140981 0.43958103258297831 0 0.025557317273330941 0.45611857142262657 0 0.029497972404799989 0.4465970104894148 0 0.038697605999956301 0.44825738244890739 0 0.038697605999956301 0.44825738244890739 0 0.040333793699140981 0.43958103258297831 0 0.049120911240681603 0.43871921909148398 0 0.046280597366186747 0.47957307303049429 0 0.03521852719449324 0.46736449501777538 0 0.047700754303434179 0.45914614606098908 0 0.025557317273330941 0.45611857142262657 0 0.038697605999956301 0.44825738244890739 0 0.03521852719449324 0.46736449501777538 0 0.038697605999956301 0.44825738244890739 0 0.03521852719449324 0.46736449501777538 0 0.047700754303434179 0.45914614606098908 0 0.064346854003363874 0.46736183993319841 0 0.056076759981020123 0.44443419347066321 0 0.064346854003363874 0.46736183993319841 0 0.046280597366186747 0.47957307303049429 0 0.047700754303434179 0.45914614606098908 0 0.064346854003363874 0.46736183993319841 0 0.047700754303434179 0.45914614606098908 0 0.056076759981020123 0.44443419347066321 0 0.047700754303434179 0.45914614606098908 0 0.049120911240681603 0.43871921909148398 0 0.056076759981020123 0.44443419347066321 0 0.047700754303434179 0.45914614606098908 0 0.049120911240681603 0.43871921909148398 0 0.067859653170709522 0.45426422462270638 0 0.056076759981020123 0.44443419347066321 0 0.061556592319121653 0.44225761358074578 0 0.056076759981020123 0.44443419347066321 0 0.061556592319121653 0.44225761358074578 0 0.059201111644200437 0.43099696977894508 0 0.056076759981020123 0.44443419347066321 0 0.047806665958676359 0.42150654700812801 0 0.049120911240681603 0.43871921909148398 0 0.056076759981020123 0.44443419347066321 0 0.047806665958676359 0.42150654700812801 0 0.056076759981020123 0.44443419347066321 0 0.059201111644200437 0.43099696977894508 0 0.047806665958676359 0.42150654700812801 0 0.059201111644200437 0.43099696977894508 0 0.058979725365252707 0.4176193763442323 0 0.047806665958676359 0.42150654700812801 0 0.058979725365252707 0.4176193763442323 0 0.039536571936328653 0.39857890054559408 0 0.063240005814886313 0.40658319209587829 0 0.058979725365252707 0.4176193763442323 0 0.047806665958676359 0.42150654700812801 0 0.039536571936328653 0.39857890054559408 0 0.035113551011259521 0.41687403621696922 0 0.02872917033170445 0.40503675834663061 0 0.039536571936328653 0.39857890054559408 0 0.047806665958676359 0.42150654700812801 0 0.039536571936328653 0.39857890054559408 0 0.047806665958676359 0.42150654700812801 0 0.035113551011259521 0.41687403621696922 0 0.039536571936328653 0.39857890054559408 0 0.049120911240681603 0.43871921909148398 0 0.047806665958676359 0.42150654700812801 0 0.039708047704291503 0.4306454839277386 0 0.040333793699140981 0.43958103258297831 0 0.049120911240681603 0.43871921909148398 0 0.039708047704291503 0.4306454839277386 0 0.047806665958676359 0.42150654700812801 0 0.035113551011259521 0.41687403621696922 0 0.039708047704291503 0.4306454839277386 0 0.035113551011259521 0.41687403621696922 0 0.039708047704291503 0.4306454839277386 0 0.028741688689164512 0.42811504149697438 0 0.030311313049230751 0.43763339856834432 0 0.039708047704291503 0.4306454839277386 0 0.028741688689164512 0.42811504149697438 0 0.030311313049230751 0.43763339856834432 0 0.040333793699140981 0.43958103258297831 0 0.039708047704291503 0.4306454839277386 0 0.030311313049230751 0.43763339856834432 0 0.020379531913139331 0.43685778481219928 0 0.028741688689164512 0.42811504149697438 0 0.01049598620797234 0.43767394788706171 0 0.020379531913139331 0.43685778481219928 0 0.01750467301358458 0.42779731369206181 0 0.020379531913139331 0.43685778481219928 0 0.01750467301358458 0.42779731369206181 0 0.028741688689164512 0.42811504149697438 0 0.01750467301358458 0.42779731369206181 0 0.028741688689164512 0.42811504149697438 0 0.02615916144738779 0.41736148597675132 0 0.035113551011259521 0.41687403621696922 0 0.028741688689164512 0.42811504149697438 0 0.02615916144738779 0.41736148597675132 0 0.02615916144738779 0.41736148597675132 0 0.010437450069317761 0.40463061763750507 0 0.02872917033170445 0.40503675834663061 0 0.02615916144738779 0.41736148597675132 0 0.01517065216307991 0.41806138940930709 0 0.010437450069317761 0.40463061763750507 0 0.035113551011259521 0.41687403621696922 0 0.02615916144738779 0.41736148597675132 0 0.02872917033170445 0.40503675834663061 0 0.01750467301358458 0.42779731369206181 0 0.02615916144738779 0.41736148597675132 0 0.01517065216307991 0.41806138940930709 0 -0.003174347114314008 0.41591217031924949 0 0.0065813241220295041 0.42245614033091039 0 0.010437450069317761 0.40463061763750507 0 -0.0064316016559190746 0.3999483233353413 0 -0.003174347114314008 0.41591217031924949 0 0.010437450069317761 0.40463061763750507 0 0.01517065216307991 0.41806138940930709 0 0.0065813241220295041 0.42245614033091039 0 0.010437450069317761 0.40463061763750507 0 -0.003174347114314008 0.41591217031924949 0 0.010437450069317761 0.40463061763750507 0 -0.003174347114314008 0.41591217031924949 0 0.0065813241220295041 0.42245614033091039 0 -0.0026301228576318379 0.42717885202372191 0 -0.003174347114314008 0.41591217031924949 0 0.0065813241220295041 0.42245614033091039 0 -0.0026301228576318379 0.42717885202372191 0 0.0065813241220295041 0.42245614033091039 0 0.0065189226172944724 0.43188650626448272 0 -0.0026301228576318379 0.42717885202372191 0 0.0048617880261327502 0.44584476697033082 0 0.0065189226172944724 0.43188650626448272 0 0.01049598620797234 0.43767394788706171 0 0.01750467301358458 0.42779731369206181 0 0.0065189226172944724 0.43188650626448272 0 0.01750467301358458 0.42779731369206181 0 0.0065813241220295041 0.42245614033091039 0 0.0065189226172944724 0.43188650626448272 0 0.01750467301358458 0.42779731369206181 0 0.01517065216307991 0.41806138940930709 0 0.0065813241220295041 0.42245614033091039 0 -0.0042030409966118051 0.38380869400061962 0 0.01009735409817194 0.38238429504652488 0 0.02404924725294803 0.393349064955759 0 -0.0042030409966118051 0.38380869400061962 0 0.02404924725294803 0.393349064955759 0 0.01009735409817194 0.38238429504652488 0 0.0197357255374827 0.37571737083264412 0 0.011110712074150059 0.37343232972227269 0 -0.001064505034491721 0.37161458349227261 0 0.01009735409817194 0.38238429504652488 0 0.011110712074150059 0.37343232972227269 0 -0.001064505034491721 0.37161458349227261 0 -0.0042030409966118051 0.38380869400061962 0 0.01009735409817194 0.38238429504652488 0 -0.0042030409966118051 0.38380869400061962 0 0.01009735409817194 0.38238429504652488 0 -0.0042030409966118051 0.38380869400061962 0 0.010437450069317761 0.40463061763750507 0 0.02404924725294803 0.393349064955759 0 0.010437450069317761 0.40463061763750507 0 0.02872917033170445 0.40503675834663061 0 0.02404924725294803 0.393349064955759 0 0.010437450069317761 0.40463061763750507 0 0.02404924725294803 0.393349064955759 0 0.02872917033170445 0.40503675834663061 0 0.02404924725294803 0.393349064955759 0 0.039536571936328653 0.39857890054559408 0 0.02404924725294803 0.393349064955759 0 0.034519904376963118 0.38467091111880503 0 0.02404924725294803 0.393349064955759 0 0.0197357255374827 0.37571737083264412 0 0.034519904376963118 0.38467091111880503 0 0.01009735409817194 0.38238429504652488 0 0.02404924725294803 0.393349064955759 0 0.0197357255374827 0.37571737083264412 0 0.034519904376963118 0.38467091111880503 0 0.050307067216076778 0.37158640017128619 0 0.034519904376963118 0.38467091111880503 0 0.039536571936328653 0.39857890054559408 0 0.056773536515482913 0.38908479613358171 0 0.02404924725294803 0.393349064955759 0 0.039536571936328653 0.39857890054559408 0 0.034519904376963118 0.38467091111880503 0 0.039536571936328653 0.39857890054559408 0 0.02404924725294803 0.393349064955759 0 0.034519904376963118 0.38467091111880503 0 0.039536571936328653 0.39857890054559408 0 0.039536571936328653 0.39857890054559408 0 0.063240005814886313 0.40658319209587829 0 0.039536571936328653 0.39857890054559408 0 0.056773536515482913 0.38908479613358171 0 0.063240005814886313 0.40658319209587829 0 0.056773536515482913 0.38908479613358171 0 0.063240005814886313 0.40658319209587829 0 0.056773536515482913 0.38908479613358171 0 0.059721524030669819 0.37431687333309788 0 0.050307067216076778 0.37158640017128619 0 0.056773536515482913 0.38908479613358171 0 0.050307067216076778 0.37158640017128619 0 0.034519904376963118 0.38467091111880503 0 0.056773536515482913 0.38908479613358171 0 0.050307067216076778 0.37158640017128619 0 0.056773536515482913 0.38908479613358171 0 0.069041936002645535 0.37820082441249081 0 0.059721524030669819 0.37431687333309788 0 0.056773536515482913 0.38908479613358171 0 0.069041936002645535 0.37820082441249081 0 0.068225210254675303 0.39186969982647402 0 0.069041936002645535 0.37820082441249081 0 0.078928226936330073 0.3918395352538776 0 0.068225210254675303 0.39186969982647402 0 0.069041936002645535 0.37820082441249081 0 0.087739402474845588 0.37833299208434412 0 0.078928226936330073 0.3918395352538776 0 0.087739402474845588 0.37833299208434412 0 0.078928226936330073 0.3918395352538776 0 0.094443419551670932 0.40508992778400232 0 0.078928226936330073 0.3918395352538776 0 0.080832552055978585 0.40498983155533402 0 0.094443419551670932 0.40508992778400232 0 0.080832552055978585 0.40498983155533402 0 0.073695702888484968 0.40005040040525608 0 0.075088081656536507 0.41058410832735293 0 0.078928226936330073 0.3918395352538776 0 0.080832552055978585 0.40498983155533402 0 0.073695702888484968 0.40005040040525608 0 0.056773536515482913 0.38908479613358171 0 0.068225210254675303 0.39186969982647402 0 0.063240005814886313 0.40658319209587829 0 0.073695702888484968 0.40005040040525608 0 0.063240005814886313 0.40658319209587829 0 0.075088081656536507 0.41058410832735293 0 0.078928226936330073 0.3918395352538776 0 0.073695702888484968 0.40005040040525608 0 0.068225210254675303 0.39186969982647402 0 0.073695702888484968 0.40005040040525608 0 0.068225210254675303 0.39186969982647402 0 0.063240005814886313 0.40658319209587829 0 0.058979725365252707 0.4176193763442323 0 0.063240005814886313 0.40658319209587829 0 0.071585814596931419 0.42916711849095618 0 0.063240005814886313 0.40658319209587829 0 0.075088081656536507 0.41058410832735293 0 0.071585814596931419 0.42916711849095618 0 0.063240005814886313 0.40658319209587829 0 0.071585814596931419 0.42916711849095618 0 0.063240005814886313 0.40658319209587829 0 0.075088081656536507 0.41058410832735293 0 0.075088081656536507 0.41058410832735293 0 0.071585814596931419 0.42916711849095618 0 0.082007329246870417 0.41738518600618091 0 0.061556592319121653 0.44225761358074578 0 0.059201111644200437 0.43099696977894508 0 0.071585814596931419 0.42916711849095618 0 0.07540768018483697 0.44030754071393319 0 0.061556592319121653 0.44225761358074578 0 0.071585814596931419 0.42916711849095618 0 0.059201111644200437 0.43099696977894508 0 0.058979725365252707 0.4176193763442323 0 0.071585814596931419 0.42916711849095618 0 0.07540768018483697 0.44030754071393319 0 0.071585814596931419 0.42916711849095618 0 0.08764391112498858 0.43163178618934439 0 0.071585814596931419 0.42916711849095618 0 0.08764391112498858 0.43163178618934439 0 0.082007329246870417 0.41738518600618091 0 0.08764391112498858 0.43163178618934439 0 0.082007329246870417 0.41738518600618091 0 0.094443419551670932 0.40508992778400232 0 0.08764391112498858 0.43163178618934439 0 0.094443419551670932 0.40508992778400232 0 0.080832552055978585 0.40498983155533402 0 0.075088081656536507 0.41058410832735293 0 0.082007329246870417 0.41738518600618091 0 0.080832552055978585 0.40498983155533402 0 0.082007329246870417 0.41738518600618091 0 0.094443419551670932 0.40508992778400232 0 0.08764391112498858 0.43163178618934439 0 0.1096581763989177 0.42409154504396013 0 0.094443419551670932 0.40508992778400232 0 0.1096581763989177 0.42409154504396013 0 0.11163148259572971 0.40863234267508453 0 0.094443419551670932 0.40508992778400232 0 0.1057649319772677 0.43759517983083812 0 0.08764391112498858 0.43163178618934439 0 0.1096581763989177 0.42409154504396013 0 0.1237280261196836 0.44463014715047522 0 0.1096581763989177 0.42409154504396013 0 0.13502200614688589 0.42010390008240672 0 0.1237280261196836 0.44463014715047522 0 0.1057649319772677 0.43759517983083812 0 0.1096581763989177 0.42409154504396013 0 0.11163148259572971 0.40863234267508453 0 0.1236499924648251 0.3984302041169589 0 0.13502200614688589 0.42010390008240672 0 0.1096581763989177 0.42409154504396013 0 0.11163148259572971 0.40863234267508453 0 0.13502200614688589 0.42010390008240672 0 0.11163148259572971 0.40863234267508453 0 0.1236499924648251 0.3984302041169589 0 0.10863659533572551 0.39290197353284961 0 0.10863659533572551 0.39290197353284961 0 0.114060711710889 0.37342974127053702 0 0.12550685613774351 0.37951055496914998 0 0.1236499924648251 0.3984302041169589 0 0.10863659533572551 0.39290197353284961 0 0.12550685613774351 0.37951055496914998 0 0.1012429279783533 0.37854806937866009 0 0.10863659533572551 0.39290197353284961 0 0.114060711710889 0.37342974127053702 0 0.087739402474845588 0.37833299208434412 0 0.1012429279783533 0.37854806937866009 0 0.094443419551670932 0.40508992778400232 0 0.11163148259572971 0.40863234267508453 0 0.10863659533572551 0.39290197353284961 0 0.094443419551670932 0.40508992778400232 0 0.1012429279783533 0.37854806937866009 0 0.094443419551670932 0.40508992778400232 0 0.1012429279783533 0.37854806937866009 0 0.10863659533572551 0.39290197353284961 0 0.094443419551670932 0.40508992778400232 0 0.10055213054656729 0.36013865237867942 0 0.1100489009895301 0.33374314175173209 0 0.10055213054656729 0.36013865237867942 0 0.1100489009895301 0.33374314175173209 0 0.08625589277749264 0.346999797836966 0 0.1069344999541316 0.36147573913557879 0 0.10055213054656729 0.36013865237867942 0 0.1165634558871128 0.3492406052842485 0 0.10055213054656729 0.36013865237867942 0 0.1165634558871128 0.3492406052842485 0 0.1100489009895301 0.33374314175173209 0 0.087739402474845588 0.37833299208434412 0 0.1012429279783533 0.37854806937866009 0 0.1069344999541316 0.36147573913557879 0 0.1012429279783533 0.37854806937866009 0 0.1069344999541316 0.36147573913557879 0 0.114060711710889 0.37342974127053702 0 0.1069344999541316 0.36147573913557879 0 0.10055213054656729 0.36013865237867942 0 0.081229983254247365 0.36650003300062722 0 0.1069344999541316 0.36147573913557879 0 0.081229983254247365 0.36650003300062722 0 0.114060711710889 0.37342974127053702 0 0.1326390166540157 0.35645144527053041 0 0.12550685613774351 0.37951055496914998 0 0.1069344999541316 0.36147573913557879 0 0.114060711710889 0.37342974127053702 0 0.1326390166540157 0.35645144527053041 0 0.1069344999541316 0.36147573913557879 0 0.1165634558871128 0.3492406052842485 0 0.1326390166540157 0.35645144527053041 0 0.1069344999541316 0.36147573913557879 0 0.1326390166540157 0.35645144527053041 0 0.1165634558871128 0.3492406052842485 0 0.1100489009895301 0.33374314175173209 0 0.13264273129131951 0.33439404788472138 0 0.1100489009895301 0.33374314175173209 0 0.099713977183769634 0.31807175575135088 0 0.11954567143249289 0.30734763112478491 0 0.1100489009895301 0.33374314175173209 0 0.11954567143249289 0.30734763112478491 0 0.13264273129131951 0.33439404788472138 0 0.1100489009895301 0.33374314175173209 0 0.11954567143249289 0.30734763112478491 0 0.1100489009895301 0.33374314175173209 0 0.099713977183769634 0.31807175575135088 0 0.083894735805945045 0.32735700357097808 0 0.1100489009895301 0.33374314175173209 0 0.083894735805945045 0.32735700357097808 0 0.08625589277749264 0.346999797836966 0 0.083894735805945045 0.32735700357097808 0 0.068148884279383815 0.34110740296781622 0 0.08625589277749264 0.346999797836966 0 0.099713977183769634 0.31807175575135088 0 0.083894735805945045 0.32735700357097808 0 0.079241751540062577 0.3091409184095229 0 0.083894735805945045 0.32735700357097808 0 0.067542665246266162 0.32227296773822012 0 0.079241751540062577 0.3091409184095229 0 0.067542665246266162 0.32227296773822012 0 0.068148884279383815 0.34110740296781622 0 0.052098030758102709 0.32848813316288678 0 0.083894735805945045 0.32735700357097808 0 0.067542665246266162 0.32227296773822012 0 0.068148884279383815 0.34110740296781622 0 0.068148884279383815 0.34110740296781622 0 0.072981575438615956 0.35429511825148829 0 0.08625589277749264 0.346999797836966 0 0.068148884279383815 0.34110740296781622 0 0.072981575438615956 0.35429511825148829 0 0.059971533893319953 0.35265308331869138 0 0.072981575438615956 0.35429511825148829 0 0.066555082361941326 0.36578627017444021 0 0.059971533893319953 0.35265308331869138 0 0.10055213054656729 0.36013865237867942 0 0.08625589277749264 0.346999797836966 0 0.081229983254247365 0.36650003300062722 0 0.072981575438615956 0.35429511825148829 0 0.08625589277749264 0.346999797836966 0 0.081229983254247365 0.36650003300062722 0 0.087739402474845588 0.37833299208434412 0 0.1069344999541316 0.36147573913557879 0 0.081229983254247365 0.36650003300062722 0 0.069041936002645535 0.37820082441249081 0 0.087739402474845588 0.37833299208434412 0 0.081229983254247365 0.36650003300062722 0 0.069041936002645535 0.37820082441249081 0 0.081229983254247365 0.36650003300062722 0 0.066555082361941326 0.36578627017444021 0 0.072981575438615956 0.35429511825148829 0 0.081229983254247365 0.36650003300062722 0 0.066555082361941326 0.36578627017444021 0 0.069041936002645535 0.37820082441249081 0 0.066555082361941326 0.36578627017444021 0 0.059721524030669819 0.37431687333309788 0 0.055929998057201551 0.36692607577369102 0 0.050307067216076778 0.37158640017128619 0 0.041108453413194898 0.34669476624024848 0 0.066555082361941326 0.36578627017444021 0 0.059721524030669819 0.37431687333309788 0 0.055929998057201551 0.36692607577369102 0 0.059721524030669819 0.37431687333309788 0 0.055929998057201551 0.36692607577369102 0 0.050307067216076778 0.37158640017128619 0 0.066555082361941326 0.36578627017444021 0 0.055929998057201551 0.36692607577369102 0 0.059971533893319953 0.35265308331869138 0 0.055929998057201551 0.36692607577369102 0 0.050307067216076778 0.37158640017128619 0 0.055929998057201551 0.36692607577369102 0 0.059971533893319953 0.35265308331869138 0 0.041108453413194898 0.34669476624024848 0 0.059971533893319953 0.35265308331869138 0 0.041108453413194898 0.34669476624024848 0 0.053731959496234848 0.34189436452501393 0 0.068148884279383815 0.34110740296781622 0 0.059971533893319953 0.35265308331869138 0 0.053731959496234848 0.34189436452501393 0 0.050307067216076778 0.37158640017128619 0 0.041108453413194898 0.34669476624024848 0 0.036325720293778493 0.35734230210966361 0 0.050307067216076778 0.37158640017128619 0 0.041108453413194898 0.34669476624024848 0 0.041108453413194898 0.34669476624024848 0 0.036325720293778493 0.35734230210966361 0 0.028822601092593811 0.34272768621728472 0 0.034519904376963118 0.38467091111880503 0 0.036565816098641138 0.36791040757449411 0 0.02482466364838485 0.35779225034500489 0 0.034519904376963118 0.38467091111880503 0 0.050307067216076778 0.37158640017128619 0 0.036565816098641138 0.36791040757449411 0 0.050307067216076778 0.37158640017128619 0 0.036325720293778493 0.35734230210966361 0 0.036565816098641138 0.36791040757449411 0 0.036325720293778493 0.35734230210966361 0 0.036565816098641138 0.36791040757449411 0 0.02482466364838485 0.35779225034500489 0 0.034519904376963118 0.38467091111880503 0 0.02482466364838485 0.35779225034500489 0 0.0197357255374827 0.37571737083264412 0 0.034519904376963118 0.38467091111880503 0 0.02482466364838485 0.35779225034500489 0 0.0197357255374827 0.37571737083264412 0 0.015674273695437339 0.36401306951764911 0 0.02482466364838485 0.35779225034500489 0 0.015674273695437339 0.36401306951764911 0 0.02482466364838485 0.35779225034500489 0 0.015768167676543349 0.35713923686247862 0 0.02482466364838485 0.35779225034500489 0 0.01512942291980679 0.33091358957120492 0 0.02482466364838485 0.35779225034500489 0 0.01512942291980679 0.33091358957120492 0 0.028822601092593811 0.34272768621728472 0 0.036325720293778493 0.35734230210966361 0 0.02482466364838485 0.35779225034500489 0 0.028822601092593811 0.34272768621728472 0 0.02482466364838485 0.35779225034500489 0 0.012196298529549159 0.34905700984651278 0 0.01512942291980679 0.33091358957120492 0 0.02482466364838485 0.35779225034500489 0 0.015768167676543349 0.35713923686247862 0 0.012196298529549159 0.34905700984651278 0 0.01037743483280206 0.35769461774074762 0 0.012196298529549159 0.34905700984651278 0 0.0032447233134405931 0.35422125060834359 0 0.015768167676543349 0.35713923686247862 0 0.01037743483280206 0.35769461774074762 0 0.012196298529549159 0.34905700984651278 0 -0.002583240235104544 0.34489224502179239 0 0.012196298529549159 0.34905700984651278 0 0.0065182143906638264 0.33911035096943482 0 -0.002583240235104544 0.34489224502179239 0 0.012196298529549159 0.34905700984651278 0 0.0032447233134405931 0.35422125060834359 0 0.01037743483280206 0.35769461774074762 0 0.0032447233134405931 0.35422125060834359 0 0.0039428335920915006 0.36531030276633031 0 -0.0064988099748367559 0.35299106404641623 0 0.0032447233134405931 0.35422125060834359 0 0.0039428335920915006 0.36531030276633031 0 -0.001064505034491721 0.37161458349227261 0 0.015674273695437339 0.36401306951764911 0 0.0039428335920915006 0.36531030276633031 0 -0.001064505034491721 0.37161458349227261 0 0.015674273695437339 0.36401306951764911 0 0.011110712074150059 0.37343232972227269 0 -0.001064505034491721 0.37161458349227261 0 0.015674273695437339 0.36401306951764911 0 0.0197357255374827 0.37571737083264412 0 0.015674273695437339 0.36401306951764911 0 0.011110712074150059 0.37343232972227269 0 0.015674273695437339 0.36401306951764911 0 0.01037743483280206 0.35769461774074762 0 0.0039428335920915006 0.36531030276633031 0 0.015674273695437339 0.36401306951764911 0 0.015768167676543349 0.35713923686247862 0 0.01037743483280206 0.35769461774074762 0 -0.00058836015198596755 0.32088344941533808 0 0.01512942291980679 0.33091358957120492 0 0.0054341821912287152 0.30403492879740468 0 0.01512942291980679 0.33091358957120492 0 0.0054341821912287152 0.30403492879740468 0 0.01512942291980679 0.33091358957120492 0 0.018796167632194181 0.3134157872639986 0 0.0054341821912287152 0.30403492879740468 0 0.012196298529549159 0.34905700984651278 0 0.01512942291980679 0.33091358957120492 0 0.0065182143906638264 0.33911035096943482 0 -0.0025616559074486049 0.3329031852911295 0 -0.00058836015198596755 0.32088344941533808 0 0.01512942291980679 0.33091358957120492 0 -0.0025616559074486049 0.3329031852911295 0 0.01512942291980679 0.33091358957120492 0 0.0065182143906638264 0.33911035096943482 0 -0.0025616559074486049 0.3329031852911295 0 -0.002583240235104544 0.34489224502179239 0 0.0065182143906638264 0.33911035096943482 0 0.01512942291980679 0.33091358957120492 0 0.028822601092593811 0.34272768621728472 0 0.031909839610312053 0.3218031323092112 0 0.01512942291980679 0.33091358957120492 0 0.018796167632194181 0.3134157872639986 0 0.031909839610312053 0.3218031323092112 0 0.031909839610312053 0.3218031323092112 0 0.052098030758102709 0.32848813316288678 0 0.054329923847836643 0.30527138057989611 0 0.041108453413194898 0.34669476624024848 0 0.031909839610312053 0.3218031323092112 0 0.041108453413194898 0.34669476624024848 0 0.028822601092593811 0.34272768621728472 0 0.031909839610312053 0.3218031323092112 0 0.041108453413194898 0.34669476624024848 0 0.031909839610312053 0.3218031323092112 0 0.052098030758102709 0.32848813316288678 0 0.041108453413194898 0.34669476624024848 0 0.052098030758102709 0.32848813316288678 0 0.053731959496234848 0.34189436452501393 0 0.068148884279383815 0.34110740296781622 0 0.052098030758102709 0.32848813316288678 0 0.053731959496234848 0.34189436452501393 0 0.067542665246266162 0.32227296773822012 0 0.052098030758102709 0.32848813316288678 0 0.054329923847836643 0.30527138057989611 0 0.054329923847836643 0.30527138057989611 0 0.058643640903709077 0.2841886380467647 0 0.070108093408202884 0.28237758711201172 0 0.054329923847836643 0.30527138057989611 0 0.058643640903709077 0.2841886380467647 0 0.046708945964444748 0.28470371633566799 0 0.054329923847836643 0.30527138057989611 0 0.070108093408202884 0.28237758711201172 0 0.033299114928103571 0.2853556706935409 0 0.038381760441483573 0.30030485014671859 0 0.022711225807429191 0.29691149837817382 0 0.054329923847836643 0.30527138057989611 0 0.046708945964444748 0.28470371633566799 0 0.038381760441483573 0.30030485014671859 0 0.046708945964444748 0.28470371633566799 0 0.033299114928103571 0.2853556706935409 0 0.038381760441483573 0.30030485014671859 0 0.031909839610312053 0.3218031323092112 0 0.054329923847836643 0.30527138057989611 0 0.038381760441483573 0.30030485014671859 0 0.031909839610312053 0.3218031323092112 0 0.022711225807429191 0.29691149837817382 0 0.018796167632194181 0.3134157872639986 0 0.031909839610312053 0.3218031323092112 0 0.022711225807429191 0.29691149837817382 0 0.018796167632194181 0.3134157872639986 0 0.022711225807429191 0.29691149837817382 0 0.0054341821912287152 0.30403492879740468 0 0.031909839610312053 0.3218031323092112 0 0.038381760441483573 0.30030485014671859 0 0.022711225807429191 0.29691149837817382 0 0.022711225807429191 0.29691149837817382 0 0.0097135815956244098 0.28932323485025419 0 0.01496997692118909 0.27919024420183391 0 0.033299114928103571 0.2853556706935409 0 0.022711225807429191 0.29691149837817382 0 0.01496997692118909 0.27919024420183391 0 -0.0042610585373493576 0.2771562680236046 0 0.0097135815956244098 0.28932323485025419 0 0.01496997692118909 0.27919024420183391 0 -0.0042610585373493576 0.2771562680236046 0 0.0097135815956244098 0.28932323485025419 0 0.0054341821912287152 0.30403492879740468 0 0.022711225807429191 0.29691149837817382 0 0.0097135815956244098 0.28932323485025419 0 0.0054341821912287152 0.30403492879740468 0 -0.0042610585373493576 0.2771562680236046 0 0.0054341821912287152 0.30403492879740468 0 0.012156823249103331 0.25259817100369902 0 0.0071094060709509964 0.26564087220093879 0 0.023079021189564172 0.26593697868694532 0 -0.0082457657602449386 0.25246627485226031 0 0.012156823249103331 0.25259817100369902 0 0.0071094060709509964 0.26564087220093879 0 0.0071094060709509964 0.26564087220093879 0 0.01496997692118909 0.27919024420183391 0 0.023079021189564172 0.26593697868694532 0 -0.0042610585373493576 0.2771562680236046 0 0.0071094060709509964 0.26564087220093879 0 0.01496997692118909 0.27919024420183391 0 0.033299114928103571 0.2853556706935409 0 0.01496997692118909 0.27919024420183391 0 0.023079021189564172 0.26593697868694532 0 0.012156823249103331 0.25259817100369902 0 0.023079021189564172 0.26593697868694532 0 0.030652172791378579 0.25229956247347313 0 0.023079021189564172 0.26593697868694532 0 0.030652172791378579 0.25229956247347313 0 0.04073495957405681 0.26035892983227987 0 0.044937254539659167 0.2379713478153713 0 0.030652172791378579 0.25229956247347313 0 0.04073495957405681 0.26035892983227987 0 0.033299114928103571 0.2853556706935409 0 0.023079021189564172 0.26593697868694532 0 0.04073495957405681 0.26035892983227987 0 0.033299114928103571 0.2853556706935409 0 0.04073495957405681 0.26035892983227987 0 0.046708945964444748 0.28470371633566799 0 0.033299114928103571 0.2853556706935409 0 0.04073495957405681 0.26035892983227987 0 0.046708945964444748 0.28470371633566799 0 0.04073495957405681 0.26035892983227987 0 0.054656664038459993 0.27221644551962948 0 0.058643640903709077 0.2841886380467647 0 0.046708945964444748 0.28470371633566799 0 0.054656664038459993 0.27221644551962948 0 0.054656664038459993 0.27221644551962948 0 0.05595459183600883 0.25980758553240452 0 0.063151913248908592 0.26702092668087168 0 0.054656664038459993 0.27221644551962948 0 0.063151913248908592 0.26702092668087168 0 0.062868354845155253 0.27542318723842002 0 0.058643640903709077 0.2841886380467647 0 0.054656664038459993 0.27221644551962948 0 0.062868354845155253 0.27542318723842002 0 0.058643640903709077 0.2841886380467647 0 0.062868354845155253 0.27542318723842002 0 0.06481936793225318 0.27971168374165578 0 0.052294646587479003 0.2493466198794505 0 0.04073495957405681 0.26035892983227987 0 0.05595459183600883 0.25980758553240452 0 0.04073495957405681 0.26035892983227987 0 0.054656664038459993 0.27221644551962948 0 0.05595459183600883 0.25980758553240452 0 0.05595459183600883 0.25980758553240452 0 0.066495423171073403 0.25816184380531082 0 0.063151913248908592 0.26702092668087168 0 0.052294646587479003 0.2493466198794505 0 0.05595459183600883 0.25980758553240452 0 0.06034442261467237 0.25120339486286308 0 0.05595459183600883 0.25980758553240452 0 0.06034442261467237 0.25120339486286308 0 0.066495423171073403 0.25816184380531082 0 0.067445722382230539 0.24771064348785149 0 0.066495423171073403 0.25816184380531082 0 0.074707437689247702 0.25389633834412328 0 0.067445722382230539 0.24771064348785149 0 0.06034442261467237 0.25120339486286308 0 0.066495423171073403 0.25816184380531082 0 0.066495423171073403 0.25816184380531082 0 0.070468357435777063 0.2657419037057816 0 0.063151913248908592 0.26702092668087168 0 0.066495423171073403 0.25816184380531082 0 0.074357597956477339 0.26064435546358339 0 0.070468357435777063 0.2657419037057816 0 0.074357597956477339 0.26064435546358339 0 0.075194191089397802 0.26640127341757941 0 0.070468357435777063 0.2657419037057816 0 0.074357597956477339 0.26064435546358339 0 0.080427883817154544 0.25791465254204288 0 0.078852294536213494 0.26175012096666261 0 0.074357597956477339 0.26064435546358339 0 0.078852294536213494 0.26175012096666261 0 0.075194191089397802 0.26640127341757941 0 0.066495423171073403 0.25816184380531082 0 0.074357597956477339 0.26064435546358339 0 0.074707437689247702 0.25389633834412328 0 0.074357597956477339 0.26064435546358339 0 0.074707437689247702 0.25389633834412328 0 0.080427883817154544 0.25791465254204288 0 0.085975255819246227 0.24304742420893821 0 0.080478695998155714 0.25165019938018113 0 0.085886262968569133 0.25948379364412733 0 0.080478695998155714 0.25165019938018113 0 0.080427883817154544 0.25791465254204288 0 0.085886262968569133 0.25948379364412733 0 0.10166443252893551 0.23659000017624271 0 0.085886262968569133 0.25948379364412733 0 0.093061372415253377 0.25945310375487363 0 0.074707437689247702 0.25389633834412328 0 0.080478695998155714 0.25165019938018113 0 0.080427883817154544 0.25791465254204288 0 0.078852294536213494 0.26175012096666261 0 0.085886262968569133 0.25948379364412733 0 0.075194191089397802 0.26640127341757941 0 0.080427883817154544 0.25791465254204288 0 0.078852294536213494 0.26175012096666261 0 0.085886262968569133 0.25948379364412733 0 0.093061372415253377 0.25945310375487363 0 0.088669334409182038 0.27365465257629329 0 0.074192652952093263 0.28111713417870732 0 0.093061372415253377 0.25945310375487363 0 0.074192652952093263 0.28111713417870732 0 0.085886262968569133 0.25948379364412733 0 0.093061372415253377 0.25945310375487363 0 0.074192652952093263 0.28111713417870732 0 0.088669334409182038 0.27365465257629329 0 0.090629520296699906 0.27989165378522829 0 0.096617072050330918 0.27420358010706619 0 0.088669334409182038 0.27365465257629329 0 0.090629520296699906 0.27989165378522829 0 0.083300485689734874 0.28178689503457671 0 0.093061372415253377 0.25945310375487363 0 0.088669334409182038 0.27365465257629329 0 0.097208854645582696 0.26674380090640232 0 0.088669334409182038 0.27365465257629329 0 0.074192652952093263 0.28111713417870732 0 0.083300485689734874 0.28178689503457671 0 0.085886262968569133 0.25948379364412733 0 0.072732619288592745 0.27411268144752271 0 0.070108093408202884 0.28237758711201172 0 0.085886262968569133 0.25948379364412733 0 0.074192652952093263 0.28111713417870732 0 0.070108093408202884 0.28237758711201172 0 0.085886262968569133 0.25948379364412733 0 0.070108093408202884 0.28237758711201172 0 0.085886262968569133 0.25948379364412733 0 0.072732619288592745 0.27411268144752271 0 0.075194191089397802 0.26640127341757941 0 0.072732619288592745 0.27411268144752271 0 0.075194191089397802 0.26640127341757941 0 0.068678803079962825 0.27092621584326698 0 0.075194191089397802 0.26640127341757941 0 0.070468357435777063 0.2657419037057816 0 0.068678803079962825 0.27092621584326698 0 0.068678803079962825 0.27092621584326698 0 0.063151913248908592 0.26702092668087168 0 0.062868354845155253 0.27542318723842002 0 0.070468357435777063 0.2657419037057816 0 0.068678803079962825 0.27092621584326698 0 0.063151913248908592 0.26702092668087168 0 0.072732619288592745 0.27411268144752271 0 0.067657382571945521 0.27685732256942691 0 0.070108093408202884 0.28237758711201172 0 0.067657382571945521 0.27685732256942691 0 0.06481936793225318 0.27971168374165578 0 0.070108093408202884 0.28237758711201172 0 0.072732619288592745 0.27411268144752271 0 0.068678803079962825 0.27092621584326698 0 0.067657382571945521 0.27685732256942691 0 0.067657382571945521 0.27685732256942691 0 0.062868354845155253 0.27542318723842002 0 0.06481936793225318 0.27971168374165578 0 0.068678803079962825 0.27092621584326698 0 0.067657382571945521 0.27685732256942691 0 0.062868354845155253 0.27542318723842002 0 0.058643640903709077 0.2841886380467647 0 0.06481936793225318 0.27971168374165578 0 0.070108093408202884 0.28237758711201172 0 0.054329923847836643 0.30527138057989611 0 0.070108093408202884 0.28237758711201172 0 0.07616196246918229 0.29401120062856562 0 0.070108093408202884 0.28237758711201172 0 0.07616196246918229 0.29401120062856562 0 0.077305327314718786 0.28670206069564769 0 0.074192652952093263 0.28111713417870732 0 0.070108093408202884 0.28237758711201172 0 0.077305327314718786 0.28670206069564769 0 0.054329923847836643 0.30527138057989611 0 0.07616196246918229 0.29401120062856562 0 0.079241751540062577 0.3091409184095229 0 0.067542665246266162 0.32227296773822012 0 0.054329923847836643 0.30527138057989611 0 0.079241751540062577 0.3091409184095229 0 0.07616196246918229 0.29401120062856562 0 0.079241751540062577 0.3091409184095229 0 0.093760017070794913 0.30048783451418309 0 0.099713977183769634 0.31807175575135088 0 0.079241751540062577 0.3091409184095229 0 0.093760017070794913 0.30048783451418309 0 0.07616196246918229 0.29401120062856562 0 0.086675975183887061 0.28808357667035972 0 0.093760017070794913 0.30048783451418309 0 0.074192652952093263 0.28111713417870732 0 0.077305327314718786 0.28670206069564769 0 0.083300485689734874 0.28178689503457671 0 0.077305327314718786 0.28670206069564769 0 0.083300485689734874 0.28178689503457671 0 0.086675975183887061 0.28808357667035972 0 0.07616196246918229 0.29401120062856562 0 0.077305327314718786 0.28670206069564769 0 0.086675975183887061 0.28808357667035972 0 0.090629520296699906 0.27989165378522829 0 0.083300485689734874 0.28178689503457671 0 0.086675975183887061 0.28808357667035972 0 0.090629520296699906 0.27989165378522829 0 0.086675975183887061 0.28808357667035972 0 0.1012207646153751 0.28627192450051492 0 0.086675975183887061 0.28808357667035972 0 0.1012207646153751 0.28627192450051492 0 0.093760017070794913 0.30048783451418309 0 0.099713977183769634 0.31807175575135088 0 0.093760017070794913 0.30048783451418309 0 0.11954567143249289 0.30734763112478491 0 0.1012207646153751 0.28627192450051492 0 0.093760017070794913 0.30048783451418309 0 0.11954567143249289 0.30734763112478491 0 0.11954567143249289 0.30734763112478491 0 0.1141818460752707 0.27714397317686529 0 0.12904244187545569 0.2809521204978378 0 0.1012207646153751 0.28627192450051492 0 0.11954567143249289 0.30734763112478491 0 0.1141818460752707 0.27714397317686529 0 0.11954567143249289 0.30734763112478491 0 0.12904244187545569 0.2809521204978378 0 0.1141818460752707 0.27714397317686529 0 0.11615378911320511 0.26032519799560372 0 0.1048644735931679 0.26655228778042589 0 0.1141818460752707 0.27714397317686529 0 0.11615378911320511 0.26032519799560372 0 0.12904244187545569 0.2809521204978378 0 0.1152979079485152 0.2467056018988516 0 0.1250676346401875 0.24796443701554319 0 0.11615378911320511 0.26032519799560372 0 0.1152979079485152 0.2467056018988516 0 0.11615378911320511 0.26032519799560372 0 0.10650461767427161 0.25132517155921902 0 0.11615378911320511 0.26032519799560372 0 0.1028320207599793 0.25985538031335248 0 0.1048644735931679 0.26655228778042589 0 0.1028320207599793 0.25985538031335248 0 0.097208854645582696 0.26674380090640232 0 0.1048644735931679 0.26655228778042589 0 0.11615378911320511 0.26032519799560372 0 0.1028320207599793 0.25985538031335248 0 0.10650461767427161 0.25132517155921902 0 0.093061372415253377 0.25945310375487363 0 0.1028320207599793 0.25985538031335248 0 0.10650461767427161 0.25132517155921902 0 0.093061372415253377 0.25945310375487363 0 0.1028320207599793 0.25985538031335248 0 0.097208854645582696 0.26674380090640232 0 0.088669334409182038 0.27365465257629329 0 0.097208854645582696 0.26674380090640232 0 0.096617072050330918 0.27420358010706619 0 0.097208854645582696 0.26674380090640232 0 0.096617072050330918 0.27420358010706619 0 0.1048644735931679 0.26655228778042589 0 0.1141818460752707 0.27714397317686529 0 0.096617072050330918 0.27420358010706619 0 0.1048644735931679 0.26655228778042589 0 0.1012207646153751 0.28627192450051492 0 0.1141818460752707 0.27714397317686529 0 0.096617072050330918 0.27420358010706619 0 0.090629520296699906 0.27989165378522829 0 0.1012207646153751 0.28627192450051492 0 0.096617072050330918 0.27420358010706619 0 0.1384713120865835 0.25773302092121009 0 0.12904244187545569 0.2809521204978378 0 0.15915390062653459 0.27760612704708998 0 0.1514273965657848 0.24085309905483679 0 0.1384713120865835 0.25773302092121009 0 0.156278998070083 0.25778272565978 0 0.1384713120865835 0.25773302092121009 0 0.15915390062653459 0.27760612704708998 0 0.156278998070083 0.25778272565978 0 0.1250676346401875 0.24796443701554319 0 0.11615378911320511 0.26032519799560372 0 0.1384713120865835 0.25773302092121009 0 0.11615378911320511 0.26032519799560372 0 0.1384713120865835 0.25773302092121009 0 0.12904244187545569 0.2809521204978378 0 0.11954567143249289 0.30734763112478491 0 0.12904244187545569 0.2809521204978378 0 0.14488164426314301 0.29594920495010729 0 0.11954567143249289 0.30734763112478491 0 0.14488164426314301 0.29594920495010729 0 0.15139514334923471 0.31791608062108467 0 0.14488164426314301 0.29594920495010729 0 0.16637322996135739 0.30016678813796199 0 0.15139514334923471 0.31791608062108467 0 0.12904244187545569 0.2809521204978378 0 0.14488164426314301 0.29594920495010729 0 0.15915390062653459 0.27760612704708998 0 0.14488164426314301 0.29594920495010729 0 0.16637322996135739 0.30016678813796199 0 0.15915390062653459 0.27760612704708998 0 0.16637322996135739 0.30016678813796199 0 0.18265278236186541 0.28020603593405619 0 0.15915390062653459 0.27760612704708998 0 0.16637322996135739 0.30016678813796199 0 0.18588027836364171 0.30417070427619303 0 0.17427563080372541 0.32515257599924119 0 0.16637322996135739 0.30016678813796199 0 0.18588027836364171 0.30417070427619303 0 0.18265278236186541 0.28020603593405619 0 0.18265278236186541 0.28020603593405619 0 0.15915390062653459 0.27760612704708998 0 0.17660728565697029 0.25284173787090108 0 0.18265278236186541 0.28020603593405619 0 0.17660728565697029 0.25284173787090108 0 0.20178717474815569 0.26483037668696541 0 0.1514273965657848 0.24085309905483679 0 0.156278998070083 0.25778272565978 0 0.17660728565697029 0.25284173787090108 0 0.15915390062653459 0.27760612704708998 0 0.156278998070083 0.25778272565978 0 0.17660728565697029 0.25284173787090108 0 0.1971008006350988 0.24422433182354611 0 0.17660728565697029 0.25284173787090108 0 0.20178717474815569 0.26483037668696541 0 0.17660728565697029 0.25284173787090108 0 0.20178717474815569 0.26483037668696541 0 0.18265278236186541 0.28020603593405619 0 0.20178717474815569 0.26483037668696541 0 0.20721699074389299 0.28586320426344869 0 0.20178717474815569 0.26483037668696541 0 0.22696706383934109 0.27681901550302962 0 0.20721699074389299 0.28586320426344869 0 0.20178717474815569 0.26483037668696541 0 0.22696706383934109 0.27681901550302962 0 0.1971008006350988 0.24422433182354611 0 0.20178717474815569 0.26483037668696541 0 0.2257125065402284 0.25431107802280528 0 0.20178717474815569 0.26483037668696541 0 0.2257125065402284 0.25431107802280528 0 0.22696706383934109 0.27681901550302962 0 0.2257125065402284 0.25431107802280528 0 0.23435940432808119 0.2558835225658645 0 0.2376751292839718 0.27741240132337408 0 0.2257125065402284 0.25431107802280528 0 0.22696706383934109 0.27681901550302962 0 0.2376751292839718 0.27741240132337408 0 0.2257125065402284 0.25431107802280528 0 0.2376751292839718 0.27741240132337408 0 0.22696706383934109 0.27681901550302962 0 0.2376751292839718 0.27741240132337408 0 0.2318681827461313 0.28775992326468519 0 0.23435940432808119 0.2558835225658645 0 0.2434397278092077 0.27846069768541332 0 0.2376751292839718 0.27741240132337408 0 0.23435940432808119 0.2558835225658645 0 0.2434397278092077 0.27846069768541332 0 0.23435940432808119 0.2558835225658645 0 0.2434397278092077 0.27846069768541332 0 0.24763005152173001 0.25910176257370959 0 0.2459873280094696 0.23707215699401071 0 0.23435940432808119 0.2558835225658645 0 0.24763005152173001 0.25910176257370959 0 0.24963775202771521 0.30051372462394288 0 0.22557231514573739 0.29747977878921561 0 0.2305146992996441 0.31691702429977642 0 0.2376751292839718 0.27741240132337408 0 0.24963775202771521 0.30051372462394288 0 0.2318681827461313 0.28775992326468519 0 0.2434397278092077 0.27846069768541332 0 0.25252005129033422 0.30103787280496203 0 0.2434397278092077 0.27846069768541332 0 0.2376751292839718 0.27741240132337408 0 0.24963775202771521 0.30051372462394288 0 0.2434397278092077 0.27846069768541332 0 0.24963775202771521 0.30051372462394288 0 0.25252005129033422 0.30103787280496203 0 0.24963775202771521 0.30051372462394288 0 0.2318681827461313 0.28775992326468519 0 0.22557231514573739 0.29747977878921561 0 0.2376751292839718 0.27741240132337408 0 0.24963775202771521 0.30051372462394288 0 0.22696706383934109 0.27681901550302962 0 0.2318681827461313 0.28775992326468519 0 0.22192971392309441 0.28686454206331458 0 0.2318681827461313 0.28775992326468519 0 0.22192971392309441 0.28686454206331458 0 0.22557231514573739 0.29747977878921561 0 0.22557231514573739 0.29747977878921561 0 0.21067009246602381 0.31050760251916348 0 0.2305146992996441 0.31691702429977642 0 0.22557231514573739 0.29747977878921561 0 0.2305146992996441 0.31691702429977642 0 0.22557231514573739 0.29747977878921561 0 0.21067009246602381 0.31050760251916348 0 0.20721699074389299 0.28586320426344869 0 0.22192971392309441 0.28686454206331458 0 0.22557231514573739 0.29747977878921561 0 0.20721699074389299 0.28586320426344869 0 0.22696706383934109 0.27681901550302962 0 0.22192971392309441 0.28686454206331458 0 0.20721699074389299 0.28586320426344869 0 0.18588027836364171 0.30417070427619303 0 0.18265278236186541 0.28020603593405619 0 0.20721699074389299 0.28586320426344869 0 0.18588027836364171 0.30417070427619303 0 0.21067009246602381 0.31050760251916348 0 0.20721699074389299 0.28586320426344869 0 0.18588027836364171 0.30417070427619303 0 0.21067009246602381 0.31050760251916348 0 0.1975742485098208 0.32622361772240582 0 0.1975742485098208 0.32622361772240582 0 0.2097525667536678 0.34137856367538538 0 0.18404805005378369 0.34640285754043382 0 0.1975742485098208 0.32622361772240582 0 0.2097525667536678 0.34137856367538538 0 0.2167937380965417 0.3262762156054137 0 0.21067009246602381 0.31050760251916348 0 0.1975742485098208 0.32622361772240582 0 0.2167937380965417 0.3262762156054137 0 0.21067009246602381 0.31050760251916348 0 0.2167937380965417 0.3262762156054137 0 0.2305146992996441 0.31691702429977642 0 0.2305146992996441 0.31691702429977642 0 0.2354570834535519 0.33635426981033711 0 0.2167937380965417 0.3262762156054137 0 0.2305146992996441 0.31691702429977642 0 0.2354570834535519 0.33635426981033711 0 0.2097525667536678 0.34137856367538538 0 0.2167937380965417 0.3262762156054137 0 0.2354570834535519 0.33635426981033711 0 0.2097525667536678 0.34137856367538538 0 0.2354570834535519 0.33635426981033711 0 0.2097525667536678 0.34137856367538538 0 0.2354570834535519 0.33635426981033711 0 0.22572342153310379 0.35183723080414581 0 0.2354570834535519 0.33635426981033711 0 0.24833100513142109 0.32161764704062729 0 0.26518788721623437 0.33054298393043219 0 0.24963775202771521 0.30051372462394288 0 0.2305146992996441 0.31691702429977642 0 0.24833100513142109 0.32161764704062729 0 0.2305146992996441 0.31691702429977642 0 0.2354570834535519 0.33635426981033711 0 0.24833100513142109 0.32161764704062729 0 0.2354570834535519 0.33635426981033711 0 0.24217950803475169 0.36279199964721098 0 0.25397109136889212 0.34953950795812871 0 0.2354570834535519 0.33635426981033711 0 0.24217950803475169 0.36279199964721098 0 0.22572342153310379 0.35183723080414581 0 0.2354570834535519 0.33635426981033711 0 0.24217950803475169 0.36279199964721098 0 0.24217950803475169 0.36279199964721098 0 0.22572342153310379 0.35183723080414581 0 0.21637712922286109 0.36651385017664678 0 0.24217950803475169 0.36279199964721098 0 0.21637712922286109 0.36651385017664678 0 0.22693728272114971 0.38251641872149622 0 0.2097525667536678 0.34137856367538538 0 0.22572342153310379 0.35183723080414581 0 0.21637712922286109 0.36651385017664678 0 0.2097525667536678 0.34137856367538538 0 0.21637712922286109 0.36651385017664678 0 0.19198276408895759 0.36846918068195189 0 0.2097525667536678 0.34137856367538538 0 0.19198276408895759 0.36846918068195189 0 0.18404805005378369 0.34640285754043382 0 0.2097525667536678 0.34137856367538538 0 0.18404805005378369 0.34640285754043382 0 0.21637712922286109 0.36651385017664678 0 0.19198276408895759 0.36846918068195189 0 0.2008438189570996 0.38963870543367402 0 0.1583435333538997 0.35142715140548209 0 0.18404805005378369 0.34640285754043382 0 0.17157629822801171 0.38002160271682978 0 0.19198276408895759 0.36846918068195189 0 0.18404805005378369 0.34640285754043382 0 0.17157629822801171 0.38002160271682978 0 0.1583435333538997 0.35142715140548209 0 0.14756927440754089 0.37573381366887992 0 0.17157629822801171 0.38002160271682978 0 0.1583435333538997 0.35142715140548209 0 0.18404805005378369 0.34640285754043382 0 0.1583435333538997 0.35142715140548209 0 0.17427563080372541 0.32515257599924119 0 0.15139514334923471 0.31791608062108467 0 0.1975742485098208 0.32622361772240582 0 0.18404805005378369 0.34640285754043382 0 0.17427563080372541 0.32515257599924119 0 0.1583435333538997 0.35142715140548209 0 0.18404805005378369 0.34640285754043382 0 0.17427563080372541 0.32515257599924119 0 0.18588027836364171 0.30417070427619303 0 0.1975742485098208 0.32622361772240582 0 0.17427563080372541 0.32515257599924119 0 0.16637322996135739 0.30016678813796199 0 0.17427563080372541 0.32515257599924119 0 0.15139514334923471 0.31791608062108467 0 0.1583435333538997 0.35142715140548209 0 0.15139514334923471 0.31791608062108467 0 0.13264273129131951 0.33439404788472138 0 0.11954567143249289 0.30734763112478491 0 0.15139514334923471 0.31791608062108467 0 0.13264273129131951 0.33439404788472138 0 0.1165634558871128 0.3492406052842485 0 0.13264273129131951 0.33439404788472138 0 0.1326390166540157 0.35645144527053041 0 0.1326390166540157 0.35645144527053041 0 0.14756927440754089 0.37573381366887992 0 0.12550685613774351 0.37951055496914998 0 0.1583435333538997 0.35142715140548209 0 0.1326390166540157 0.35645144527053041 0 0.14756927440754089 0.37573381366887992 0 0.1583435333538997 0.35142715140548209 0 0.1326390166540157 0.35645144527053041 0 0.1583435333538997 0.35142715140548209 0 0.13264273129131951 0.33439404788472138 0 0.1326390166540157 0.35645144527053041 0 0.1528019220027558 0.40532518960412911 0 0.14756927440754089 0.37573381366887992 0 0.13567422075440499 0.38715007620423969 0 0.14756927440754089 0.37573381366887992 0 0.12550685613774351 0.37951055496914998 0 0.13567422075440499 0.38715007620423969 0 0.1236499924648251 0.3984302041169589 0 0.12550685613774351 0.37951055496914998 0 0.13567422075440499 0.38715007620423969 0 0.1236499924648251 0.3984302041169589 0 0.1528019220027558 0.40532518960412911 0 0.13567422075440499 0.38715007620423969 0 0.1528019220027558 0.40532518960412911 0 0.13502200614688589 0.42010390008240672 0 0.17098438647877001 0.42850314348833868 0 0.13502200614688589 0.42010390008240672 0 0.17098438647877001 0.42850314348833868 0 0.1532788809183856 0.44756588495706878 0 0.1236499924648251 0.3984302041169589 0 0.1528019220027558 0.40532518960412911 0 0.13502200614688589 0.42010390008240672 0 0.1237280261196836 0.44463014715047522 0 0.13502200614688589 0.42010390008240672 0 0.1532788809183856 0.44756588495706878 0 0.1528019220027558 0.40532518960412911 0 0.17098438647877001 0.42850314348833868 0 0.1528019220027558 0.40532518960412911 0 0.17098438647877001 0.42850314348833868 0 0.17902253221663289 0.40492788695933207 0 0.17098438647877001 0.42850314348833868 0 0.19890623541652749 0.42115079355368912 0 0.18916685095478419 0.4516810973725483 0 0.17098438647877001 0.42850314348833868 0 0.17902253221663289 0.40492788695933207 0 0.19890623541652749 0.42115079355368912 0 0.17902253221663289 0.40492788695933207 0 0.17157629822801171 0.38002160271682978 0 0.2008438189570996 0.38963870543367402 0 0.1528019220027558 0.40532518960412911 0 0.17902253221663289 0.40492788695933207 0 0.17157629822801171 0.38002160271682978 0 0.1528019220027558 0.40532518960412911 0 0.14756927440754089 0.37573381366887992 0 0.17157629822801171 0.38002160271682978 0 0.17902253221663289 0.40492788695933207 0 0.2008438189570996 0.38963870543367402 0 0.19890623541652749 0.42115079355368912 0 0.19198276408895759 0.36846918068195189 0 0.17157629822801171 0.38002160271682978 0 0.2008438189570996 0.38963870543367402 0 0.2008438189570996 0.38963870543367402 0 0.22638402477508329 0.40440780886586492 0 0.19890623541652749 0.42115079355368912 0 0.2008438189570996 0.38963870543367402 0 0.22693728272114971 0.38251641872149622 0 0.22638402477508329 0.40440780886586492 0 0.21637712922286109 0.36651385017664678 0 0.2008438189570996 0.38963870543367402 0 0.22693728272114971 0.38251641872149622 0 0.22693728272114971 0.38251641872149622 0 0.22638402477508329 0.40440780886586492 0 0.24890193261595259 0.38922972948408457 0 0.22638402477508329 0.40440780886586492 0 0.24890193261595259 0.38922972948408457 0 0.25562435719715348 0.41566745932095828 0 0.24217950803475169 0.36279199964721098 0 0.24890193261595259 0.38922972948408457 0 0.24217950803475169 0.36279199964721098 0 0.22693728272114971 0.38251641872149622 0 0.24890193261595259 0.38922972948408457 0 0.22638402477508329 0.40440780886586492 0 0.23929670148200641 0.42651558303428039 0 0.25562435719715348 0.41566745932095828 0 0.22638402477508329 0.40440780886586492 0 0.23929670148200641 0.42651558303428039 0 0.21947817947708001 0.42577831055793047 0 0.23929670148200641 0.42651558303428039 0 0.21947817947708001 0.42577831055793047 0 0.23265016418236131 0.44461914726881641 0 0.21947817947708001 0.42577831055793047 0 0.19890623541652749 0.42115079355368912 0 0.21144352365240529 0.44700262568134053 0 0.22638402477508329 0.40440780886586492 0 0.21947817947708001 0.42577831055793047 0 0.19890623541652749 0.42115079355368912 0 0.19890623541652749 0.42115079355368912 0 0.18916685095478419 0.4516810973725483 0 0.21144352365240529 0.44700262568134053 0 0.18916685095478419 0.4516810973725483 0 0.20734931543079829 0.47485905125675792 0 0.18916685095478419 0.4516810973725483 0 0.21144352365240529 0.44700262568134053 0 0.20734931543079829 0.47485905125675792 0 0.21144352365240529 0.44700262568134053 0 0.22111039645288069 0.46392735407830132 0 0.20734931543079829 0.47485905125675792 0 0.21144352365240529 0.44700262568134053 0 0.23265016418236131 0.44461914726881641 0 0.22111039645288069 0.46392735407830132 0 0.21947817947708001 0.42577831055793047 0 0.21144352365240529 0.44700262568134053 0 0.23265016418236131 0.44461914726881641 0 0.23265016418236131 0.44461914726881641 0 0.22111039645288069 0.46392735407830132 0 0.24508980140621781 0.46623513653650361 0 0.22111039645288069 0.46392735407830132 0 0.24508980140621781 0.46623513653650361 0 0.23265016418236131 0.44461914726881641 0 0.24508980140621781 0.46623513653650361 0 0.26234678177835441 0.44210518915783192 0 0.23929670148200641 0.42651558303428039 0 0.23265016418236131 0.44461914726881641 0 0.26234678177835441 0.44210518915783192 0 0.2479606543192433 0.5 0 0.23772208332050199 0.48786840683281429 0 0.2255317799068125 0.49803700514096738 0 0.2479606543192433 0.5 0 0.23772208332050199 0.48786840683281429 0 0.25513941322049821 0.48355515434954122 0 0.24508980140621781 0.46623513653650361 0 0.23688712964706901 0.4763018139788181 0 0.25513941322049821 0.48355515434954122 0 0.23772208332050199 0.48786840683281429 0 0.23688712964706901 0.4763018139788181 0 0.25513941322049821 0.48355515434954122 0 0.22111039645288069 0.46392735407830132 0 0.23688712964706901 0.4763018139788181 0 0.22537395383524639 0.47992301809693011 0 0.22537395383524639 0.47992301809693011 0 0.2255317799068125 0.49803700514096738 0 0.20734931543079829 0.47485905125675792 0 0.23772208332050199 0.48786840683281429 0 0.23688712964706901 0.4763018139788181 0 0.22537395383524639 0.47992301809693011 0 0.22111039645288069 0.46392735407830132 0 0.24508980140621781 0.46623513653650361 0 0.23688712964706901 0.4763018139788181 0 0.23772208332050199 0.48786840683281429 0 0.22537395383524639 0.47992301809693011 0 0.2255317799068125 0.49803700514096738 0 0.2479606543192433 0.5 0 0.21885338771805021 0.5 0 0.2255317799068125 0.49803700514096738 0 0.21885338771805021 0.5 0 0.2255317799068125 0.49803700514096738 0 0.20734931543079829 0.47485905125675792 0 0.21885338771805021 0.5 0 0.20734931543079829 0.47485905125675792 0 0.1897461211168571 0.5 0 0.2255317799068125 0.49803700514096738 0 0.20734931543079829 0.47485905125675792 0 0.22111039645288069 0.46392735407830132 0 0.22537395383524639 0.47992301809693011 0 0.20734931543079829 0.47485905125675792 0 0.18916685095478419 0.4516810973725483 0 0.20734931543079829 0.47485905125675792 0 0.18375498264642379 0.4799820804674747 0 0.20734931543079829 0.47485905125675792 0 0.1897461211168571 0.5 0 0.18375498264642379 0.4799820804674747 0 0.1897461211168571 0.5 0 0.1606388545156639 0.5 0 0.18375498264642379 0.4799820804674747 0 0.1606388545156639 0.5 0 0.16284299929429041 0.47286735670979418 0 0.18375498264642379 0.4799820804674747 0 0.17098438647877001 0.42850314348833868 0 0.18916685095478419 0.4516810973725483 0 0.1532788809183856 0.44756588495706878 0 0.18916685095478419 0.4516810973725483 0 0.16284299929429041 0.47286735670979418 0 0.18375498264642379 0.4799820804674747 0 0.18916685095478419 0.4516810973725483 0 0.16284299929429041 0.47286735670979418 0 0.1532788809183856 0.44756588495706878 0 0.17098438647877001 0.42850314348833868 0 0.18916685095478419 0.4516810973725483 0 0.16284299929429041 0.47286735670979418 0 0.1532788809183856 0.44756588495706878 0 0.13792901651589951 0.46760966493884959 0 0.1160915578241386 0.4641835533930308 0 0.1237280261196836 0.44463014715047522 0 0.13792901651589951 0.46760966493884959 0 0.1237280261196836 0.44463014715047522 0 0.1532788809183856 0.44756588495706878 0 0.13792901651589951 0.46760966493884959 0 0.1146358595090817 0.48605788153156299 0 0.13792901651589951 0.46760966493884959 0 0.14375381424303349 0.48699105670781317 0 0.1146358595090817 0.48605788153156299 0 0.13153158791447089 0.50000000000000033 0 0.14375381424303349 0.48699105670781317 0 0.1606388545156639 0.5 0 0.13153158791447089 0.50000000000000033 0 0.14375381424303349 0.48699105670781317 0 0.1606388545156639 0.5 0 0.16284299929429041 0.47286735670979418 0 0.14375381424303349 0.48699105670781317 0 0.16284299929429041 0.47286735670979418 0 0.13792901651589951 0.46760966493884959 0 0.14375381424303349 0.48699105670781317 0 0.35818797179075601 0.47458138126870081 0 0.34642182508771258 0.48585203466637861 0 0.33573625410597768 0.47071191077640329 0 0.35818797179075601 0.47458138126870081 0 0.34642182508771258 0.48585203466637861 0 0.35839011049240282 0.5 0 0.34642182508771258 0.48585203466637861 0 0.35839011049240282 0.5 0 0.33128271396841408 0.5 0 0.35818797179075601 0.47458138126870081 0 0.35839011049240282 0.5 0 0.37951078222479251 0.47868038482078018 0 0.35839011049240282 0.5 0 0.37951078222479251 0.47868038482078018 0 0.38549750701639152 0.5 0 0.35818797179075601 0.47458138126870081 0 0.37565915938479377 0.45849116020829678 0 0.37951078222479251 0.47868038482078018 0 0.35818797179075601 0.47458138126870081 0 0.35384759317055892 0.4558722467826386 0 0.37565915938479377 0.45849116020829678 0 0.3672128213662551 0.44140310366938379 0 0.35384759317055892 0.4558722467826386 0 0.37565915938479377 0.45849116020829678 0 0.35041805056504127 0.44039830756831011 0 0.35384759317055892 0.4558722467826386 0 0.33587130181052999 0.44964761720473639 0 0.3672128213662551 0.44140310366938379 0 0.35041805056504127 0.44039830756831011 0 0.35384759317055892 0.4558722467826386 0 0.35818797179075601 0.47458138126870081 0 0.35384759317055892 0.4558722467826386 0 0.33573625410597768 0.47071191077640329 0 0.33587130181052999 0.44964761720473639 0 0.32245641590876828 0.45710047073305682 0 0.33573625410597768 0.47071191077640329 0 0.35384759317055892 0.4558722467826386 0 0.33587130181052999 0.44964761720473639 0 0.33573625410597768 0.47071191077640329 0 0.35041805056504127 0.44039830756831011 0 0.33587130181052999 0.44964761720473639 0 0.34011375395909899 0.42827966665244982 0 0.33587130181052999 0.44964761720473639 0 0.32313042491148092 0.43915640659962429 0 0.34011375395909899 0.42827966665244982 0 0.33587130181052999 0.44964761720473639 0 0.32313042491148092 0.43915640659962429 0 0.32245641590876828 0.45710047073305682 0 0.32313042491148092 0.43915640659962429 0 0.32245641590876828 0.45710047073305682 0 0.3069723578181176 0.44921026163567479 0 0.32313042491148092 0.43915640659962429 0 0.3069723578181176 0.44921026163567479 0 0.30967478190587899 0.43248339293908478 0 0.32245641590876828 0.45710047073305682 0 0.31479002533830769 0.47294309924184441 0 0.33573625410597768 0.47071191077640329 0 0.32245641590876828 0.45710047073305682 0 0.31479002533830769 0.47294309924184441 0 0.3069723578181176 0.44921026163567479 0 0.31479002533830769 0.47294309924184441 0 0.33573625410597768 0.47071191077640329 0 0.33128271396841408 0.5 0 0.34642182508771258 0.48585203466637861 0 0.33573625410597768 0.47071191077640329 0 0.33128271396841408 0.5 0 0.31479002533830769 0.47294309924184441 0 0.33128271396841408 0.5 0 0.30417531744442527 0.5 0 0.31479002533830769 0.47294309924184441 0 0.30417531744442527 0.5 0 0.29074220063683293 0.48758109823480927 0 0.31479002533830769 0.47294309924184441 0 0.29192961584893129 0.47074300911827521 0 0.29074220063683293 0.48758109823480927 0 0.31479002533830769 0.47294309924184441 0 0.29192961584893129 0.47074300911827521 0 0.29192961584893129 0.47074300911827521 0 0.29074220063683293 0.48758109823480927 0 0.27306856363999571 0.4842714594973539 0 0.30417531744442527 0.5 0 0.29074220063683293 0.48758109823480927 0 0.27706792092043642 0.500000000000002 0 0.27706792092043642 0.500000000000002 0 0.27306856363999571 0.4842714594973539 0 0.25513941322049821 0.48355515434954122 0 0.29074220063683293 0.48758109823480927 0 0.27706792092043642 0.500000000000002 0 0.27306856363999571 0.4842714594973539 0 0.27706792092043642 0.500000000000002 0 0.27306856363999571 0.4842714594973539 0 0.29192961584893129 0.47074300911827521 0 0.26906920635955489 0.46854291899470579 0 0.27306856363999571 0.4842714594973539 0 0.25513941322049821 0.48355515434954122 0 0.26906920635955489 0.46854291899470579 0 0.29192961584893129 0.47074300911827521 0 0.27306856363999571 0.4842714594973539 0 0.26906920635955489 0.46854291899470579 0 0.27306856363999571 0.4842714594973539 0 0.26906920635955489 0.46854291899470579 0 0.24508980140621781 0.46623513653650361 0 0.25513941322049821 0.48355515434954122 0 0.26906920635955489 0.46854291899470579 0 0.2479606543192433 0.5 0 0.27706792092043642 0.500000000000002 0 0.25513941322049821 0.48355515434954122 0 0.24508980140621781 0.46623513653650361 0 0.26906920635955489 0.46854291899470579 0 0.24508980140621781 0.46623513653650361 0 0.26234678177835441 0.44210518915783192 0 0.26906920635955489 0.46854291899470579 0 0.29192961584893129 0.47074300911827521 0 0.26906920635955489 0.46854291899470579 0 0.2825318911539082 0.44937975844880462 0 0.26234678177835441 0.44210518915783192 0 0.26906920635955489 0.46854291899470579 0 0.26234678177835441 0.44210518915783192 0 0.26906920635955489 0.46854291899470579 0 0.2825318911539082 0.44937975844880462 0 0.26234678177835441 0.44210518915783192 0 0.2825318911539082 0.44937975844880462 0 0.2735489225425754 0.42398780939214897 0 0.2825318911539082 0.44937975844880462 0 0.3069723578181176 0.44921026163567479 0 0.29424437368670248 0.43173942196487358 0 0.29192961584893129 0.47074300911827521 0 0.2825318911539082 0.44937975844880462 0 0.3069723578181176 0.44921026163567479 0 0.31479002533830769 0.47294309924184441 0 0.29192961584893129 0.47074300911827521 0 0.3069723578181176 0.44921026163567479 0 0.3069723578181176 0.44921026163567479 0 0.30967478190587899 0.43248339293908478 0 0.29424437368670248 0.43173942196487358 0 0.30967478190587899 0.43248339293908478 0 0.3045281829251868 0.41996349248923659 0 0.31949857018790712 0.42234738200601463 0 0.30967478190587899 0.43248339293908478 0 0.3045281829251868 0.41996349248923659 0 0.29424437368670248 0.43173942196487358 0 0.31221380766262308 0.41141105291454111 0 0.3045281829251868 0.41996349248923659 0 0.30175255758949709 0.40539483602959481 0 0.31221380766262308 0.41141105291454111 0 0.3045281829251868 0.41996349248923659 0 0.31949857018790712 0.42234738200601463 0 0.3045281829251868 0.41996349248923659 0 0.29116822628179151 0.41527777958226658 0 0.30175255758949709 0.40539483602959481 0 0.29116822628179151 0.41527777958226658 0 0.2735489225425754 0.42398780939214897 0 0.28009549588900451 0.40671294327225221 0 0.29116822628179151 0.41527777958226658 0 0.29046685710439091 0.40365495696152731 0 0.30175255758949709 0.40539483602959481 0 0.29116822628179151 0.41527777958226658 0 0.28009549588900451 0.40671294327225221 0 0.29046685710439091 0.40365495696152731 0 0.29116822628179151 0.41527777958226658 0 0.29424437368670248 0.43173942196487358 0 0.2735489225425754 0.42398780939214897 0 0.3045281829251868 0.41996349248923659 0 0.29116822628179151 0.41527777958226658 0 0.29424437368670248 0.43173942196487358 0 0.2825318911539082 0.44937975844880462 0 0.29424437368670248 0.43173942196487358 0 0.2735489225425754 0.42398780939214897 0 0.2735489225425754 0.42398780939214897 0 0.28009549588900451 0.40671294327225221 0 0.26594594197715632 0.40587542564026857 0 0.2735489225425754 0.42398780939214897 0 0.25562435719715348 0.41566745932095828 0 0.26594594197715632 0.40587542564026857 0 0.26234678177835441 0.44210518915783192 0 0.25562435719715348 0.41566745932095828 0 0.23929670148200641 0.42651558303428039 0 0.26234678177835441 0.44210518915783192 0 0.25562435719715348 0.41566745932095828 0 0.26234678177835441 0.44210518915783192 0 0.2735489225425754 0.42398780939214897 0 0.25562435719715348 0.41566745932095828 0 0.24890193261595259 0.38922972948408457 0 0.27155900164109531 0.39377918673189899 0 0.26817635423288699 0.37969346344739391 0 0.24890193261595259 0.38922972948408457 0 0.26817635423288699 0.37969346344739391 0 0.26082178769032438 0.36496323128775521 0 0.24890193261595259 0.38922972948408457 0 0.25562435719715348 0.41566745932095828 0 0.24890193261595259 0.38922972948408457 0 0.27155900164109531 0.39377918673189899 0 0.26594594197715632 0.40587542564026857 0 0.24890193261595259 0.38922972948408457 0 0.25562435719715348 0.41566745932095828 0 0.26594594197715632 0.40587542564026857 0 0.28009549588900451 0.40671294327225221 0 0.27155900164109531 0.39377918673189899 0 0.26594594197715632 0.40587542564026857 0 0.28009549588900451 0.40671294327225221 0 0.27155900164109531 0.39377918673189899 0 0.2841626669368148 0.39603484022980262 0 0.27155900164109531 0.39377918673189899 0 0.27917556467927279 0.38707504911542251 0 0.2841626669368148 0.39603484022980262 0 0.27917556467927279 0.38707504911542251 0 0.27737653217987568 0.3763299637903077 0 0.28641533258273322 0.38531457319514678 0 0.27155900164109531 0.39377918673189899 0 0.27917556467927279 0.38707504911542251 0 0.26817635423288699 0.37969346344739391 0 0.26817635423288699 0.37969346344739391 0 0.27737653217987568 0.3763299637903077 0 0.26995518240551242 0.36922466410125959 0 0.27917556467927279 0.38707504911542251 0 0.26817635423288699 0.37969346344739391 0 0.27737653217987568 0.3763299637903077 0 0.27917556467927279 0.38707504911542251 0 0.28749669470930389 0.39059918652862902 0 0.28641533258273322 0.38531457319514678 0 0.28749669470930389 0.39059918652862902 0 0.28641533258273322 0.38531457319514678 0 0.29321390271680048 0.38636149671614523 0 0.28641533258273322 0.38531457319514678 0 0.29321390271680048 0.38636149671614523 0 0.29155132770994241 0.38145409056705559 0 0.28749669470930389 0.39059918652862902 0 0.29321390271680048 0.38636149671614523 0 0.2951553388248469 0.39485438569372039 0 0.29321390271680048 0.38636149671614523 0 0.2951553388248469 0.39485438569372039 0 0.30172663999730548 0.38411556817588999 0 0.2951337916801352 0.37545299726164849 0 0.29155132770994241 0.38145409056705559 0 0.29028041611347422 0.37131190521640561 0 0.29650911823343812 0.38027524721939082 0 0.2951337916801352 0.37545299726164849 0 0.29155132770994241 0.38145409056705559 0 0.29321390271680048 0.38636149671614523 0 0.29650911823343812 0.38027524721939082 0 0.29155132770994241 0.38145409056705559 0 0.28009549588900451 0.40671294327225221 0 0.2841626669368148 0.39603484022980262 0 0.29046685710439091 0.40365495696152731 0 0.27917556467927279 0.38707504911542251 0 0.28749669470930389 0.39059918652862902 0 0.2841626669368148 0.39603484022980262 0 0.28749669470930389 0.39059918652862902 0 0.2841626669368148 0.39603484022980262 0 0.2951553388248469 0.39485438569372039 0 0.2841626669368148 0.39603484022980262 0 0.2951553388248469 0.39485438569372039 0 0.29046685710439091 0.40365495696152731 0 0.2951553388248469 0.39485438569372039 0 0.29046685710439091 0.40365495696152731 0 0.30175255758949709 0.40539483602959481 0 0.2951553388248469 0.39485438569372039 0 0.30416997859767031 0.39496190780794832 0 0.30172663999730548 0.38411556817588999 0 0.2951553388248469 0.39485438569372039 0 0.30175255758949709 0.40539483602959481 0 0.30416997859767031 0.39496190780794832 0 0.30416997859767031 0.39496190780794832 0 0.31194754139156228 0.39992908639018659 0 0.31058504665001713 0.38993607806902841 0 0.31221380766262308 0.41141105291454111 0 0.30175255758949709 0.40539483602959481 0 0.31194754139156228 0.39992908639018659 0 0.30175255758949709 0.40539483602959481 0 0.30416997859767031 0.39496190780794832 0 0.31194754139156228 0.39992908639018659 0 0.29650911823343812 0.38027524721939082 0 0.30172663999730548 0.38411556817588999 0 0.30091992906300691 0.3739920833762147 0 0.30172663999730548 0.38411556817588999 0 0.31077839752677883 0.37658419253607489 0 0.30091992906300691 0.3739920833762147 0 0.29650911823343812 0.38027524721939082 0 0.2951337916801352 0.37545299726164849 0 0.30091992906300691 0.3739920833762147 0 0.29321390271680048 0.38636149671614523 0 0.29650911823343812 0.38027524721939082 0 0.30172663999730548 0.38411556817588999 0 0.30416997859767031 0.39496190780794832 0 0.30172663999730548 0.38411556817588999 0 0.31058504665001713 0.38993607806902841 0 0.30172663999730548 0.38411556817588999 0 0.31058504665001713 0.38993607806902841 0 0.31077839752677883 0.37658419253607489 0 0.31077839752677883 0.37658419253607489 0 0.31867525833463911 0.38494833593070971 0 0.32306703930603953 0.37623237809600169 0 0.31058504665001713 0.38993607806902841 0 0.31867525833463911 0.38494833593070971 0 0.31878199461777879 0.39362573130725731 0 0.31058504665001713 0.38993607806902841 0 0.31077839752677883 0.37658419253607489 0 0.31867525833463911 0.38494833593070971 0 0.31867525833463911 0.38494833593070971 0 0.32306703930603953 0.37623237809600169 0 0.32934203852673438 0.38871677178939867 0 0.31867525833463911 0.38494833593070971 0 0.32934203852673438 0.38871677178939867 0 0.31878199461777879 0.39362573130725731 0 0.32306703930603953 0.37623237809600169 0 0.33555471090824662 0.37714848622012531 0 0.32934203852673438 0.38871677178939867 0 0.33555471090824662 0.37714848622012531 0 0.32934203852673438 0.38871677178939867 0 0.34865402358820241 0.38746960960344728 0 0.32934203852673438 0.38871677178939867 0 0.33838050486014071 0.40132571833470809 0 0.34865402358820241 0.38746960960344728 0 0.32934203852673438 0.38871677178939867 0 0.33838050486014071 0.40132571833470809 0 0.32336008818594092 0.40459838435696299 0 0.32934203852673438 0.38871677178939867 0 0.32336008818594092 0.40459838435696299 0 0.31878199461777879 0.39362573130725731 0 0.31194754139156228 0.39992908639018659 0 0.31058504665001713 0.38993607806902841 0 0.31878199461777879 0.39362573130725731 0 0.31221380766262308 0.41141105291454111 0 0.31194754139156228 0.39992908639018659 0 0.32336008818594092 0.40459838435696299 0 0.31194754139156228 0.39992908639018659 0 0.32336008818594092 0.40459838435696299 0 0.31878199461777879 0.39362573130725731 0 0.31221380766262308 0.41141105291454111 0 0.32336008818594092 0.40459838435696299 0 0.31949857018790712 0.42234738200601463 0 0.32336008818594092 0.40459838435696299 0 0.31949857018790712 0.42234738200601463 0 0.33335541567677851 0.41413927737501682 0 0.32313042491148092 0.43915640659962429 0 0.31949857018790712 0.42234738200601463 0 0.34011375395909899 0.42827966665244982 0 0.32313042491148092 0.43915640659962429 0 0.30967478190587899 0.43248339293908478 0 0.31949857018790712 0.42234738200601463 0 0.31949857018790712 0.42234738200601463 0 0.34011375395909899 0.42827966665244982 0 0.33335541567677851 0.41413927737501682 0 0.34011375395909899 0.42827966665244982 0 0.33335541567677851 0.41413927737501682 0 0.35251535500997389 0.4097633894025835 0 0.33838050486014071 0.40132571833470809 0 0.33335541567677851 0.41413927737501682 0 0.35251535500997389 0.4097633894025835 0 0.33838050486014071 0.40132571833470809 0 0.32336008818594092 0.40459838435696299 0 0.33335541567677851 0.41413927737501682 0 0.34011375395909899 0.42827966665244982 0 0.35251535500997389 0.4097633894025835 0 0.3591301267131588 0.42602683944016839 0 0.3672128213662551 0.44140310366938379 0 0.35041805056504127 0.44039830756831011 0 0.3591301267131588 0.42602683944016839 0 0.35041805056504127 0.44039830756831011 0 0.34011375395909899 0.42827966665244982 0 0.3591301267131588 0.42602683944016839 0 0.3672128213662551 0.44140310366938379 0 0.3591301267131588 0.42602683944016839 0 0.37786999239799629 0.42201923841731348 0 0.3591301267131588 0.42602683944016839 0 0.36674031876838431 0.41287021939491358 0 0.37786999239799629 0.42201923841731348 0 0.35251535500997389 0.4097633894025835 0 0.36674031876838431 0.41287021939491358 0 0.36672310374365391 0.3972274770167053 0 0.36674031876838431 0.41287021939491358 0 0.37714557779446961 0.40580011292323048 0 0.37786999239799629 0.42201923841731348 0 0.35251535500997389 0.4097633894025835 0 0.3591301267131588 0.42602683944016839 0 0.36674031876838431 0.41287021939491358 0 0.36674031876838431 0.41287021939491358 0 0.36672310374365391 0.3972274770167053 0 0.37714557779446961 0.40580011292323048 0 0.36672310374365391 0.3972274770167053 0 0.34865402358820241 0.38746960960344728 0 0.36927583114563117 0.37168826674887129 0 0.36672310374365391 0.3972274770167053 0 0.36927583114563117 0.37168826674887129 0 0.38594138320053972 0.39504117240748449 0 0.34865402358820241 0.38746960960344728 0 0.34769055634412588 0.36745966958429022 0 0.36927583114563117 0.37168826674887129 0 0.33555471090824662 0.37714848622012531 0 0.34865402358820241 0.38746960960344728 0 0.34769055634412588 0.36745966958429022 0 0.35251535500997389 0.4097633894025835 0 0.36672310374365391 0.3972274770167053 0 0.34865402358820241 0.38746960960344728 0 0.33838050486014071 0.40132571833470809 0 0.35251535500997389 0.4097633894025835 0 0.34865402358820241 0.38746960960344728 0 0.35261027909072251 0.34833536109025781 0 0.34769055634412588 0.36745966958429022 0 0.33944519881702218 0.35670643516570921 0 0.35261027909072251 0.34833536109025781 0 0.34769055634412588 0.36745966958429022 0 0.36927583114563117 0.37168826674887129 0 0.35261027909072251 0.34833536109025781 0 0.36927583114563117 0.37168826674887129 0 0.35261027909072251 0.34833536109025781 0 0.36927583114563117 0.37168826674887129 0 0.38014707859742553 0.358601566133181 0 0.35261027909072251 0.34833536109025781 0 0.37418757138316661 0.34003979241565702 0 0.38014707859742553 0.358601566133181 0 0.37418757138316661 0.34003979241565702 0 0.36114413796306788 0.32433110896381118 0 0.38634354889032002 0.32367976249598251 0 0.35261027909072251 0.34833536109025781 0 0.37418757138316661 0.34003979241565702 0 0.36114413796306788 0.32433110896381118 0 0.36114413796306788 0.32433110896381118 0 0.38634354889032002 0.32367976249598251 0 0.36114413796306788 0.32433110896381118 0 0.36246687595182442 0.30494518477727961 0 0.38634354889032002 0.32367976249598251 0 0.36114413796306788 0.32433110896381118 0 0.33594472703581602 0.32498245543164278 0 0.36114413796306788 0.32433110896381118 0 0.33594472703581602 0.32498245543164278 0 0.34448717235649018 0.30756264321984922 0 0.35261027909072251 0.34833536109025781 0 0.36114413796306788 0.32433110896381118 0 0.33594472703581602 0.32498245543164278 0 0.35261027909072251 0.34833536109025781 0 0.33594472703581602 0.32498245543164278 0 0.35261027909072251 0.34833536109025781 0 0.33361265820108371 0.33601463685995558 0 0.33594472703581602 0.32498245543164278 0 0.35261027909072251 0.34833536109025781 0 0.33361265820108371 0.33601463685995558 0 0.33117650937159632 0.34590223044488833 0 0.33361265820108371 0.33601463685995558 0 0.33594472703581602 0.32498245543164278 0 0.32592845192929348 0.32524135296818618 0 0.33361265820108371 0.33601463685995558 0 0.32240332357799001 0.33561178436480271 0 0.33117650937159632 0.34590223044488833 0 0.33594472703581602 0.32498245543164278 0 0.32420479997372442 0.30853167071016102 0 0.33594472703581602 0.32498245543164278 0 0.32592845192929348 0.32524135296818618 0 0.32420479997372442 0.30853167071016102 0 0.33594472703581602 0.32498245543164278 0 0.32420479997372442 0.30853167071016102 0 0.34448717235649018 0.30756264321984922 0 0.33594472703581602 0.32498245543164278 0 0.32592845192929348 0.32524135296818618 0 0.32592845192929348 0.32524135296818618 0 0.31778971146991503 0.31788997842391498 0 0.32420479997372442 0.30853167071016102 0 0.32592845192929348 0.32524135296818618 0 0.31591730865868939 0.32743152395768732 0 0.31778971146991503 0.31788997842391498 0 0.31591730865868939 0.32743152395768732 0 0.31778971146991503 0.31788997842391498 0 0.30920411140212778 0.3196886032463338 0 0.32240332357799001 0.33561178436480271 0 0.31863003654071292 0.34601962911411782 0 0.33117650937159632 0.34590223044488833 0 0.33361265820108371 0.33601463685995558 0 0.32592845192929348 0.32524135296818618 0 0.32240332357799001 0.33561178436480271 0 0.32592845192929348 0.32524135296818618 0 0.31591730865868939 0.32743152395768732 0 0.32240332357799001 0.33561178436480271 0 0.31591730865868939 0.32743152395768732 0 0.32240332357799001 0.33561178436480271 0 0.31164832743931292 0.33689503642828789 0 0.32240332357799001 0.33561178436480271 0 0.31863003654071292 0.34601962911411782 0 0.31164832743931292 0.33689503642828789 0 0.31863003654071292 0.34601962911411782 0 0.30992842843050988 0.3457112388019602 0 0.31164832743931292 0.33689503642828789 0 0.31863003654071292 0.34601962911411782 0 0.30992842843050988 0.3457112388019602 0 0.31160887743439081 0.35478490180041172 0 0.32445766980723489 0.35579424438156659 0 0.31686549990355672 0.36548826773678422 0 0.31160887743439081 0.35478490180041172 0 0.31863003654071292 0.34601962911411782 0 0.32445766980723489 0.35579424438156659 0 0.31160887743439081 0.35478490180041172 0 0.31863003654071292 0.34601962911411782 0 0.32445766980723489 0.35579424438156659 0 0.33117650937159632 0.34590223044488833 0 0.35261027909072251 0.34833536109025781 0 0.33117650937159632 0.34590223044488833 0 0.33944519881702218 0.35670643516570921 0 0.32445766980723489 0.35579424438156659 0 0.33117650937159632 0.34590223044488833 0 0.33944519881702218 0.35670643516570921 0 0.33555471090824662 0.37714848622012531 0 0.34769055634412588 0.36745966958429022 0 0.3290198967761308 0.36586400202748842 0 0.34769055634412588 0.36745966958429022 0 0.33944519881702218 0.35670643516570921 0 0.3290198967761308 0.36586400202748842 0 0.32445766980723489 0.35579424438156659 0 0.33944519881702218 0.35670643516570921 0 0.3290198967761308 0.36586400202748842 0 0.32306703930603953 0.37623237809600169 0 0.33555471090824662 0.37714848622012531 0 0.3290198967761308 0.36586400202748842 0 0.32306703930603953 0.37623237809600169 0 0.3290198967761308 0.36586400202748842 0 0.31686549990355672 0.36548826773678422 0 0.32445766980723489 0.35579424438156659 0 0.3290198967761308 0.36586400202748842 0 0.31686549990355672 0.36548826773678422 0 0.31077839752677883 0.37658419253607489 0 0.32306703930603953 0.37623237809600169 0 0.31686549990355672 0.36548826773678422 0 0.31077839752677883 0.37658419253607489 0 0.30653952356419251 0.36486132392814918 0 0.30091992906300691 0.3739920833762147 0 0.31077839752677883 0.37658419253607489 0 0.31686549990355672 0.36548826773678422 0 0.30653952356419251 0.36486132392814918 0 0.31686549990355672 0.36548826773678422 0 0.30653952356419251 0.36486132392814918 0 0.31160887743439081 0.35478490180041172 0 0.30653952356419251 0.36486132392814918 0 0.29956039950038399 0.36055845947794762 0 0.29968882481084308 0.36620473963642819 0 0.30653952356419251 0.36486132392814918 0 0.29956039950038399 0.36055845947794762 0 0.30450437459886343 0.35739179545954242 0 0.29956039950038399 0.36055845947794762 0 0.29968882481084308 0.36620473963642819 0 0.2946843591870788 0.36349444767638139 0 0.29968882481084308 0.36620473963642819 0 0.30091992906300691 0.3739920833762147 0 0.29515321138997108 0.36891281366618561 0 0.30653952356419251 0.36486132392814918 0 0.29968882481084308 0.36620473963642819 0 0.30091992906300691 0.3739920833762147 0 0.2951337916801352 0.37545299726164849 0 0.30091992906300691 0.3739920833762147 0 0.29515321138997108 0.36891281366618561 0 0.30992842843050988 0.3457112388019602 0 0.31160887743439081 0.35478490180041172 0 0.30300584901730271 0.34938636887413438 0 0.30992842843050988 0.3457112388019602 0 0.30300584901730271 0.34938636887413438 0 0.30284961949963451 0.34180688944884569 0 0.31160887743439081 0.35478490180041172 0 0.30450437459886343 0.35739179545954242 0 0.30300584901730271 0.34938636887413438 0 0.30653952356419251 0.36486132392814918 0 0.31160887743439081 0.35478490180041172 0 0.30450437459886343 0.35739179545954242 0 0.30450437459886343 0.35739179545954242 0 0.29772286606791931 0.35422336501427332 0 0.30300584901730271 0.34938636887413438 0 0.29956039950038399 0.36055845947794762 0 0.30450437459886343 0.35739179545954242 0 0.29772286606791931 0.35422336501427332 0 0.29772286606791931 0.35422336501427332 0 0.30300584901730271 0.34938636887413438 0 0.29508057650716829 0.34607515835053693 0 0.30300584901730271 0.34938636887413438 0 0.29508057650716829 0.34607515835053693 0 0.30284961949963451 0.34180688944884569 0 0.29508057650716829 0.34607515835053693 0 0.29128433478161492 0.3514692197730912 0 0.28696318970460172 0.34507386829548542 0 0.29772286606791931 0.35422336501427332 0 0.29508057650716829 0.34607515835053693 0 0.29128433478161492 0.3514692197730912 0 0.29128433478161492 0.3514692197730912 0 0.29260686737414288 0.35803349489433017 0 0.28831593146678952 0.35482697607295582 0 0.29772286606791931 0.35422336501427332 0 0.29128433478161492 0.3514692197730912 0 0.29260686737414288 0.35803349489433017 0 0.29956039950038399 0.36055845947794762 0 0.29772286606791931 0.35422336501427332 0 0.29260686737414288 0.35803349489433017 0 0.29260686737414288 0.35803349489433017 0 0.28714468874269172 0.35854684035017659 0 0.29097547274489571 0.36086700820637557 0 0.29260686737414288 0.35803349489433017 0 0.28714468874269172 0.35854684035017659 0 0.28831593146678952 0.35482697607295582 0 0.28714468874269172 0.35854684035017659 0 0.28946597567566928 0.3633932499046143 0 0.27836960746308909 0.35599853724874359 0 0.28714468874269172 0.35854684035017659 0 0.28392422607346179 0.35383006020545288 0 0.27836960746308909 0.35599853724874359 0 0.28714468874269172 0.35854684035017659 0 0.28392422607346179 0.35383006020545288 0 0.28831593146678952 0.35482697607295582 0 0.28392422607346179 0.35383006020545288 0 0.28273558166129192 0.34922596943765521 0 0.28101653893848899 0.35208327708388421 0 0.28392422607346179 0.35383006020545288 0 0.28831593146678952 0.35482697607295582 0 0.2863539578433606 0.35136140079780598 0 0.29128433478161492 0.3514692197730912 0 0.28831593146678952 0.35482697607295582 0 0.2863539578433606 0.35136140079780598 0 0.29128433478161492 0.3514692197730912 0 0.2863539578433606 0.35136140079780598 0 0.28696318970460172 0.34507386829548542 0 0.2863539578433606 0.35136140079780598 0 0.28273558166129192 0.34922596943765521 0 0.28696318970460172 0.34507386829548542 0 0.28392422607346179 0.35383006020545288 0 0.2863539578433606 0.35136140079780598 0 0.28273558166129192 0.34922596943765521 0 0.28696318970460172 0.34507386829548542 0 0.28013569367420871 0.34584772387197749 0 0.28119375649751349 0.3415044430455576 0 0.28273558166129192 0.34922596943765521 0 0.28696318970460172 0.34507386829548542 0 0.28013569367420871 0.34584772387197749 0 0.29155132770994241 0.38145409056705559 0 0.29028041611347422 0.37131190521640561 0 0.27836960746308909 0.35599853724874359 0 0.28641533258273322 0.38531457319514678 0 0.29155132770994241 0.38145409056705559 0 0.2754302243437341 0.35800137086985789 0 0.29155132770994241 0.38145409056705559 0 0.2754302243437341 0.35800137086985789 0 0.27836960746308909 0.35599853724874359 0 0.29155132770994241 0.38145409056705559 0 0.27836960746308909 0.35599853724874359 0 0.29028041611347422 0.37131190521640561 0 0.29515321138997108 0.36891281366618561 0 0.28946597567566928 0.3633932499046143 0 0.2951337916801352 0.37545299726164849 0 0.29028041611347422 0.37131190521640561 0 0.29515321138997108 0.36891281366618561 0 0.29968882481084308 0.36620473963642819 0 0.29515321138997108 0.36891281366618561 0 0.2946843591870788 0.36349444767638139 0 0.29515321138997108 0.36891281366618561 0 0.2946843591870788 0.36349444767638139 0 0.28946597567566928 0.3633932499046143 0 0.29956039950038399 0.36055845947794762 0 0.29260686737414288 0.35803349489433017 0 0.2946843591870788 0.36349444767638139 0 0.28714468874269172 0.35854684035017659 0 0.29097547274489571 0.36086700820637557 0 0.28946597567566928 0.3633932499046143 0 0.2946843591870788 0.36349444767638139 0 0.29097547274489571 0.36086700820637557 0 0.28946597567566928 0.3633932499046143 0 0.29260686737414288 0.35803349489433017 0 0.2946843591870788 0.36349444767638139 0 0.29097547274489571 0.36086700820637557 0 0.29028041611347422 0.37131190521640561 0 0.28946597567566928 0.3633932499046143 0 0.27836960746308909 0.35599853724874359 0 0.28641533258273322 0.38531457319514678 0 0.2754302243437341 0.35800137086985789 0 0.27737653217987568 0.3763299637903077 0 0.28641533258273322 0.38531457319514678 0 0.2754302243437341 0.35800137086985789 0 0.27737653217987568 0.3763299637903077 0 0.27292546410526491 0.36629585246079138 0 0.2754302243437341 0.35800137086985789 0 0.27737653217987568 0.3763299637903077 0 0.26995518240551242 0.36922466410125959 0 0.27292546410526491 0.36629585246079138 0 0.26817635423288699 0.37969346344739391 0 0.26995518240551242 0.36922466410125959 0 0.26082178769032438 0.36496323128775521 0 0.26995518240551242 0.36922466410125959 0 0.26893991749193752 0.36162741108174062 0 0.26082178769032438 0.36496323128775521 0 0.26893991749193752 0.36162741108174062 0 0.27292546410526491 0.36629585246079138 0 0.2754302243437341 0.35800137086985789 0 0.26995518240551242 0.36922466410125959 0 0.26893991749193752 0.36162741108174062 0 0.27292546410526491 0.36629585246079138 0 0.2754302243437341 0.35800137086985789 0 0.26518788721623437 0.33054298393043219 0 0.2754302243437341 0.35800137086985789 0 0.27836960746308909 0.35599853724874359 0 0.26518788721623437 0.33054298393043219 0 0.2754302243437341 0.35800137086985789 0 0.26469999689944002 0.35285812485780471 0 0.26518788721623437 0.33054298393043219 0 0.27836960746308909 0.35599853724874359 0 0.28101653893848899 0.35208327708388421 0 0.2797945401242129 0.34946851842389731 0 0.28392422607346179 0.35383006020545288 0 0.27836960746308909 0.35599853724874359 0 0.28101653893848899 0.35208327708388421 0 0.27836960746308909 0.35599853724874359 0 0.2797945401242129 0.34946851842389731 0 0.27671527888398562 0.3441870844772259 0 0.28013569367420871 0.34584772387197749 0 0.2797945401242129 0.34946851842389731 0 0.27671527888398562 0.3441870844772259 0 0.28013569367420871 0.34584772387197749 0 0.27671527888398562 0.3441870844772259 0 0.28119375649751349 0.3415044430455576 0 0.28273558166129192 0.34922596943765521 0 0.28013569367420871 0.34584772387197749 0 0.2797945401242129 0.34946851842389731 0 0.28273558166129192 0.34922596943765521 0 0.28101653893848899 0.35208327708388421 0 0.2797945401242129 0.34946851842389731 0 0.26893991749193752 0.36162741108174062 0 0.2754302243437341 0.35800137086985789 0 0.26469999689944002 0.35285812485780471 0 0.26469999689944002 0.35285812485780471 0 0.25397109136889212 0.34953950795812871 0 0.26518788721623437 0.33054298393043219 0 0.26469999689944002 0.35285812485780471 0 0.25397109136889212 0.34953950795812871 0 0.26082178769032438 0.36496323128775521 0 0.24217950803475169 0.36279199964721098 0 0.25397109136889212 0.34953950795812871 0 0.26082178769032438 0.36496323128775521 0 0.24217950803475169 0.36279199964721098 0 0.24890193261595259 0.38922972948408457 0 0.26082178769032438 0.36496323128775521 0 0.26893991749193752 0.36162741108174062 0 0.26469999689944002 0.35285812485780471 0 0.26082178769032438 0.36496323128775521 0 0.26160037477145948 0.32361504792451118 0 0.26961523156275707 0.31863310602586059 0 0.25252005129033422 0.30103787280496203 0 0.24833100513142109 0.32161764704062729 0 0.26160037477145948 0.32361504792451118 0 0.26518788721623437 0.33054298393043219 0 0.24963775202771521 0.30051372462394288 0 0.24833100513142109 0.32161764704062729 0 0.26160037477145948 0.32361504792451118 0 0.26160037477145948 0.32361504792451118 0 0.26518788721623437 0.33054298393043219 0 0.26731122343739822 0.32545953491366858 0 0.26160037477145948 0.32361504792451118 0 0.26518788721623437 0.33054298393043219 0 0.2354570834535519 0.33635426981033711 0 0.26518788721623437 0.33054298393043219 0 0.2354570834535519 0.33635426981033711 0 0.25397109136889212 0.34953950795812871 0 0.26518788721623437 0.33054298393043219 0 0.27836960746308909 0.35599853724874359 0 0.27671527888398562 0.3441870844772259 0 0.26518788721623437 0.33054298393043219 0 0.26518788721623437 0.33054298393043219 0 0.2728414001991406 0.32904700177387047 0 0.26518788721623437 0.33054298393043219 0 0.2728414001991406 0.32904700177387047 0 0.26731122343739822 0.32545953491366858 0 0.27836960746308909 0.35599853724874359 0 0.26518788721623437 0.33054298393043219 0 0.26518788721623437 0.33054298393043219 0 0.2728414001991406 0.32904700177387047 0 0.27786043041236869 0.33471626715991409 0 0.27671527888398562 0.3441870844772259 0 0.26518788721623437 0.33054298393043219 0 0.27786043041236869 0.33471626715991409 0 0.27671527888398562 0.3441870844772259 0 0.28119375649751349 0.3415044430455576 0 0.27786043041236869 0.33471626715991409 0 0.2728414001991406 0.32904700177387047 0 0.27786043041236869 0.33471626715991409 0 0.27936204924768121 0.32498307102898349 0 0.27786043041236869 0.33471626715991409 0 0.27936204924768121 0.32498307102898349 0 0.28525590824973168 0.33019860290154568 0 0.2728414001991406 0.32904700177387047 0 0.27936204924768121 0.32498307102898349 0 0.26961523156275707 0.31863310602586059 0 0.2728414001991406 0.32904700177387047 0 0.26731122343739822 0.32545953491366858 0 0.26961523156275707 0.31863310602586059 0 0.26160037477145948 0.32361504792451118 0 0.26731122343739822 0.32545953491366858 0 0.26961523156275707 0.31863310602586059 0 0.27936204924768121 0.32498307102898349 0 0.26961523156275707 0.31863310602586059 0 0.28133089707177739 0.31565660162935461 0 0.26961523156275707 0.31863310602586059 0 0.28133089707177739 0.31565660162935461 0 0.27162220014601168 0.30819847959926649 0 0.28133089707177739 0.31565660162935461 0 0.28926842799031183 0.32164684668335553 0 0.29289622389348391 0.31173450207074938 0 0.27936204924768121 0.32498307102898349 0 0.28926842799031183 0.32164684668335553 0 0.28525590824973168 0.33019860290154568 0 0.27936204924768121 0.32498307102898349 0 0.28133089707177739 0.31565660162935461 0 0.28926842799031183 0.32164684668335553 0 0.28926842799031183 0.32164684668335553 0 0.29270679870612148 0.33133919612790758 0 0.29864702146159328 0.32643954785611667 0 0.28926842799031183 0.32164684668335553 0 0.28525590824973168 0.33019860290154568 0 0.29270679870612148 0.33133919612790758 0 0.28926842799031183 0.32164684668335553 0 0.30057412006284873 0.3182848580649148 0 0.29864702146159328 0.32643954785611667 0 0.28926842799031183 0.32164684668335553 0 0.30057412006284873 0.3182848580649148 0 0.29289622389348391 0.31173450207074938 0 0.28696318970460172 0.34507386829548542 0 0.28119375649751349 0.3415044430455576 0 0.28563489893157912 0.33697664508827291 0 0.28696318970460172 0.34507386829548542 0 0.28563489893157912 0.33697664508827291 0 0.29440715639490739 0.33866623850310912 0 0.28119375649751349 0.3415044430455576 0 0.27786043041236869 0.33471626715991409 0 0.28563489893157912 0.33697664508827291 0 0.28563489893157912 0.33697664508827291 0 0.28525590824973168 0.33019860290154568 0 0.29270679870612148 0.33133919612790758 0 0.27786043041236869 0.33471626715991409 0 0.28563489893157912 0.33697664508827291 0 0.28525590824973168 0.33019860290154568 0 0.29270679870612148 0.33133919612790758 0 0.29440715639490739 0.33866623850310912 0 0.30302737920860612 0.33410729573504611 0 0.28563489893157912 0.33697664508827291 0 0.29270679870612148 0.33133919612790758 0 0.29440715639490739 0.33866623850310912 0 0.29508057650716829 0.34607515835053693 0 0.28696318970460172 0.34507386829548542 0 0.29440715639490739 0.33866623850310912 0 0.29508057650716829 0.34607515835053693 0 0.29440715639490739 0.33866623850310912 0 0.30284961949963451 0.34180688944884569 0 0.29440715639490739 0.33866623850310912 0 0.30284961949963451 0.34180688944884569 0 0.30302737920860612 0.33410729573504611 0 0.29270679870612148 0.33133919612790758 0 0.30302737920860612 0.33410729573504611 0 0.29864702146159328 0.32643954785611667 0 0.30302737920860612 0.33410729573504611 0 0.29864702146159328 0.32643954785611667 0 0.30648676239126638 0.32698903389663531 0 0.30302737920860612 0.33410729573504611 0 0.31164832743931292 0.33689503642828789 0 0.30648676239126638 0.32698903389663531 0 0.31591730865868939 0.32743152395768732 0 0.31164832743931292 0.33689503642828789 0 0.30648676239126638 0.32698903389663531 0 0.30284961949963451 0.34180688944884569 0 0.30302737920860612 0.33410729573504611 0 0.31164832743931292 0.33689503642828789 0 0.30992842843050988 0.3457112388019602 0 0.30284961949963451 0.34180688944884569 0 0.31164832743931292 0.33689503642828789 0 0.30057412006284873 0.3182848580649148 0 0.3075048900192453 0.30846754722968978 0 0.29289622389348391 0.31173450207074938 0 0.30057412006284873 0.3182848580649148 0 0.29864702146159328 0.32643954785611667 0 0.30648676239126638 0.32698903389663531 0 0.30057412006284873 0.3182848580649148 0 0.30648676239126638 0.32698903389663531 0 0.30920411140212778 0.3196886032463338 0 0.31591730865868939 0.32743152395768732 0 0.30648676239126638 0.32698903389663531 0 0.30920411140212778 0.3196886032463338 0 0.30057412006284873 0.3182848580649148 0 0.30920411140212778 0.3196886032463338 0 0.3075048900192453 0.30846754722968978 0 0.31778971146991503 0.31788997842391498 0 0.30920411140212778 0.3196886032463338 0 0.3075048900192453 0.30846754722968978 0 0.3075048900192453 0.30846754722968978 0 0.29694347339530303 0.29848366127231912 0 0.31246487291163488 0.29208088598867771 0 0.3075048900192453 0.30846754722968978 0 0.29694347339530303 0.29848366127231912 0 0.29289622389348391 0.31173450207074938 0 0.31246487291163488 0.29208088598867771 0 0.29888580149873889 0.28140566667868477 0 0.31966717048778492 0.28020807462702291 0 0.29694347339530303 0.29848366127231912 0 0.31246487291163488 0.29208088598867771 0 0.29888580149873889 0.28140566667868477 0 0.29694347339530303 0.29848366127231912 0 0.29888580149873889 0.28140566667868477 0 0.28532215262680061 0.29218967158653381 0 0.29888580149873889 0.28140566667868477 0 0.28532215262680061 0.29218967158653381 0 0.27597263544757811 0.27926985653850322 0 0.29694347339530303 0.29848366127231912 0 0.29289622389348391 0.31173450207074938 0 0.28421062956037713 0.3046253325656294 0 0.29694347339530303 0.29848366127231912 0 0.28532215262680061 0.29218967158653381 0 0.28421062956037713 0.3046253325656294 0 0.28133089707177739 0.31565660162935461 0 0.29289622389348391 0.31173450207074938 0 0.28421062956037713 0.3046253325656294 0 0.28133089707177739 0.31565660162935461 0 0.28421062956037713 0.3046253325656294 0 0.27162220014601168 0.30819847959926649 0 0.28421062956037713 0.3046253325656294 0 0.27162220014601168 0.30819847959926649 0 0.27073357959762612 0.29469717476731772 0 0.28532215262680061 0.29218967158653381 0 0.28421062956037713 0.3046253325656294 0 0.27073357959762612 0.29469717476731772 0 0.27073357959762612 0.29469717476731772 0 0.25964825064670849 0.2811944406245902 0 0.27597263544757811 0.27926985653850322 0 0.28532215262680061 0.29218967158653381 0 0.27073357959762612 0.29469717476731772 0 0.27597263544757811 0.27926985653850322 0 0.2434397278092077 0.27846069768541332 0 0.25252005129033422 0.30103787280496203 0 0.25964825064670849 0.2811944406245902 0 0.27073357959762612 0.29469717476731772 0 0.25252005129033422 0.30103787280496203 0 0.25964825064670849 0.2811944406245902 0 0.24963775202771521 0.30051372462394288 0 0.26160037477145948 0.32361504792451118 0 0.26160037477145948 0.32361504792451118 0 0.25252005129033422 0.30103787280496203 0 0.24963775202771521 0.30051372462394288 0 0.26160037477145948 0.32361504792451118 0 0.25252005129033422 0.30103787280496203 0 0.27162220014601168 0.30819847959926649 0 0.27073357959762612 0.29469717476731772 0 0.25252005129033422 0.30103787280496203 0 0.26961523156275707 0.31863310602586059 0 0.27162220014601168 0.30819847959926649 0 0.25252005129033422 0.30103787280496203 0 0.26005695654466249 0.26476207857526007 0 0.25877170878786238 0.25302463852503437 0 0.26784118605052742 0.25766384122118591 0 0.26005695654466249 0.26476207857526007 0 0.26877199542094288 0.271185286046489 0 0.26784118605052742 0.25766384122118591 0 0.24763005152173001 0.25910176257370959 0 0.26005695654466249 0.26476207857526007 0 0.25877170878786238 0.25302463852503437 0 0.26005695654466249 0.26476207857526007 0 0.25964825064670849 0.2811944406245902 0 0.26877199542094288 0.271185286046489 0 0.2434397278092077 0.27846069768541332 0 0.26005695654466249 0.26476207857526007 0 0.25964825064670849 0.2811944406245902 0 0.2434397278092077 0.27846069768541332 0 0.24763005152173001 0.25910176257370959 0 0.26005695654466249 0.26476207857526007 0 0.25964825064670849 0.2811944406245902 0 0.26877199542094288 0.271185286046489 0 0.27597263544757811 0.27926985653850322 0 0.26877199542094288 0.271185286046489 0 0.27597263544757811 0.27926985653850322 0 0.27647749418933931 0.26389562134405542 0 0.27597263544757811 0.27926985653850322 0 0.27647749418933931 0.26389562134405542 0 0.28921799240021828 0.26815650339571012 0 0.27647749418933931 0.26389562134405542 0 0.27542464597538868 0.25681776053554017 0 0.28272693040926428 0.25881526167589219 0 0.27647749418933931 0.26389562134405542 0 0.26784118605052742 0.25766384122118591 0 0.27542464597538868 0.25681776053554017 0 0.26877199542094288 0.271185286046489 0 0.27647749418933931 0.26389562134405542 0 0.26784118605052742 0.25766384122118591 0 0.26784118605052742 0.25766384122118591 0 0.27542464597538868 0.25681776053554017 0 0.27283394916361492 0.24742619336605559 0 0.25877170878786238 0.25302463852503437 0 0.26784118605052742 0.25766384122118591 0 0.27283394916361492 0.24742619336605559 0 0.27542464597538868 0.25681776053554017 0 0.28272693040926428 0.25881526167589219 0 0.27283394916361492 0.24742619336605559 0 0.28272693040926428 0.25881526167589219 0 0.29968057031776052 0.25778022973809978 0 0.27283394916361492 0.24742619336605559 0 0.28272693040926428 0.25881526167589219 0 0.28921799240021828 0.26815650339571012 0 0.29968057031776052 0.25778022973809978 0 0.29968057031776052 0.25778022973809978 0 0.27283394916361492 0.24742619336605559 0 0.29968057031776052 0.25778022973809978 0 0.27283394916361492 0.24742619336605559 0 0.3016365876598241 0.24719201463661561 0 0.27647749418933931 0.26389562134405542 0 0.28272693040926428 0.25881526167589219 0 0.28921799240021828 0.26815650339571012 0 0.28921799240021828 0.26815650339571012 0 0.29917140266547992 0.2696271248040239 0 0.29968057031776052 0.25778022973809978 0 0.29888580149873889 0.28140566667868477 0 0.27597263544757811 0.27926985653850322 0 0.28921799240021828 0.26815650339571012 0 0.29888580149873889 0.28140566667868477 0 0.28921799240021828 0.26815650339571012 0 0.29917140266547992 0.2696271248040239 0 0.30890124644520212 0.27116609940360098 0 0.29968057031776052 0.25778022973809978 0 0.32652719147190618 0.26813426611014402 0 0.29888580149873889 0.28140566667868477 0 0.30890124644520212 0.27116609940360098 0 0.31966717048778492 0.28020807462702291 0 0.29888580149873889 0.28140566667868477 0 0.29917140266547992 0.2696271248040239 0 0.30890124644520212 0.27116609940360098 0 0.29917140266547992 0.2696271248040239 0 0.30890124644520212 0.27116609940360098 0 0.29968057031776052 0.25778022973809978 0 0.29968057031776052 0.25778022973809978 0 0.31432639173362298 0.2563396134856944 0 0.3016365876598241 0.24719201463661561 0 0.29968057031776052 0.25778022973809978 0 0.32652719147190618 0.26813426611014402 0 0.29968057031776052 0.25778022973809978 0 0.31432639173362298 0.2563396134856944 0 0.32652719147190618 0.26813426611014402 0 0.31432639173362298 0.2563396134856944 0 0.32946121748500129 0.25225194345791829 0 0.3016365876598241 0.24719201463661561 0 0.31432639173362298 0.2563396134856944 0 0.32946121748500129 0.25225194345791829 0 0.32652719147190618 0.26813426611014402 0 0.32946121748500129 0.25225194345791829 0 0.35728584731017871 0.25731187227922109 0 0.32946121748500129 0.25225194345791829 0 0.33854302537622011 0.27351786473126699 0 0.35728584731017871 0.25731187227922109 0 0.32946121748500129 0.25225194345791829 0 0.33854302537622011 0.27351786473126699 0 0.32652719147190618 0.26813426611014402 0 0.33854302537622011 0.27351786473126699 0 0.32652719147190618 0.26813426611014402 0 0.31966717048778492 0.28020807462702291 0 0.30890124644520212 0.27116609940360098 0 0.32652719147190618 0.26813426611014402 0 0.31966717048778492 0.28020807462702291 0 0.31246487291163488 0.29208088598867771 0 0.31966717048778492 0.28020807462702291 0 0.33172871425663403 0.29269405324557379 0 0.31778971146991503 0.31788997842391498 0 0.3075048900192453 0.30846754722968978 0 0.32420479997372442 0.30853167071016102 0 0.31246487291163488 0.29208088598867771 0 0.32420479997372442 0.30853167071016102 0 0.31246487291163488 0.29208088598867771 0 0.32420479997372442 0.30853167071016102 0 0.33172871425663403 0.29269405324557379 0 0.3075048900192453 0.30846754722968978 0 0.31246487291163488 0.29208088598867771 0 0.32420479997372442 0.30853167071016102 0 0.32420479997372442 0.30853167071016102 0 0.33172871425663403 0.29269405324557379 0 0.34448717235649018 0.30756264321984922 0 0.33854302537622011 0.27351786473126699 0 0.31966717048778492 0.28020807462702291 0 0.33172871425663403 0.29269405324557379 0 0.33172871425663403 0.29269405324557379 0 0.3503635169770366 0.28966006865463678 0 0.34448717235649018 0.30756264321984922 0 0.33854302537622011 0.27351786473126699 0 0.33172871425663403 0.29269405324557379 0 0.3503635169770366 0.28966006865463678 0 0.3503635169770366 0.28966006865463678 0 0.34448717235649018 0.30756264321984922 0 0.36246687595182442 0.30494518477727961 0 0.36114413796306788 0.32433110896381118 0 0.34448717235649018 0.30756264321984922 0 0.36246687595182442 0.30494518477727961 0 0.36246687595182442 0.30494518477727961 0 0.37008896088821891 0.27907488192658342 0 0.38127772340545701 0.29855436992749679 0 0.3503635169770366 0.28966006865463678 0 0.36246687595182442 0.30494518477727961 0 0.37008896088821891 0.27907488192658342 0 0.37008896088821891 0.27907488192658342 0 0.35728584731017871 0.25731187227922109 0 0.35441181453934328 0.27463334472066592 0 0.37008896088821891 0.27907488192658342 0 0.35728584731017871 0.25731187227922109 0 0.38511047713535562 0.2623718011005241 0 0.35728584731017871 0.25731187227922109 0 0.38511047713535562 0.2623718011005241 0 0.37293454716760283 0.2396311516560117 0 0.35728584731017871 0.25731187227922109 0 0.38511047713535562 0.2623718011005241 0 0.33854302537622011 0.27351786473126699 0 0.3503635169770366 0.28966006865463678 0 0.35441181453934328 0.27463334472066592 0 0.33854302537622011 0.27351786473126699 0 0.35728584731017871 0.25731187227922109 0 0.35441181453934328 0.27463334472066592 0 0.3503635169770366 0.28966006865463678 0 0.37008896088821891 0.27907488192658342 0 0.35441181453934328 0.27463334472066592 0 0.4059739891301799 0.26616584566893298 0 0.38511047713535562 0.2623718011005241 0 0.39575362435311728 0.2822497143692822 0 0.4059739891301799 0.26616584566893298 0 0.39575362435311728 0.2822497143692822 0 0.41466985898722469 0.28617745239982811 0 0.4059739891301799 0.26616584566893298 0 0.38511047713535562 0.2623718011005241 0 0.39933451681408499 0.24222051247515669 0 0.4059739891301799 0.26616584566893298 0 0.38511047713535562 0.2623718011005241 0 0.38511047713535562 0.2623718011005241 0 0.37293454716760283 0.2396311516560117 0 0.37008896088821891 0.27907488192658342 0 0.38511047713535562 0.2623718011005241 0 0.39575362435311728 0.2822497143692822 0 0.38511047713535562 0.2623718011005241 0 0.39575362435311728 0.2822497143692822 0 0.37008896088821891 0.27907488192658342 0 0.38127772340545701 0.29855436992749679 0 0.39575362435311728 0.2822497143692822 0 0.38127772340545701 0.29855436992749679 0 0.39341545683502421 0.31015448597301559 0 0.38634354889032002 0.32367976249598251 0 0.38127772340545701 0.29855436992749679 0 0.38634354889032002 0.32367976249598251 0 0.36246687595182442 0.30494518477727961 0 0.38127772340545701 0.29855436992749679 0 0.38634354889032002 0.32367976249598251 0 0.38127772340545701 0.29855436992749679 0 0.39341545683502421 0.31015448597301559 0 0.40639677157087911 0.30212762763804019 0 0.39341545683502421 0.31015448597301559 0 0.40639677157087911 0.30212762763804019 0 0.4081981699382346 0.3139513768470385 0 0.39575362435311728 0.2822497143692822 0 0.40639677157087911 0.30212762763804019 0 0.38127772340545701 0.29855436992749679 0 0.39575362435311728 0.2822497143692822 0 0.40639677157087911 0.30212762763804019 0 0.39575362435311728 0.2822497143692822 0 0.41466985898722469 0.28617745239982811 0 0.40639677157087911 0.30212762763804019 0 0.41466985898722469 0.28617745239982811 0 0.40639677157087911 0.30212762763804019 0 0.42063747895650733 0.30228076741981708 0 0.40639677157087911 0.30212762763804019 0 0.417039918788641 0.32200554090679828 0 0.40639677157087911 0.30212762763804019 0 0.42063747895650733 0.30228076741981708 0 0.41590325438833858 0.31571238371771643 0 0.42063747895650733 0.30228076741981708 0 0.43554340190627211 0.31006971119553528 0 0.43241978878766019 0.29428086906555412 0 0.42063747895650733 0.30228076741981708 0 0.43554340190627211 0.31006971119553528 0 0.41590325438833858 0.31571238371771643 0 0.43241978878766019 0.29428086906555412 0 0.42683750112500368 0.26995989023734401 0 0.43795337608323548 0.28151673092589807 0 0.41466985898722469 0.28617745239982811 0 0.43241978878766019 0.29428086906555412 0 0.42683750112500368 0.26995989023734401 0 0.43241978878766019 0.29428086906555412 0 0.42683750112500368 0.26995989023734401 0 0.41466985898722469 0.28617745239982811 0 0.42063747895650733 0.30228076741981708 0 0.43241978878766019 0.29428086906555412 0 0.4059739891301799 0.26616584566893298 0 0.42683750112500368 0.26995989023734401 0 0.4059739891301799 0.26616584566893298 0 0.41466985898722469 0.28617745239982811 0 0.42683750112500368 0.26995989023734401 0 0.4059739891301799 0.26616584566893298 0 0.42683750112500368 0.26995989023734401 0 0.42092918023873821 0.24421844589255121 0 0.4059739891301799 0.26616584566893298 0 0.39933451681408499 0.24222051247515669 0 0.42092918023873821 0.24421844589255121 0 0.42683750112500368 0.26995989023734401 0 0.44089414042045799 0.25771217685885472 0 0.42092918023873821 0.24421844589255121 0 0.42683750112500368 0.26995989023734401 0 0.42092918023873821 0.24421844589255121 0 0.44089414042045799 0.25771217685885472 0 0.45301423403414209 0.26007999789895508 0 0.4569230610569987 0.24819013429900669 0 0.44089414042045799 0.25771217685885472 0 0.45301423403414209 0.26007999789895508 0 0.44973892600361531 0.27412453072026172 0 0.42683750112500368 0.26995989023734401 0 0.44089414042045799 0.25771217685885472 0 0.44973892600361531 0.27412453072026172 0 0.42683750112500368 0.26995989023734401 0 0.44973892600361531 0.27412453072026172 0 0.43795337608323548 0.28151673092589807 0 0.42683750112500368 0.26995989023734401 0 0.44973892600361531 0.27412453072026172 0 0.44973892600361531 0.27412453072026172 0 0.46478170596961249 0.26323965275109401 0 0.47264035088222628 0.27828917120318131 0 0.44973892600361531 0.27412453072026172 0 0.47264035088222628 0.27828917120318131 0 0.44973892600361531 0.27412453072026172 0 0.47264035088222628 0.27828917120318131 0 0.46226850420995219 0.28814127863090738 0 0.45301423403414209 0.26007999789895508 0 0.44973892600361531 0.27412453072026172 0 0.46478170596961249 0.26323965275109401 0 0.46478170596961249 0.26323965275109401 0 0.47264035088222628 0.27828917120318131 0 0.46478170596961249 0.26323965275109401 0 0.4569230610569987 0.24819013429900669 0 0.45301423403414209 0.26007999789895508 0 0.46478170596961249 0.26323965275109401 0 0.4569230610569987 0.24819013429900669 0 0.46478170596961249 0.26323965275109401 0 0.46750550623703407 0.25349570762290419 0 0.47341939214644252 0.26170481890296848 0 0.46478170596961249 0.26323965275109401 0 0.46750550623703407 0.25349570762290419 0 0.4569230610569987 0.24819013429900669 0 0.47341939214644252 0.26170481890296848 0 0.48489893488970792 0.25686202981026901 0 0.47278153852907701 0.24486280325581439 0 0.46750550623703407 0.25349570762290419 0 0.47341939214644252 0.26170481890296848 0 0.47278153852907701 0.24486280325581439 0 0.47341939214644252 0.26170481890296848 0 0.47278153852907701 0.24486280325581439 0 0.47341939214644252 0.26170481890296848 0 0.48000757765913032 0.26759533659828072 0 0.48489893488970792 0.25686202981026901 0 0.47341939214644252 0.26170481890296848 0 0.47405724576380859 0.27854683455012252 0 0.48000757765913032 0.26759533659828072 0 0.47341939214644252 0.26170481890296848 0 0.47264035088222628 0.27828917120318131 0 0.47405724576380859 0.27854683455012252 0 0.46478170596961249 0.26323965275109401 0 0.47341939214644252 0.26170481890296848 0 0.47264035088222628 0.27828917120318131 0 0.47405724576380859 0.27854683455012252 0 0.47415752390174082 0.28119459874267072 0 0.50000000000001354 0.28326454295050368 0 0.47341939214644252 0.26170481890296848 0 0.47405724576380859 0.27854683455012252 0 0.47264035088222628 0.27828917120318131 0 0.47405724576380859 0.27854683455012252 0 0.47405724576380859 0.27854683455012252 0 0.47415752390174082 0.28119459874267072 0 0.47264035088222628 0.27828917120318131 0 0.47405724576380859 0.27854683455012252 0 0.47415752390174082 0.28119459874267072 0 0.47264035088222628 0.27828917120318131 0 0.47415752390174082 0.28119459874267072 0 0.47405724576380859 0.27854683455012252 0 0.48000757765913032 0.26759533659828072 0 0.48909471086131839 0.26954423778064313 0 0.47405724576380859 0.27854683455012252 0 0.50000000000001354 0.28326454295050368 0 0.47405724576380859 0.27854683455012252 0 0.48909471086131839 0.26954423778064313 0 0.50000000000001354 0.28326454295050368 0 0.48909471086131839 0.26954423778064313 0 0.5 0.25553121794514477 0 0.50000000000001354 0.28326454295050368 0 0.5 0.25553121794514477 0 0.48489893488970792 0.25686202981026901 0 0.48903365503734891 0.24299047468837701 0 0.48909471086131839 0.26954423778064313 0 0.5 0.25553121794514477 0 0.48489893488970792 0.25686202981026901 0 0.48000757765913032 0.26759533659828072 0 0.48909471086131839 0.26954423778064313 0 0.48489893488970792 0.25686202981026901 0 0.48223131843763373 0.29665613456690521 0 0.49274985611107969 0.31679941989990179 0 0.48223131843763373 0.29665613456690521 0 0.49274985611107969 0.31679941989990179 0 0.48532411314893581 0.31403081790115361 0 0.49298554246438231 0.30475618362627349 0 0.48223131843763373 0.29665613456690521 0 0.49274985611107969 0.31679941989990179 0 0.49298554246438231 0.30475618362627349 0 0.4969609953088156 0.2924242547978898 0 0.5 0.31314492524039728 0 0.49298554246438231 0.30475618362627349 0 0.4969609953088156 0.2924242547978898 0 0.48223131843763373 0.29665613456690521 0 0.49298554246438231 0.30475618362627349 0 0.49274985611107969 0.31679941989990179 0 0.5 0.31314492524039728 0 0.4969609953088156 0.2924242547978898 0 0.50000000000001354 0.28326454295050368 0 0.5 0.31314492524039728 0 0.47415752390174082 0.28119459874267072 0 0.4969609953088156 0.2924242547978898 0 0.50000000000001354 0.28326454295050368 0 0.47415752390174082 0.28119459874267072 0 0.4969609953088156 0.2924242547978898 0 0.48223131843763373 0.29665613456690521 0 0.4969609953088156 0.2924242547978898 0 0.48223131843763373 0.29665613456690521 0 0.47415752390174082 0.28119459874267072 0 0.47482369694213911 0.29878436615117387 0 0.47415752390174082 0.28119459874267072 0 0.47482369694213911 0.29878436615117387 0 0.46226850420995219 0.28814127863090738 0 0.47415752390174082 0.28119459874267072 0 0.48223131843763373 0.29665613456690521 0 0.47482369694213911 0.29878436615117387 0 0.47415752390174082 0.28119459874267072 0 0.48223131843763373 0.29665613456690521 0 0.47264035088222628 0.27828917120318131 0 0.47415752390174082 0.28119459874267072 0 0.46226850420995219 0.28814127863090738 0 0.48223131843763373 0.29665613456690521 0 0.48022688714188239 0.30485617861310249 0 0.48532411314893581 0.31403081790115361 0 0.47482369694213911 0.29878436615117387 0 0.4785284200388214 0.30995339583317788 0 0.47567910166728178 0.32137064515506791 0 0.47482369694213911 0.29878436615117387 0 0.46683928615616721 0.31034493157342358 0 0.47567910166728178 0.32137064515506791 0 0.47482369694213911 0.29878436615117387 0 0.47567910166728178 0.32137064515506791 0 0.47482369694213911 0.29878436615117387 0 0.48022688714188239 0.30485617861310249 0 0.4785284200388214 0.30995339583317788 0 0.48223131843763373 0.29665613456690521 0 0.47482369694213911 0.29878436615117387 0 0.48022688714188239 0.30485617861310249 0 0.48223131843763373 0.29665613456690521 0 0.47482369694213911 0.29878436615117387 0 0.48022688714188239 0.30485617861310249 0 0.4785284200388214 0.30995339583317788 0 0.48532411314893581 0.31403081790115361 0 0.47482369694213911 0.29878436615117387 0 0.46683928615616721 0.31034493157342358 0 0.45518354942420552 0.3044270386733543 0 0.47482369694213911 0.29878436615117387 0 0.45518354942420552 0.3044270386733543 0 0.46683928615616721 0.31034493157342358 0 0.45518354942420552 0.3044270386733543 0 0.46090063033065398 0.31457074158430443 0 0.47482369694213911 0.29878436615117387 0 0.45518354942420552 0.3044270386733543 0 0.46226850420995219 0.28814127863090738 0 0.45518354942420552 0.3044270386733543 0 0.46226850420995219 0.28814127863090738 0 0.44650245416143669 0.29205179777212908 0 0.44973892600361531 0.27412453072026172 0 0.46226850420995219 0.28814127863090738 0 0.44650245416143669 0.29205179777212908 0 0.44973892600361531 0.27412453072026172 0 0.44650245416143669 0.29205179777212908 0 0.43795337608323548 0.28151673092589807 0 0.43241978878766019 0.29428086906555412 0 0.44650245416143669 0.29205179777212908 0 0.43795337608323548 0.28151673092589807 0 0.43554340190627211 0.31006971119553528 0 0.45518354942420552 0.3044270386733543 0 0.44650245416143669 0.29205179777212908 0 0.43554340190627211 0.31006971119553528 0 0.43241978878766019 0.29428086906555412 0 0.44650245416143669 0.29205179777212908 0 0.43554340190627211 0.31006971119553528 0 0.45518354942420552 0.3044270386733543 0 0.44590058407496119 0.32214035093537202 0 0.43554340190627211 0.31006971119553528 0 0.45518354942420552 0.3044270386733543 0 0.44438162939182968 0.33527616080122319 0 0.43941431748234389 0.34697694962204328 0 0.43138153093963261 0.33684778794266318 0 0.44438162939182968 0.33527616080122319 0 0.43138153093963261 0.33684778794266318 0 0.43736796180383269 0.33070162376080392 0 0.44590058407496119 0.32214035093537202 0 0.44438162939182968 0.33527616080122319 0 0.43736796180383269 0.33070162376080392 0 0.44590058407496119 0.32214035093537202 0 0.44438162939182968 0.33527616080122319 0 0.45938090137280319 0.33331169935871768 0 0.44438162939182968 0.33527616080122319 0 0.45466128638888681 0.34537342559846479 0 0.43941431748234389 0.34697694962204328 0 0.44438162939182968 0.33527616080122319 0 0.45938090137280319 0.33331169935871768 0 0.45466128638888681 0.34537342559846479 0 0.45938090137280319 0.33331169935871768 0 0.47648750655815691 0.34271593104932652 0 0.45466128638888681 0.34537342559846479 0 0.45518354942420552 0.3044270386733543 0 0.44590058407496119 0.32214035093537202 0 0.46090063033065398 0.31457074158430443 0 0.44590058407496119 0.32214035093537202 0 0.47567910166728178 0.32137064515506791 0 0.44590058407496119 0.32214035093537202 0 0.45938090137280319 0.33331169935871768 0 0.47567910166728178 0.32137064515506791 0 0.44590058407496119 0.32214035093537202 0 0.46090063033065398 0.31457074158430443 0 0.47567910166728178 0.32137064515506791 0 0.46683928615616721 0.31034493157342358 0 0.46090063033065398 0.31457074158430443 0 0.47567910166728178 0.32137064515506791 0 0.4785284200388214 0.30995339583317788 0 0.48037384835626529 0.31664076505113292 0 0.47567910166728178 0.32137064515506791 0 0.48037384835626529 0.31664076505113292 0 0.48196375857002199 0.32120820131513239 0 0.47567910166728178 0.32137064515506791 0 0.48037384835626529 0.31664076505113292 0 0.48196375857002199 0.32120820131513239 0 0.48532411314893581 0.31403081790115361 0 0.4785284200388214 0.30995339583317788 0 0.48037384835626529 0.31664076505113292 0 0.48532411314893581 0.31403081790115361 0 0.48196375857002199 0.32120820131513239 0 0.48271443300740718 0.32966898805558448 0 0.48700966075600671 0.32276244140519528 0 0.48196375857002199 0.32120820131513239 0 0.47567910166728178 0.32137064515506791 0 0.48271443300740718 0.32966898805558448 0 0.48196375857002199 0.32120820131513239 0 0.47567910166728178 0.32137064515506791 0 0.47567910166728178 0.32137064515506791 0 0.47648750655815691 0.34271593104932652 0 0.47567910166728178 0.32137064515506791 0 0.47648750655815691 0.34271593104932652 0 0.48271443300740718 0.32966898805558448 0 0.45938090137280319 0.33331169935871768 0 0.47567910166728178 0.32137064515506791 0 0.47648750655815691 0.34271593104932652 0 0.47648750655815691 0.34271593104932652 0 0.48271443300740718 0.32966898805558448 0 0.49227852706914571 0.3310448133387906 0 0.47648750655815691 0.34271593104932652 0 0.5 0.34302530753029081 0 0.49227852706914571 0.3310448133387906 0 0.5 0.34302530753029081 0 0.49227852706914571 0.3310448133387906 0 0.5 0.31314492524039728 0 0.49227852706914571 0.3310448133387906 0 0.49274985611107969 0.31679941989990179 0 0.5 0.31314492524039728 0 0.48196375857002199 0.32120820131513239 0 0.48532411314893581 0.31403081790115361 0 0.48700966075600671 0.32276244140519528 0 0.49274985611107969 0.31679941989990179 0 0.48532411314893581 0.31403081790115361 0 0.48700966075600671 0.32276244140519528 0 0.48271443300740718 0.32966898805558448 0 0.49227852706914571 0.3310448133387906 0 0.48700966075600671 0.32276244140519528 0 0.49227852706914571 0.3310448133387906 0 0.49274985611107969 0.31679941989990179 0 0.48700966075600671 0.32276244140519528 0 0.5 0.37290568982018429 0 0.48906820236105919 0.3579654986752378 0 0.48477613844387402 0.38021688004838439 0 0.47648750655815691 0.34271593104932652 0 0.5 0.34302530753029081 0 0.48906820236105919 0.3579654986752378 0 0.5 0.34302530753029081 0 0.5 0.37290568982018429 0 0.48906820236105919 0.3579654986752378 0 0.47648750655815691 0.34271593104932652 0 0.4736556537454587 0.3678330253399309 0 0.4628011452372443 0.35721885356897543 0 0.47648750655815691 0.34271593104932652 0 0.48906820236105919 0.3579654986752378 0 0.4736556537454587 0.3678330253399309 0 0.48906820236105919 0.3579654986752378 0 0.4736556537454587 0.3678330253399309 0 0.48477613844387402 0.38021688004838439 0 0.4736556537454587 0.3678330253399309 0 0.45151374504626951 0.36758660991241321 0 0.46980882541715813 0.38208294099771128 0 0.4736556537454587 0.3678330253399309 0 0.4628011452372443 0.35721885356897543 0 0.45151374504626951 0.36758660991241321 0 0.47648750655815691 0.34271593104932652 0 0.4628011452372443 0.35721885356897543 0 0.45466128638888681 0.34537342559846479 0 0.4628011452372443 0.35721885356897543 0 0.45466128638888681 0.34537342559846479 0 0.45151374504626951 0.36758660991241321 0 0.43941431748234389 0.34697694962204328 0 0.45151374504626951 0.36758660991241321 0 0.43248649325656402 0.35912170041613489 0 0.45466128638888681 0.34537342559846479 0 0.43941431748234389 0.34697694962204328 0 0.45151374504626951 0.36758660991241321 0 0.45151374504626951 0.36758660991241321 0 0.4343808670510142 0.37207818795490849 0 0.43248649325656402 0.35912170041613489 0 0.4343808670510142 0.37207818795490849 0 0.41565945607251759 0.36236511110304392 0 0.42235721568131929 0.38220686924127689 0 0.4343808670510142 0.37207818795490849 0 0.41565945607251759 0.36236511110304392 0 0.43248649325656402 0.35912170041613489 0 0.41565945607251759 0.36236511110304392 0 0.40683499004542412 0.37566900985645529 0 0.42235721568131929 0.38220686924127689 0 0.41565945607251759 0.36236511110304392 0 0.42423344021441339 0.3469403641650044 0 0.40881868850316022 0.34319093436892228 0 0.41565945607251759 0.36236511110304392 0 0.40881868850316022 0.34319093436892228 0 0.40255325820206211 0.35440744329028528 0 0.41565945607251759 0.36236511110304392 0 0.42423344021441339 0.3469403641650044 0 0.43248649325656402 0.35912170041613489 0 0.43941431748234389 0.34697694962204328 0 0.42423344021441339 0.3469403641650044 0 0.43248649325656402 0.35912170041613489 0 0.43941431748234389 0.34697694962204328 0 0.42423344021441339 0.3469403641650044 0 0.43138153093963261 0.33684778794266318 0 0.43138153093963261 0.33684778794266318 0 0.43736796180383269 0.33070162376080392 0 0.42780810280890752 0.32854219536395729 0 0.43138153093963261 0.33684778794266318 0 0.42780810280890752 0.32854219536395729 0 0.41974391964010321 0.33544292333485398 0 0.42780810280890752 0.32854219536395729 0 0.41816216709540432 0.32913892271221878 0 0.41974391964010321 0.33544292333485398 0 0.42423344021441339 0.3469403641650044 0 0.43138153093963261 0.33684778794266318 0 0.41974391964010321 0.33544292333485398 0 0.44590058407496119 0.32214035093537202 0 0.417039918788641 0.32200554090679828 0 0.43554340190627211 0.31006971119553528 0 0.42610184512817068 0.31856760869421968 0 0.41590325438833858 0.31571238371771643 0 0.44590058407496119 0.32214035093537202 0 0.42610184512817068 0.31856760869421968 0 0.417039918788641 0.32200554090679828 0 0.44590058407496119 0.32214035093537202 0 0.42780810280890752 0.32854219536395729 0 0.417039918788641 0.32200554090679828 0 0.44590058407496119 0.32214035093537202 0 0.43736796180383269 0.33070162376080392 0 0.42780810280890752 0.32854219536395729 0 0.43554340190627211 0.31006971119553528 0 0.41590325438833858 0.31571238371771643 0 0.43554340190627211 0.31006971119553528 0 0.44590058407496119 0.32214035093537202 0 0.42610184512817068 0.31856760869421968 0 0.40639677157087911 0.30212762763804019 0 0.417039918788641 0.32200554090679828 0 0.4081981699382346 0.3139513768470385 0 0.40639677157087911 0.30212762763804019 0 0.41590325438833858 0.31571238371771643 0 0.417039918788641 0.32200554090679828 0 0.42610184512817068 0.31856760869421968 0 0.41590325438833858 0.31571238371771643 0 0.417039918788641 0.32200554090679828 0 0.417039918788641 0.32200554090679828 0 0.41816216709540432 0.32913892271221878 0 0.41176425843116088 0.33156610519561941 0 0.42780810280890752 0.32854219536395729 0 0.417039918788641 0.32200554090679828 0 0.41816216709540432 0.32913892271221878 0 0.42423344021441339 0.3469403641650044 0 0.41974391964010321 0.33544292333485398 0 0.40881868850316022 0.34319093436892228 0 0.41816216709540432 0.32913892271221878 0 0.41974391964010321 0.33544292333485398 0 0.41176425843116088 0.33156610519561941 0 0.417039918788641 0.32200554090679828 0 0.41176425843116088 0.33156610519561941 0 0.40171431040203109 0.33103781916521291 0 0.41176425843116088 0.33156610519561941 0 0.40881868850316022 0.34319093436892228 0 0.40171431040203109 0.33103781916521291 0 0.41974391964010321 0.33544292333485398 0 0.41176425843116088 0.33156610519561941 0 0.40881868850316022 0.34319093436892228 0 0.40171431040203109 0.33103781916521291 0 0.38634354889032002 0.32367976249598251 0 0.39069281237429682 0.34525116339505252 0 0.40881868850316022 0.34319093436892228 0 0.40171431040203109 0.33103781916521291 0 0.39069281237429682 0.34525116339505252 0 0.417039918788641 0.32200554090679828 0 0.40171431040203109 0.33103781916521291 0 0.38634354889032002 0.32367976249598251 0 0.417039918788641 0.32200554090679828 0 0.4081981699382346 0.3139513768470385 0 0.38634354889032002 0.32367976249598251 0 0.39341545683502421 0.31015448597301559 0 0.4081981699382346 0.3139513768470385 0 0.38634354889032002 0.32367976249598251 0 0.417039918788641 0.32200554090679828 0 0.38634354889032002 0.32367976249598251 0 0.38634354889032002 0.32367976249598251 0 0.39069281237429682 0.34525116339505252 0 0.37418757138316661 0.34003979241565702 0 0.38634354889032002 0.32367976249598251 0 0.39069281237429682 0.34525116339505252 0 0.37418757138316661 0.34003979241565702 0 0.38014707859742553 0.358601566133181 0 0.39069281237429682 0.34525116339505252 0 0.38014707859742553 0.358601566133181 0 0.39504207585827378 0.36682256429412252 0 0.39069281237429682 0.34525116339505252 0 0.36927583114563117 0.37168826674887129 0 0.38014707859742553 0.358601566133181 0 0.3861818138235471 0.37714139125663793 0 0.38014707859742553 0.358601566133181 0 0.39504207585827378 0.36682256429412252 0 0.3861818138235471 0.37714139125663793 0 0.41565945607251759 0.36236511110304392 0 0.39504207585827378 0.36682256429412252 0 0.40683499004542412 0.37566900985645529 0 0.41565945607251759 0.36236511110304392 0 0.39504207585827378 0.36682256429412252 0 0.40255325820206211 0.35440744329028528 0 0.39504207585827378 0.36682256429412252 0 0.40255325820206211 0.35440744329028528 0 0.39069281237429682 0.34525116339505252 0 0.40881868850316022 0.34319093436892228 0 0.40255325820206211 0.35440744329028528 0 0.39069281237429682 0.34525116339505252 0 0.39504207585827378 0.36682256429412252 0 0.39069281237429682 0.34525116339505252 0 0.3993913393422508 0.38839396519319253 0 0.39020643165102042 0.40750290438779102 0 0.40342788129008578 0.41136751416027151 0 0.3993913393422508 0.38839396519319253 0 0.40342788129008578 0.41136751416027151 0 0.41247484703898341 0.39668929567888889 0 0.3993913393422508 0.38839396519319253 0 0.38594138320053972 0.39504117240748449 0 0.39020643165102042 0.40750290438779102 0 0.39504207585827378 0.36682256429412252 0 0.3993913393422508 0.38839396519319253 0 0.40683499004542412 0.37566900985645529 0 0.39504207585827378 0.36682256429412252 0 0.3993913393422508 0.38839396519319253 0 0.39504207585827378 0.36682256429412252 0 0.3993913393422508 0.38839396519319253 0 0.3861818138235471 0.37714139125663793 0 0.3993913393422508 0.38839396519319253 0 0.41247484703898341 0.39668929567888889 0 0.40683499004542412 0.37566900985645529 0 0.36927583114563117 0.37168826674887129 0 0.38594138320053972 0.39504117240748449 0 0.3993913393422508 0.38839396519319253 0 0.3861818138235471 0.37714139125663793 0 0.38594138320053972 0.39504117240748449 0 0.36927583114563117 0.37168826674887129 0 0.3861818138235471 0.37714139125663793 0 0.38594138320053972 0.39504117240748449 0 0.36672310374365391 0.3972274770167053 0 0.38594138320053972 0.39504117240748449 0 0.37714557779446961 0.40580011292323048 0 0.38594138320053972 0.39504117240748449 0 0.37714557779446961 0.40580011292323048 0 0.39020643165102042 0.40750290438779102 0 0.37714557779446961 0.40580011292323048 0 0.39020643165102042 0.40750290438779102 0 0.37786999239799629 0.42201923841731348 0 0.39020643165102042 0.40750290438779102 0 0.37786999239799629 0.42201923841731348 0 0.39620875860206523 0.42610388639599522 0 0.3672128213662551 0.44140310366938379 0 0.37786999239799629 0.42201923841731348 0 0.38861509636247821 0.44175005125570632 0 0.37786999239799629 0.42201923841731348 0 0.39620875860206523 0.42610388639599522 0 0.38861509636247821 0.44175005125570632 0 0.39620875860206523 0.42610388639599522 0 0.40342788129008578 0.41136751416027151 0 0.4165515890159211 0.43106581875832262 0 0.39020643165102042 0.40750290438779102 0 0.39620875860206523 0.42610388639599522 0 0.40342788129008578 0.41136751416027151 0 0.40342788129008578 0.41136751416027151 0 0.4194649070479346 0.41075775866906961 0 0.4165515890159211 0.43106581875832262 0 0.40342788129008578 0.41136751416027151 0 0.4194649070479346 0.41075775866906961 0 0.41247484703898341 0.39668929567888889 0 0.39620875860206523 0.42610388639599522 0 0.4165515890159211 0.43106581875832262 0 0.40679533173472487 0.44514780784289609 0 0.4165515890159211 0.43106581875832262 0 0.44107028692003247 0.43153611533185032 0 0.4165515890159211 0.43106581875832262 0 0.43527838440837918 0.41507327228856877 0 0.44107028692003247 0.43153611533185032 0 0.4194649070479346 0.41075775866906961 0 0.4165515890159211 0.43106581875832262 0 0.43527838440837918 0.41507327228856877 0 0.4194649070479346 0.41075775866906961 0 0.43527838440837918 0.41507327228856877 0 0.42844040697821201 0.39890611008127758 0 0.43527838440837918 0.41507327228856877 0 0.42844040697821201 0.39890611008127758 0 0.44356544647064411 0.40084295107477419 0 0.42844040697821201 0.39890611008127758 0 0.43978627658039499 0.38550810048347522 0 0.44356544647064411 0.40084295107477419 0 0.4194649070479346 0.41075775866906961 0 0.42844040697821201 0.39890611008127758 0 0.41247484703898341 0.39668929567888889 0 0.42844040697821201 0.39890611008127758 0 0.41247484703898341 0.39668929567888889 0 0.42235721568131929 0.38220686924127689 0 0.41247484703898341 0.39668929567888889 0 0.40683499004542412 0.37566900985645529 0 0.42235721568131929 0.38220686924127689 0 0.4343808670510142 0.37207818795490849 0 0.42235721568131929 0.38220686924127689 0 0.43978627658039499 0.38550810048347522 0 0.42844040697821201 0.39890611008127758 0 0.42235721568131929 0.38220686924127689 0 0.43978627658039499 0.38550810048347522 0 0.45151374504626951 0.36758660991241321 0 0.4343808670510142 0.37207818795490849 0 0.43978627658039499 0.38550810048347522 0 0.45151374504626951 0.36758660991241321 0 0.43978627658039499 0.38550810048347522 0 0.45722528454721961 0.3906654768237981 0 0.43978627658039499 0.38550810048347522 0 0.44356544647064411 0.40084295107477419 0 0.45722528454721961 0.3906654768237981 0 0.44356544647064411 0.40084295107477419 0 0.45722528454721961 0.3906654768237981 0 0.45594545333092312 0.41337501331873322 0 0.45722528454721961 0.3906654768237981 0 0.47568108772685191 0.39367102650606373 0 0.46881626912638691 0.40427363304328218 0 0.45722528454721961 0.3906654768237981 0 0.46881626912638691 0.40427363304328218 0 0.45594545333092312 0.41337501331873322 0 0.45151374504626951 0.36758660991241321 0 0.45722528454721961 0.3906654768237981 0 0.46980882541715813 0.38208294099771128 0 0.45722528454721961 0.3906654768237981 0 0.46980882541715813 0.38208294099771128 0 0.47568108772685191 0.39367102650606373 0 0.4736556537454587 0.3678330253399309 0 0.46980882541715813 0.38208294099771128 0 0.48477613844387402 0.38021688004838439 0 0.47568108772685191 0.39367102650606373 0 0.48702766555901961 0.39491075051184021 0 0.48477613844387402 0.38021688004838439 0 0.46980882541715813 0.38208294099771128 0 0.47568108772685191 0.39367102650606373 0 0.48477613844387402 0.38021688004838439 0 0.47568108772685191 0.39367102650606373 0 0.46881626912638691 0.40427363304328218 0 0.48151606592710777 0.40452093291302588 0 0.47568108772685191 0.39367102650606373 0 0.48151606592710777 0.40452093291302588 0 0.48702766555901961 0.39491075051184021 0 0.48702766555901961 0.39491075051184021 0 0.49874079622209128 0.38660437256818281 0 0.49442423947517328 0.40954054052354433 0 0.5 0.40278607211007789 0 0.49874079622209128 0.38660437256818281 0 0.49442423947517328 0.40954054052354433 0 0.49874079622209128 0.38660437256818281 0 0.49442423947517328 0.40954054052354433 0 0.48151606592710777 0.40452093291302588 0 0.48702766555901961 0.39491075051184021 0 0.49442423947517328 0.40954054052354433 0 0.5 0.37290568982018429 0 0.5 0.40278607211007789 0 0.49874079622209128 0.38660437256818281 0 0.5 0.37290568982018429 0 0.49874079622209128 0.38660437256818281 0 0.48477613844387402 0.38021688004838439 0 0.48702766555901961 0.39491075051184021 0 0.49874079622209128 0.38660437256818281 0 0.48477613844387402 0.38021688004838439 0 0.49010768272825528 0.43247670847890568 0 0.49999999999999839 0.43266645439997159 0 0.49442423947517328 0.40954054052354433 0 0.49010768272825528 0.43247670847890568 0 0.49999999999999839 0.43266645439997159 0 0.5 0.40278607211007789 0 0.49999999999999839 0.43266645439997159 0 0.49442423947517328 0.40954054052354433 0 0.49010768272825528 0.43247670847890568 0 0.49442423947517328 0.40954054052354433 0 0.47768739680387268 0.41777805257305989 0 0.48151606592710777 0.40452093291302588 0 0.49442423947517328 0.40954054052354433 0 0.47768739680387268 0.41777805257305989 0 0.49010768272825528 0.43247670847890568 0 0.49442423947517328 0.40954054052354433 0 0.46881626912638691 0.40427363304328218 0 0.48151606592710777 0.40452093291302588 0 0.47768739680387268 0.41777805257305989 0 0.49010768272825528 0.43247670847890568 0 0.47768739680387268 0.41777805257305989 0 0.4655889848241439 0.43200641190537797 0 0.49010768272825528 0.43247670847890568 0 0.4655889848241439 0.43200641190537797 0 0.47536631759922843 0.44556886167195853 0 0.49010768272825528 0.43247670847890568 0 0.4655889848241439 0.43200641190537797 0 0.4655889848241439 0.43200641190537797 0 0.44107028692003247 0.43153611533185032 0 0.4655889848241439 0.43200641190537797 0 0.45594545333092312 0.41337501331873322 0 0.44107028692003247 0.43153611533185032 0 0.4655889848241439 0.43200641190537797 0 0.44107028692003247 0.43153611533185032 0 0.4606865760628292 0.44801704672434101 0 0.47768739680387268 0.41777805257305989 0 0.4655889848241439 0.43200641190537797 0 0.45594545333092312 0.41337501331873322 0 0.46881626912638691 0.40427363304328218 0 0.47768739680387268 0.41777805257305989 0 0.45594545333092312 0.41337501331873322 0 0.43527838440837918 0.41507327228856877 0 0.45594545333092312 0.41337501331873322 0 0.44107028692003247 0.43153611533185032 0 0.43527838440837918 0.41507327228856877 0 0.44356544647064411 0.40084295107477419 0 0.45594545333092312 0.41337501331873322 0 0.49999999999999839 0.43266645439997159 0 0.48505572566105232 0.45932045051458531 0 0.5 0.5 0 0.44107028692003247 0.43153611533185032 0 0.44376664188615123 0.45979150936037488 0 0.4606865760628292 0.44801704672434101 0 0.44376664188615123 0.45979150936037488 0 0.46112241578244989 0.46478661640483648 0 0.45121200239437631 0.4807671998253365 0 0.44376664188615123 0.45979150936037488 0 0.46112241578244989 0.46478661640483648 0 0.4606865760628292 0.44801704672434101 0 0.46112241578244989 0.46478661640483648 0 0.4606865760628292 0.44801704672434101 0 0.47539261871986088 0.45602369073658289 0 0.4655889848241439 0.43200641190537797 0 0.4606865760628292 0.44801704672434101 0 0.47536631759922843 0.44556886167195853 0 0.49010768272825528 0.43247670847890568 0 0.47536631759922843 0.44556886167195853 0 0.48505572566105232 0.45932045051458531 0 0.4606865760628292 0.44801704672434101 0 0.47536631759922843 0.44556886167195853 0 0.47539261871986088 0.45602369073658289 0 0.47539261871986088 0.45602369073658289 0 0.47110615765410929 0.47801184536829172 0 0.47539261871986088 0.45602369073658289 0 0.48505572566105232 0.45932045051458531 0 0.47110615765410929 0.47801184536829172 0 0.46112241578244989 0.46478661640483648 0 0.47539261871986088 0.45602369073658289 0 0.47110615765410929 0.47801184536829172 0 0.47536631759922843 0.44556886167195853 0 0.47539261871986088 0.45602369073658289 0 0.48505572566105232 0.45932045051458531 0 0.49010768272825528 0.43247670847890568 0 0.48505572566105232 0.45932045051458531 0 0.49010768272825528 0.43247670847890568 0 0.49999999999999839 0.43266645439997159 0 0.48505572566105232 0.45932045051458531 0 0.48505572566105232 0.45932045051458531 0 0.5 0.5 0 0.48000376859384941 0.48616419255026477 0 0.5 0.5 0 0.48000376859384941 0.48616419255026477 0 0.46681969658835759 0.50000000000000044 0 0.48505572566105232 0.45932045051458531 0 0.47110615765410929 0.47801184536829172 0 0.48000376859384941 0.48616419255026477 0 0.48505572566105232 0.45932045051458531 0 0.48000376859384941 0.48616419255026477 0 0.47110615765410929 0.47801184536829172 0 0.46681969658835759 0.50000000000000044 0 0.47110615765410929 0.47801184536829172 0 0.48000376859384941 0.48616419255026477 0 0.46681969658835759 0.50000000000000044 0 0.47110615765410929 0.47801184536829172 0 0.46681969658835759 0.50000000000000044 0 0.45121200239437631 0.4807671998253365 0 0.46112241578244989 0.46478661640483648 0 0.47110615765410929 0.47801184536829172 0 0.45121200239437631 0.4807671998253365 0 0.44376664188615123 0.45979150936037488 0 0.45121200239437631 0.4807671998253365 0 0.42408561830569141 0.47732830779616442 0 0.46681969658835759 0.50000000000000044 0 0.45121200239437631 0.4807671998253365 0 0.43971230006436901 0.5 0 0.45121200239437631 0.4807671998253365 0 0.43971230006436901 0.5 0 0.42408561830569141 0.47732830779616442 0 0.43971230006436901 0.5 0 0.41260490354038032 0.5 0 0.42408561830569141 0.47732830779616442 0 0.41260490354038032 0.5 0 0.42408561830569141 0.47732830779616442 0 0.40044085355502113 0.48368683573266119 0 0.42408561830569141 0.47732830779616442 0 0.40050545668784993 0.46242548604636152 0 0.40044085355502113 0.48368683573266119 0 0.44376664188615123 0.45979150936037488 0 0.42408561830569141 0.47732830779616442 0 0.42267709028742451 0.45339185591380432 0 0.44107028692003247 0.43153611533185032 0 0.44376664188615123 0.45979150936037488 0 0.42267709028742451 0.45339185591380432 0 0.4165515890159211 0.43106581875832262 0 0.44107028692003247 0.43153611533185032 0 0.42267709028742451 0.45339185591380432 0 0.4165515890159211 0.43106581875832262 0 0.42267709028742451 0.45339185591380432 0 0.40679533173472487 0.44514780784289609 0 0.42408561830569141 0.47732830779616442 0 0.42267709028742451 0.45339185591380432 0 0.40050545668784993 0.46242548604636152 0 0.42267709028742451 0.45339185591380432 0 0.40679533173472487 0.44514780784289609 0 0.40050545668784993 0.46242548604636152 0 0.40679533173472487 0.44514780784289609 0 0.40050545668784993 0.46242548604636152 0 0.38861509636247821 0.44175005125570632 0 0.39620875860206523 0.42610388639599522 0 0.40679533173472487 0.44514780784289609 0 0.38861509636247821 0.44175005125570632 0 0.3672128213662551 0.44140310366938379 0 0.38861509636247821 0.44175005125570632 0 0.37565915938479377 0.45849116020829678 0 0.40050545668784993 0.46242548604636152 0 0.37565915938479377 0.45849116020829678 0 0.37951078222479251 0.47868038482078018 0 0.40050545668784993 0.46242548604636152 0 0.38861509636247821 0.44175005125570632 0 0.37565915938479377 0.45849116020829678 0 0.37951078222479251 0.47868038482078018 0 0.38549750701639152 0.5 0 0.40044085355502113 0.48368683573266119 0 0.41260490354038032 0.5 0 0.38549750701639152 0.5 0 0.40044085355502113 0.48368683573266119 0 0.40050545668784993 0.46242548604636152 0 0.37951078222479251 0.47868038482078018 0 0.40044085355502113 0.48368683573266119 0 0.3285700774521132 0.069227507684709172 0 0.34376262838779448 0.090160381808613591 0 0.3285700774521132 0.069227507684709172 0 0.34376262838779448 0.090160381808613591 0 0.3570119940846016 0.07655140493877155 0 0.3285700774521132 0.069227507684709172 0 0.31851483003181857 0.089032350953859848 0 0.34376262838779448 0.090160381808613591 0 0.3285700774521132 0.069227507684709172 0 0.31851483003181857 0.089032350953859848 0 0.30262144479489489 0.063472250579192202 0 0.31851483003181857 0.089032350953859848 0 0.32257158209111758 0.11034462767622299 0 0.33741607394213652 0.1036774965936159 0 0.31851483003181857 0.089032350953859848 0 0.32257158209111758 0.11034462767622299 0 0.29867863108980142 0.1045573716884185 0 0.32257158209111758 0.11034462767622299 0 0.32933038512457441 0.1245201253257071 0 0.3207185438207466 0.1263919595033525 0 0.32257158209111758 0.11034462767622299 0 0.31156748461804079 0.12537242366950921 0 0.3207185438207466 0.1263919595033525 0 0.32933038512457441 0.1245201253257071 0 0.34646453309243358 0.11613188366402739 0 0.34441400131097022 0.1288917011053414 0 0.32257158209111758 0.11034462767622299 0 0.33741607394213652 0.1036774965936159 0 0.34646453309243358 0.11613188366402739 0 0.32257158209111758 0.11034462767622299 0 0.34646453309243358 0.11613188366402739 0 0.32257158209111758 0.11034462767622299 0 0.32933038512457441 0.1245201253257071 0 0.34646453309243358 0.11613188366402739 0 0.31851483003181857 0.089032350953859848 0 0.33741607394213652 0.1036774965936159 0 0.34376262838779448 0.090160381808613591 0 0.35895517932347593 0.111093255932518 0 0.36286728541875429 0.096218484345557367 0 0.34376262838779448 0.090160381808613591 0 0.33741607394213652 0.1036774965936159 0 0.35895517932347593 0.111093255932518 0 0.34376262838779448 0.090160381808613591 0 0.35895517932347593 0.111093255932518 0 0.34376262838779448 0.090160381808613591 0 0.34646453309243358 0.11613188366402739 0 0.35895517932347593 0.111093255932518 0 0.37035748409374952 0.12191913965183331 0 0.34646453309243358 0.11613188366402739 0 0.37035748409374952 0.12191913965183331 0 0.33741607394213652 0.1036774965936159 0 0.34646453309243358 0.11613188366402739 0 0.35895517932347593 0.111093255932518 0 0.34646453309243358 0.11613188366402739 0 0.37035748409374952 0.12191913965183331 0 0.34441400131097022 0.1288917011053414 0 0.35895517932347593 0.111093255932518 0 0.36901916600157941 0.1100142775002767 0 0.37035748409374952 0.12191913965183331 0 0.36901916600157941 0.1100142775002767 0 0.37035748409374952 0.12191913965183331 0 0.37815432920295677 0.1109533992790251 0 0.37035748409374952 0.12191913965183331 0 0.37511757494472903 0.123072110010257 0 0.37035748409374952 0.12191913965183331 0 0.37169283910029199 0.12815165521797289 0 0.37511757494472903 0.123072110010257 0 0.36286728541875429 0.096218484345557367 0 0.37455144446510141 0.10193275935197101 0 0.37400882161871279 0.083619613235024759 0 0.35895517932347593 0.111093255932518 0 0.36901916600157941 0.1100142775002767 0 0.36286728541875429 0.096218484345557367 0 0.36901916600157941 0.1100142775002767 0 0.36286728541875429 0.096218484345557367 0 0.37455144446510141 0.10193275935197101 0 0.36901916600157941 0.1100142775002767 0 0.37455144446510141 0.10193275935197101 0 0.37815432920295677 0.1109533992790251 0 0.36286728541875429 0.096218484345557367 0 0.37400882161871279 0.083619613235024759 0 0.3570119940846016 0.07655140493877155 0 0.36286728541875429 0.096218484345557367 0 0.34376262838779448 0.090160381808613591 0 0.3570119940846016 0.07655140493877155 0 0.3285700774521132 0.069227507684709172 0 0.3570119940846016 0.07655140493877155 0 0.3540274811898364 0.057481719132925622 0 0.37400882161871279 0.083619613235024759 0 0.3570119940846016 0.07655140493877155 0 0.37883567044039879 0.062600723425798879 0 0.3570119940846016 0.07655140493877155 0 0.3540274811898364 0.057481719132925622 0 0.37883567044039879 0.062600723425798879 0 0.36884998715724038 0.048654936693666287 0 0.3540274811898364 0.057481719132925622 0 0.37883567044039879 0.062600723425798879 0 0.36884998715724038 0.048654936693666287 0 0.36096242836060388 0.032492650360987897 0 0.3540274811898364 0.057481719132925622 0 0.36884998715724038 0.048654936693666287 0 0.36096242836060388 0.032492650360987897 0 0.38366251926208489 0.041581833616573027 0 0.36096242836060388 0.032492650360987897 0 0.3540274811898364 0.057481719132925622 0 0.33343548863743699 0.044422356914628619 0 0.36096242836060388 0.032492650360987897 0 0.34150772405548108 0.025325389551572871 0 0.33343548863743699 0.044422356914628619 0 0.36096242836060388 0.032492650360987897 0 0.33343548863743699 0.044422356914628619 0 0.36934971840039982 0.01412264887454192 0 0.38120377069012762 0.010554394007073271 0 0.36845156083710567 -0.0060515153414843056 0 0.36934971840039982 0.01412264887454192 0 0.35188933009005469 0.012921367503740049 0 0.36845156083710567 -0.0060515153414843056 0 0.36096242836060388 0.032492650360987897 0 0.38848936808377088 0.020562943807347231 0 0.36096242836060388 0.032492650360987897 0 0.36934971840039982 0.01412264887454192 0 0.35188933009005469 0.012921367503740049 0 0.36096242836060388 0.032492650360987897 0 0.36934971840039982 0.01412264887454192 0 0.38848936808377088 0.020562943807347231 0 0.36096242836060388 0.032492650360987897 0 0.35188933009005469 0.012921367503740049 0 0.34150772405548108 0.025325389551572871 0 0.35188933009005469 0.012921367503740049 0 0.36845156083710567 -0.0060515153414843056 0 0.34114057903213352 -0.00099436838624600288 0 0.32992396985460443 0.01263339996306794 0 0.31382959722716158 0.0040627785689932028 0 0.34114057903213352 -0.00099436838624600288 0 0.35188933009005469 0.012921367503740049 0 0.32992396985460443 0.01263339996306794 0 0.34114057903213352 -0.00099436838624600288 0 0.32992396985460443 0.01263339996306794 0 0.34150772405548108 0.025325389551572871 0 0.32077834005703848 0.02927741351548363 0 0.35188933009005469 0.012921367503740049 0 0.32992396985460443 0.01263339996306794 0 0.34150772405548108 0.025325389551572871 0 0.32992396985460443 0.01263339996306794 0 0.32077834005703848 0.02927741351548363 0 0.31391214704691389 0.015516024244919061 0 0.32992396985460443 0.01263339996306794 0 0.31391214704691389 0.015516024244919061 0 0.31382959722716158 0.0040627785689932028 0 0.31382959722716158 0.0040627785689932028 0 0.34183048761771712 -0.0039986291523161147 0 0.31382959722716158 0.0040627785689932028 0 0.34114057903213352 -0.00099436838624600288 0 0.31382959722716158 0.0040627785689932028 0 0.30752965714041391 0.0058765203804442539 0 0.32194573769061952 -0.0077676308935595512 0 0.3285700774521132 0.069227507684709172 0 0.3540274811898364 0.057481719132925622 0 0.33343548863743699 0.044422356914628619 0 0.34150772405548108 0.025325389551572871 0 0.32077834005703848 0.02927741351548363 0 0.33343548863743699 0.044422356914628619 0 0.32077834005703848 0.02927741351548363 0 0.33343548863743699 0.044422356914628619 0 0.31337752651643169 0.04829463356080467 0 0.3285700774521132 0.069227507684709172 0 0.31337752651643169 0.04829463356080467 0 0.3285700774521132 0.069227507684709172 0 0.33343548863743699 0.044422356914628619 0 0.31337752651643169 0.04829463356080467 0 0.3285700774521132 0.069227507684709172 0 0.31337752651643169 0.04829463356080467 0 0.30262144479489489 0.063472250579192202 0 0.31337752651643169 0.04829463356080467 0 0.29190445549758398 0.041801895735158197 0 0.30262144479489489 0.063472250579192202 0 0.31337752651643169 0.04829463356080467 0 0.29818497558074802 0.027361759436901809 0 0.31337752651643169 0.04829463356080467 0 0.29190445549758398 0.041801895735158197 0 0.29818497558074802 0.027361759436901809 0 0.32077834005703848 0.02927741351548363 0 0.31337752651643169 0.04829463356080467 0 0.29818497558074802 0.027361759436901809 0 0.29190445549758398 0.041801895735158197 0 0.29818497558074802 0.027361759436901809 0 0.28149235485467722 0.028426230672526639 0 0.29190445549758398 0.041801895735158197 0 0.28562393541442521 0.056242032033416753 0 0.26921605588191849 0.040519794607793452 0 0.29190445549758398 0.041801895735158197 0 0.29818497558074802 0.027361759436901809 0 0.29190445549758398 0.041801895735158197 0 0.28562393541442521 0.056242032033416753 0 0.29190445549758398 0.041801895735158197 0 0.28562393541442521 0.056242032033416753 0 0.30262144479489489 0.063472250579192202 0 0.2978295874258669 0.0070254842464454832 0 0.30752965714041391 0.0058765203804442539 0 0.2978295874258669 0.0070254842464454832 0 0.30752965714041391 0.0058765203804442539 0 0.29396858594285019 -0.001032612778502764 0 0.31382959722716158 0.0040627785689932028 0 0.30752965714041391 0.0058765203804442539 0 0.31391214704691389 0.015516024244919061 0 0.30752965714041391 0.0058765203804442539 0 0.30398999522707459 0.014014891057021139 0 0.30752965714041391 0.0058765203804442539 0 0.30398999522707459 0.014014891057021139 0 0.31391214704691389 0.015516024244919061 0 0.31382959722716158 0.0040627785689932028 0 0.30752965714041391 0.0058765203804442539 0 0.2978295874258669 0.0070254842464454832 0 0.30752965714041391 0.0058765203804442539 0 0.30398999522707459 0.014014891057021139 0 0.2978295874258669 0.0070254842464454832 0 0.30398999522707459 0.014014891057021139 0 0.31391214704691389 0.015516024244919061 0 0.30398999522707459 0.014014891057021139 0 0.29818497558074802 0.027361759436901809 0 0.32077834005703848 0.02927741351548363 0 0.31391214704691389 0.015516024244919061 0 0.29818497558074802 0.027361759436901809 0 0.30398999522707459 0.014014891057021139 0 0.29818497558074802 0.027361759436901809 0 0.30398999522707459 0.014014891057021139 0 0.29818497558074802 0.027361759436901809 0 0.28690172397702512 0.011815266518820099 0 0.29818497558074802 0.027361759436901809 0 0.28149235485467722 0.028426230672526639 0 0.28690172397702512 0.011815266518820099 0 0.29818497558074802 0.027361759436901809 0 0.28690172397702512 0.011815266518820099 0 0.28690172397702512 0.011815266518820099 0 0.28687677889875068 0.001725005618485562 0 0.27267603034966698 -0.0077854348569651906 0 0.2978295874258669 0.0070254842464454832 0 0.30398999522707459 0.014014891057021139 0 0.28690172397702512 0.011815266518820099 0 0.2978295874258669 0.0070254842464454832 0 0.28690172397702512 0.011815266518820099 0 0.29376575238797509 0.0077779804816672602 0 0.2978295874258669 0.0070254842464454832 0 0.28690172397702512 0.011815266518820099 0 0.2978295874258669 0.0070254842464454832 0 0.28687677889875068 0.001725005618485562 0 0.29376575238797509 0.0077779804816672602 0 0.28690172397702512 0.011815266518820099 0 0.28687677889875068 0.001725005618485562 0 0.29376575238797509 0.0077779804816672602 0 0.2978295874258669 0.0070254842464454832 0 0.29376575238797509 0.0077779804816672602 0 0.28690172397702512 0.011815266518820099 0 0.26939274767164711 0.0040745279013861191 0 0.27267603034966698 -0.0077854348569651906 0 0.28690172397702512 0.011815266518820099 0 0.26440570944936082 0.018291830038140541 0 0.28690172397702512 0.011815266518820099 0 0.26939274767164711 0.0040745279013861191 0 0.26440570944936082 0.018291830038140541 0 0.28690172397702512 0.011815266518820099 0 0.27267603034966698 -0.0077854348569651906 0 0.28149235485467722 0.028426230672526639 0 0.26440570944936082 0.018291830038140541 0 0.26921605588191849 0.040519794607793452 0 0.28149235485467722 0.028426230672526639 0 0.28690172397702512 0.011815266518820099 0 0.26440570944936082 0.018291830038140541 0 0.24190969492169709 0.024768393557462999 0 0.26440570944936082 0.018291830038140541 0 0.2485551203034157 0.0102848256948572 0 0.24190969492169709 0.024768393557462999 0 0.26440570944936082 0.018291830038140541 0 0.24190969492169709 0.024768393557462999 0 0.26440570944936082 0.018291830038140541 0 0.25291178968964928 0.037547667281027097 0 0.2485551203034157 0.0102848256948572 0 0.26440570944936082 0.018291830038140541 0 0.25894279220913391 0.003459445712386486 0 0.26939274767164711 0.0040745279013861191 0 0.26440570944936082 0.018291830038140541 0 0.25894279220913391 0.003459445712386486 0 0.2485551203034157 0.0102848256948572 0 0.25894279220913391 0.003459445712386486 0 0.2479891295484222 -0.0022684572774312019 0 0.26939274767164711 0.0040745279013861191 0 0.25894279220913391 0.003459445712386486 0 0.26317147738524183 -0.0038637327990410169 0 0.28562393541442521 0.056242032033416753 0 0.27026274557325353 0.056119745337220257 0 0.26921605588191849 0.040519794607793452 0 0.28562393541442521 0.056242032033416753 0 0.27026274557325353 0.056119745337220257 0 0.27167623587568768 0.070814912161459326 0 0.29190445549758398 0.041801895735158197 0 0.28149235485467722 0.028426230672526639 0 0.26921605588191849 0.040519794607793452 0 0.26921605588191849 0.040519794607793452 0 0.25291178968964928 0.037547667281027097 0 0.25425538404847059 0.057624927133231481 0 0.26440570944936082 0.018291830038140541 0 0.26921605588191849 0.040519794607793452 0 0.25291178968964928 0.037547667281027097 0 0.27026274557325353 0.056119745337220257 0 0.26921605588191849 0.040519794607793452 0 0.25425538404847059 0.057624927133231481 0 0.27026274557325353 0.056119745337220257 0 0.25425538404847059 0.057624927133231481 0 0.27167623587568768 0.070814912161459326 0 0.25425538404847059 0.057624927133231481 0 0.27167623587568768 0.070814912161459326 0 0.25282536794073712 0.073272794188635415 0 0.26618138576237349 0.084067315497028519 0 0.27167623587568768 0.070814912161459326 0 0.25425538404847059 0.057624927133231481 0 0.25282536794073712 0.073272794188635415 0 0.27167623587568768 0.070814912161459326 0 0.25089272908716931 0.092982859712809007 0 0.26618138576237349 0.084067315497028519 0 0.27478568008848531 0.098770115700614086 0 0.25282536794073712 0.073272794188635415 0 0.25089272908716931 0.092982859712809007 0 0.26618138576237349 0.084067315497028519 0 0.26618138576237349 0.084067315497028519 0 0.28181267844286689 0.084890460016538952 0 0.27478568008848531 0.098770115700614086 0 0.26618138576237349 0.084067315497028519 0 0.27167623587568768 0.070814912161459326 0 0.28181267844286689 0.084890460016538952 0 0.27167623587568768 0.070814912161459326 0 0.2870451550563029 0.071072764848292863 0 0.28181267844286689 0.084890460016538952 0 0.2870451550563029 0.071072764848292863 0 0.29673814540623761 0.08207029957157172 0 0.30262144479489489 0.063472250579192202 0 0.28562393541442521 0.056242032033416753 0 0.2870451550563029 0.071072764848292863 0 0.30262144479489489 0.063472250579192202 0 0.28562393541442521 0.056242032033416753 0 0.27167623587568768 0.070814912161459326 0 0.2870451550563029 0.071072764848292863 0 0.2870451550563029 0.071072764848292863 0 0.28181267844286689 0.084890460016538952 0 0.29673814540623761 0.08207029957157172 0 0.28181267844286689 0.084890460016538952 0 0.29673814540623761 0.08207029957157172 0 0.29867863108980142 0.1045573716884185 0 0.31851483003181857 0.089032350953859848 0 0.29673814540623761 0.08207029957157172 0 0.30262144479489489 0.063472250579192202 0 0.31851483003181857 0.089032350953859848 0 0.29673814540623761 0.08207029957157172 0 0.29867863108980142 0.1045573716884185 0 0.2991284260398443 0.1226428311133997 0 0.29867863108980142 0.1045573716884185 0 0.31156748461804079 0.12537242366950921 0 0.32257158209111758 0.11034462767622299 0 0.29867863108980142 0.1045573716884185 0 0.31156748461804079 0.12537242366950921 0 0.32257158209111758 0.11034462767622299 0 0.29867863108980142 0.1045573716884185 0 0.29867863108980142 0.1045573716884185 0 0.27478568008848531 0.098770115700614086 0 0.29867863108980142 0.1045573716884185 0 0.27783009132198788 0.1122622341296569 0 0.27478568008848531 0.098770115700614086 0 0.28181267844286689 0.084890460016538952 0 0.29867863108980142 0.1045573716884185 0 0.27478568008848531 0.098770115700614086 0 0.2991284260398443 0.1226428311133997 0 0.29867863108980142 0.1045573716884185 0 0.28707615928971691 0.1208096883177448 0 0.29867863108980142 0.1045573716884185 0 0.28707615928971691 0.1208096883177448 0 0.27783009132198788 0.1122622341296569 0 0.2991284260398443 0.1226428311133997 0 0.28707615928971691 0.1208096883177448 0 0.29671346303214241 0.12961196471325551 0 0.26302281242735981 0.111198171579071 0 0.27515289576754948 0.1294134834453334 0 0.28707615928971691 0.1208096883177448 0 0.27783009132198788 0.1122622341296569 0 0.27515289576754948 0.1294134834453334 0 0.27783009132198788 0.1122622341296569 0 0.26302281242735981 0.111198171579071 0 0.27515289576754948 0.1294134834453334 0 0.26302281242735981 0.111198171579071 0 0.26007351669183237 0.1253037732749688 0 0.27515289576754948 0.1294134834453334 0 0.27783009132198788 0.1122622341296569 0 0.27478568008848531 0.098770115700614086 0 0.26302281242735981 0.111198171579071 0 0.25089272908716931 0.092982859712809007 0 0.26302281242735981 0.111198171579071 0 0.2496952397761337 0.1160329650041991 0 0.25089272908716931 0.092982859712809007 0 0.26302281242735981 0.111198171579071 0 0.25089272908716931 0.092982859712809007 0 0.27478568008848531 0.098770115700614086 0 0.26302281242735981 0.111198171579071 0 0.25089272908716931 0.092982859712809007 0 0.27478568008848531 0.098770115700614086 0 0.2471064899150823 0.133463067737116 0 0.2496952397761337 0.1160329650041991 0 0.26007351669183237 0.1253037732749688 0 0.2496952397761337 0.1160329650041991 0 0.26302281242735981 0.111198171579071 0 0.26007351669183237 0.1253037732749688 0 0.2471064899150823 0.133463067737116 0 0.26212056590251792 0.13860634342131159 0 0.25227113898158787 0.14916335431643429 0 0.2471064899150823 0.133463067737116 0 0.26212056590251792 0.13860634342131159 0 0.26007351669183237 0.1253037732749688 0 0.27515289576754948 0.1294134834453334 0 0.28728297910773942 0.14762879531159581 0 0.27515289576754948 0.1294134834453334 0 0.27408945104382287 0.14431330872834849 0 0.28728297910773942 0.14762879531159581 0 0.26212056590251792 0.13860634342131159 0 0.26007351669183237 0.1253037732749688 0 0.27515289576754948 0.1294134834453334 0 0.26212056590251792 0.13860634342131159 0 0.27515289576754948 0.1294134834453334 0 0.27408945104382287 0.14431330872834849 0 0.27408945104382287 0.14431330872834849 0 0.27716137478162928 0.15889869399298601 0 0.28728297910773942 0.14762879531159581 0 0.26212056590251792 0.13860634342131159 0 0.27408945104382287 0.14431330872834849 0 0.26493391480523859 0.14953421755469451 0 0.27408945104382287 0.14431330872834849 0 0.26493391480523859 0.14953421755469451 0 0.27716137478162928 0.15889869399298601 0 0.26493391480523859 0.14953421755469451 0 0.25227113898158787 0.14916335431643429 0 0.25784869618064837 0.16117632967822779 0 0.26212056590251792 0.13860634342131159 0 0.26493391480523859 0.14953421755469451 0 0.25227113898158787 0.14916335431643429 0 0.24342118736862761 0.16410875332904781 0 0.25227113898158787 0.14916335431643429 0 0.25784869618064837 0.16117632967822779 0 0.24342118736862761 0.16410875332904781 0 0.25784869618064837 0.16117632967822779 0 0.25421457754785548 0.17528354573505059 0 0.25784869618064837 0.16117632967822779 0 0.25421457754785548 0.17528354573505059 0 0.26798999978846311 0.16999528723303189 0 0.25421457754785548 0.17528354573505059 0 0.26688833639653942 0.18474270353269559 0 0.25113643024109478 0.19094495075723769 0 0.25421457754785548 0.17528354573505059 0 0.26688833639653942 0.18474270353269559 0 0.26798999978846311 0.16999528723303189 0 0.26688833639653942 0.18474270353269559 0 0.27899922157627788 0.1740987885831469 0 0.26798999978846311 0.16999528723303189 0 0.26688833639653942 0.18474270353269559 0 0.27899922157627788 0.1740987885831469 0 0.28165513110548479 0.1855437801635878 0 0.25784869618064837 0.16117632967822779 0 0.26798999978846311 0.16999528723303189 0 0.27716137478162928 0.15889869399298601 0 0.26493391480523859 0.14953421755469451 0 0.25784869618064837 0.16117632967822779 0 0.27716137478162928 0.15889869399298601 0 0.27899922157627788 0.1740987885831469 0 0.26798999978846311 0.16999528723303189 0 0.27716137478162928 0.15889869399298601 0 0.27716137478162928 0.15889869399298601 0 0.28838527260411961 0.16768800255462621 0 0.29642958482603432 0.1586868689393966 0 0.27899922157627788 0.1740987885831469 0 0.27716137478162928 0.15889869399298601 0 0.28838527260411961 0.16768800255462621 0 0.28838527260411961 0.16768800255462621 0 0.29642958482603432 0.1586868689393966 0 0.2990812202460017 0.16972771789266669 0 0.28165513110548479 0.1855437801635878 0 0.29057456817046978 0.17841330338653549 0 0.29442149412013968 0.19018242885082931 0 0.27899922157627788 0.1740987885831469 0 0.28165513110548479 0.1855437801635878 0 0.29057456817046978 0.17841330338653549 0 0.27899922157627788 0.1740987885831469 0 0.28838527260411961 0.16768800255462621 0 0.29057456817046978 0.17841330338653549 0 0.28838527260411961 0.16768800255462621 0 0.29057456817046978 0.17841330338653549 0 0.2990812202460017 0.16972771789266669 0 0.29057456817046978 0.17841330338653549 0 0.30085032626191438 0.18018504882584371 0 0.2990812202460017 0.16972771789266669 0 0.29057456817046978 0.17841330338653549 0 0.30085032626191438 0.18018504882584371 0 0.29442149412013968 0.19018242885082931 0 0.30085032626191438 0.18018504882584371 0 0.29442149412013968 0.19018242885082931 0 0.3080553032197017 0.1887293017033026 0 0.30085032626191438 0.18018504882584371 0 0.31056514142368619 0.1744383831500049 0 0.2990812202460017 0.16972771789266669 0 0.30085032626191438 0.18018504882584371 0 0.31056514142368619 0.1744383831500049 0 0.3080553032197017 0.1887293017033026 0 0.29642958482603432 0.1586868689393966 0 0.30747502192119819 0.16230778928688711 0 0.30151933753066762 0.14970454816787401 0 0.29642958482603432 0.1586868689393966 0 0.2990812202460017 0.16972771789266669 0 0.30747502192119819 0.16230778928688711 0 0.31056514142368619 0.1744383831500049 0 0.2990812202460017 0.16972771789266669 0 0.30747502192119819 0.16230778928688711 0 0.30747502192119819 0.16230778928688711 0 0.30151933753066762 0.14970454816787401 0 0.3129765302581462 0.1494710021231663 0 0.30151933753066762 0.14970454816787401 0 0.29882590938581222 0.14264553562683399 0 0.30718649112507979 0.14443915855455869 0 0.30151933753066762 0.14970454816787401 0 0.30718649112507979 0.14443915855455869 0 0.3129765302581462 0.1494710021231663 0 0.29882590938581222 0.14264553562683399 0 0.30718649112507979 0.14443915855455869 0 0.31229822968882548 0.13781435906697939 0 0.30718649112507979 0.14443915855455869 0 0.31229822968882548 0.13781435906697939 0 0.3129765302581462 0.1494710021231663 0 0.31229822968882548 0.13781435906697939 0 0.28502845800881449 0.13413009067030229 0 0.31229822968882548 0.13781435906697939 0 0.29671346303214241 0.12961196471325551 0 0.28502845800881449 0.13413009067030229 0 0.29882590938581222 0.14264553562683399 0 0.31229822968882548 0.13781435906697939 0 0.28502845800881449 0.13413009067030229 0 0.2991284260398443 0.1226428311133997 0 0.31156748461804079 0.12537242366950921 0 0.30438347209902411 0.12928289016934871 0 0.31229822968882548 0.13781435906697939 0 0.31156748461804079 0.12537242366950921 0 0.30438347209902411 0.12928289016934871 0 0.31229822968882548 0.13781435906697939 0 0.30438347209902411 0.12928289016934871 0 0.29671346303214241 0.12961196471325551 0 0.2991284260398443 0.1226428311133997 0 0.30438347209902411 0.12928289016934871 0 0.29671346303214241 0.12961196471325551 0 0.27515289576754948 0.1294134834453334 0 0.28502845800881449 0.13413009067030229 0 0.28728297910773942 0.14762879531159581 0 0.28707615928971691 0.1208096883177448 0 0.29671346303214241 0.12961196471325551 0 0.28502845800881449 0.13413009067030229 0 0.28707615928971691 0.1208096883177448 0 0.27515289576754948 0.1294134834453334 0 0.28502845800881449 0.13413009067030229 0 0.27716137478162928 0.15889869399298601 0 0.29642958482603432 0.1586868689393966 0 0.28728297910773942 0.14762879531159581 0 0.29642958482603432 0.1586868689393966 0 0.30151933753066762 0.14970454816787401 0 0.28728297910773942 0.14762879531159581 0 0.30151933753066762 0.14970454816787401 0 0.29882590938581222 0.14264553562683399 0 0.28728297910773942 0.14762879531159581 0 0.29882590938581222 0.14264553562683399 0 0.28502845800881449 0.13413009067030229 0 0.28728297910773942 0.14762879531159581 0 0.2459873280094696 0.23707215699401071 0 0.27381195783464701 0.24213208581531279 0 0.2459873280094696 0.23707215699401071 0 0.27381195783464701 0.24213208581531279 0 0.27283394916361492 0.24742619336605559 0 0.2459873280094696 0.23707215699401071 0 0.27283394916361492 0.24742619336605559 0 0.2459873280094696 0.23707215699401071 0 0.25877170878786238 0.25302463852503437 0 0.27283394916361492 0.24742619336605559 0 0.2459873280094696 0.23707215699401071 0 0.24763005152173001 0.25910176257370959 0 0.25877170878786238 0.25302463852503437 0 0.24332195560292991 0.2175119837032847 0 0.2459873280094696 0.23707215699401071 0 0.26947725056793032 0.22188821543332771 0 0.2459873280094696 0.23707215699401071 0 0.27381195783464701 0.24213208581531279 0 0.26947725056793032 0.22188821543332771 0 0.24332195560292991 0.2175119837032847 0 0.26947725056793032 0.22188821543332771 0 0.27381195783464701 0.24213208581531279 0 0.26947725056793032 0.22188821543332771 0 0.29563254553293061 0.22626444716337071 0 0.26947725056793032 0.22188821543332771 0 0.26383894902510108 0.20488334565775601 0 0.28252807440433819 0.20448568929014271 0 0.24828008483854189 0.20295934428596721 0 0.24332195560292991 0.2175119837032847 0 0.26383894902510108 0.20488334565775601 0 0.24332195560292991 0.2175119837032847 0 0.26947725056793032 0.22188821543332771 0 0.26383894902510108 0.20488334565775601 0 0.26688833639653942 0.18474270353269559 0 0.26383894902510108 0.20488334565775601 0 0.25113643024109478 0.19094495075723769 0 0.24828008483854189 0.20295934428596721 0 0.26383894902510108 0.20488334565775601 0 0.25113643024109478 0.19094495075723769 0 0.26688833639653942 0.18474270353269559 0 0.26383894902510108 0.20488334565775601 0 0.27369942293731819 0.19569303942008121 0 0.26383894902510108 0.20488334565775601 0 0.27369942293731819 0.19569303942008121 0 0.28252807440433819 0.20448568929014271 0 0.28165513110548479 0.1855437801635878 0 0.27369942293731819 0.19569303942008121 0 0.28252807440433819 0.20448568929014271 0 0.26688833639653942 0.18474270353269559 0 0.28165513110548479 0.1855437801635878 0 0.27369942293731819 0.19569303942008121 0 0.28165513110548479 0.1855437801635878 0 0.29442149412013968 0.19018242885082931 0 0.28252807440433819 0.20448568929014271 0 0.29442149412013968 0.19018242885082931 0 0.30168066081365352 0.2029210297493958 0 0.28252807440433819 0.20448568929014271 0 0.29442149412013968 0.19018242885082931 0 0.3080553032197017 0.1887293017033026 0 0.30168066081365352 0.2029210297493958 0 0.3080553032197017 0.1887293017033026 0 0.30168066081365352 0.2029210297493958 0 0.31674655555173881 0.19902842766084339 0 0.30168066081365352 0.2029210297493958 0 0.29563254553293061 0.22626444716337071 0 0.31377845179643721 0.21458276756770189 0 0.30168066081365352 0.2029210297493958 0 0.31377845179643721 0.21458276756770189 0 0.31674655555173881 0.19902842766084339 0 0.30168066081365352 0.2029210297493958 0 0.28252807440433819 0.20448568929014271 0 0.29563254553293061 0.22626444716337071 0 0.26947725056793032 0.22188821543332771 0 0.28252807440433819 0.20448568929014271 0 0.29563254553293061 0.22626444716337071 0 0.26947725056793032 0.22188821543332771 0 0.29563254553293061 0.22626444716337071 0 0.29563254553293061 0.22626444716337071 0 0.3217878404979308 0.23064067889341369 0 0.31377845179643721 0.21458276756770189 0 0.29563254553293061 0.22626444716337071 0 0.3217878404979308 0.23064067889341369 0 0.29563254553293061 0.22626444716337071 0 0.3016365876598241 0.24719201463661561 0 0.3217878404979308 0.23064067889341369 0 0.27381195783464701 0.24213208581531279 0 0.29563254553293061 0.22626444716337071 0 0.3016365876598241 0.24719201463661561 0 0.27381195783464701 0.24213208581531279 0 0.3016365876598241 0.24719201463661561 0 0.27381195783464701 0.24213208581531279 0 0.27283394916361492 0.24742619336605559 0 0.3016365876598241 0.24719201463661561 0 0.32946121748500129 0.25225194345791829 0 0.3217878404979308 0.23064067889341369 0 0.34556910970536658 0.23921390462248199 0 0.32946121748500129 0.25225194345791829 0 0.3016365876598241 0.24719201463661561 0 0.3217878404979308 0.23064067889341369 0 0.32946121748500129 0.25225194345791829 0 0.3016365876598241 0.24719201463661561 0 0.3217878404979308 0.23064067889341369 0 0.33460182177363001 0.21999966289075409 0 0.31377845179643721 0.21458276756770189 0 0.3217878404979308 0.23064067889341369 0 0.33460182177363001 0.21999966289075409 0 0.34556910970536658 0.23921390462248199 0 0.33460182177363001 0.21999966289075409 0 0.3278776259658665 0.2076214509036243 0 0.34419695055865512 0.20542025302645439 0 0.33460182177363001 0.21999966289075409 0 0.31377845179643721 0.21458276756770189 0 0.3278776259658665 0.2076214509036243 0 0.31377845179643721 0.21458276756770189 0 0.3278776259658665 0.2076214509036243 0 0.31674655555173881 0.19902842766084339 0 0.3278776259658665 0.2076214509036243 0 0.31674655555173881 0.19902842766084339 0 0.32893527636844411 0.194937601908272 0 0.3080553032197017 0.1887293017033026 0 0.31674655555173881 0.19902842766084339 0 0.32122387935841612 0.1836610840160959 0 0.31674655555173881 0.19902842766084339 0 0.32893527636844411 0.194937601908272 0 0.32122387935841612 0.1836610840160959 0 0.32893527636844411 0.194937601908272 0 0.34419695055865512 0.20542025302645439 0 0.33967484433078321 0.18584068278097349 0 0.32893527636844411 0.194937601908272 0 0.32122387935841612 0.1836610840160959 0 0.33967484433078321 0.18584068278097349 0 0.3278776259658665 0.2076214509036243 0 0.32893527636844411 0.194937601908272 0 0.34419695055865512 0.20542025302645439 0 0.35368837148756882 0.19334260062126429 0 0.34419695055865512 0.20542025302645439 0 0.33967484433078321 0.18584068278097349 0 0.35368837148756882 0.19334260062126429 0 0.36735815001373812 0.20351917688449569 0 0.34419695055865512 0.20542025302645439 0 0.36735815001373812 0.20351917688449569 0 0.36699199379966768 0.18628457072029089 0 0.38367398474104891 0.18179268717308689 0 0.35368837148756882 0.19334260062126429 0 0.36735815001373812 0.20351917688449569 0 0.36699199379966768 0.18628457072029089 0 0.36735815001373812 0.20351917688449569 0 0.35440095211752448 0.2225189223308488 0 0.37280151553833601 0.22024831863616021 0 0.36735815001373812 0.20351917688449569 0 0.37280151553833601 0.22024831863616021 0 0.38406378734192298 0.20777210545990279 0 0.36735815001373812 0.20351917688449569 0 0.34419695055865512 0.20542025302645439 0 0.35440095211752448 0.2225189223308488 0 0.33460182177363001 0.21999966289075409 0 0.34419695055865512 0.20542025302645439 0 0.35440095211752448 0.2225189223308488 0 0.35440095211752448 0.2225189223308488 0 0.37293454716760283 0.2396311516560117 0 0.34556910970536658 0.23921390462248199 0 0.33460182177363001 0.21999966289075409 0 0.35440095211752448 0.2225189223308488 0 0.34556910970536658 0.23921390462248199 0 0.35440095211752448 0.2225189223308488 0 0.37280151553833601 0.22024831863616021 0 0.37293454716760283 0.2396311516560117 0 0.32946121748500129 0.25225194345791829 0 0.35728584731017871 0.25731187227922109 0 0.34556910970536658 0.23921390462248199 0 0.35728584731017871 0.25731187227922109 0 0.37293454716760283 0.2396311516560117 0 0.34556910970536658 0.23921390462248199 0 0.33789665254535572 0.15537308983460499 0 0.33956800136883641 0.14149862746365649 0 0.32484504322689201 0.150618498474763 0 0.33789665254535572 0.15537308983460499 0 0.32484504322689201 0.150618498474763 0 0.32925575641373173 0.1625602653078303 0 0.33789665254535572 0.15537308983460499 0 0.33956800136883641 0.14149862746365649 0 0.35085012880757988 0.15547460686614431 0 0.31847051852819058 0.13586426255884801 0 0.34441400131097022 0.1288917011053414 0 0.32933038512457441 0.1245201253257071 0 0.31847051852819058 0.13586426255884801 0 0.34441400131097022 0.1288917011053414 0 0.33956800136883641 0.14149862746365649 0 0.31847051852819058 0.13586426255884801 0 0.34441400131097022 0.1288917011053414 0 0.31229822968882548 0.13781435906697939 0 0.33956800136883641 0.14149862746365649 0 0.31229822968882548 0.13781435906697939 0 0.33956800136883641 0.14149862746365649 0 0.31847051852819058 0.13586426255884801 0 0.32933038512457441 0.1245201253257071 0 0.3207185438207466 0.1263919595033525 0 0.31847051852819058 0.13586426255884801 0 0.31156748461804079 0.12537242366950921 0 0.3207185438207466 0.1263919595033525 0 0.31847051852819058 0.13586426255884801 0 0.31229822968882548 0.13781435906697939 0 0.31156748461804079 0.12537242366950921 0 0.31847051852819058 0.13586426255884801 0 0.31229822968882548 0.13781435906697939 0 0.33956800136883641 0.14149862746365649 0 0.32484504322689201 0.150618498474763 0 0.31229822968882548 0.13781435906697939 0 0.32484504322689201 0.150618498474763 0 0.3129765302581462 0.1494710021231663 0 0.32484504322689201 0.150618498474763 0 0.3129765302581462 0.1494710021231663 0 0.31772009751989111 0.15842714336302041 0 0.30747502192119819 0.16230778928688711 0 0.3129765302581462 0.1494710021231663 0 0.31772009751989111 0.15842714336302041 0 0.30747502192119819 0.16230778928688711 0 0.31772009751989111 0.15842714336302041 0 0.32080742045079952 0.16866520015094741 0 0.31056514142368619 0.1744383831500049 0 0.30747502192119819 0.16230778928688711 0 0.32080742045079952 0.16866520015094741 0 0.32080742045079952 0.16866520015094741 0 0.33131907253280629 0.1738795647946571 0 0.32925575641373173 0.1625602653078303 0 0.32484504322689201 0.150618498474763 0 0.31772009751989111 0.15842714336302041 0 0.32925575641373173 0.1625602653078303 0 0.31772009751989111 0.15842714336302041 0 0.32080742045079952 0.16866520015094741 0 0.32925575641373173 0.1625602653078303 0 0.31056514142368619 0.1744383831500049 0 0.3080553032197017 0.1887293017033026 0 0.32122387935841612 0.1836610840160959 0 0.31056514142368619 0.1744383831500049 0 0.32080742045079952 0.16866520015094741 0 0.32122387935841612 0.1836610840160959 0 0.32080742045079952 0.16866520015094741 0 0.32122387935841612 0.1836610840160959 0 0.33131907253280629 0.1738795647946571 0 0.33131907253280629 0.1738795647946571 0 0.33967484433078321 0.18584068278097349 0 0.34294625220664587 0.1683980952289891 0 0.32122387935841612 0.1836610840160959 0 0.33131907253280629 0.1738795647946571 0 0.33967484433078321 0.18584068278097349 0 0.33131907253280629 0.1738795647946571 0 0.32925575641373173 0.1625602653078303 0 0.34294625220664587 0.1683980952289891 0 0.33789665254535572 0.15537308983460499 0 0.32925575641373173 0.1625602653078303 0 0.34294625220664587 0.1683980952289891 0 0.34294625220664587 0.1683980952289891 0 0.35531914635495271 0.16562513299740311 0 0.35085012880757988 0.15547460686614431 0 0.33789665254535572 0.15537308983460499 0 0.34294625220664587 0.1683980952289891 0 0.35085012880757988 0.15547460686614431 0 0.34294625220664587 0.1683980952289891 0 0.35531914635495271 0.16562513299740311 0 0.35387202203434698 0.17803066266241011 0 0.35531914635495271 0.16562513299740311 0 0.35387202203434698 0.17803066266241011 0 0.36550295271590683 0.1690726970215666 0 0.35531914635495271 0.16562513299740311 0 0.36342437601028388 0.15714960320790561 0 0.35085012880757988 0.15547460686614431 0 0.33967484433078321 0.18584068278097349 0 0.34294625220664587 0.1683980952289891 0 0.35387202203434698 0.17803066266241011 0 0.35368837148756882 0.19334260062126429 0 0.33967484433078321 0.18584068278097349 0 0.35387202203434698 0.17803066266241011 0 0.35368837148756882 0.19334260062126429 0 0.35387202203434698 0.17803066266241011 0 0.36699199379966768 0.18628457072029089 0 0.37486327834919952 0.17324080595030389 0 0.36699199379966768 0.18628457072029089 0 0.36550295271590683 0.1690726970215666 0 0.35387202203434698 0.17803066266241011 0 0.36699199379966768 0.18628457072029089 0 0.36550295271590683 0.1690726970215666 0 0.36342437601028388 0.15714960320790561 0 0.36550295271590683 0.1690726970215666 0 0.38328418214017468 0.15581326888627101 0 0.37486327834919952 0.17324080595030389 0 0.36550295271590683 0.1690726970215666 0 0.38328418214017468 0.15581326888627101 0 0.35531914635495271 0.16562513299740311 0 0.36342437601028388 0.15714960320790561 0 0.36550295271590683 0.1690726970215666 0 0.36342437601028388 0.15714960320790561 0 0.36683777304884752 0.14518289586033359 0 0.38328418214017468 0.15581326888627101 0 0.36342437601028388 0.15714960320790561 0 0.36683777304884752 0.14518289586033359 0 0.35085012880757988 0.15547460686614431 0 0.33956800136883641 0.14149862746365649 0 0.36683777304884752 0.14518289586033359 0 0.33956800136883641 0.14149862746365649 0 0.36683777304884752 0.14518289586033359 0 0.35085012880757988 0.15547460686614431 0 0.37035748409374952 0.12191913965183331 0 0.34441400131097022 0.1288917011053414 0 0.33956800136883641 0.14149862746365649 0 0.34441400131097022 0.1288917011053414 0 0.35985245571789548 0.13256521397634091 0 0.37035748409374952 0.12191913965183331 0 0.34441400131097022 0.1288917011053414 0 0.35985245571789548 0.13256521397634091 0 0.33956800136883641 0.14149862746365649 0 0.36683777304884752 0.14518289586033359 0 0.35985245571789548 0.13256521397634091 0 0.36683777304884752 0.14518289586033359 0 0.37024230120578611 0.13336796185197819 0 0.3828943795393005 0.1298338505994551 0 0.36683777304884752 0.14518289586033359 0 0.35985245571789548 0.13256521397634091 0 0.37024230120578611 0.13336796185197819 0 0.35985245571789548 0.13256521397634091 0 0.37024230120578611 0.13336796185197819 0 0.37169283910029199 0.12815165521797289 0 0.37024230120578611 0.13336796185197819 0 0.37169283910029199 0.12815165521797289 0 0.3828943795393005 0.1298338505994551 0 0.37035748409374952 0.12191913965183331 0 0.35985245571789548 0.13256521397634091 0 0.37169283910029199 0.12815165521797289 0 0.37169283910029199 0.12815165521797289 0 0.3828943795393005 0.1298338505994551 0 0.37511757494472903 0.123072110010257 0 0.3828943795393005 0.1298338505994551 0 0.39816792615439378 0.12760480203569169 0 0.39443703245191569 0.14316330482662179 0 0.39816792615439378 0.12760480203569169 0 0.39443703245191569 0.14316330482662179 0 0.40813897635800228 0.13879757292358971 0 0.40355831469332321 0.14905262061052801 0 0.39443703245191569 0.14316330482662179 0 0.39831584160420508 0.1589856433255693 0 0.39443703245191569 0.14316330482662179 0 0.38328418214017468 0.15581326888627101 0 0.39831584160420508 0.1589856433255693 0 0.40355831469332321 0.14905262061052801 0 0.39831584160420508 0.1589856433255693 0 0.41313230378900101 0.1549252007201132 0 0.40355831469332321 0.14905262061052801 0 0.39443703245191569 0.14316330482662179 0 0.40813897635800228 0.13879757292358971 0 0.3828943795393005 0.1298338505994551 0 0.39443703245191569 0.14316330482662179 0 0.38328418214017468 0.15581326888627101 0 0.36683777304884752 0.14518289586033359 0 0.3828943795393005 0.1298338505994551 0 0.38328418214017468 0.15581326888627101 0 0.3828943795393005 0.1298338505994551 0 0.38328418214017468 0.15581326888627101 0 0.38328418214017468 0.15581326888627101 0 0.38367398474104891 0.18179268717308689 0 0.37486327834919952 0.17324080595030389 0 0.38328418214017468 0.15581326888627101 0 0.38367398474104891 0.18179268717308689 0 0.38328418214017468 0.15581326888627101 0 0.38367398474104891 0.18179268717308689 0 0.39626047774709761 0.17356948839180519 0 0.37486327834919952 0.17324080595030389 0 0.36699199379966768 0.18628457072029089 0 0.38367398474104891 0.18179268717308689 0 0.38367398474104891 0.18179268717308689 0 0.39626047774709761 0.17356948839180519 0 0.39402839101454218 0.18926537882500041 0 0.41201559310989622 0.1717711692121752 0 0.39402839101454218 0.18926537882500041 0 0.40911253846621609 0.1927355572029634 0 0.41201559310989622 0.1717711692121752 0 0.39402839101454218 0.18926537882500041 0 0.39626047774709761 0.17356948839180519 0 0.41201559310989622 0.1717711692121752 0 0.39402839101454218 0.18926537882500041 0 0.38328418214017468 0.15581326888627101 0 0.39626047774709761 0.17356948839180519 0 0.39831584160420508 0.1589856433255693 0 0.39626047774709761 0.17356948839180519 0 0.39831584160420508 0.1589856433255693 0 0.41201559310989622 0.1717711692121752 0 0.39831584160420508 0.1589856433255693 0 0.41201559310989622 0.1717711692121752 0 0.41313230378900101 0.1549252007201132 0 0.41201559310989622 0.1717711692121752 0 0.43000279520525009 0.1542769595993502 0 0.41201559310989622 0.1717711692121752 0 0.43000279520525009 0.1542769595993502 0 0.41313230378900101 0.1549252007201132 0 0.41201559310989622 0.1717711692121752 0 0.42496471626184562 0.18478050847474101 0 0.40911253846621609 0.1927355572029634 0 0.42496471626184562 0.18478050847474101 0 0.42886790669691233 0.1683305758749721 0 0.44390934378202151 0.1869955505783234 0 0.41201559310989622 0.1717711692121752 0 0.42496471626184562 0.18478050847474101 0 0.42886790669691233 0.1683305758749721 0 0.42886790669691233 0.1683305758749721 0 0.44390934378202151 0.1869955505783234 0 0.41201559310989622 0.1717711692121752 0 0.42886790669691233 0.1683305758749721 0 0.43000279520525009 0.1542769595993502 0 0.42886790669691233 0.1683305758749721 0 0.43000279520525009 0.1542769595993502 0 0.44221599041969212 0.16183818438693329 0 0.43000279520525009 0.1542769595993502 0 0.42332430940078591 0.1392784445062823 0 0.4479899973006039 0.1367827499865252 0 0.43000279520525009 0.1542769595993502 0 0.42332430940078591 0.1392784445062823 0 0.41313230378900101 0.1549252007201132 0 0.429848517254516 0.1255917524949702 0 0.42332430940078591 0.1392784445062823 0 0.41384889774502859 0.12525543762671809 0 0.429848517254516 0.1255917524949702 0 0.42332430940078591 0.1392784445062823 0 0.4479899973006039 0.1367827499865252 0 0.39816792615439378 0.12760480203569169 0 0.41384889774502859 0.12525543762671809 0 0.40813897635800228 0.13879757292358971 0 0.42332430940078591 0.1392784445062823 0 0.41384889774502859 0.12525543762671809 0 0.40813897635800228 0.13879757292358971 0 0.40355831469332321 0.14905262061052801 0 0.40813897635800228 0.13879757292358971 0 0.41313230378900101 0.1549252007201132 0 0.42332430940078591 0.1392784445062823 0 0.40813897635800228 0.13879757292358971 0 0.41313230378900101 0.1549252007201132 0 0.38511047713535562 0.2623718011005241 0 0.37293454716760283 0.2396311516560117 0 0.39933451681408499 0.24222051247515669 0 0.37293454716760283 0.2396311516560117 0 0.39933451681408499 0.24222051247515669 0 0.39045396999845727 0.2225958518425987 0 0.37280151553833601 0.22024831863616021 0 0.37293454716760283 0.2396311516560117 0 0.39045396999845727 0.2225958518425987 0 0.39933451681408499 0.24222051247515669 0 0.39045396999845727 0.2225958518425987 0 0.41502085935247712 0.2184770015477572 0 0.39045396999845727 0.2225958518425987 0 0.39965272480706299 0.2061417744041574 0 0.38406378734192298 0.20777210545990279 0 0.39045396999845727 0.2225958518425987 0 0.39965272480706299 0.2061417744041574 0 0.41502085935247712 0.2184770015477572 0 0.37280151553833601 0.22024831863616021 0 0.39045396999845727 0.2225958518425987 0 0.38406378734192298 0.20777210545990279 0 0.36735815001373812 0.20351917688449569 0 0.38367398474104891 0.18179268717308689 0 0.38406378734192298 0.20777210545990279 0 0.38367398474104891 0.18179268717308689 0 0.38406378734192298 0.20777210545990279 0 0.38367398474104891 0.18179268717308689 0 0.38406378734192298 0.20777210545990279 0 0.39402839101454218 0.18926537882500041 0 0.39965272480706299 0.2061417744041574 0 0.38406378734192298 0.20777210545990279 0 0.39402839101454218 0.18926537882500041 0 0.39965272480706299 0.2061417744041574 0 0.39402839101454218 0.18926537882500041 0 0.40911253846621609 0.1927355572029634 0 0.42496471626184562 0.18478050847474101 0 0.40911253846621609 0.1927355572029634 0 0.43133039545531981 0.20312972213906441 0 0.42496471626184562 0.18478050847474101 0 0.43133039545531981 0.20312972213906441 0 0.44390934378202151 0.1869955505783234 0 0.43133039545531981 0.20312972213906441 0 0.41502085935247712 0.2184770015477572 0 0.43839838412078092 0.2247149777195776 0 0.40911253846621609 0.1927355572029634 0 0.41502085935247712 0.2184770015477572 0 0.40911253846621609 0.1927355572029634 0 0.43133039545531981 0.20312972213906441 0 0.41502085935247712 0.2184770015477572 0 0.39965272480706299 0.2061417744041574 0 0.40911253846621609 0.1927355572029634 0 0.41502085935247712 0.2184770015477572 0 0.41502085935247712 0.2184770015477572 0 0.42092918023873821 0.24421844589255121 0 0.41502085935247712 0.2184770015477572 0 0.42092918023873821 0.24421844589255121 0 0.43839838412078092 0.2247149777195776 0 0.42092918023873821 0.24421844589255121 0 0.44272868649399699 0.2414724783298311 0 0.43839838412078092 0.2247149777195776 0 0.44089414042045799 0.25771217685885472 0 0.42092918023873821 0.24421844589255121 0 0.44272868649399699 0.2414724783298311 0 0.39933451681408499 0.24222051247515669 0 0.41502085935247712 0.2184770015477572 0 0.42092918023873821 0.24421844589255121 0 0.46750550623703407 0.25349570762290419 0 0.4569230610569987 0.24819013429900669 0 0.47278153852907701 0.24486280325581439 0 0.4569230610569987 0.24819013429900669 0 0.45723446189795819 0.23161380727854039 0 0.47278153852907701 0.24486280325581439 0 0.4569230610569987 0.24819013429900669 0 0.44272868649399699 0.2414724783298311 0 0.45723446189795819 0.23161380727854039 0 0.44089414042045799 0.25771217685885472 0 0.4569230610569987 0.24819013429900669 0 0.44272868649399699 0.2414724783298311 0 0.43839838412078092 0.2247149777195776 0 0.45723446189795819 0.23161380727854039 0 0.45895078086713059 0.20566052528167461 0 0.44272868649399699 0.2414724783298311 0 0.43839838412078092 0.2247149777195776 0 0.45723446189795819 0.23161380727854039 0 0.45723446189795819 0.23161380727854039 0 0.47399221795223978 0.22432549998502579 0 0.47278153852907701 0.24486280325581439 0 0.45723446189795819 0.23161380727854039 0 0.45895078086713059 0.20566052528167461 0 0.47399221795223978 0.22432549998502579 0 0.45895078086713059 0.20566052528167461 0 0.47399221795223978 0.22432549998502579 0 0.43133039545531981 0.20312972213906441 0 0.43839838412078092 0.2247149777195776 0 0.45895078086713059 0.20566052528167461 0 0.43133039545531981 0.20312972213906441 0 0.45895078086713059 0.20566052528167461 0 0.44390934378202151 0.1869955505783234 0 0.45895078086713059 0.20566052528167461 0 0.44390934378202151 0.1869955505783234 0 0.45895078086713059 0.20566052528167461 0 0.44390934378202151 0.1869955505783234 0 0.47471792995388828 0.18435875067661631 0 0.45895078086713059 0.20566052528167461 0 0.47967819324703809 0.2043502093285503 0 0.47471792995388828 0.18435875067661631 0 0.5 0.20006456793442701 0 0.47967819324703809 0.2043502093285503 0 0.47471792995388828 0.18435875067661631 0 0.5 0.20006456793442701 0 0.48813206750880261 0.21755351138133391 0 0.47967819324703809 0.2043502093285503 0 0.5 0.20006456793442701 0 0.48813206750880261 0.21755351138133391 0 0.5 0.22779789293978581 0 0.45895078086713059 0.20566052528167461 0 0.47967819324703809 0.2043502093285503 0 0.47399221795223978 0.22432549998502579 0 0.48813206750880261 0.21755351138133391 0 0.47967819324703809 0.2043502093285503 0 0.47399221795223978 0.22432549998502579 0 0.48813206750880261 0.21755351138133391 0 0.47399221795223978 0.22432549998502579 0 0.48903365503734891 0.24299047468837701 0 0.47399221795223978 0.22432549998502579 0 0.48903365503734891 0.24299047468837701 0 0.48813206750880261 0.21755351138133391 0 0.5 0.22779789293978581 0 0.48903365503734891 0.24299047468837701 0 0.5 0.25553121794514477 0 0.5 0.22779789293978581 0 0.48903365503734891 0.24299047468837701 0 0.48489893488970792 0.25686202981026901 0 0.48903365503734891 0.24299047468837701 0 0.47278153852907701 0.24486280325581439 0 0.47399221795223978 0.22432549998502579 0 0.48903365503734891 0.24299047468837701 0 0.47278153852907701 0.24486280325581439 0 0.4479899973006039 0.1367827499865252 0 0.46030990911367259 0.16280508589549539 0 0.47332178232586258 0.14483424446409521 0 0.4479899973006039 0.1367827499865252 0 0.47332178232586258 0.14483424446409521 0 0.46597719939595772 0.11928854037370019 0 0.4479899973006039 0.1367827499865252 0 0.46597719939595772 0.11928854037370019 0 0.429848517254516 0.1255917524949702 0 0.4479899973006039 0.1367827499865252 0 0.44441253831551758 0.1138689947079024 0 0.43000279520525009 0.1542769595993502 0 0.4479899973006039 0.1367827499865252 0 0.44221599041969212 0.16183818438693329 0 0.43000279520525009 0.1542769595993502 0 0.4479899973006039 0.1367827499865252 0 0.4479899973006039 0.1367827499865252 0 0.44221599041969212 0.16183818438693329 0 0.46030990911367259 0.16280508589549539 0 0.44221599041969212 0.16183818438693329 0 0.44390934378202151 0.1869955505783234 0 0.46030990911367259 0.16280508589549539 0 0.42886790669691233 0.1683305758749721 0 0.44221599041969212 0.16183818438693329 0 0.44390934378202151 0.1869955505783234 0 0.44390934378202151 0.1869955505783234 0 0.46030990911367259 0.16280508589549539 0 0.47471792995388828 0.18435875067661631 0 0.46030990911367259 0.16280508589549539 0 0.48162298028441808 0.16304382698580119 0 0.47332178232586258 0.14483424446409521 0 0.46030990911367259 0.16280508589549539 0 0.48162298028441808 0.16304382698580119 0 0.47471792995388828 0.18435875067661631 0 0.5 0.20006456793442701 0 0.47471792995388828 0.18435875067661631 0 0.5 0.17233124292906801 0 0.48162298028441808 0.16304382698580119 0 0.47471792995388828 0.18435875067661631 0 0.5 0.17233124292906801 0 0.48162298028441808 0.16304382698580119 0 0.5 0.17233124292906801 0 0.5 0.14459791792370899 0 0.48162298028441808 0.16304382698580119 0 0.5 0.14459791792370899 0 0.47332178232586258 0.14483424446409521 0 0.47332178232586258 0.14483424446409521 0 0.48369720064842647 0.1280225697211729 0 0.46597719939595772 0.11928854037370019 0 0.5 0.14459791792370899 0 0.48369720064842647 0.1280225697211729 0 0.5 0.1168645929183502 0 0.5 0.14459791792370899 0 0.47332178232586258 0.14483424446409521 0 0.48369720064842647 0.1280225697211729 0 0.48369720064842647 0.1280225697211729 0 0.5 0.1168645929183502 0 0.47911227232856668 0.09907818001940101 0 0.5 0.1168645929183502 0 0.47911227232856668 0.09907818001940101 0 0.5 0.089131267912991197 0 0.48369720064842647 0.1280225697211729 0 0.47911227232856668 0.09907818001940101 0 0.46597719939595772 0.11928854037370019 0 0.48592231416185638 0.0752646054103117 0 0.5 0.089131267912991197 0 0.5 0.06139794290763223 0 0.47911227232856668 0.09907818001940101 0 0.48592231416185638 0.0752646054103117 0 0.5 0.089131267912991197 0 0.47911227232856668 0.09907818001940101 0 0.48592231416185638 0.0752646054103117 0 0.46599422920766509 0.071585542922595516 0 0.48592231416185638 0.0752646054103117 0 0.46599422920766509 0.071585542922595516 0 0.47969083044660421 0.050503904472553283 0 0.47911227232856668 0.09907818001940101 0 0.46599422920766509 0.071585542922595516 0 0.45660210543223351 0.096238293732025512 0 0.46599422920766509 0.071585542922595516 0 0.44319262383460789 0.070531660330671375 0 0.45660210543223351 0.096238293732025512 0 0.44319262383460789 0.070531660330671375 0 0.45660210543223351 0.096238293732025512 0 0.43559540491542181 0.095634413362833848 0 0.46597719939595772 0.11928854037370019 0 0.45660210543223351 0.096238293732025512 0 0.44441253831551758 0.1138689947079024 0 0.47911227232856668 0.09907818001940101 0 0.46597719939595772 0.11928854037370019 0 0.45660210543223351 0.096238293732025512 0 0.45660210543223351 0.096238293732025512 0 0.44441253831551758 0.1138689947079024 0 0.43559540491542181 0.095634413362833848 0 0.4479899973006039 0.1367827499865252 0 0.46597719939595772 0.11928854037370019 0 0.44441253831551758 0.1138689947079024 0 0.429848517254516 0.1255917524949702 0 0.44441253831551758 0.1138689947079024 0 0.42416274095453271 0.1101558860989641 0 0.429848517254516 0.1255917524949702 0 0.41384889774502859 0.12525543762671809 0 0.42416274095453271 0.1101558860989641 0 0.41384889774502859 0.12525543762671809 0 0.42416274095453271 0.1101558860989641 0 0.40716605829359193 0.1120264799895512 0 0.39816792615439378 0.12760480203569169 0 0.41384889774502859 0.12525543762671809 0 0.40716605829359193 0.1120264799895512 0 0.40716605829359193 0.1120264799895512 0 0.41525133388600899 0.093407911538609431 0 0.39656535672550852 0.092974877928873267 0 0.42416274095453271 0.1101558860989641 0 0.40716605829359193 0.1120264799895512 0 0.41525133388600899 0.093407911538609431 0 0.42416274095453271 0.1101558860989641 0 0.43559540491542181 0.095634413362833848 0 0.41525133388600899 0.093407911538609431 0 0.44441253831551758 0.1138689947079024 0 0.42416274095453271 0.1101558860989641 0 0.43559540491542181 0.095634413362833848 0 0.43559540491542181 0.095634413362833848 0 0.4195547633014628 0.073570994746074828 0 0.41525133388600899 0.093407911538609431 0 0.43559540491542181 0.095634413362833848 0 0.4195547633014628 0.073570994746074828 0 0.44319262383460789 0.070531660330671375 0 0.43559540491542181 0.095634413362833848 0 0.4195547633014628 0.073570994746074828 0 0.44319262383460789 0.070531660330671375 0 0.4195547633014628 0.073570994746074828 0 0.42728191937221521 0.050914286525162993 0 0.4195547633014628 0.073570994746074828 0 0.39780951386322527 0.071813900777571313 0 0.40351412168750378 0.051507576129315842 0 0.4195547633014628 0.073570994746074828 0 0.40351412168750378 0.051507576129315842 0 0.4195547633014628 0.073570994746074828 0 0.41525133388600899 0.093407911538609431 0 0.39780951386322527 0.071813900777571313 0 0.41525133388600899 0.093407911538609431 0 0.39656535672550852 0.092974877928873267 0 0.39780951386322527 0.071813900777571313 0 0.37400882161871279 0.083619613235024759 0 0.37883567044039879 0.062600723425798879 0 0.39780951386322527 0.071813900777571313 0 0.37883567044039879 0.062600723425798879 0 0.3909554563133032 0.056876008487314757 0 0.37400882161871279 0.083619613235024759 0 0.39780951386322527 0.071813900777571313 0 0.37883567044039879 0.062600723425798879 0 0.37400882161871279 0.083619613235024759 0 0.39656535672550852 0.092974877928873267 0 0.38808178026068268 0.10392801007035141 0 0.37400882161871279 0.083619613235024759 0 0.39656535672550852 0.092974877928873267 0 0.39780951386322527 0.071813900777571313 0 0.37455144446510141 0.10193275935197101 0 0.37400882161871279 0.083619613235024759 0 0.38808178026068268 0.10392801007035141 0 0.37455144446510141 0.10193275935197101 0 0.38808178026068268 0.10392801007035141 0 0.37815432920295677 0.1109533992790251 0 0.37035748409374952 0.12191913965183331 0 0.38876177119367089 0.116972809820693 0 0.37035748409374952 0.12191913965183331 0 0.37511757494472903 0.123072110010257 0 0.38876177119367089 0.116972809820693 0 0.37035748409374952 0.12191913965183331 0 0.37815432920295677 0.1109533992790251 0 0.38876177119367089 0.116972809820693 0 0.3828943795393005 0.1298338505994551 0 0.37511757494472903 0.123072110010257 0 0.38876177119367089 0.116972809820693 0 0.3828943795393005 0.1298338505994551 0 0.39816792615439378 0.12760480203569169 0 0.38876177119367089 0.116972809820693 0 0.38808178026068268 0.10392801007035141 0 0.37815432920295677 0.1109533992790251 0 0.38876177119367089 0.116972809820693 0 0.40716605829359193 0.1120264799895512 0 0.38876177119367089 0.116972809820693 0 0.39816792615439378 0.12760480203569169 0 0.40716605829359193 0.1120264799895512 0 0.38876177119367089 0.116972809820693 0 0.40716605829359193 0.1120264799895512 0 0.38808178026068268 0.10392801007035141 0 0.38876177119367089 0.116972809820693 0 0.40716605829359193 0.1120264799895512 0 0.39656535672550852 0.092974877928873267 0 0.38808178026068268 0.10392801007035141 0 0.39895333728429933 0.027539300906755181 0 0.38848936808377088 0.020562943807347231 0 0.4122691541308795 0.010257189796790951 0 0.39895333728429933 0.027539300906755181 0 0.38848936808377088 0.020562943807347231 0 0.38747348007354487 0.029444157512556919 0 0.39212595536292472 0.0047271407553128551 0 0.4122691541308795 0.010257189796790951 0 0.40542454288086849 -0.004070234290400764 0 0.38848936808377088 0.020562943807347231 0 0.4122691541308795 0.010257189796790951 0 0.39212595536292472 0.0047271407553128551 0 0.38848936808377088 0.020562943807347231 0 0.4122691541308795 0.010257189796790951 0 0.39212595536292472 0.0047271407553128551 0 0.38120377069012762 0.010554394007073271 0 0.36845156083710567 -0.0060515153414843056 0 0.36934971840039982 0.01412264887454192 0 0.38120377069012762 0.010554394007073271 0 0.38848936808377088 0.020562943807347231 0 0.39212595536292472 0.0047271407553128551 0 0.38120377069012762 0.010554394007073271 0 0.38848936808377088 0.020562943807347231 0 0.39212595536292472 0.0047271407553128551 0 0.38848936808377088 0.020562943807347231 0 0.38848936808377088 0.020562943807347231 0 0.38747348007354487 0.029444157512556919 0 0.38366251926208489 0.041581833616573027 0 0.38848936808377088 0.020562943807347231 0 0.38366251926208489 0.041581833616573027 0 0.36096242836060388 0.032492650360987897 0 0.38848936808377088 0.020562943807347231 0 0.38366251926208489 0.041581833616573027 0 0.37883567044039879 0.062600723425798879 0 0.38366251926208489 0.041581833616573027 0 0.3909554563133032 0.056876008487314757 0 0.37883567044039879 0.062600723425798879 0 0.38366251926208489 0.041581833616573027 0 0.36884998715724038 0.048654936693666287 0 0.37883567044039879 0.062600723425798879 0 0.38366251926208489 0.041581833616573027 0 0.38366251926208489 0.041581833616573027 0 0.40351412168750378 0.051507576129315842 0 0.3909554563133032 0.056876008487314757 0 0.39780951386322527 0.071813900777571313 0 0.40351412168750378 0.051507576129315842 0 0.3909554563133032 0.056876008487314757 0 0.38747348007354487 0.029444157512556919 0 0.40351412168750378 0.051507576129315842 0 0.39895333728429933 0.027539300906755181 0 0.40351412168750378 0.051507576129315842 0 0.40867742594100492 0.02913313449165824 0 0.39895333728429933 0.027539300906755181 0 0.38747348007354487 0.029444157512556919 0 0.40351412168750378 0.051507576129315842 0 0.38747348007354487 0.029444157512556919 0 0.38366251926208489 0.041581833616573027 0 0.40351412168750378 0.051507576129315842 0 0.40351412168750378 0.051507576129315842 0 0.41712069737947322 0.039684074088297272 0 0.40867742594100492 0.02913313449165824 0 0.41712069737947322 0.039684074088297272 0 0.42900932251716922 0.027181299207052031 0 0.40867742594100492 0.02913313449165824 0 0.40351412168750378 0.051507576129315842 0 0.41712069737947322 0.039684074088297272 0 0.42728191937221521 0.050914286525162993 0 0.4195547633014628 0.073570994746074828 0 0.40351412168750378 0.051507576129315842 0 0.42728191937221521 0.050914286525162993 0 0.41712069737947322 0.039684074088297272 0 0.42728191937221521 0.050914286525162993 0 0.42900932251716922 0.027181299207052031 0 0.42728191937221521 0.050914286525162993 0 0.42900932251716922 0.027181299207052031 0 0.45357816737839107 0.043281393992262968 0 0.42900932251716922 0.027181299207052031 0 0.40867742594100492 0.02913313449165824 0 0.4122691541308795 0.010257189796790951 0 0.39895333728429933 0.027539300906755181 0 0.40867742594100492 0.02913313449165824 0 0.4122691541308795 0.010257189796790951 0 0.4122691541308795 0.010257189796790951 0 0.42733427856619571 -0.0085863840744332814 0 0.43604894017798812 -4.8564213765240817e-05 0 0.42900932251716922 0.027181299207052031 0 0.4122691541308795 0.010257189796790951 0 0.43604894017798812 -4.8564213765240817e-05 0 0.4122691541308795 0.010257189796790951 0 0.43604894017798812 -4.8564213765240817e-05 0 0.45021491583924189 0.016350560368503721 0 0.45982872622509668 -0.01035431822432146 0 0.43604894017798812 -4.8564213765240817e-05 0 0.42900932251716922 0.027181299207052031 0 0.45021491583924189 0.016350560368503721 0 0.43604894017798812 -4.8564213765240817e-05 0 0.42900932251716922 0.027181299207052031 0 0.45021491583924189 0.016350560368503721 0 0.45357816737839107 0.043281393992262968 0 0.45021491583924189 0.016350560368503721 0 0.45357816737839107 0.043281393992262968 0 0.47265027193171238 0.017829323700243871 0 0.45021491583924189 0.016350560368503721 0 0.47265027193171238 0.017829323700243871 0 0.45982872622509668 -0.01035431822432146 0 0.45357816737839107 0.043281393992262968 0 0.47969083044660421 0.050503904472553283 0 0.47265027193171238 0.017829323700243871 0 0.44319262383460789 0.070531660330671375 0 0.42728191937221521 0.050914286525162993 0 0.45357816737839107 0.043281393992262968 0 0.46599422920766509 0.071585542922595516 0 0.44319262383460789 0.070531660330671375 0 0.45357816737839107 0.043281393992262968 0 0.46599422920766509 0.071585542922595516 0 0.45357816737839107 0.043281393992262968 0 0.47969083044660421 0.050503904472553283 0 0.47969083044660421 0.050503904472553283 0 0.5 0.033664617902273368 0 0.47265027193171238 0.017829323700243871 0 0.48592231416185638 0.0752646054103117 0 0.47969083044660421 0.050503904472553283 0 0.5 0.06139794290763223 0 0.47969083044660421 0.050503904472553283 0 0.5 0.033664617902273368 0 0.5 0.06139794290763223 0 0.5 0.033664617902273368 0 0.47265027193171238 0.017829323700243871 0 0.5 0.0059312928969145204 0 0.47265027193171238 0.017829323700243871 0 0.5 0.0059312928969145204 0 0.48261795830076532 -0.0084137270416950408 0 0.5 0.0059312928969145204 0 0.48261795830076532 -0.0084137270416950408 0 0.5 -0.021802032108444391 0 0.47265027193171238 0.017829323700243871 0 0.48261795830076532 -0.0084137270416950408 0 0.45982872622509668 -0.01035431822432146 0 0.48261795830076532 -0.0084137270416950408 0 0.48385521188952352 -0.03103713942335571 0 0.45982872622509668 -0.01035431822432146 0 0.48385521188952352 -0.03103713942335571 0 0.46768790053651399 -0.040232759786602873 0 0.45982872622509668 -0.01035431822432146 0 0.48261795830076532 -0.0084137270416950408 0 0.48385521188952352 -0.03103713942335571 0 0.5 -0.021802032108444391 0 0.48385521188952352 -0.03103713942335571 0 0.49518245524492172 -0.045789595090724652 0 0.49482530481253351 -0.04804557135493729 0 0.5 -0.021802032108444391 0 0.49518245524492172 -0.045789595090724652 0 0.49999999999998263 -0.049535357113803247 0 0.48385521188952352 -0.03103713942335571 0 0.5 -0.021802032108444391 0 0.49518245524492172 -0.045789595090724652 0 0.49482530481253351 -0.04804557135493729 0 0.47636674367150789 -0.060588545727567042 0 0.49016972248203172 -0.07745302065780417 0 0.49999999999998263 -0.049535357113803247 0 0.49482530481253351 -0.04804557135493729 0 0.49016972248203172 -0.07745302065780417 0 0.49999999999998263 -0.049535357113803247 0 0.49482530481253351 -0.04804557135493729 0 0.49518245524492172 -0.045789595090724652 0 0.49999999999998263 -0.049535357113803247 0 0.49482530481253351 -0.04804557135493729 0 0.49518245524492172 -0.045789595090724652 0 0.49482530481253351 -0.04804557135493729 0 0.49482530481253351 -0.04804557135493729 0 0.47636674367150789 -0.060588545727567042 0 0.46768790053651399 -0.040232759786602873 0 0.49482530481253351 -0.04804557135493729 0 0.46768790053651399 -0.040232759786602873 0 0.48385521188952352 -0.03103713942335571 0 0.49482530481253351 -0.04804557135493729 0 0.46768790053651399 -0.040232759786602873 0 0.46768790053651399 -0.040232759786602873 0 0.44055049626049481 -0.03241994821826754 0 0.47636674367150789 -0.060588545727567042 0 0.46768790053651399 -0.040232759786602873 0 0.44971823816913109 -0.058611894661768998 0 0.46768790053651399 -0.040232759786602873 0 0.44971823816913109 -0.058611894661768998 0 0.44055049626049481 -0.03241994821826754 0 0.44971823816913109 -0.058611894661768998 0 0.44055049626049481 -0.03241994821826754 0 0.42776585910878662 -0.047462582859365887 0 0.44055049626049481 -0.03241994821826754 0 0.43862233638968018 -0.01433991032473066 0 0.45982872622509668 -0.01035431822432146 0 0.45982872622509668 -0.01035431822432146 0 0.43604894017798812 -4.8564213765240817e-05 0 0.43862233638968018 -0.01433991032473066 0 0.45982872622509668 -0.01035431822432146 0 0.43604894017798812 -4.8564213765240817e-05 0 0.46768790053651399 -0.040232759786602873 0 0.44055049626049481 -0.03241994821826754 0 0.45982872622509668 -0.01035431822432146 0 0.47499259514944292 -0.1202547269832886 0 0.48551414015152222 -0.10686046996066979 0 0.48085855782101261 -0.13626791926353529 0 0.47418157221881441 -0.11112465676427991 0 0.47528951870947961 -0.09927779745641295 0 0.46093003486481321 -0.11810563265674839 0 0.48551414015152222 -0.10686046996066979 0 0.48085855782101261 -0.13626791926353529 0 0.47499259514944292 -0.1202547269832886 0 0.46093003486481321 -0.11810563265674839 0 0.47239045088042492 -0.13005034139104371 0 0.47499259514944292 -0.1202547269832886 0 0.47418157221881441 -0.11112465676427991 0 0.46093003486481321 -0.11810563265674839 0 0.47499259514944292 -0.1202547269832886 0 0.47418157221881441 -0.11112465676427991 0 0.48551414015152222 -0.10686046996066979 0 0.48986304781109291 -0.1242692167884092 0 0.49384429699065369 -0.1173080088948287 0 0.48551414015152222 -0.10686046996066979 0 0.48986304781109291 -0.1242692167884092 0 0.48551414015152222 -0.10686046996066979 0 0.48085855782101261 -0.13626791926353529 0 0.49384429699065369 -0.1173080088948287 0 0.5 -0.1051480109548549 0 0.5 -0.13295433787538069 0 0.48986304781109291 -0.1242692167884092 0 0.49384429699065369 -0.1173080088948287 0 0.5 -0.13295433787538069 0 0.49384429699065369 -0.1173080088948287 0 0.48551414015152222 -0.10686046996066979 0 0.5 -0.1051480109548549 0 0.48551414015152222 -0.10686046996066979 0 0.5 -0.1051480109548549 0 0.49016972248203172 -0.07745302065780417 0 0.48551414015152222 -0.10686046996066979 0 0.47528951870947961 -0.09927779745641295 0 0.4786949329242487 -0.090297096352784045 0 0.47418157221881441 -0.11112465676427991 0 0.48551414015152222 -0.10686046996066979 0 0.47528951870947961 -0.09927779745641295 0 0.47494193394216588 -0.078729965701305249 0 0.4786949329242487 -0.090297096352784045 0 0.46755934933604398 -0.089164227987728051 0 0.47528951870947961 -0.09927779745641295 0 0.4786949329242487 -0.090297096352784045 0 0.46755934933604398 -0.089164227987728051 0 0.47494193394216588 -0.078729965701305249 0 0.4786949329242487 -0.090297096352784045 0 0.49016972248203172 -0.07745302065780417 0 0.48551414015152222 -0.10686046996066979 0 0.49016972248203172 -0.07745302065780417 0 0.5 -0.1051480109548549 0 0.49016972248203172 -0.07745302065780417 0 0.5 -0.077341684034329061 0 0.48551414015152222 -0.10686046996066979 0 0.4786949329242487 -0.090297096352784045 0 0.49016972248203172 -0.07745302065780417 0 0.49999999999998263 -0.049535357113803247 0 0.49016972248203172 -0.07745302065780417 0 0.5 -0.077341684034329061 0 0.49482530481253351 -0.04804557135493729 0 0.49016972248203172 -0.07745302065780417 0 0.47636674367150789 -0.060588545727567042 0 0.47494193394216588 -0.078729965701305249 0 0.49016972248203172 -0.07745302065780417 0 0.47636674367150789 -0.060588545727567042 0 0.47494193394216588 -0.078729965701305249 0 0.4592808493329405 -0.078369632624057675 0 0.47636674367150789 -0.060588545727567042 0 0.44971823816913109 -0.058611894661768998 0 0.4592808493329405 -0.078369632624057675 0 0.47636674367150789 -0.060588545727567042 0 0.4592808493329405 -0.078369632624057675 0 0.44971823816913109 -0.058611894661768998 0 0.44126951216661869 -0.079236189142810429 0 0.42731029070553322 -0.068277018127587574 0 0.44971823816913109 -0.058611894661768998 0 0.44126951216661869 -0.079236189142810429 0 0.4592808493329405 -0.078369632624057675 0 0.4592808493329405 -0.078369632624057675 0 0.44219495499437311 -0.096150719520548239 0 0.44126951216661869 -0.079236189142810429 0 0.4592808493329405 -0.078369632624057675 0 0.44219495499437311 -0.096150719520548239 0 0.47494193394216588 -0.078729965701305249 0 0.4592808493329405 -0.078369632624057675 0 0.46755934933604398 -0.089164227987728051 0 0.4592808493329405 -0.078369632624057675 0 0.46755934933604398 -0.089164227987728051 0 0.44219495499437311 -0.096150719520548239 0 0.46755934933604398 -0.089164227987728051 0 0.46093003486481321 -0.11810563265674839 0 0.46755934933604398 -0.089164227987728051 0 0.44219495499437311 -0.096150719520548239 0 0.46093003486481321 -0.11810563265674839 0 0.47528951870947961 -0.09927779745641295 0 0.46755934933604398 -0.089164227987728051 0 0.46093003486481321 -0.11810563265674839 0 0.441730170532879 -0.1159420230490274 0 0.46093003486481321 -0.11810563265674839 0 0.44582693855797939 -0.1311402400572215 0 0.44219495499437311 -0.096150719520548239 0 0.441730170532879 -0.1159420230490274 0 0.46093003486481321 -0.11810563265674839 0 0.42510906065580589 -0.11393180641703871 0 0.40802316631723889 -0.13171289331352951 0 0.40725115801851319 -0.1169919833964142 0 0.42510906065580589 -0.11393180641703871 0 0.40802316631723889 -0.13171289331352951 0 0.40725115801851319 -0.1169919833964142 0 0.42510906065580589 -0.11393180641703871 0 0.4147200547274239 -0.1079547067436207 0 0.40725115801851319 -0.1169919833964142 0 0.4147200547274239 -0.1079547067436207 0 0.40692444267373179 -0.1088204768843429 0 0.441730170532879 -0.1159420230490274 0 0.42510906065580589 -0.11393180641703871 0 0.43087782981676859 -0.131879285754128 0 0.44219495499437311 -0.096150719520548239 0 0.42510906065580589 -0.11393180641703871 0 0.44219495499437311 -0.096150719520548239 0 0.441730170532879 -0.1159420230490274 0 0.42510906065580589 -0.11393180641703871 0 0.44219495499437311 -0.096150719520548239 0 0.42510906065580589 -0.11393180641703871 0 0.4234909377050316 -0.092737982748798881 0 0.42510906065580589 -0.11393180641703871 0 0.4147200547274239 -0.1079547067436207 0 0.4234909377050316 -0.092737982748798881 0 0.4147200547274239 -0.1079547067436207 0 0.40904120664506322 -0.09935874077938342 0 0.4234909377050316 -0.092737982748798881 0 0.4147200547274239 -0.1079547067436207 0 0.40692444267373179 -0.1088204768843429 0 0.40904120664506322 -0.09935874077938342 0 0.40904120664506322 -0.09935874077938342 0 0.4234909377050316 -0.092737982748798881 0 0.40226126486411301 -0.082186696628613137 0 0.4234909377050316 -0.092737982748798881 0 0.42731029070553322 -0.068277018127587574 0 0.40226126486411301 -0.082186696628613137 0 0.44126951216661869 -0.079236189142810429 0 0.4234909377050316 -0.092737982748798881 0 0.42731029070553322 -0.068277018127587574 0 0.44126951216661869 -0.079236189142810429 0 0.44219495499437311 -0.096150719520548239 0 0.4234909377050316 -0.092737982748798881 0 0.42731029070553322 -0.068277018127587574 0 0.40226126486411301 -0.082186696628613137 0 0.40783717842429862 -0.053396916639273179 0 0.40226126486411301 -0.082186696628613137 0 0.40783717842429862 -0.053396916639273179 0 0.38429333219820472 -0.067131704106828338 0 0.40226126486411301 -0.082186696628613137 0 0.40783717842429862 -0.053396916639273179 0 0.38429333219820472 -0.067131704106828338 0 0.38199460798391838 -0.085246791459625215 0 0.40226126486411301 -0.082186696628613137 0 0.38199460798391838 -0.085246791459625215 0 0.40226126486411301 -0.082186696628613137 0 0.39106825526090561 -0.1007030293946076 0 0.40226126486411301 -0.082186696628613137 0 0.39106825526090561 -0.1007030293946076 0 0.39668535130392929 -0.1109764766179535 0 0.40904120664506322 -0.09935874077938342 0 0.40226126486411301 -0.082186696628613137 0 0.39668535130392929 -0.1109764766179535 0 0.40226126486411301 -0.082186696628613137 0 0.39668535130392929 -0.1109764766179535 0 0.40692444267373179 -0.1088204768843429 0 0.40904120664506322 -0.09935874077938342 0 0.39668535130392929 -0.1109764766179535 0 0.39106825526090561 -0.1007030293946076 0 0.39668535130392929 -0.1109764766179535 0 0.39106825526090561 -0.1007030293946076 0 0.3799934613124491 -0.1141351934829782 0 0.39668535130392929 -0.1109764766179535 0 0.38199460798391838 -0.085246791459625215 0 0.39106825526090561 -0.1007030293946076 0 0.37706007999693841 -0.1011775095245466 0 0.39106825526090561 -0.1007030293946076 0 0.37706007999693841 -0.1011775095245466 0 0.3799934613124491 -0.1141351934829782 0 0.3799934613124491 -0.1141351934829782 0 0.39668535130392929 -0.1109764766179535 0 0.3932705088567644 -0.1286081277708763 0 0.3799934613124491 -0.1141351934829782 0 0.37104303648388809 -0.1272612894930944 0 0.3932705088567644 -0.1286081277708763 0 0.40224748518751269 -0.1211494002184121 0 0.3932705088567644 -0.1286081277708763 0 0.39668535130392929 -0.1109764766179535 0 0.3932705088567644 -0.1286081277708763 0 0.39668535130392929 -0.1109764766179535 0 0.40224748518751269 -0.1211494002184121 0 0.3932705088567644 -0.1286081277708763 0 0.40725115801851319 -0.1169919833964142 0 0.39668535130392929 -0.1109764766179535 0 0.40224748518751269 -0.1211494002184121 0 0.39668535130392929 -0.1109764766179535 0 0.40224748518751269 -0.1211494002184121 0 0.40725115801851319 -0.1169919833964142 0 0.40692444267373179 -0.1088204768843429 0 0.39668535130392929 -0.1109764766179535 0 0.40725115801851319 -0.1169919833964142 0 0.40224748518751269 -0.1211494002184121 0 0.40725115801851319 -0.1169919833964142 0 0.40224748518751269 -0.1211494002184121 0 0.40802316631723889 -0.13171289331352951 0 0.42156842614681772 -0.015954947998216139 0 0.41341309198447568 -0.024607136649931451 0 0.42934924071862562 -0.02029033689286578 0 0.41341309198447568 -0.024607136649931451 0 0.41617709331797431 -0.010335934375633319 0 0.42156842614681772 -0.015954947998216139 0 0.41341309198447568 -0.024607136649931451 0 0.41617709331797431 -0.010335934375633319 0 0.41341309198447568 -0.024607136649931451 0 0.40231254689356027 -0.037392070823486202 0 0.40309603266908228 -0.02802239201193971 0 0.41341309198447568 -0.024607136649931451 0 0.41078796895048542 -0.01389090533175278 0 0.39783226839882679 -0.020121444594939791 0 0.41341309198447568 -0.024607136649931451 0 0.41078796895048542 -0.01389090533175278 0 0.41617709331797431 -0.010335934375633319 0 0.41078796895048542 -0.01389090533175278 0 0.41617709331797431 -0.010335934375633319 0 0.40542454288086849 -0.004070234290400764 0 0.4122691541308795 0.010257189796790951 0 0.41617709331797431 -0.010335934375633319 0 0.40542454288086849 -0.004070234290400764 0 0.4122691541308795 0.010257189796790951 0 0.41617709331797431 -0.010335934375633319 0 0.42733427856619571 -0.0085863840744332814 0 0.42156842614681772 -0.015954947998216139 0 0.41617709331797431 -0.010335934375633319 0 0.42733427856619571 -0.0085863840744332814 0 0.42156842614681772 -0.015954947998216139 0 0.42733427856619571 -0.0085863840744332814 0 0.42934924071862562 -0.02029033689286578 0 0.43862233638968018 -0.01433991032473066 0 0.42733427856619571 -0.0085863840744332814 0 0.43604894017798812 -4.8564213765240817e-05 0 0.43862233638968018 -0.01433991032473066 0 0.42733427856619571 -0.0085863840744332814 0 0.42934924071862562 -0.02029033689286578 0 0.44055049626049481 -0.03241994821826754 0 0.43862233638968018 -0.01433991032473066 0 0.42934924071862562 -0.02029033689286578 0 0.44055049626049481 -0.03241994821826754 0 0.41341309198447568 -0.024607136649931451 0 0.42934924071862562 -0.02029033689286578 0 0.44055049626049481 -0.03241994821826754 0 0.41341309198447568 -0.024607136649931451 0 0.44055049626049481 -0.03241994821826754 0 0.41341309198447568 -0.024607136649931451 0 0.42776585910878662 -0.047462582859365887 0 0.44971823816913109 -0.058611894661768998 0 0.42731029070553322 -0.068277018127587574 0 0.42776585910878662 -0.047462582859365887 0 0.42731029070553322 -0.068277018127587574 0 0.42776585910878662 -0.047462582859365887 0 0.40783717842429862 -0.053396916639273179 0 0.41341309198447568 -0.024607136649931451 0 0.42776585910878662 -0.047462582859365887 0 0.40783717842429862 -0.053396916639273179 0 0.41341309198447568 -0.024607136649931451 0 0.40783717842429862 -0.053396916639273179 0 0.40231254689356027 -0.037392070823486202 0 0.41341309198447568 -0.024607136649931451 0 0.40783717842429862 -0.053396916639273179 0 0.40231254689356027 -0.037392070823486202 0 0.3981973431289102 -0.028872790202489229 0 0.40309603266908228 -0.02802239201193971 0 0.40231254689356027 -0.037392070823486202 0 0.38732801778773829 -0.04651698367670077 0 0.38934459454031273 -0.029067224222560958 0 0.40783717842429862 -0.053396916639273179 0 0.40231254689356027 -0.037392070823486202 0 0.38732801778773829 -0.04651698367670077 0 0.40231254689356027 -0.037392070823486202 0 0.38934459454031273 -0.029067224222560958 0 0.3981973431289102 -0.028872790202489229 0 0.38429333219820472 -0.067131704106828338 0 0.40783717842429862 -0.053396916639273179 0 0.38732801778773829 -0.04651698367670077 0 0.38429333219820472 -0.067131704106828338 0 0.38732801778773829 -0.04651698367670077 0 0.37042415964797237 -0.053058901563766692 0 0.38732801778773829 -0.04651698367670077 0 0.37068698927403948 -0.035605583580554698 0 0.37042415964797237 -0.053058901563766692 0 0.38732801778773829 -0.04651698367670077 0 0.38934459454031273 -0.029067224222560958 0 0.37068698927403948 -0.035605583580554698 0 0.38934459454031273 -0.029067224222560958 0 0.36983137800827248 -0.01206003687362641 0 0.37068698927403948 -0.035605583580554698 0 0.38934459454031273 -0.029067224222560958 0 0.39783226839882679 -0.020121444594939791 0 0.36983137800827248 -0.01206003687362641 0 0.39783226839882679 -0.020121444594939791 0 0.36983137800827248 -0.01206003687362641 0 0.38934459454031273 -0.029067224222560958 0 0.3981973431289102 -0.028872790202489229 0 0.39783226839882679 -0.020121444594939791 0 0.41341309198447568 -0.024607136649931451 0 0.39783226839882679 -0.020121444594939791 0 0.41341309198447568 -0.024607136649931451 0 0.39783226839882679 -0.020121444594939791 0 0.40309603266908228 -0.02802239201193971 0 0.3981973431289102 -0.028872790202489229 0 0.39783226839882679 -0.020121444594939791 0 0.40309603266908228 -0.02802239201193971 0 0.39212595536292472 0.0047271407553128551 0 0.39576254264207811 -0.011108662296721609 0 0.39212595536292472 0.0047271407553128551 0 0.40542454288086849 -0.004070234290400764 0 0.39576254264207811 -0.011108662296721609 0 0.41078796895048542 -0.01389090533175278 0 0.39783226839882679 -0.020121444594939791 0 0.39576254264207811 -0.011108662296721609 0 0.41078796895048542 -0.01389090533175278 0 0.39576254264207811 -0.011108662296721609 0 0.41078796895048542 -0.01389090533175278 0 0.40542454288086849 -0.004070234290400764 0 0.39576254264207811 -0.011108662296721609 0 0.39783226839882679 -0.020121444594939791 0 0.39576254264207811 -0.011108662296721609 0 0.39576254264207811 -0.011108662296721609 0 0.36983137800827248 -0.01206003687362641 0 0.36845156083710567 -0.0060515153414843056 0 0.39576254264207811 -0.011108662296721609 0 0.36845156083710567 -0.0060515153414843056 0 0.39212595536292472 0.0047271407553128551 0 0.39576254264207811 -0.011108662296721609 0 0.36845156083710567 -0.0060515153414843056 0 0.39783226839882679 -0.020121444594939791 0 0.39576254264207811 -0.011108662296721609 0 0.36983137800827248 -0.01206003687362641 0 0.36983137800827248 -0.01206003687362641 0 0.36845156083710567 -0.0060515153414843056 0 0.34183048761771712 -0.0039986291523161147 0 0.36983137800827248 -0.01206003687362641 0 0.35223914962217417 -0.02278106829858554 0 0.37068698927403948 -0.035605583580554698 0 0.36983137800827248 -0.01206003687362641 0 0.35223914962217417 -0.02278106829858554 0 0.34183048761771712 -0.0039986291523161147 0 0.36983137800827248 -0.01206003687362641 0 0.34183048761771712 -0.0039986291523161147 0 0.36845156083710567 -0.0060515153414843056 0 0.34114057903213352 -0.00099436838624600288 0 0.36845156083710567 -0.0060515153414843056 0 0.34183048761771712 -0.0039986291523161147 0 0.34114057903213352 -0.00099436838624600288 0 0.35223914962217417 -0.02278106829858554 0 0.34183048761771712 -0.0039986291523161147 0 0.33977780877024261 -0.017668132193127541 0 0.31382959722716158 0.0040627785689932028 0 0.34183048761771712 -0.0039986291523161147 0 0.34114057903213352 -0.00099436838624600288 0 0.34183048761771712 -0.0039986291523161147 0 0.33574973546384762 -0.01167659105592548 0 0.32194573769061952 -0.0077676308935595512 0 0.34183048761771712 -0.0039986291523161147 0 0.33574973546384762 -0.01167659105592548 0 0.33977780877024261 -0.017668132193127541 0 0.35223914962217417 -0.02278106829858554 0 0.33977780877024261 -0.017668132193127541 0 0.33879793226643329 -0.029417681387060649 0 0.33574973546384762 -0.01167659105592548 0 0.3302717388810405 -0.020466691071749941 0 0.3196214637881436 -0.021924893160697439 0 0.33977780877024261 -0.017668132193127541 0 0.33879793226643329 -0.029417681387060649 0 0.3302717388810405 -0.020466691071749941 0 0.33879793226643329 -0.029417681387060649 0 0.32862271298124018 -0.028919582591936679 0 0.3302717388810405 -0.020466691071749941 0 0.33574973546384762 -0.01167659105592548 0 0.33977780877024261 -0.017668132193127541 0 0.3302717388810405 -0.020466691071749941 0 0.3302717388810405 -0.020466691071749941 0 0.32526768976560849 -0.02407540610795475 0 0.3196214637881436 -0.021924893160697439 0 0.33574973546384762 -0.01167659105592548 0 0.3196214637881436 -0.021924893160697439 0 0.32862271298124018 -0.028919582591936679 0 0.3302717388810405 -0.020466691071749941 0 0.32526768976560849 -0.02407540610795475 0 0.32862271298124018 -0.028919582591936679 0 0.32095671603858011 -0.024994897592425049 0 0.3231679364015333 -0.033306441836977792 0 0.32862271298124018 -0.028919582591936679 0 0.32526768976560849 -0.02407540610795475 0 0.32095671603858011 -0.024994897592425049 0 0.32526768976560849 -0.02407540610795475 0 0.32095671603858011 -0.024994897592425049 0 0.3196214637881436 -0.021924893160697439 0 0.32095671603858011 -0.024994897592425049 0 0.3196214637881436 -0.021924893160697439 0 0.31660160940309118 -0.035871797032442469 0 0.32095671603858011 -0.024994897592425049 0 0.3196214637881436 -0.021924893160697439 0 0.33574973546384762 -0.01167659105592548 0 0.3196214637881436 -0.021924893160697439 0 0.32194573769061952 -0.0077676308935595512 0 0.30752965714041391 0.0058765203804442539 0 0.3196214637881436 -0.021924893160697439 0 0.32194573769061952 -0.0077676308935595512 0 0.31382959722716158 0.0040627785689932028 0 0.34183048761771712 -0.0039986291523161147 0 0.32194573769061952 -0.0077676308935595512 0 0.30752965714041391 0.0058765203804442539 0 0.3196214637881436 -0.021924893160697439 0 0.31292981148517318 -0.054457989835630861 0 0.33951515654934239 -0.057829064589421393 0 0.331762206516936 -0.074199649102278678 0 0.31292981148517318 -0.054457989835630861 0 0.32943454752299528 -0.042779626289088678 0 0.31292981148517318 -0.054457989835630861 0 0.32943454752299528 -0.042779626289088678 0 0.33951515654934239 -0.057829064589421393 0 0.31292981148517318 -0.054457989835630861 0 0.31660160940309118 -0.035871797032442469 0 0.32943454752299528 -0.042779626289088678 0 0.32095671603858011 -0.024994897592425049 0 0.31660160940309118 -0.035871797032442469 0 0.3231679364015333 -0.033306441836977792 0 0.32862271298124018 -0.028919582591936679 0 0.3231679364015333 -0.033306441836977792 0 0.32943454752299528 -0.042779626289088678 0 0.31660160940309118 -0.035871797032442469 0 0.3231679364015333 -0.033306441836977792 0 0.32943454752299528 -0.042779626289088678 0 0.33879793226643329 -0.029417681387060649 0 0.32943454752299528 -0.042779626289088678 0 0.35178468962230941 -0.045374559850196158 0 0.33879793226643329 -0.029417681387060649 0 0.32862271298124018 -0.028919582591936679 0 0.32943454752299528 -0.042779626289088678 0 0.32943454752299528 -0.042779626289088678 0 0.33951515654934239 -0.057829064589421393 0 0.35178468962230941 -0.045374559850196158 0 0.33951515654934239 -0.057829064589421393 0 0.35178468962230941 -0.045374559850196158 0 0.35802776935757019 -0.070665676604553529 0 0.35223914962217417 -0.02278106829858554 0 0.35178468962230941 -0.045374559850196158 0 0.37068698927403948 -0.035605583580554698 0 0.35223914962217417 -0.02278106829858554 0 0.33879793226643329 -0.029417681387060649 0 0.35178468962230941 -0.045374559850196158 0 0.35178468962230941 -0.045374559850196158 0 0.37068698927403948 -0.035605583580554698 0 0.37042415964797237 -0.053058901563766692 0 0.35178468962230941 -0.045374559850196158 0 0.37042415964797237 -0.053058901563766692 0 0.35802776935757019 -0.070665676604553529 0 0.38429333219820472 -0.067131704106828338 0 0.38199460798391838 -0.085246791459625215 0 0.35802776935757019 -0.070665676604553529 0 0.38429333219820472 -0.067131704106828338 0 0.37042415964797237 -0.053058901563766692 0 0.35802776935757019 -0.070665676604553529 0 0.38429333219820472 -0.067131704106828338 0 0.35802776935757019 -0.070665676604553529 0 0.38199460798391838 -0.085246791459625215 0 0.36577500316168848 -0.093055365242956031 0 0.35802776935757019 -0.070665676604553529 0 0.38199460798391838 -0.085246791459625215 0 0.37706007999693841 -0.1011775095245466 0 0.36577500316168848 -0.093055365242956031 0 0.35802776935757019 -0.070665676604553529 0 0.34487393367809682 -0.095216741312257352 0 0.331762206516936 -0.074199649102278678 0 0.36577500316168848 -0.093055365242956031 0 0.35802776935757019 -0.070665676604553529 0 0.34487393367809682 -0.095216741312257352 0 0.35802776935757019 -0.070665676604553529 0 0.331762206516936 -0.074199649102278678 0 0.3799934613124491 -0.1141351934829782 0 0.36192545204167298 -0.11208328153174781 0 0.37104303648388809 -0.1272612894930944 0 0.36192545204167298 -0.11208328153174781 0 0.35551888896884759 -0.1297027680154724 0 0.37104303648388809 -0.1272612894930944 0 0.37706007999693841 -0.1011775095245466 0 0.3799934613124491 -0.1141351934829782 0 0.36192545204167298 -0.11208328153174781 0 0.37706007999693841 -0.1011775095245466 0 0.36577500316168848 -0.093055365242956031 0 0.36192545204167298 -0.11208328153174781 0 0.36192545204167298 -0.11208328153174781 0 0.34487393367809682 -0.095216741312257352 0 0.34014121552940491 -0.1203166258242544 0 0.36577500316168848 -0.093055365242956031 0 0.36192545204167298 -0.11208328153174781 0 0.34487393367809682 -0.095216741312257352 0 0.36192545204167298 -0.11208328153174781 0 0.34014121552940491 -0.1203166258242544 0 0.35551888896884759 -0.1297027680154724 0 0.34014121552940491 -0.1203166258242544 0 0.32517348349888747 -0.118580130041643 0 0.32373683991627678 -0.1342707635111336 0 0.34014121552940491 -0.1203166258242544 0 0.32895182275083351 -0.1060869523066566 0 0.32517348349888747 -0.118580130041643 0 0.34487393367809682 -0.095216741312257352 0 0.34014121552940491 -0.1203166258242544 0 0.32895182275083351 -0.1060869523066566 0 0.34487393367809682 -0.095216741312257352 0 0.32895182275083351 -0.1060869523066566 0 0.32681031061177879 -0.089772122834636051 0 0.32895182275083351 -0.1060869523066566 0 0.31743464692623941 -0.099981704590172707 0 0.32681031061177879 -0.089772122834636051 0 0.31743464692623941 -0.099981704590172707 0 0.31638799147784608 -0.1118713826410174 0 0.30885616350321549 -0.1072846913931271 0 0.32895182275083351 -0.1060869523066566 0 0.31743464692623941 -0.099981704590172707 0 0.31638799147784608 -0.1118713826410174 0 0.32895182275083351 -0.1060869523066566 0 0.31638799147784608 -0.1118713826410174 0 0.32517348349888747 -0.118580130041643 0 0.31638799147784608 -0.1118713826410174 0 0.31399575267335023 -0.12250180558336519 0 0.30853123694459123 -0.1170064061326217 0 0.31638799147784608 -0.1118713826410174 0 0.31399575267335023 -0.12250180558336519 0 0.32517348349888747 -0.118580130041643 0 0.33951515654934239 -0.057829064589421393 0 0.35802776935757019 -0.070665676604553529 0 0.331762206516936 -0.074199649102278678 0 0.34487393367809682 -0.095216741312257352 0 0.331762206516936 -0.074199649102278678 0 0.32681031061177879 -0.089772122834636051 0 0.32681031061177879 -0.089772122834636051 0 0.30549664367630158 -0.077733621600003855 0 0.31220284993755582 -0.090742102146006851 0 0.331762206516936 -0.074199649102278678 0 0.32681031061177879 -0.089772122834636051 0 0.30549664367630158 -0.077733621600003855 0 0.31743464692623941 -0.099981704590172707 0 0.32681031061177879 -0.089772122834636051 0 0.31220284993755582 -0.090742102146006851 0 0.31292981148517318 -0.054457989835630861 0 0.331762206516936 -0.074199649102278678 0 0.30549664367630158 -0.077733621600003855 0 0.331762206516936 -0.074199649102278678 0 0.30549664367630158 -0.077733621600003855 0 0.31292981148517318 -0.054457989835630861 0 0.30549664367630158 -0.077733621600003855 0 0.29642507544735103 -0.06613635338217283 0 0.30549664367630158 -0.077733621600003855 0 0.29743178973804058 -0.092817056036521225 0 0.29642507544735103 -0.06613635338217283 0 0.29743178973804058 -0.092817056036521225 0 0.29642507544735103 -0.06613635338217283 0 0.31220284993755582 -0.090742102146006851 0 0.30524841693787119 -0.089877123387424693 0 0.30586238439958702 -0.098215713767166868 0 0.30549664367630158 -0.077733621600003855 0 0.31220284993755582 -0.090742102146006851 0 0.30524841693787119 -0.089877123387424693 0 0.30524841693787119 -0.089877123387424693 0 0.29743178973804058 -0.092817056036521225 0 0.30586238439958702 -0.098215713767166868 0 0.30549664367630158 -0.077733621600003855 0 0.30524841693787119 -0.089877123387424693 0 0.29743178973804058 -0.092817056036521225 0 0.29430385704143641 -0.093334685648855456 0 0.28333646668855839 -0.1038254721913715 0 0.27844545300264117 -0.078858311907156253 0 0.29743178973804058 -0.092817056036521225 0 0.29430385704143641 -0.093334685648855456 0 0.29347904805936648 -0.068220893163732282 0 0.29430385704143641 -0.093334685648855456 0 0.29347904805936648 -0.068220893163732282 0 0.27844545300264117 -0.078858311907156253 0 0.29430385704143641 -0.093334685648855456 0 0.29347904805936648 -0.068220893163732282 0 0.29743178973804058 -0.092817056036521225 0 0.29642507544735103 -0.06613635338217283 0 0.29347904805936648 -0.068220893163732282 0 0.28521560802072671 -0.062721316040594208 0 0.29347904805936648 -0.068220893163732282 0 0.27844545300264117 -0.078858311907156253 0 0.29347904805936648 -0.068220893163732282 0 0.27844545300264117 -0.078858311907156253 0 0.29642507544735103 -0.06613635338217283 0 0.29347904805936648 -0.068220893163732282 0 0.29301224914481439 -0.054007794946804598 0 0.29642507544735103 -0.06613635338217283 0 0.29347904805936648 -0.068220893163732282 0 0.29743178973804058 -0.092817056036521225 0 0.29843850402873079 -0.11949775869086959 0 0.29512866602350563 -0.1184484781339787 0 0.29843850402873079 -0.11949775869086959 0 0.29512866602350563 -0.1184484781339787 0 0.30010147488007238 -0.1276093355582181 0 0.29843850402873079 -0.11949775869086959 0 0.30554459793957989 -0.1238630007756472 0 0.30853123694459123 -0.1170064061326217 0 0.29843850402873079 -0.11949775869086959 0 0.30554459793957989 -0.1238630007756472 0 0.30010147488007238 -0.1276093355582181 0 0.31399575267335023 -0.12250180558336519 0 0.30554459793957989 -0.1238630007756472 0 0.30853123694459123 -0.1170064061326217 0 0.29843850402873079 -0.11949775869086959 0 0.30853123694459123 -0.1170064061326217 0 0.30885616350321549 -0.1072846913931271 0 0.31638799147784608 -0.1118713826410174 0 0.30853123694459123 -0.1170064061326217 0 0.30885616350321549 -0.1072846913931271 0 0.29843850402873079 -0.11949775869086959 0 0.30885616350321549 -0.1072846913931271 0 0.30586238439958702 -0.098215713767166868 0 0.29743178973804058 -0.092817056036521225 0 0.29843850402873079 -0.11949775869086959 0 0.30586238439958702 -0.098215713767166868 0 0.29743178973804058 -0.092817056036521225 0 0.29843850402873079 -0.11949775869086959 0 0.31743464692623941 -0.099981704590172707 0 0.30885616350321549 -0.1072846913931271 0 0.30586238439958702 -0.098215713767166868 0 0.31743464692623941 -0.099981704590172707 0 0.31220284993755582 -0.090742102146006851 0 0.30586238439958702 -0.098215713767166868 0 0.29430385704143641 -0.093334685648855456 0 0.29512866602350563 -0.1184484781339787 0 0.29430385704143641 -0.093334685648855456 0 0.28333646668855839 -0.1038254721913715 0 0.29512866602350563 -0.1184484781339787 0 0.29743178973804058 -0.092817056036521225 0 0.29430385704143641 -0.093334685648855456 0 0.29512866602350563 -0.1184484781339787 0 0.28333646668855839 -0.1038254721913715 0 0.29512866602350563 -0.1184484781339787 0 0.28822748037447399 -0.12879263247558709 0 0.28333646668855839 -0.1038254721913715 0 0.28822748037447399 -0.12879263247558709 0 0.26621118532108262 -0.1119181791838486 0 0.25741251913389712 -0.1305951081492244 0 0.28822748037447399 -0.12879263247558709 0 0.28333646668855839 -0.1038254721913715 0 0.26621118532108262 -0.1119181791838486 0 0.28822748037447399 -0.12879263247558709 0 0.28333646668855839 -0.1038254721913715 0 0.26621118532108262 -0.1119181791838486 0 0.26565518081306061 -0.08790840808238623 0 0.26621118532108262 -0.1119181791838486 0 0.25154255280112903 -0.1006059983499779 0 0.24954668948061209 -0.11284283178631641 0 0.26621118532108262 -0.1119181791838486 0 0.25154255280112903 -0.1006059983499779 0 0.26565518081306061 -0.08790840808238623 0 0.26621118532108262 -0.1119181791838486 0 0.25741251913389712 -0.1305951081492244 0 0.24954668948061209 -0.11284283178631641 0 0.27844545300264117 -0.078858311907156253 0 0.2741393958395883 -0.056877179510702792 0 0.28007443442101287 -0.061799103716356343 0 0.27844545300264117 -0.078858311907156253 0 0.2741393958395883 -0.056877179510702792 0 0.26628957168076178 -0.070692469674316694 0 0.27844545300264117 -0.078858311907156253 0 0.2741393958395883 -0.056877179510702792 0 0.28521560802072671 -0.062721316040594208 0 0.27844545300264117 -0.078858311907156253 0 0.28007443442101287 -0.061799103716356343 0 0.26628957168076178 -0.070692469674316694 0 0.27844545300264117 -0.078858311907156253 0 0.26565518081306061 -0.08790840808238623 0 0.28333646668855839 -0.1038254721913715 0 0.27844545300264117 -0.078858311907156253 0 0.26565518081306061 -0.08790840808238623 0 0.28333646668855839 -0.1038254721913715 0 0.27844545300264117 -0.078858311907156253 0 0.27844545300264117 -0.078858311907156253 0 0.26565518081306061 -0.08790840808238623 0 0.25154255280112903 -0.1006059983499779 0 0.25664035233608162 -0.078361863555500011 0 0.24390890644978661 -0.075150332687283522 0 0.25154255280112903 -0.1006059983499779 0 0.26565518081306061 -0.08790840808238623 0 0.25664035233608162 -0.078361863555500011 0 0.26628957168076178 -0.070692469674316694 0 0.26565518081306061 -0.08790840808238623 0 0.25664035233608162 -0.078361863555500011 0 0.25664035233608162 -0.078361863555500011 0 0.25256726729664603 -0.064532785491330763 0 0.24390890644978661 -0.075150332687283522 0 0.26628957168076178 -0.070692469674316694 0 0.25256726729664603 -0.064532785491330763 0 0.2741393958395883 -0.056877179510702792 0 0.26628957168076178 -0.070692469674316694 0 0.25664035233608162 -0.078361863555500011 0 0.25256726729664603 -0.064532785491330763 0 0.25256726729664603 -0.064532785491330763 0 0.25164978009717781 -0.053061021673298493 0 0.24617004458672351 -0.058202332164817121 0 0.25256726729664603 -0.064532785491330763 0 0.26131371929964131 -0.050907379716302707 0 0.27395317434556299 -0.0509436520349522 0 0.25256726729664603 -0.064532785491330763 0 0.25164978009717781 -0.053061021673298493 0 0.26131371929964131 -0.050907379716302707 0 0.25256726729664603 -0.064532785491330763 0 0.27395317434556299 -0.0509436520349522 0 0.25164978009717781 -0.053061021673298493 0 0.26131371929964131 -0.050907379716302707 0 0.2539732262079259 -0.044675773385505282 0 0.26131371929964131 -0.050907379716302707 0 0.26227784506780882 -0.045421506107560787 0 0.2539732262079259 -0.044675773385505282 0 0.26131371929964131 -0.050907379716302707 0 0.26742863268251632 -0.045985676557136583 0 0.26227784506780882 -0.045421506107560787 0 0.25256726729664603 -0.064532785491330763 0 0.27395317434556299 -0.0509436520349522 0 0.2741393958395883 -0.056877179510702792 0 0.26131371929964131 -0.050907379716302707 0 0.27395317434556299 -0.0509436520349522 0 0.26742863268251632 -0.045985676557136583 0 0.27395317434556299 -0.0509436520349522 0 0.2741393958395883 -0.056877179510702792 0 0.28351618772518777 -0.053458991616202503 0 0.2741393958395883 -0.056877179510702792 0 0.28007443442101287 -0.061799103716356343 0 0.28351618772518777 -0.053458991616202503 0 0.2807394014679111 -0.038000872253349499 0 0.27361436003936901 -0.034999677146069851 0 0.27240238673917438 -0.042113497984529957 0 0.2807394014679111 -0.038000872253349499 0 0.27361436003936901 -0.034999677146069851 0 0.28248009054126683 -0.027824818882371601 0 0.27395317434556299 -0.0509436520349522 0 0.2807394014679111 -0.038000872253349499 0 0.27240238673917438 -0.042113497984529957 0 0.27395317434556299 -0.0509436520349522 0 0.27240238673917438 -0.042113497984529957 0 0.26742863268251632 -0.045985676557136583 0 0.27361436003936901 -0.034999677146069851 0 0.27240238673917438 -0.042113497984529957 0 0.26639580208115188 -0.040117194771298603 0 0.27240238673917438 -0.042113497984529957 0 0.26742863268251632 -0.045985676557136583 0 0.26639580208115188 -0.040117194771298603 0 0.27361436003936901 -0.034999677146069851 0 0.26639580208115188 -0.040117194771298603 0 0.26859201328057281 -0.027442020841521631 0 0.2539732262079259 -0.044675773385505282 0 0.25845033672230949 -0.02738613623275089 0 0.26859201328057281 -0.027442020841521631 0 0.2539732262079259 -0.044675773385505282 0 0.25845033672230949 -0.02738613623275089 0 0.24422464309495209 -0.046986837608536558 0 0.25845033672230949 -0.02738613623275089 0 0.24422464309495209 -0.046986837608536558 0 0.26639580208115188 -0.040117194771298603 0 0.2539732262079259 -0.044675773385505282 0 0.26859201328057281 -0.027442020841521631 0 0.2539732262079259 -0.044675773385505282 0 0.26859201328057281 -0.027442020841521631 0 0.26639580208115188 -0.040117194771298603 0 0.26227784506780882 -0.045421506107560787 0 0.2539732262079259 -0.044675773385505282 0 0.26742863268251632 -0.045985676557136583 0 0.26639580208115188 -0.040117194771298603 0 0.26227784506780882 -0.045421506107560787 0 0.25013504981522988 -0.025019616072594848 0 0.25845033672230949 -0.02738613623275089 0 0.24524507923365879 -0.0330622213940093 0 0.25845033672230949 -0.02738613623275089 0 0.27267603034966698 -0.0077854348569651906 0 0.25845033672230949 -0.02738613623275089 0 0.25886508985187012 -0.013172853544477199 0 0.27267603034966698 -0.0077854348569651906 0 0.25013504981522988 -0.025019616072594848 0 0.25247407830029878 -0.019873092178793648 0 0.25845033672230949 -0.02738613623275089 0 0.25247407830029878 -0.019873092178793648 0 0.25845033672230949 -0.02738613623275089 0 0.25886508985187012 -0.013172853544477199 0 0.25598072684389089 -0.0058943492075353007 0 0.25006914023697918 -0.01208141302270524 0 0.2479891295484222 -0.0022684572774312019 0 0.25894279220913391 0.003459445712386486 0 0.25598072684389089 -0.0058943492075353007 0 0.2479891295484222 -0.0022684572774312019 0 0.25598072684389089 -0.0058943492075353007 0 0.25006914023697918 -0.01208141302270524 0 0.25886508985187012 -0.013172853544477199 0 0.25247407830029878 -0.019873092178793648 0 0.25006914023697918 -0.01208141302270524 0 0.25886508985187012 -0.013172853544477199 0 0.25886508985187012 -0.013172853544477199 0 0.26317147738524183 -0.0038637327990410169 0 0.27267603034966698 -0.0077854348569651906 0 0.25598072684389089 -0.0058943492075353007 0 0.25886508985187012 -0.013172853544477199 0 0.26317147738524183 -0.0038637327990410169 0 0.25894279220913391 0.003459445712386486 0 0.25598072684389089 -0.0058943492075353007 0 0.26317147738524183 -0.0038637327990410169 0 0.27267603034966698 -0.0077854348569651906 0 0.26859201328057281 -0.027442020841521631 0 0.28321080035321983 -0.010208268297538009 0 0.26939274767164711 0.0040745279013861191 0 0.26317147738524183 -0.0038637327990410169 0 0.27267603034966698 -0.0077854348569651906 0 0.28687677889875068 0.001725005618485562 0 0.27267603034966698 -0.0077854348569651906 0 0.28321080035321983 -0.010208268297538009 0 0.26859201328057281 -0.027442020841521631 0 0.28321080035321983 -0.010208268297538009 0 0.25845033672230949 -0.02738613623275089 0 0.27267603034966698 -0.0077854348569651906 0 0.26859201328057281 -0.027442020841521631 0 0.26859201328057281 -0.027442020841521631 0 0.28248009054126683 -0.027824818882371601 0 0.28321080035321983 -0.010208268297538009 0 0.27361436003936901 -0.034999677146069851 0 0.26859201328057281 -0.027442020841521631 0 0.28248009054126683 -0.027824818882371601 0 0.29465383366866438 -0.01919356567853802 0 0.28248009054126683 -0.027824818882371601 0 0.29533908139447967 -0.037354518578573179 0 0.29465383366866438 -0.01919356567853802 0 0.28248009054126683 -0.027824818882371601 0 0.28321080035321983 -0.010208268297538009 0 0.29465383366866438 -0.01919356567853802 0 0.29533908139447967 -0.037354518578573179 0 0.2978295874258669 0.0070254842464454832 0 0.28321080035321983 -0.010208268297538009 0 0.29396858594285019 -0.001032612778502764 0 0.2978295874258669 0.0070254842464454832 0 0.28687677889875068 0.001725005618485562 0 0.28321080035321983 -0.010208268297538009 0 0.29465383366866438 -0.01919356567853802 0 0.28321080035321983 -0.010208268297538009 0 0.29396858594285019 -0.001032612778502764 0 0.2978295874258669 0.0070254842464454832 0 0.28321080035321983 -0.010208268297538009 0 0.29465383366866438 -0.01919356567853802 0 0.29396858594285019 -0.001032612778502764 0 0.30752965714041391 0.0058765203804442539 0 0.29465383366866438 -0.01919356567853802 0 0.29396858594285019 -0.001032612778502764 0 0.30752965714041391 0.0058765203804442539 0 0.3196214637881436 -0.021924893160697439 0 0.29465383366866438 -0.01919356567853802 0 0.3196214637881436 -0.021924893160697439 0 0.29465383366866438 -0.01919356567853802 0 0.29533908139447967 -0.037354518578573179 0 0.3196214637881436 -0.021924893160697439 0 0.29533908139447967 -0.037354518578573179 0 0.3196214637881436 -0.021924893160697439 0 0.31660160940309118 -0.035871797032442469 0 0.29533908139447967 -0.037354518578573179 0 0.31292981148517318 -0.054457989835630861 0 0.31660160940309118 -0.035871797032442469 0 0.29533908139447967 -0.037354518578573179 0 0.31292981148517318 -0.054457989835630861 0 0.29642507544735103 -0.06613635338217283 0 0.31292981148517318 -0.054457989835630861 0 0.29642507544735103 -0.06613635338217283 0 0.29533908139447967 -0.037354518578573179 0 0.29642507544735103 -0.06613635338217283 0 0.29301224914481439 -0.054007794946804598 0 0.29533908139447967 -0.037354518578573179 0 0.27395317434556299 -0.0509436520349522 0 0.28351618772518777 -0.053458991616202503 0 0.29533908139447967 -0.037354518578573179 0 0.29301224914481439 -0.054007794946804598 0 0.28351618772518777 -0.053458991616202503 0 0.29533908139447967 -0.037354518578573179 0 0.29642507544735103 -0.06613635338217283 0 0.29533908139447967 -0.037354518578573179 0 0.29347904805936648 -0.068220893163732282 0 0.29301224914481439 -0.054007794946804598 0 0.28521560802072671 -0.062721316040594208 0 0.29347904805936648 -0.068220893163732282 0 0.29301224914481439 -0.054007794946804598 0 0.28521560802072671 -0.062721316040594208 0 0.29301224914481439 -0.054007794946804598 0 0.28351618772518777 -0.053458991616202503 0 0.28521560802072671 -0.062721316040594208 0 0.28007443442101287 -0.061799103716356343 0 0.28351618772518777 -0.053458991616202503 0 0.27395317434556299 -0.0509436520349522 0 0.29533908139447967 -0.037354518578573179 0 0.27395317434556299 -0.0509436520349522 0 0.2807394014679111 -0.038000872253349499 0 0.29533908139447967 -0.037354518578573179 0 0.2807394014679111 -0.038000872253349499 0 0.28248009054126683 -0.027824818882371601 0 0.29533908139447967 -0.037354518578573179 0 0.30290052143222262 -0.20369411332823331 0 0.28158405213751547 -0.22140539282722879 0 0.30290052143222262 -0.20369411332823331 0 0.28158405213751547 -0.22140539282722879 0 0.27747759048209231 -0.20168759245952969 0 0.28632476970011178 -0.18938030831719929 0 0.30290052143222262 -0.20369411332823331 0 0.2980095077463053 -0.17872695304401809 0 0.28632476970011178 -0.18938030831719929 0 0.30290052143222262 -0.20369411332823331 0 0.27747759048209231 -0.20168759245952969 0 0.30290052143222262 -0.20369411332823331 0 0.2980095077463053 -0.17872695304401809 0 0.32549301828835953 -0.18492261693889581 0 0.30290052143222262 -0.20369411332823331 0 0.2980095077463053 -0.17872695304401809 0 0.30290052143222262 -0.20369411332823331 0 0.30715254712033069 -0.22539943122446929 0 0.28158405213751547 -0.22140539282722879 0 0.30290052143222262 -0.20369411332823331 0 0.30715254712033069 -0.22539943122446929 0 0.30290052143222262 -0.20369411332823331 0 0.30715254712033069 -0.22539943122446929 0 0.32148368101975677 -0.2112815477794289 0 0.31140457280844042 -0.24710474912070499 0 0.29234931722919649 -0.23956849287787771 0 0.29718577407036301 -0.25519814195989071 0 0.30715254712033069 -0.22539943122446929 0 0.31140457280844042 -0.24710474912070499 0 0.29234931722919649 -0.23956849287787771 0 0.30715254712033069 -0.22539943122446929 0 0.31140457280844042 -0.24710474912070499 0 0.29234931722919649 -0.23956849287787771 0 0.27362138757170362 -0.2426007269765893 0 0.28009493911397709 -0.25531812806766069 0 0.29234931722919649 -0.23956849287787771 0 0.28158405213751547 -0.22140539282722879 0 0.27362138757170362 -0.2426007269765893 0 0.30715254712033069 -0.22539943122446929 0 0.29234931722919649 -0.23956849287787771 0 0.28158405213751547 -0.22140539282722879 0 0.28158405213751547 -0.22140539282722879 0 0.26621460642996558 -0.23052855599088379 0 0.27362138757170362 -0.2426007269765893 0 0.28158405213751547 -0.22140539282722879 0 0.26621460642996558 -0.23052855599088379 0 0.26307381511529532 -0.2143756044194241 0 0.26621460642996558 -0.23052855599088379 0 0.27362138757170362 -0.2426007269765893 0 0.26034160768121078 -0.2422716922893062 0 0.27362138757170362 -0.2426007269765893 0 0.26034160768121078 -0.2422716922893062 0 0.26515279713901752 -0.25474276698909742 0 0.26034160768121078 -0.2422716922893062 0 0.26515279713901752 -0.25474276698909742 0 0.25575058308532189 -0.25269357128633052 0 0.26034160768121078 -0.2422716922893062 0 0.25134951441318748 -0.22920843539767929 0 0.2499607574480687 -0.24385609709525671 0 0.25575058308532189 -0.25269357128633052 0 0.2462907050713771 -0.25204034373521428 0 0.2499607574480687 -0.24385609709525671 0 0.26034160768121078 -0.2422716922893062 0 0.25575058308532189 -0.25269357128633052 0 0.2499607574480687 -0.24385609709525671 0 0.26621460642996558 -0.23052855599088379 0 0.25134951441318748 -0.22920843539767929 0 0.26307381511529532 -0.2143756044194241 0 0.26621460642996558 -0.23052855599088379 0 0.26034160768121078 -0.2422716922893062 0 0.25134951441318748 -0.22920843539767929 0 0.25134951441318748 -0.22920843539767929 0 0.26307381511529532 -0.2143756044194241 0 0.24314545538918961 -0.20571013864437751 0 0.26307381511529532 -0.2143756044194241 0 0.2593871514889205 -0.19799184377322379 0 0.24314545538918961 -0.20571013864437751 0 0.26307381511529532 -0.2143756044194241 0 0.27747759048209231 -0.20168759245952969 0 0.2593871514889205 -0.19799184377322379 0 0.28158405213751547 -0.22140539282722879 0 0.26307381511529532 -0.2143756044194241 0 0.27747759048209231 -0.20168759245952969 0 0.27747759048209231 -0.20168759245952969 0 0.2593871514889205 -0.19799184377322379 0 0.269221803856454 -0.185599514949991 0 0.28632476970011178 -0.18938030831719929 0 0.27747759048209231 -0.20168759245952969 0 0.269221803856454 -0.185599514949991 0 0.2593871514889205 -0.19799184377322379 0 0.269221803856454 -0.185599514949991 0 0.2437278363918948 -0.18195096812212239 0 0.260919387449559 -0.16579352929295721 0 0.269221803856454 -0.185599514949991 0 0.2437278363918948 -0.18195096812212239 0 0.260919387449559 -0.16579352929295721 0 0.28401442498348639 -0.17719336780422379 0 0.260919387449559 -0.16579352929295721 0 0.27757308642867828 -0.16101723958663619 0 0.28401442498348639 -0.17719336780422379 0 0.260919387449559 -0.16579352929295721 0 0.27757308642867828 -0.16101723958663619 0 0.27224003922127837 -0.1473222684895614 0 0.260919387449559 -0.16579352929295721 0 0.269221803856454 -0.185599514949991 0 0.28401442498348639 -0.17719336780422379 0 0.28632476970011178 -0.18938030831719929 0 0.269221803856454 -0.185599514949991 0 0.28401442498348639 -0.17719336780422379 0 0.260919387449559 -0.16579352929295721 0 0.25452239946831973 -0.14829655140993131 0 0.27224003922127837 -0.1473222684895614 0 0.260919387449559 -0.16579352929295721 0 0.25452239946831973 -0.14829655140993131 0 0.23782434991563151 -0.15439369078169049 0 0.25741251913389712 -0.1305951081492244 0 0.25452239946831973 -0.14829655140993131 0 0.27224003922127837 -0.1473222684895614 0 0.27757308642867828 -0.16101723958663619 0 0.27224003922127837 -0.1473222684895614 0 0.2931184940603897 -0.15375979275980259 0 0.25741251913389712 -0.1305951081492244 0 0.27224003922127837 -0.1473222684895614 0 0.28822748037447399 -0.12879263247558709 0 0.29512866602350563 -0.1184484781339787 0 0.2959534750055749 -0.1435622706191019 0 0.29512866602350563 -0.1184484781339787 0 0.28822748037447399 -0.12879263247558709 0 0.2959534750055749 -0.1435622706191019 0 0.2959534750055749 -0.1435622706191019 0 0.2931184940603897 -0.15375979275980259 0 0.29606782433269818 -0.16881524064208181 0 0.28822748037447399 -0.12879263247558709 0 0.2959534750055749 -0.1435622706191019 0 0.2931184940603897 -0.15375979275980259 0 0.28822748037447399 -0.12879263247558709 0 0.2931184940603897 -0.15375979275980259 0 0.27224003922127837 -0.1473222684895614 0 0.28822748037447399 -0.12879263247558709 0 0.2931184940603897 -0.15375979275980259 0 0.2959534750055749 -0.1435622706191019 0 0.29606782433269818 -0.16881524064208181 0 0.2959534750055749 -0.1435622706191019 0 0.30786991093933941 -0.1327242262548293 0 0.31334084787329858 -0.14560100496875439 0 0.2959534750055749 -0.1435622706191019 0 0.30589655906226038 -0.156608858018214 0 0.31334084787329858 -0.14560100496875439 0 0.30589655906226038 -0.156608858018214 0 0.31666093946419188 -0.15748088094218049 0 0.31334084787329858 -0.14560100496875439 0 0.29512866602350563 -0.1184484781339787 0 0.2959534750055749 -0.1435622706191019 0 0.30010147488007238 -0.1276093355582181 0 0.2959534750055749 -0.1435622706191019 0 0.30786991093933941 -0.1327242262548293 0 0.30010147488007238 -0.1276093355582181 0 0.31399575267335023 -0.12250180558336519 0 0.30554459793957989 -0.1238630007756472 0 0.30786991093933941 -0.1327242262548293 0 0.30554459793957989 -0.1238630007756472 0 0.30786991093933941 -0.1327242262548293 0 0.30010147488007238 -0.1276093355582181 0 0.28401442498348639 -0.17719336780422379 0 0.29606782433269818 -0.16881524064208181 0 0.2980095077463053 -0.17872695304401809 0 0.28632476970011178 -0.18938030831719929 0 0.28401442498348639 -0.17719336780422379 0 0.2980095077463053 -0.17872695304401809 0 0.27757308642867828 -0.16101723958663619 0 0.2931184940603897 -0.15375979275980259 0 0.28401442498348639 -0.17719336780422379 0 0.2931184940603897 -0.15375979275980259 0 0.28401442498348639 -0.17719336780422379 0 0.29606782433269818 -0.16881524064208181 0 0.2931184940603897 -0.15375979275980259 0 0.29606782433269818 -0.16881524064208181 0 0.29606782433269818 -0.16881524064208181 0 0.30589655906226038 -0.156608858018214 0 0.31145366373618227 -0.1686264437044486 0 0.2959534750055749 -0.1435622706191019 0 0.29606782433269818 -0.16881524064208181 0 0.30589655906226038 -0.156608858018214 0 0.30589655906226038 -0.156608858018214 0 0.31145366373618227 -0.1686264437044486 0 0.31666093946419188 -0.15748088094218049 0 0.31145366373618227 -0.1686264437044486 0 0.2980095077463053 -0.17872695304401809 0 0.32549301828835953 -0.18492261693889581 0 0.29606782433269818 -0.16881524064208181 0 0.31145366373618227 -0.1686264437044486 0 0.2980095077463053 -0.17872695304401809 0 0.29606782433269818 -0.16881524064208181 0 0.2980095077463053 -0.17872695304401809 0 0.31145366373618227 -0.1686264437044486 0 0.32549301828835953 -0.18492261693889581 0 0.32738776678709508 -0.16545123116759969 0 0.31145366373618227 -0.1686264437044486 0 0.32738776678709508 -0.16545123116759969 0 0.31666093946419188 -0.15748088094218049 0 0.32738776678709508 -0.16545123116759969 0 0.31666093946419188 -0.15748088094218049 0 0.32968898845727718 -0.1497650634196834 0 0.32738776678709508 -0.16545123116759969 0 0.32968898845727718 -0.1497650634196834 0 0.34808551514449421 -0.1661511205495555 0 0.32549301828835953 -0.18492261693889581 0 0.32738776678709508 -0.16545123116759969 0 0.34808551514449421 -0.1661511205495555 0 0.32549301828835953 -0.18492261693889581 0 0.34808551514449421 -0.1661511205495555 0 0.32549301828835953 -0.18492261693889581 0 0.34808551514449421 -0.1661511205495555 0 0.34521429895780248 -0.1968392362703156 0 0.30786991093933941 -0.1327242262548293 0 0.32373683991627678 -0.1342707635111336 0 0.31334084787329858 -0.14560100496875439 0 0.31399575267335023 -0.12250180558336519 0 0.32517348349888747 -0.118580130041643 0 0.32373683991627678 -0.1342707635111336 0 0.31399575267335023 -0.12250180558336519 0 0.30786991093933941 -0.1327242262548293 0 0.32373683991627678 -0.1342707635111336 0 0.32373683991627678 -0.1342707635111336 0 0.31334084787329858 -0.14560100496875439 0 0.32968898845727718 -0.1497650634196834 0 0.31666093946419188 -0.15748088094218049 0 0.31334084787329858 -0.14560100496875439 0 0.32968898845727718 -0.1497650634196834 0 0.32373683991627678 -0.1342707635111336 0 0.32968898845727718 -0.1497650634196834 0 0.34485783347551252 -0.1433779188078016 0 0.32968898845727718 -0.1497650634196834 0 0.34485783347551252 -0.1433779188078016 0 0.34808551514449421 -0.1661511205495555 0 0.34014121552940491 -0.1203166258242544 0 0.32373683991627678 -0.1342707635111336 0 0.34485783347551252 -0.1433779188078016 0 0.34014121552940491 -0.1203166258242544 0 0.35551888896884759 -0.1297027680154724 0 0.34485783347551252 -0.1433779188078016 0 0.35551888896884759 -0.1297027680154724 0 0.34485783347551252 -0.1433779188078016 0 0.37067801200062889 -0.1473796241602153 0 0.34485783347551252 -0.1433779188078016 0 0.37067801200062889 -0.1473796241602153 0 0.34808551514449421 -0.1661511205495555 0 0.35551888896884759 -0.1297027680154724 0 0.37067801200062889 -0.1473796241602153 0 0.37104303648388809 -0.1272612894930944 0 0.34808551514449421 -0.1661511205495555 0 0.36752808638216261 -0.17990459429682831 0 0.34521429895780248 -0.1968392362703156 0 0.34808551514449421 -0.1661511205495555 0 0.37072349948513561 -0.1630779710757761 0 0.36752808638216261 -0.17990459429682831 0 0.37067801200062889 -0.1473796241602153 0 0.34808551514449421 -0.1661511205495555 0 0.37072349948513561 -0.1630779710757761 0 0.37067801200062889 -0.1473796241602153 0 0.34808551514449421 -0.1661511205495555 0 0.37072349948513561 -0.1630779710757761 0 0.36752808638216261 -0.17990459429682831 0 0.38565700028273392 -0.16791849986101029 0 0.36752808638216261 -0.17990459429682831 0 0.36890805570422369 -0.19954003101511669 0 0.34521429895780248 -0.1968392362703156 0 0.36752808638216261 -0.17990459429682831 0 0.36890805570422369 -0.19954003101511669 0 0.38551481473406651 -0.18910273675150999 0 0.36890805570422369 -0.19954003101511669 0 0.35851964138810982 -0.2171827375251118 0 0.37645297458065691 -0.21353851220024839 0 0.35851964138810982 -0.2171827375251118 0 0.34521429895780248 -0.1968392362703156 0 0.33865146772119931 -0.2184974665014994 0 0.36890805570422369 -0.19954003101511669 0 0.35851964138810982 -0.2171827375251118 0 0.34521429895780248 -0.1968392362703156 0 0.32549301828835953 -0.18492261693889581 0 0.34521429895780248 -0.1968392362703156 0 0.32148368101975677 -0.2112815477794289 0 0.34521429895780248 -0.1968392362703156 0 0.33865146772119931 -0.2184974665014994 0 0.32148368101975677 -0.2112815477794289 0 0.30290052143222262 -0.20369411332823331 0 0.32549301828835953 -0.18492261693889581 0 0.32148368101975677 -0.2112815477794289 0 0.30290052143222262 -0.20369411332823331 0 0.32549301828835953 -0.18492261693889581 0 0.31140457280844042 -0.24710474912070499 0 0.32841487832378857 -0.23419691532036521 0 0.32909477526671738 -0.25319804842994992 0 0.30715254712033069 -0.22539943122446929 0 0.31140457280844042 -0.24710474912070499 0 0.32841487832378857 -0.23419691532036521 0 0.30715254712033069 -0.22539943122446929 0 0.32148368101975677 -0.2112815477794289 0 0.32841487832378857 -0.23419691532036521 0 0.33865146772119931 -0.2184974665014994 0 0.32841487832378857 -0.23419691532036521 0 0.34678876975393269 -0.23153157971564481 0 0.33865146772119931 -0.2184974665014994 0 0.32148368101975677 -0.2112815477794289 0 0.32841487832378857 -0.23419691532036521 0 0.32841487832378857 -0.23419691532036521 0 0.34542116247921317 -0.24786541093840589 0 0.32909477526671738 -0.25319804842994992 0 0.32841487832378857 -0.23419691532036521 0 0.34542116247921317 -0.24786541093840589 0 0.34678876975393269 -0.23153157971564481 0 0.34542116247921317 -0.24786541093840589 0 0.36282952759798831 -0.23490181410806829 0 0.36211004630048071 -0.25874315800932568 0 0.34542116247921317 -0.24786541093840589 0 0.34678876975393269 -0.23153157971564481 0 0.36282952759798831 -0.23490181410806829 0 0.35851964138810982 -0.2171827375251118 0 0.33865146772119931 -0.2184974665014994 0 0.34678876975393269 -0.23153157971564481 0 0.35851964138810982 -0.2171827375251118 0 0.34678876975393269 -0.23153157971564481 0 0.36282952759798831 -0.23490181410806829 0 0.35851964138810982 -0.2171827375251118 0 0.37179579398026102 -0.22561915142401329 0 0.36282952759798831 -0.23490181410806829 0 0.35851964138810982 -0.2171827375251118 0 0.37179579398026102 -0.22561915142401329 0 0.37645297458065691 -0.21353851220024839 0 0.37179579398026102 -0.22561915142401329 0 0.36282952759798831 -0.23490181410806829 0 0.37754581309809132 -0.23651361028518689 0 0.36282952759798831 -0.23490181410806829 0 0.36876625398544938 -0.24898888889403961 0 0.36211004630048071 -0.25874315800932568 0 0.36282952759798831 -0.23490181410806829 0 0.36211004630048071 -0.25874315800932568 0 0.36282952759798831 -0.23490181410806829 0 0.36876625398544938 -0.24898888889403961 0 0.37754581309809132 -0.23651361028518689 0 0.37754581309809132 -0.23651361028518689 0 0.39300219267510322 -0.23842714914515989 0 0.3871149211879113 -0.25548270742864421 0 0.39300219267510322 -0.23842714914515989 0 0.3871149211879113 -0.25548270742864421 0 0.40207495352916539 -0.25113417058953519 0 0.39300219267510322 -0.23842714914515989 0 0.40723458142941671 -0.23497076085713389 0 0.40207495352916539 -0.25113417058953519 0 0.39851670543712209 -0.2244771902628257 0 0.41039622944065363 -0.2185270516157129 0 0.40723458142941671 -0.23497076085713389 0 0.39300219267510322 -0.23842714914515989 0 0.39851670543712209 -0.2244771902628257 0 0.40723458142941671 -0.23497076085713389 0 0.39300219267510322 -0.23842714914515989 0 0.39851670543712209 -0.2244771902628257 0 0.38505811203634721 -0.22522643630241351 0 0.39851670543712209 -0.2244771902628257 0 0.38505811203634721 -0.22522643630241351 0 0.39303519244684892 -0.21278300449704671 0 0.37754581309809132 -0.23651361028518689 0 0.39300219267510322 -0.23842714914515989 0 0.38505811203634721 -0.22522643630241351 0 0.37179579398026102 -0.22561915142401329 0 0.37754581309809132 -0.23651361028518689 0 0.38505811203634721 -0.22522643630241351 0 0.37179579398026102 -0.22561915142401329 0 0.38505811203634721 -0.22522643630241351 0 0.37645297458065691 -0.21353851220024839 0 0.38505811203634721 -0.22522643630241351 0 0.37645297458065691 -0.21353851220024839 0 0.39303519244684892 -0.21278300449704671 0 0.36890805570422369 -0.19954003101511669 0 0.37645297458065691 -0.21353851220024839 0 0.38544293285627962 -0.20314808770867229 0 0.37645297458065691 -0.21353851220024839 0 0.38544293285627962 -0.20314808770867229 0 0.39303519244684892 -0.21278300449704671 0 0.36890805570422369 -0.19954003101511669 0 0.38544293285627962 -0.20314808770867229 0 0.38551481473406651 -0.18910273675150999 0 0.38544293285627962 -0.20314808770867229 0 0.38551481473406651 -0.18910273675150999 0 0.40330362681560211 -0.20077615407943949 0 0.38551481473406651 -0.18910273675150999 0 0.40330362681560211 -0.20077615407943949 0 0.39995041381356911 -0.1868338584648204 0 0.40330362681560211 -0.20077615407943949 0 0.4125958117473455 -0.19170302267586259 0 0.39995041381356911 -0.1868338584648204 0 0.40330362681560211 -0.20077615407943949 0 0.39303519244684892 -0.21278300449704671 0 0.41039622944065363 -0.2185270516157129 0 0.38544293285627962 -0.20314808770867229 0 0.40330362681560211 -0.20077615407943949 0 0.39303519244684892 -0.21278300449704671 0 0.39851670543712209 -0.2244771902628257 0 0.39303519244684892 -0.21278300449704671 0 0.41039622944065363 -0.2185270516157129 0 0.40330362681560211 -0.20077615407943949 0 0.41039622944065363 -0.2185270516157129 0 0.42189732607146729 -0.20211324892629831 0 0.41039622944065363 -0.2185270516157129 0 0.42189732607146729 -0.20211324892629831 0 0.42790605200351661 -0.22140108800821251 0 0.40330362681560211 -0.20077615407943949 0 0.4125958117473455 -0.19170302267586259 0 0.42189732607146729 -0.20211324892629831 0 0.4125958117473455 -0.19170302267586259 0 0.42189732607146729 -0.20211324892629831 0 0.42233780496578233 -0.18319904235883591 0 0.42189732607146729 -0.20211324892629831 0 0.43389642119060762 -0.191962199940241 0 0.42233780496578233 -0.18319904235883591 0 0.42189732607146729 -0.20211324892629831 0 0.43389642119060762 -0.191962199940241 0 0.43723926749718739 -0.20471492206911249 0 0.43723926749718739 -0.20471492206911249 0 0.42790605200351661 -0.22140108800821251 0 0.44233814121790038 -0.22173902575952509 0 0.42189732607146729 -0.20211324892629831 0 0.43723926749718739 -0.20471492206911249 0 0.42790605200351661 -0.22140108800821251 0 0.43048550082884018 -0.24614270293406881 0 0.44233814121790038 -0.22173902575952509 0 0.42790605200351661 -0.22140108800821251 0 0.43048550082884018 -0.24614270293406881 0 0.44233814121790038 -0.22173902575952509 0 0.42790605200351661 -0.22140108800821251 0 0.43048550082884018 -0.24614270293406881 0 0.42088007225406548 -0.23367140350055049 0 0.43048550082884018 -0.24614270293406881 0 0.44582088554477811 -0.24525862245079941 0 0.43357426810421817 -0.25015303326672972 0 0.43048550082884018 -0.24614270293406881 0 0.42846035594967069 -0.25031232086228522 0 0.43357426810421817 -0.25015303326672972 0 0.43048550082884018 -0.24614270293406881 0 0.43357426810421817 -0.25015303326672972 0 0.43048550082884018 -0.24614270293406881 0 0.418537335240391 -0.2435876000290193 0 0.42846035594967069 -0.25031232086228522 0 0.43048550082884018 -0.24614270293406881 0 0.42846035594967069 -0.25031232086228522 0 0.43048550082884018 -0.24614270293406881 0 0.42088007225406548 -0.23367140350055049 0 0.43048550082884018 -0.24614270293406881 0 0.418537335240391 -0.2435876000290193 0 0.42088007225406548 -0.23367140350055049 0 0.418537335240391 -0.2435876000290193 0 0.40723458142941671 -0.23497076085713389 0 0.42088007225406548 -0.23367140350055049 0 0.418537335240391 -0.2435876000290193 0 0.40723458142941671 -0.23497076085713389 0 0.40207495352916539 -0.25113417058953519 0 0.418537335240391 -0.2435876000290193 0 0.40207495352916539 -0.25113417058953519 0 0.42846035594967069 -0.25031232086228522 0 0.41039622944065363 -0.2185270516157129 0 0.40723458142941671 -0.23497076085713389 0 0.42088007225406548 -0.23367140350055049 0 0.41039622944065363 -0.2185270516157129 0 0.42790605200351661 -0.22140108800821251 0 0.42088007225406548 -0.23367140350055049 0 0.3932705088567644 -0.1286081277708763 0 0.38946375456974969 -0.1482633138159434 0 0.40032650034539519 -0.13972272199131119 0 0.3932705088567644 -0.1286081277708763 0 0.38946375456974969 -0.1482633138159434 0 0.40224748518751269 -0.1211494002184121 0 0.40802316631723889 -0.13171289331352951 0 0.40224748518751269 -0.1211494002184121 0 0.40096691517672778 -0.13029828582353201 0 0.3932705088567644 -0.1286081277708763 0 0.40224748518751269 -0.1211494002184121 0 0.40096691517672778 -0.13029828582353201 0 0.40802316631723889 -0.13171289331352951 0 0.40096691517672778 -0.13029828582353201 0 0.40032650034539519 -0.13972272199131119 0 0.40802316631723889 -0.13171289331352951 0 0.40032650034539519 -0.13972272199131119 0 0.40802316631723889 -0.13171289331352951 0 0.40096691517672778 -0.13029828582353201 0 0.40032650034539519 -0.13972272199131119 0 0.3932705088567644 -0.1286081277708763 0 0.37067801200062889 -0.1473796241602153 0 0.37104303648388809 -0.1272612894930944 0 0.3932705088567644 -0.1286081277708763 0 0.37067801200062889 -0.1473796241602153 0 0.3932705088567644 -0.1286081277708763 0 0.37067801200062889 -0.1473796241602153 0 0.37072349948513561 -0.1630779710757761 0 0.38946375456974969 -0.1482633138159434 0 0.37067801200062889 -0.1473796241602153 0 0.3932705088567644 -0.1286081277708763 0 0.38946375456974969 -0.1482633138159434 0 0.40032650034539519 -0.13972272199131119 0 0.38946375456974969 -0.1482633138159434 0 0.40103769468862932 -0.15735650722112959 0 0.38946375456974969 -0.1482633138159434 0 0.40103769468862932 -0.15735650722112959 0 0.38565700028273392 -0.16791849986101029 0 0.40103769468862932 -0.15735650722112959 0 0.38565700028273392 -0.16791849986101029 0 0.40804365254297231 -0.17415516972609171 0 0.37072349948513561 -0.1630779710757761 0 0.38946375456974969 -0.1482633138159434 0 0.38565700028273392 -0.16791849986101029 0 0.38946375456974969 -0.1482633138159434 0 0.38565700028273392 -0.16791849986101029 0 0.38551481473406651 -0.18910273675150999 0 0.38565700028273392 -0.16791849986101029 0 0.39995041381356911 -0.1868338584648204 0 0.36752808638216261 -0.17990459429682831 0 0.38551481473406651 -0.18910273675150999 0 0.38565700028273392 -0.16791849986101029 0 0.38565700028273392 -0.16791849986101029 0 0.39995041381356911 -0.1868338584648204 0 0.40804365254297231 -0.17415516972609171 0 0.4125958117473455 -0.19170302267586259 0 0.40804365254297231 -0.17415516972609171 0 0.42233780496578233 -0.18319904235883591 0 0.4125958117473455 -0.19170302267586259 0 0.39995041381356911 -0.1868338584648204 0 0.40804365254297231 -0.17415516972609171 0 0.42233780496578233 -0.18319904235883591 0 0.43537196508735049 -0.18173276810905351 0 0.42169756570229522 -0.15672283071129131 0 0.43389642119060762 -0.191962199940241 0 0.42233780496578233 -0.18319904235883591 0 0.43537196508735049 -0.18173276810905351 0 0.43537196508735049 -0.18173276810905351 0 0.42169756570229522 -0.15672283071129131 0 0.43537196508735049 -0.18173276810905351 0 0.42169756570229522 -0.15672283071129131 0 0.44011919579772352 -0.15902857640534751 0 0.40804365254297231 -0.17415516972609171 0 0.42233780496578233 -0.18319904235883591 0 0.42169756570229522 -0.15672283071129131 0 0.40103769468862932 -0.15735650722112959 0 0.40804365254297231 -0.17415516972609171 0 0.42169756570229522 -0.15672283071129131 0 0.40032650034539519 -0.13972272199131119 0 0.40103769468862932 -0.15735650722112959 0 0.42169756570229522 -0.15672283071129131 0 0.42169756570229522 -0.15672283071129131 0 0.40802316631723889 -0.13171289331352951 0 0.40032650034539519 -0.13972272199131119 0 0.42169756570229522 -0.15672283071129131 0 0.40802316631723889 -0.13171289331352951 0 0.42169756570229522 -0.15672283071129131 0 0.43087782981676859 -0.131879285754128 0 0.44052259681213413 -0.14512254840888281 0 0.42169756570229522 -0.15672283071129131 0 0.44052259681213413 -0.14512254840888281 0 0.44011919579772352 -0.15902857640534751 0 0.42510906065580589 -0.11393180641703871 0 0.43087782981676859 -0.131879285754128 0 0.40802316631723889 -0.13171289331352951 0 0.42169756570229522 -0.15672283071129131 0 0.43087782981676859 -0.131879285754128 0 0.40802316631723889 -0.13171289331352951 0 0.46093003486481321 -0.11810563265674839 0 0.46623847963083442 -0.1374076686568538 0 0.47239045088042492 -0.13005034139104371 0 0.46093003486481321 -0.11810563265674839 0 0.45430072039358249 -0.1470470373257684 0 0.46093003486481321 -0.11810563265674839 0 0.46623847963083442 -0.1374076686568538 0 0.45430072039358249 -0.1470470373257684 0 0.46093003486481321 -0.11810563265674839 0 0.44582693855797939 -0.1311402400572215 0 0.45430072039358249 -0.1470470373257684 0 0.441730170532879 -0.1159420230490274 0 0.43087782981676859 -0.131879285754128 0 0.44582693855797939 -0.1311402400572215 0 0.43087782981676859 -0.131879285754128 0 0.44582693855797939 -0.1311402400572215 0 0.44052259681213413 -0.14512254840888281 0 0.44582693855797939 -0.1311402400572215 0 0.44052259681213413 -0.14512254840888281 0 0.45430072039358249 -0.1470470373257684 0 0.44052259681213413 -0.14512254840888281 0 0.45430072039358249 -0.1470470373257684 0 0.44011919579772352 -0.15902857640534751 0 0.46623847963083442 -0.1374076686568538 0 0.45430072039358249 -0.1470470373257684 0 0.46795215833203208 -0.14958538313512479 0 0.45430072039358249 -0.1470470373257684 0 0.46795215833203208 -0.14958538313512479 0 0.46249654728105127 -0.15875526896169859 0 0.46249654728105127 -0.15875526896169859 0 0.44767140592235177 -0.17598844199478861 0 0.4590637049386419 -0.17656280063954849 0 0.46795215833203208 -0.14958538313512479 0 0.46765797362325351 -0.16960743348544691 0 0.46249654728105127 -0.15875526896169859 0 0.46765797362325351 -0.16960743348544691 0 0.46249654728105127 -0.15875526896169859 0 0.4590637049386419 -0.17656280063954849 0 0.45430072039358249 -0.1470470373257684 0 0.46249654728105127 -0.15875526896169859 0 0.44767140592235177 -0.17598844199478861 0 0.46249654728105127 -0.15875526896169859 0 0.4590637049386419 -0.17656280063954849 0 0.45430072039358249 -0.1470470373257684 0 0.44011919579772352 -0.15902857640534751 0 0.44767140592235177 -0.17598844199478861 0 0.45430072039358249 -0.1470470373257684 0 0.44767140592235177 -0.17598844199478861 0 0.44767140592235177 -0.17598844199478861 0 0.45131049953134228 -0.18433764364674099 0 0.4590637049386419 -0.17656280063954849 0 0.43537196508735049 -0.18173276810905351 0 0.44011919579772352 -0.15902857640534751 0 0.44767140592235177 -0.17598844199478861 0 0.43389642119060762 -0.191962199940241 0 0.43537196508735049 -0.18173276810905351 0 0.44405046135624082 -0.18412940313962539 0 0.43537196508735049 -0.18173276810905351 0 0.44767140592235177 -0.17598844199478861 0 0.44405046135624082 -0.18412940313962539 0 0.44405046135624082 -0.18412940313962539 0 0.45131049953134228 -0.18433764364674099 0 0.4501360628432447 -0.19063724014234421 0 0.44767140592235177 -0.17598844199478861 0 0.44405046135624082 -0.18412940313962539 0 0.45131049953134228 -0.18433764364674099 0 0.46765797362325351 -0.16960743348544691 0 0.4590637049386419 -0.17656280063954849 0 0.45563086259623248 -0.19437033231739831 0 0.4590637049386419 -0.17656280063954849 0 0.45563086259623248 -0.19437033231739831 0 0.46765797362325351 -0.16960743348544691 0 0.45563086259623248 -0.19437033231739831 0 0.46765797362325351 -0.16960743348544691 0 0.46817453342310178 -0.17984984725849121 0 0.45563086259623248 -0.19437033231739831 0 0.45131049953134228 -0.18433764364674099 0 0.4590637049386419 -0.17656280063954849 0 0.45563086259623248 -0.19437033231739831 0 0.46817453342310178 -0.17984984725849121 0 0.47868008644015098 -0.18364062408913809 0 0.4864423059537345 -0.17561039486471769 0 0.46817453342310178 -0.17984984725849121 0 0.47868008644015098 -0.18364062408913809 0 0.47427671796452459 -0.19390449174425081 0 0.4864423059537345 -0.17561039486471769 0 0.5 -0.16076066479590659 0 0.5 -0.1885669917164324 0 0.47868008644015098 -0.18364062408913809 0 0.4864423059537345 -0.17561039486471769 0 0.5 -0.1885669917164324 0 0.4864423059537345 -0.17561039486471769 0 0.5 -0.16076066479590659 0 0.4874204893839118 -0.1629257968797283 0 0.5 -0.16076066479590659 0 0.4874204893839118 -0.1629257968797283 0 0.48836632050416018 -0.15319142364385391 0 0.46765797362325351 -0.16960743348544691 0 0.47968508465027437 -0.14484453465349531 0 0.46817453342310178 -0.17984984725849121 0 0.4864423059537345 -0.17561039486471769 0 0.47621222687475862 -0.15989320835224299 0 0.46765797362325351 -0.16960743348544691 0 0.46817453342310178 -0.17984984725849121 0 0.47621222687475862 -0.15989320835224299 0 0.4864423059537345 -0.17561039486471769 0 0.4874204893839118 -0.1629257968797283 0 0.47621222687475862 -0.15989320835224299 0 0.46817453342310178 -0.17984984725849121 0 0.47621222687475862 -0.15989320835224299 0 0.4874204893839118 -0.1629257968797283 0 0.47621222687475862 -0.15989320835224299 0 0.48836632050416018 -0.15319142364385391 0 0.46765797362325351 -0.16960743348544691 0 0.47621222687475862 -0.15989320835224299 0 0.47968508465027437 -0.14484453465349531 0 0.47621222687475862 -0.15989320835224299 0 0.48424992032641551 -0.13993656944599481 0 0.47621222687475862 -0.15989320835224299 0 0.48836632050416018 -0.15319142364385391 0 0.48424992032641551 -0.13993656944599481 0 0.46795215833203208 -0.14958538313512479 0 0.46765797362325351 -0.16960743348544691 0 0.47968508465027437 -0.14484453465349531 0 0.47621222687475862 -0.15989320835224299 0 0.47968508465027437 -0.14484453465349531 0 0.48424992032641551 -0.13993656944599481 0 0.46623847963083442 -0.1374076686568538 0 0.46795215833203208 -0.14958538313512479 0 0.47424994269801352 -0.1397372940967013 0 0.46795215833203208 -0.14958538313512479 0 0.47968508465027437 -0.14484453465349531 0 0.47424994269801352 -0.1397372940967013 0 0.47968508465027437 -0.14484453465349531 0 0.47994759956173211 -0.14051186616834291 0 0.47424994269801352 -0.1397372940967013 0 0.47968508465027437 -0.14484453465349531 0 0.48424992032641551 -0.13993656944599481 0 0.47994759956173211 -0.14051186616834291 0 0.5 -0.16076066479590659 0 0.48836632050416018 -0.15319142364385391 0 0.5 -0.13295433787538069 0 0.48836632050416018 -0.15319142364385391 0 0.5 -0.13295433787538069 0 0.48424992032641551 -0.13993656944599481 0 0.48916266477234061 -0.13224727383335569 0 0.48085855782101261 -0.13626791926353529 0 0.48424992032641551 -0.13993656944599481 0 0.5 -0.13295433787538069 0 0.48916266477234061 -0.13224727383335569 0 0.48424992032641551 -0.13993656944599481 0 0.48986304781109291 -0.1242692167884092 0 0.5 -0.13295433787538069 0 0.48916266477234061 -0.13224727383335569 0 0.48986304781109291 -0.1242692167884092 0 0.48916266477234061 -0.13224727383335569 0 0.48085855782101261 -0.13626791926353529 0 0.47499259514944292 -0.1202547269832886 0 0.48085855782101261 -0.13626791926353529 0 0.47239045088042492 -0.13005034139104371 0 0.48085855782101261 -0.13626791926353529 0 0.48424992032641551 -0.13993656944599481 0 0.47994759956173211 -0.14051186616834291 0 0.48085855782101261 -0.13626791926353529 0 0.47994759956173211 -0.14051186616834291 0 0.47424994269801352 -0.1397372940967013 0 0.48085855782101261 -0.13626791926353529 0 0.47424994269801352 -0.1397372940967013 0 0.47239045088042492 -0.13005034139104371 0 0.46623847963083442 -0.1374076686568538 0 0.47424994269801352 -0.1397372940967013 0 0.47239045088042492 -0.13005034139104371 0 0.45735248248792831 -0.2263504469462593 0 0.45606595353113982 -0.2348942090935259 0 0.45040787416373163 -0.22146407059246401 0 0.4593659812364308 -0.22004368230368379 0 0.45735248248792831 -0.2263504469462593 0 0.45040787416373163 -0.22146407059246401 0 0.4593659812364308 -0.22004368230368379 0 0.45735248248792831 -0.2263504469462593 0 0.47005683011064803 -0.22590290220369119 0 0.4593659812364308 -0.22004368230368379 0 0.46586242272604061 -0.21273545752659301 0 0.47005683011064803 -0.22590290220369119 0 0.45735248248792831 -0.2263504469462593 0 0.45606595353113982 -0.2348942090935259 0 0.47005683011064803 -0.22590290220369119 0 0.46661169077989217 -0.2415165845456661 0 0.45606595353113982 -0.2348942090935259 0 0.47005683011064803 -0.22590290220369119 0 0.46661169077989217 -0.2415165845456661 0 0.45571617873614662 -0.24946335937342859 0 0.47785808936807489 -0.24877368548012899 0 0.45571617873614662 -0.24946335937342859 0 0.47785808936807489 -0.24877368548012899 0 0.46661169077989217 -0.2415165845456661 0 0.45518121600666411 -0.24259067484840299 0 0.45571617873614662 -0.24946335937342859 0 0.46661169077989217 -0.2415165845456661 0 0.45518121600666411 -0.24259067484840299 0 0.45606595353113982 -0.2348942090935259 0 0.45571617873614662 -0.24946335937342859 0 0.43357426810421817 -0.25015303326672972 0 0.43048550082884018 -0.24614270293406881 0 0.44582088554477811 -0.24525862245079941 0 0.44233814121790038 -0.22173902575952509 0 0.45571617873614662 -0.24946335937342859 0 0.44582088554477811 -0.24525862245079941 0 0.43357426810421817 -0.25015303326672972 0 0.45518121600666411 -0.24259067484840299 0 0.45606595353113982 -0.2348942090935259 0 0.44582088554477811 -0.24525862245079941 0 0.45518121600666411 -0.24259067484840299 0 0.45571617873614662 -0.24946335937342859 0 0.44582088554477811 -0.24525862245079941 0 0.44582088554477811 -0.24525862245079941 0 0.44233814121790038 -0.22173902575952509 0 0.45040787416373163 -0.22146407059246401 0 0.44582088554477811 -0.24525862245079941 0 0.45040787416373163 -0.22146407059246401 0 0.45606595353113982 -0.2348942090935259 0 0.44582088554477811 -0.24525862245079941 0 0.45040787416373163 -0.22146407059246401 0 0.43723926749718739 -0.20471492206911249 0 0.44233814121790038 -0.22173902575952509 0 0.45499486278268447 -0.1976695187341285 0 0.45040787416373163 -0.22146407059246401 0 0.45499486278268447 -0.1976695187341285 0 0.44233814121790038 -0.22173902575952509 0 0.45040787416373163 -0.22146407059246401 0 0.45499486278268447 -0.1976695187341285 0 0.44233814121790038 -0.22173902575952509 0 0.45499486278268447 -0.1976695187341285 0 0.43723926749718739 -0.20471492206911249 0 0.44395992212319679 -0.19308347956624619 0 0.45499486278268447 -0.1976695187341285 0 0.43389642119060762 -0.191962199940241 0 0.44405046135624082 -0.18412940313962539 0 0.44395992212319679 -0.19308347956624619 0 0.43389642119060762 -0.191962199940241 0 0.43723926749718739 -0.20471492206911249 0 0.44395992212319679 -0.19308347956624619 0 0.44395992212319679 -0.19308347956624619 0 0.45499486278268447 -0.1976695187341285 0 0.45131049953134228 -0.18433764364674099 0 0.4501360628432447 -0.19063724014234421 0 0.45563086259623248 -0.19437033231739831 0 0.44395992212319679 -0.19308347956624619 0 0.4501360628432447 -0.19063724014234421 0 0.45499486278268447 -0.1976695187341285 0 0.44405046135624082 -0.18412940313962539 0 0.44395992212319679 -0.19308347956624619 0 0.4501360628432447 -0.19063724014234421 0 0.46817453342310178 -0.17984984725849121 0 0.46013683997144489 -0.19980648616473931 0 0.47427671796452459 -0.19390449174425081 0 0.46817453342310178 -0.17984984725849121 0 0.46013683997144489 -0.19980648616473931 0 0.46817453342310178 -0.17984984725849121 0 0.45563086259623248 -0.19437033231739831 0 0.46013683997144489 -0.19980648616473931 0 0.4501360628432447 -0.19063724014234421 0 0.45563086259623248 -0.19437033231739831 0 0.45499486278268447 -0.1976695187341285 0 0.45499486278268447 -0.1976695187341285 0 0.46013683997144489 -0.19980648616473931 0 0.45563086259623248 -0.19437033231739831 0 0.45499486278268447 -0.1976695187341285 0 0.45563086259623248 -0.19437033231739831 0 0.45499486278268447 -0.1976695187341285 0 0.46013683997144489 -0.19980648616473931 0 0.46013683997144489 -0.19980648616473931 0 0.46586242272604061 -0.21273545752659301 0 0.48006841998572208 -0.20808990240084899 0 0.45040787416373163 -0.22146407059246401 0 0.45499486278268447 -0.1976695187341285 0 0.4548395438527213 -0.21295904373074681 0 0.4593659812364308 -0.22004368230368379 0 0.45040787416373163 -0.22146407059246401 0 0.4548395438527213 -0.21295904373074681 0 0.4593659812364308 -0.22004368230368379 0 0.4548395438527213 -0.21295904373074681 0 0.46586242272604061 -0.21273545752659301 0 0.46013683997144489 -0.19980648616473931 0 0.4548395438527213 -0.21295904373074681 0 0.45499486278268447 -0.1976695187341285 0 0.46013683997144489 -0.19980648616473931 0 0.4548395438527213 -0.21295904373074681 0 0.46013683997144489 -0.19980648616473931 0 0.4548395438527213 -0.21295904373074681 0 0.46586242272604061 -0.21273545752659301 0 0.46013683997144489 -0.19980648616473931 0 0.48006841998572208 -0.20808990240084899 0 0.46586242272604061 -0.21273545752659301 0 0.48006841998572208 -0.20808990240084899 0 0.47005683011064803 -0.22590290220369119 0 0.46013683997144489 -0.19980648616473931 0 0.48006841998572208 -0.20808990240084899 0 0.47427671796452459 -0.19390449174425081 0 0.47868008644015098 -0.18364062408913809 0 0.47427671796452459 -0.19390449174425081 0 0.5 -0.1885669917164324 0 0.48006841998572208 -0.20808990240084899 0 0.47427671796452459 -0.19390449174425081 0 0.5 -0.1885669917164324 0 0.48006841998572208 -0.20808990240084899 0 0.5 -0.1885669917164324 0 0.49999999999999961 -0.21637331863695819 0 0.48006841998572208 -0.20808990240084899 0 0.49999999999999961 -0.21637331863695819 0 0.48006841998572208 -0.20808990240084899 0 0.49999999999999961 -0.21637331863695819 0 0.4862545149737133 -0.22430099187442659 0 0.49999999999999961 -0.21637331863695819 0 0.5 -0.2322286651118938 0 0.4862545149737133 -0.22430099187442659 0 0.5 -0.2322286651118938 0 0.4862545149737133 -0.22430099187442659 0 0.48731543898686108 -0.23834171508702701 0 0.4862545149737133 -0.22430099187442659 0 0.47005683011064803 -0.22590290220369119 0 0.48731543898686108 -0.23834171508702701 0 0.48006841998572208 -0.20808990240084899 0 0.4862545149737133 -0.22430099187442659 0 0.47005683011064803 -0.22590290220369119 0 0.46661169077989217 -0.2415165845456661 0 0.47005683011064803 -0.22590290220369119 0 0.48731543898686108 -0.23834171508702701 0 0.46661169077989217 -0.2415165845456661 0 0.47785808936807489 -0.24877368548012899 0 0.48731543898686108 -0.23834171508702701 0 0.47785808936807489 -0.24877368548012899 0 0.50000000000000333 -0.24808401158682941 0 0.48731543898686108 -0.23834171508702701 0 0.5 -0.2322286651118938 0 0.50000000000000333 -0.24808401158682941 0 0.48731543898686108 -0.23834171508702701 0 0.47785808936807489 -0.24877368548012899 0 0.50000000000000333 -0.24808401158682941 0 0.50000000000000333 -0.24808401158682941 0 0.48656724266228879 -0.26126228076250718 0 0.5 -0.26842994380811291 0 0.47785808936807489 -0.24877368548012899 0 0.50000000000000333 -0.24808401158682941 0 0.48656724266228879 -0.26126228076250718 0 0.5 -0.26842994380811291 0 0.48208681399926079 -0.27581357356502773 0 0.50000000000000111 -0.28877587602939642 0 0.48656724266228879 -0.26126228076250718 0 0.5 -0.26842994380811291 0 0.48208681399926079 -0.27581357356502773 0 0.48208681399926079 -0.27581357356502773 0 0.46068671901070851 -0.28535474144655731 0 0.48208681399926079 -0.27581357356502773 0 0.46768981413575761 -0.2649492641288182 0 0.46068671901070851 -0.28535474144655731 0 0.48656724266228879 -0.26126228076250718 0 0.48208681399926079 -0.27581357356502773 0 0.46768981413575761 -0.2649492641288182 0 0.47785808936807489 -0.24877368548012899 0 0.48656724266228879 -0.26126228076250718 0 0.46768981413575761 -0.2649492641288182 0 0.45571617873614662 -0.24946335937342859 0 0.47785808936807489 -0.24877368548012899 0 0.46768981413575761 -0.2649492641288182 0 0.45571617873614662 -0.24946335937342859 0 0.46768981413575761 -0.2649492641288182 0 0.44713049355746243 -0.26775388735664418 0 0.46768981413575761 -0.2649492641288182 0 0.44713049355746243 -0.26775388735664418 0 0.46068671901070851 -0.28535474144655731 0 0.44713049355746243 -0.26775388735664418 0 0.46068671901070851 -0.28535474144655731 0 0.45571617873614662 -0.24946335937342859 0 0.44713049355746243 -0.26775388735664418 0 0.43357426810421817 -0.25015303326672972 0 0.44713049355746243 -0.26775388735664418 0 0.43357426810421817 -0.25015303326672972 0 0.43808872290812301 -0.29542998993102848 0 0.44582747314286902 -0.31276753443956201 0 0.43031487288344161 -0.31703067604683871 0 0.43808872290812301 -0.29542998993102848 0 0.45932525709009708 -0.30194153040829069 0 0.44582747314286902 -0.31276753443956201 0 0.43808872290812301 -0.29542998993102848 0 0.46068671901070851 -0.28535474144655731 0 0.45932525709009708 -0.30194153040829069 0 0.43808872290812301 -0.29542998993102848 0 0.46068671901070851 -0.28535474144655731 0 0.44713049355746243 -0.26775388735664418 0 0.43808872290812301 -0.29542998993102848 0 0.46068671901070851 -0.28535474144655731 0 0.46068671901070851 -0.28535474144655731 0 0.47654280981399377 -0.30594164756046982 0 0.46068671901070851 -0.28535474144655731 0 0.45932525709009708 -0.30194153040829069 0 0.47654280981399377 -0.30594164756046982 0 0.45932525709009708 -0.30194153040829069 0 0.46020140703816609 -0.31790014661013011 0 0.44582747314286902 -0.31276753443956201 0 0.47654280981399377 -0.30594164756046982 0 0.46020140703816609 -0.31790014661013011 0 0.45932525709009708 -0.30194153040829069 0 0.47654280981399377 -0.30594164756046982 0 0.46020140703816609 -0.31790014661013011 0 0.47654280981399377 -0.30594164756046982 0 0.48452590656705868 -0.31630657706248883 0 0.48208681399926079 -0.27581357356502773 0 0.46068671901070851 -0.28535474144655731 0 0.47654280981399377 -0.30594164756046982 0 0.48208681399926079 -0.27581357356502773 0 0.47654280981399377 -0.30594164756046982 0 0.50000000000000111 -0.28877587602939642 0 0.50000000000000111 -0.28877587602939642 0 0.5 -0.31627016595707702 0 0.48452590656705868 -0.31630657706248883 0 0.47654280981399377 -0.30594164756046982 0 0.50000000000000111 -0.28877587602939642 0 0.47654280981399377 -0.30594164756046982 0 0.50000000000000111 -0.28877587602939642 0 0.48452590656705868 -0.31630657706248883 0 0.5 -0.31627016595707702 0 0.48452590656705868 -0.31630657706248883 0 0.4798244965011923 -0.33203805400226027 0 0.5 -0.31627016595707702 0 0.4798244965011923 -0.33203805400226027 0 0.5 -0.34376445588475768 0 0.4798244965011923 -0.33203805400226027 0 0.46847105179670839 -0.34389899480205388 0 0.46020140703816609 -0.31790014661013011 0 0.47654280981399377 -0.30594164756046982 0 0.47527365498010271 -0.31804660630883719 0 0.46020140703816609 -0.31790014661013011 0 0.48452590656705868 -0.31630657706248883 0 0.4798244965011923 -0.33203805400226027 0 0.47527365498010271 -0.31804660630883719 0 0.4798244965011923 -0.33203805400226027 0 0.47527365498010271 -0.31804660630883719 0 0.46020140703816609 -0.31790014661013011 0 0.47654280981399377 -0.30594164756046982 0 0.48452590656705868 -0.31630657706248883 0 0.47527365498010271 -0.31804660630883719 0 0.49999999999999711 -0.37125874581243851 0 0.48806042456369142 -0.35612155968098341 0 0.47674069655525092 -0.3698978429939776 0 0.4798244965011923 -0.33203805400226027 0 0.48806042456369142 -0.35612155968098341 0 0.5 -0.34376445588475768 0 0.49999999999999711 -0.37125874581243851 0 0.48806042456369142 -0.35612155968098341 0 0.5 -0.34376445588475768 0 0.4798244965011923 -0.33203805400226027 0 0.48806042456369142 -0.35612155968098341 0 0.46847105179670839 -0.34389899480205388 0 0.48806042456369142 -0.35612155968098341 0 0.47674069655525092 -0.3698978429939776 0 0.46847105179670839 -0.34389899480205388 0 0.47674069655525092 -0.3698978429939776 0 0.46847105179670839 -0.34389899480205388 0 0.47674069655525092 -0.3698978429939776 0 0.45392603783110008 -0.37108838658624999 0 0.46847105179670839 -0.34389899480205388 0 0.45392603783110008 -0.37108838658624999 0 0.46847105179670839 -0.34389899480205388 0 0.44672977628043381 -0.35017364189741718 0 0.45392603783110008 -0.37108838658624999 0 0.44672977628043381 -0.35017364189741718 0 0.42785183481717409 -0.36595316276467199 0 0.45392603783110008 -0.37108838658624999 0 0.42785183481717409 -0.36595316276467199 0 0.43242581624588322 -0.38730115333965082 0 0.46847105179670839 -0.34389899480205388 0 0.46020140703816609 -0.31790014661013011 0 0.46847105179670839 -0.34389899480205388 0 0.46020140703816609 -0.31790014661013011 0 0.45431986664039198 -0.33607192194780172 0 0.46847105179670839 -0.34389899480205388 0 0.44672977628043381 -0.35017364189741718 0 0.45431986664039198 -0.33607192194780172 0 0.44672977628043381 -0.35017364189741718 0 0.44127539957872802 -0.33175003730325792 0 0.42823689835664952 -0.34636857782623809 0 0.44672977628043381 -0.35017364189741718 0 0.45431986664039198 -0.33607192194780172 0 0.44127539957872802 -0.33175003730325792 0 0.46020140703816609 -0.31790014661013011 0 0.45431986664039198 -0.33607192194780172 0 0.44127539957872802 -0.33175003730325792 0 0.44127539957872802 -0.33175003730325792 0 0.44582747314286902 -0.31276753443956201 0 0.43031487288344161 -0.31703067604683871 0 0.46020140703816609 -0.31790014661013011 0 0.44127539957872802 -0.33175003730325792 0 0.46020140703816609 -0.31790014661013011 0 0.44127539957872802 -0.33175003730325792 0 0.44582747314286902 -0.31276753443956201 0 0.44127539957872802 -0.33175003730325792 0 0.43031487288344161 -0.31703067604683871 0 0.41707429101309201 -0.3297381436533145 0 0.44127539957872802 -0.33175003730325792 0 0.41707429101309201 -0.3297381436533145 0 0.42823689835664952 -0.34636857782623809 0 0.41707429101309201 -0.3297381436533145 0 0.42823689835664952 -0.34636857782623809 0 0.40866613474490449 -0.35252068697126149 0 0.41707429101309201 -0.3297381436533145 0 0.39289273070295128 -0.31558048689996993 0 0.41549072680553711 -0.30550523841549909 0 0.43031487288344161 -0.31703067604683871 0 0.41707429101309201 -0.3297381436533145 0 0.41549072680553711 -0.30550523841549909 0 0.44672977628043381 -0.35017364189741718 0 0.42785183481717409 -0.36595316276467199 0 0.42823689835664952 -0.34636857782623809 0 0.42785183481717409 -0.36595316276467199 0 0.40866613474490449 -0.35252068697126149 0 0.42785183481717409 -0.36595316276467199 0 0.42823689835664952 -0.34636857782623809 0 0.40866613474490449 -0.35252068697126149 0 0.42785183481717409 -0.36595316276467199 0 0.4111933065081313 -0.36805982019164402 0 0.41287057948892703 -0.38518927514730122 0 0.42785183481717409 -0.36595316276467199 0 0.40866613474490449 -0.35252068697126149 0 0.4111933065081313 -0.36805982019164402 0 0.39290052262193498 -0.35565000096393579 0 0.38249634533461108 -0.36797477098799591 0 0.39650622041158878 -0.3765742856902482 0 0.4111933065081313 -0.36805982019164402 0 0.39290052262193498 -0.35565000096393579 0 0.39650622041158878 -0.3765742856902482 0 0.40866613474490449 -0.35252068697126149 0 0.39290052262193498 -0.35565000096393579 0 0.38948043467263488 -0.33908821117785082 0 0.40866613474490449 -0.35252068697126149 0 0.38948043467263488 -0.33908821117785082 0 0.40866613474490449 -0.35252068697126149 0 0.4111933065081313 -0.36805982019164402 0 0.39290052262193498 -0.35565000096393579 0 0.39290052262193498 -0.35565000096393579 0 0.37818146540529818 -0.34934783795600571 0 0.38249634533461108 -0.36797477098799591 0 0.39290052262193498 -0.35565000096393579 0 0.37818146540529818 -0.34934783795600571 0 0.38948043467263488 -0.33908821117785082 0 0.37818146540529818 -0.34934783795600571 0 0.38249634533461108 -0.36797477098799591 0 0.37305712147220338 -0.36102055586376819 0 0.41707429101309201 -0.3297381436533145 0 0.40866613474490449 -0.35252068697126149 0 0.38948043467263488 -0.33908821117785082 0 0.41707429101309201 -0.3297381436533145 0 0.39289273070295128 -0.31558048689996993 0 0.38948043467263488 -0.33908821117785082 0 0.37818146540529818 -0.34934783795600571 0 0.38948043467263488 -0.33908821117785082 0 0.37212478857772979 -0.33864880005647208 0 0.38948043467263488 -0.33908821117785082 0 0.37029473460036533 -0.32565573538444043 0 0.38948043467263488 -0.33908821117785082 0 0.37029473460036533 -0.32565573538444043 0 0.37212478857772979 -0.33864880005647208 0 0.39289273070295128 -0.31558048689996993 0 0.38064079273778262 -0.31288188218018531 0 0.37029473460036533 -0.32565573538444043 0 0.39289273070295128 -0.31558048689996993 0 0.37029473460036533 -0.32565573538444043 0 0.39289273070295128 -0.31558048689996993 0 0.38948043467263488 -0.33908821117785082 0 0.37029473460036533 -0.32565573538444043 0 0.38064079273778262 -0.31288188218018531 0 0.37804720550635529 -0.30651687721429538 0 0.38870969627640167 -0.30439929484627132 0 0.38064079273778262 -0.31288188218018531 0 0.37804720550635529 -0.30651687721429538 0 0.37325959660283969 -0.31225701655594912 0 0.37804720550635529 -0.30651687721429538 0 0.38032829646105881 -0.29636137241382532 0 0.36761344479238373 -0.29508033606196837 0 0.37804720550635529 -0.30651687721429538 0 0.38870969627640167 -0.30439929484627132 0 0.38032829646105881 -0.29636137241382532 0 0.38870969627640167 -0.30439929484627132 0 0.3879772147484597 -0.29176707856862888 0 0.38032829646105881 -0.29636137241382532 0 0.39289273070295128 -0.31558048689996993 0 0.38064079273778262 -0.31288188218018531 0 0.38870969627640167 -0.30439929484627132 0 0.39289273070295128 -0.31558048689996993 0 0.39985527598894161 -0.30920798579428682 0 0.41549072680553711 -0.30550523841549909 0 0.39985527598894161 -0.30920798579428682 0 0.39681295496079538 -0.29611275996065012 0 0.40939030264251791 -0.28957609748361951 0 0.39985527598894161 -0.30920798579428682 0 0.40939030264251791 -0.28957609748361951 0 0.39289273070295128 -0.31558048689996993 0 0.41549072680553711 -0.30550523841549909 0 0.39289273070295128 -0.31558048689996993 0 0.38870969627640167 -0.30439929484627132 0 0.39985527598894161 -0.30920798579428682 0 0.38870969627640167 -0.30439929484627132 0 0.39681295496079538 -0.29611275996065012 0 0.3879772147484597 -0.29176707856862888 0 0.38870969627640167 -0.30439929484627132 0 0.39985527598894161 -0.30920798579428682 0 0.39681295496079538 -0.29611275996065012 0 0.39922652050867191 -0.28295197323892363 0 0.39681295496079538 -0.29611275996065012 0 0.40939030264251791 -0.28957609748361951 0 0.39922652050867191 -0.28295197323892363 0 0.39681295496079538 -0.29611275996065012 0 0.3879772147484597 -0.29176707856862888 0 0.39922652050867191 -0.28295197323892363 0 0.3879772147484597 -0.29176707856862888 0 0.38840358504398731 -0.28029486931936831 0 0.3879772147484597 -0.29176707856862888 0 0.37929392098169401 -0.28404327537796259 0 0.38840358504398731 -0.28029486931936831 0 0.38032829646105881 -0.29636137241382532 0 0.37929392098169401 -0.28404327537796259 0 0.36761344479238373 -0.29508033606196837 0 0.3879772147484597 -0.29176707856862888 0 0.38032829646105881 -0.29636137241382532 0 0.37929392098169401 -0.28404327537796259 0 0.37929392098169401 -0.28404327537796259 0 0.38326599173650672 -0.27147868498013239 0 0.3725796289452375 -0.26579697317357759 0 0.37929392098169401 -0.28404327537796259 0 0.38326599173650672 -0.27147868498013239 0 0.38840358504398731 -0.28029486931936831 0 0.38326599173650672 -0.27147868498013239 0 0.38840358504398731 -0.28029486931936831 0 0.39544519547575041 -0.26880031542545191 0 0.37754581309809132 -0.23651361028518689 0 0.3725796289452375 -0.26579697317357759 0 0.37754581309809132 -0.23651361028518689 0 0.3871149211879113 -0.25548270742864421 0 0.3725796289452375 -0.26579697317357759 0 0.38326599173650672 -0.27147868498013239 0 0.3871149211879113 -0.25548270742864421 0 0.39544519547575041 -0.26880031542545191 0 0.38326599173650672 -0.27147868498013239 0 0.3871149211879113 -0.25548270742864421 0 0.3725796289452375 -0.26579697317357759 0 0.3871149211879113 -0.25548270742864421 0 0.40207495352916539 -0.25113417058953519 0 0.39544519547575041 -0.26880031542545191 0 0.40207495352916539 -0.25113417058953519 0 0.39544519547575041 -0.26880031542545191 0 0.41892532929609411 -0.26994420917295231 0 0.39922652050867191 -0.28295197323892363 0 0.39544519547575041 -0.26880031542545191 0 0.41892532929609411 -0.26994420917295231 0 0.39922652050867191 -0.28295197323892363 0 0.38840358504398731 -0.28029486931936831 0 0.39544519547575041 -0.26880031542545191 0 0.41892532929609411 -0.26994420917295231 0 0.40939030264251791 -0.28957609748361951 0 0.41892532929609411 -0.26994420917295231 0 0.42674472615619141 -0.28201696019190231 0 0.40939030264251791 -0.28957609748361951 0 0.39922652050867191 -0.28295197323892363 0 0.41892532929609411 -0.26994420917295231 0 0.40939030264251791 -0.28957609748361951 0 0.40207495352916539 -0.25113417058953519 0 0.41892532929609411 -0.26994420917295231 0 0.42846035594967069 -0.25031232086228522 0 0.40207495352916539 -0.25113417058953519 0 0.42846035594967069 -0.25031232086228522 0 0.44713049355746243 -0.26775388735664418 0 0.4314427817274139 -0.26389233879167029 0 0.43357426810421817 -0.25015303326672972 0 0.41892532929609411 -0.26994420917295231 0 0.42846035594967069 -0.25031232086228522 0 0.41892532929609411 -0.26994420917295231 0 0.42846035594967069 -0.25031232086228522 0 0.4314427817274139 -0.26389233879167029 0 0.42846035594967069 -0.25031232086228522 0 0.4314427817274139 -0.26389233879167029 0 0.43357426810421817 -0.25015303326672972 0 0.42846035594967069 -0.25031232086228522 0 0.43357426810421817 -0.25015303326672972 0 0.41892532929609411 -0.26994420917295231 0 0.4314427817274139 -0.26389233879167029 0 0.42674472615619141 -0.28201696019190231 0 0.44713049355746243 -0.26775388735664418 0 0.4314427817274139 -0.26389233879167029 0 0.42674472615619141 -0.28201696019190231 0 0.43808872290812301 -0.29542998993102848 0 0.42674472615619141 -0.28201696019190231 0 0.41549072680553711 -0.30550523841549909 0 0.44713049355746243 -0.26775388735664418 0 0.43808872290812301 -0.29542998993102848 0 0.42674472615619141 -0.28201696019190231 0 0.43808872290812301 -0.29542998993102848 0 0.43031487288344161 -0.31703067604683871 0 0.41549072680553711 -0.30550523841549909 0 0.43808872290812301 -0.29542998993102848 0 0.41549072680553711 -0.30550523841549909 0 0.39985527598894161 -0.30920798579428682 0 0.41549072680553711 -0.30550523841549909 0 0.40939030264251791 -0.28957609748361951 0 0.42674472615619141 -0.28201696019190231 0 0.41549072680553711 -0.30550523841549909 0 0.40939030264251791 -0.28957609748361951 0 0.43773802119989941 -0.49999999999999978 0 0.45890943729545802 -0.4823892052391901 0 0.4796611806106722 -0.48718440019654963 0 0.43773802119989941 -0.49999999999999978 0 0.44535189907423273 -0.48425652050154361 0 0.43773802119989941 -0.49999999999999978 0 0.44535189907423273 -0.48425652050154361 0 0.45890943729545802 -0.4823892052391901 0 0.43920548674920379 -0.47249175324936749 0 0.44535189907423273 -0.48425652050154361 0 0.45296577694856682 -0.46851304100308783 0 0.43920548674920379 -0.47249175324936749 0 0.44535189907423273 -0.48425652050154361 0 0.42866409193048188 -0.47676758270227471 0 0.44535189907423273 -0.48425652050154361 0 0.45589009982111051 -0.4775459799915327 0 0.45296577694856682 -0.46851304100308783 0 0.44535189907423273 -0.48425652050154361 0 0.45296577694856682 -0.46851304100308783 0 0.45589009982111051 -0.4775459799915327 0 0.45890943729545802 -0.4823892052391901 0 0.46145872075250199 -0.4714816097570898 0 0.44535189907423273 -0.48425652050154361 0 0.45589009982111051 -0.4775459799915327 0 0.45890943729545802 -0.4823892052391901 0 0.45890943729545802 -0.4823892052391901 0 0.46145872075250199 -0.4714816097570898 0 0.47563876839417468 -0.4748936591889994 0 0.46145872075250199 -0.4714816097570898 0 0.45296577694856682 -0.46851304100308783 0 0.45589009982111051 -0.4775459799915327 0 0.46145872075250199 -0.4714816097570898 0 0.45296577694856682 -0.46851304100308783 0 0.43773802119989941 -0.49999999999999978 0 0.4796611806106722 -0.48718440019654963 0 0.5 -0.5 0 0.4796611806106722 -0.48718440019654963 0 0.5 -0.5 0 0.5 -0.47026069904804169 0 0.5 -0.47026069904804169 0 0.47563876839417468 -0.4748936591889994 0 0.47905351322328699 -0.46315238170412548 0 0.4796611806106722 -0.48718440019654963 0 0.5 -0.47026069904804169 0 0.47563876839417468 -0.4748936591889994 0 0.46145872075250199 -0.4714816097570898 0 0.47563876839417468 -0.4748936591889994 0 0.47905351322328699 -0.46315238170412548 0 0.45890943729545802 -0.4823892052391901 0 0.4796611806106722 -0.48718440019654963 0 0.47563876839417468 -0.4748936591889994 0 0.47905351322328699 -0.46315238170412548 0 0.45899603635761982 -0.45604406436020939 0 0.47905351322328699 -0.46315238170412548 0 0.4788951805990147 -0.44564391983896778 0 0.45899603635761982 -0.45604406436020939 0 0.5 -0.47026069904804169 0 0.47905351322328699 -0.46315238170412548 0 0.5 -0.44373220895607401 0 0.5 -0.47026069904804169 0 0.47905351322328699 -0.46315238170412548 0 0.5 -0.44373220895607401 0 0.4788951805990147 -0.44564391983896778 0 0.48552804520920678 -0.42799216931292611 0 0.47905351322328699 -0.46315238170412548 0 0.5 -0.44373220895607401 0 0.4788951805990147 -0.44564391983896778 0 0.4788951805990147 -0.44564391983896778 0 0.45899603635761982 -0.45604406436020939 0 0.46924702726821282 -0.43484773472326599 0 0.45899603635761982 -0.45604406436020939 0 0.46924702726821282 -0.43484773472326599 0 0.45899603635761982 -0.45604406436020939 0 0.44838303037477362 -0.43447900987216292 0 0.46924702726821282 -0.43484773472326599 0 0.46145872075250199 -0.4714816097570898 0 0.47905351322328699 -0.46315238170412548 0 0.45899603635761982 -0.45604406436020939 0 0.46145872075250199 -0.4714816097570898 0 0.45899603635761982 -0.45604406436020939 0 0.45296577694856682 -0.46851304100308783 0 0.45899603635761982 -0.45604406436020939 0 0.45296577694856682 -0.46851304100308783 0 0.44562172027540892 -0.45801600689332289 0 0.45296577694856682 -0.46851304100308783 0 0.42984017904353489 -0.46042986879056458 0 0.43920548674920379 -0.47249175324936749 0 0.45296577694856682 -0.46851304100308783 0 0.42984017904353489 -0.46042986879056458 0 0.44562172027540892 -0.45801600689332289 0 0.43764883001816302 -0.44847867026387339 0 0.42984017904353489 -0.46042986879056458 0 0.45899603635761982 -0.45604406436020939 0 0.44562172027540892 -0.45801600689332289 0 0.45296577694856682 -0.46851304100308783 0 0.45296577694856682 -0.46851304100308783 0 0.42984017904353489 -0.46042986879056458 0 0.45899603635761982 -0.45604406436020939 0 0.44562172027540892 -0.45801600689332289 0 0.43764883001816302 -0.44847867026387339 0 0.45899603635761982 -0.45604406436020939 0 0.43764883001816302 -0.44847867026387339 0 0.44838303037477362 -0.43447900987216292 0 0.43764883001816302 -0.44847867026387339 0 0.44838303037477362 -0.43447900987216292 0 0.43199803478474752 -0.43480066315574151 0 0.45899603635761982 -0.45604406436020939 0 0.43764883001816302 -0.44847867026387339 0 0.44838303037477362 -0.43447900987216292 0 0.43524810038533429 -0.42324892749070769 0 0.43199803478474752 -0.43480066315574151 0 0.44838303037477362 -0.43447900987216292 0 0.45481320319103757 -0.41743251132042969 0 0.43524810038533429 -0.42324892749070769 0 0.45481320319103757 -0.41743251132042969 0 0.43477646914432833 -0.40550992295969079 0 0.43524810038533429 -0.42324892749070769 0 0.45481320319103757 -0.41743251132042969 0 0.46680969583490778 -0.41274858841526157 0 0.46924702726821282 -0.43484773472326599 0 0.45481320319103757 -0.41743251132042969 0 0.46680969583490778 -0.41274858841526157 0 0.46697148891275431 -0.40002921638500172 0 0.44838303037477362 -0.43447900987216292 0 0.45481320319103757 -0.41743251132042969 0 0.46924702726821282 -0.43484773472326599 0 0.5 -0.44373220895607401 0 0.48552804520920678 -0.42799216931292611 0 0.5 -0.40208557795999961 0 0.46924702726821282 -0.43484773472326599 0 0.48552804520920678 -0.42799216931292611 0 0.47949801817880677 -0.41365140508632309 0 0.4788951805990147 -0.44564391983896778 0 0.46924702726821282 -0.43484773472326599 0 0.48552804520920678 -0.42799216931292611 0 0.46924702726821282 -0.43484773472326599 0 0.47949801817880677 -0.41365140508632309 0 0.48552804520920678 -0.42799216931292611 0 0.47949801817880677 -0.41365140508632309 0 0.5 -0.40208557795999961 0 0.46680969583490778 -0.41274858841526157 0 0.46924702726821282 -0.43484773472326599 0 0.47949801817880677 -0.41365140508632309 0 0.46680969583490778 -0.41274858841526157 0 0.47949801817880677 -0.41365140508632309 0 0.47485796399023311 -0.40328323013715978 0 0.47949801817880677 -0.41365140508632309 0 0.47485796399023311 -0.40328323013715978 0 0.48501034131379339 -0.39589669118590137 0 0.46680969583490778 -0.41274858841526157 0 0.47485796399023311 -0.40328323013715978 0 0.46697148891275431 -0.40002921638500172 0 0.47485796399023311 -0.40328323013715978 0 0.47548297721973709 -0.39513831255209197 0 0.46697148891275431 -0.40002921638500172 0 0.47548297721973709 -0.39513831255209197 0 0.47310568845609052 -0.38536867418522291 0 0.46697148891275431 -0.40002921638500172 0 0.47548297721973709 -0.39513831255209197 0 0.48501034131379339 -0.39589669118590137 0 0.47310568845609052 -0.38536867418522291 0 0.47485796399023311 -0.40328323013715978 0 0.47548297721973709 -0.39513831255209197 0 0.48501034131379339 -0.39589669118590137 0 0.47949801817880677 -0.41365140508632309 0 0.48974900908940078 -0.39245507544938019 0 0.47949801817880677 -0.41365140508632309 0 0.5 -0.40208557795999961 0 0.48974900908940078 -0.39245507544938019 0 0.47949801817880677 -0.41365140508632309 0 0.48974900908940078 -0.39245507544938019 0 0.48501034131379339 -0.39589669118590137 0 0.49999999999999711 -0.37125874581243851 0 0.5 -0.40208557795999961 0 0.48974900908940078 -0.39245507544938019 0 0.49999999999999711 -0.37125874581243851 0 0.47674069655525092 -0.3698978429939776 0 0.48974900908940078 -0.39245507544938019 0 0.49999999999999711 -0.37125874581243851 0 0.48974900908940078 -0.39245507544938019 0 0.47674069655525092 -0.3698978429939776 0 0.48501034131379339 -0.39589669118590137 0 0.47310568845609052 -0.38536867418522291 0 0.47674069655525092 -0.3698978429939776 0 0.48974900908940078 -0.39245507544938019 0 0.48501034131379339 -0.39589669118590137 0 0.47674069655525092 -0.3698978429939776 0 0.48501034131379339 -0.39589669118590137 0 0.45392603783110008 -0.37108838658624999 0 0.47310568845609052 -0.38536867418522291 0 0.45155556879862868 -0.3944603689424081 0 0.47674069655525092 -0.3698978429939776 0 0.45392603783110008 -0.37108838658624999 0 0.47310568845609052 -0.38536867418522291 0 0.45481320319103757 -0.41743251132042969 0 0.46697148891275431 -0.40002921638500172 0 0.45155556879862868 -0.3944603689424081 0 0.47310568845609052 -0.38536867418522291 0 0.46697148891275431 -0.40002921638500172 0 0.45155556879862868 -0.3944603689424081 0 0.45481320319103757 -0.41743251132042969 0 0.45155556879862868 -0.3944603689424081 0 0.43477646914432833 -0.40550992295969079 0 0.45155556879862868 -0.3944603689424081 0 0.43242581624588322 -0.38730115333965082 0 0.43477646914432833 -0.40550992295969079 0 0.45392603783110008 -0.37108838658624999 0 0.45155556879862868 -0.3944603689424081 0 0.43242581624588322 -0.38730115333965082 0 0.42785183481717409 -0.36595316276467199 0 0.43242581624588322 -0.38730115333965082 0 0.41287057948892703 -0.38518927514730122 0 0.43242581624588322 -0.38730115333965082 0 0.43477646914432833 -0.40550992295969079 0 0.41749483707519452 -0.40538692165420498 0 0.43242581624588322 -0.38730115333965082 0 0.41749483707519452 -0.40538692165420498 0 0.41287057948892703 -0.38518927514730122 0 0.41749483707519452 -0.40538692165420498 0 0.41287057948892703 -0.38518927514730122 0 0.40336078828097621 -0.40362515372992341 0 0.4111933065081313 -0.36805982019164402 0 0.41287057948892703 -0.38518927514730122 0 0.39650622041158878 -0.3765742856902482 0 0.41287057948892703 -0.38518927514730122 0 0.39650622041158878 -0.3765742856902482 0 0.39372170841196569 -0.3925803949292499 0 0.38249634533461108 -0.36797477098799591 0 0.39650622041158878 -0.3765742856902482 0 0.37900977316023637 -0.39091548517495972 0 0.39650622041158878 -0.3765742856902482 0 0.37900977316023637 -0.39091548517495972 0 0.39372170841196569 -0.3925803949292499 0 0.38249634533461108 -0.36797477098799591 0 0.37900977316023637 -0.39091548517495972 0 0.36724772315424481 -0.38247146420994571 0 0.37900977316023637 -0.39091548517495972 0 0.39372170841196569 -0.3925803949292499 0 0.37842665921942997 -0.40887405987875969 0 0.37900977316023637 -0.39091548517495972 0 0.37842665921942997 -0.40887405987875969 0 0.36824105802713031 -0.4000969440192842 0 0.39372170841196569 -0.3925803949292499 0 0.39194747191700757 -0.41402513481906722 0 0.37842665921942997 -0.40887405987875969 0 0.41287057948892703 -0.38518927514730122 0 0.39372170841196569 -0.3925803949292499 0 0.40336078828097621 -0.40362515372992341 0 0.39372170841196569 -0.3925803949292499 0 0.40336078828097621 -0.40362515372992341 0 0.39194747191700757 -0.41402513481906722 0 0.40336078828097621 -0.40362515372992341 0 0.39194747191700757 -0.41402513481906722 0 0.41036500379586138 -0.42217021861448573 0 0.39194747191700757 -0.41402513481906722 0 0.37842665921942997 -0.40887405987875969 0 0.3754845505291648 -0.42231636227288599 0 0.39194747191700757 -0.41402513481906722 0 0.38276612650569841 -0.43173139982273478 0 0.39495441733924969 -0.43334788207120151 0 0.39194747191700757 -0.41402513481906722 0 0.3754845505291648 -0.42231636227288599 0 0.38276612650569841 -0.43173139982273478 0 0.38276612650569841 -0.43173139982273478 0 0.39495441733924969 -0.43334788207120151 0 0.38358898323347101 -0.44426352436551808 0 0.39495441733924969 -0.43334788207120151 0 0.41630162367870638 -0.44091327616753739 0 0.39194747191700757 -0.41402513481906722 0 0.39495441733924969 -0.43334788207120151 0 0.41036500379586138 -0.42217021861448573 0 0.41036500379586138 -0.42217021861448573 0 0.42295569064062533 -0.42699492369753778 0 0.41630162367870638 -0.44091327616753739 0 0.39495441733924969 -0.43334788207120151 0 0.41036500379586138 -0.42217021861448573 0 0.41630162367870638 -0.44091327616753739 0 0.41749483707519452 -0.40538692165420498 0 0.40336078828097621 -0.40362515372992341 0 0.41036500379586138 -0.42217021861448573 0 0.41749483707519452 -0.40538692165420498 0 0.41036500379586138 -0.42217021861448573 0 0.42458756094721539 -0.41613405657310448 0 0.41036500379586138 -0.42217021861448573 0 0.42458756094721539 -0.41613405657310448 0 0.42295569064062533 -0.42699492369753778 0 0.43477646914432833 -0.40550992295969079 0 0.41749483707519452 -0.40538692165420498 0 0.42458756094721539 -0.41613405657310448 0 0.43477646914432833 -0.40550992295969079 0 0.42458756094721539 -0.41613405657310448 0 0.43524810038533429 -0.42324892749070769 0 0.43199803478474752 -0.43480066315574151 0 0.42295569064062533 -0.42699492369753778 0 0.41630162367870638 -0.44091327616753739 0 0.43524810038533429 -0.42324892749070769 0 0.43199803478474752 -0.43480066315574151 0 0.42295569064062533 -0.42699492369753778 0 0.42458756094721539 -0.41613405657310448 0 0.43524810038533429 -0.42324892749070769 0 0.42295569064062533 -0.42699492369753778 0 0.43764883001816302 -0.44847867026387339 0 0.41630162367870638 -0.44091327616753739 0 0.43764883001816302 -0.44847867026387339 0 0.42984017904353489 -0.46042986879056458 0 0.41630162367870638 -0.44091327616753739 0 0.43764883001816302 -0.44847867026387339 0 0.43199803478474752 -0.43480066315574151 0 0.41630162367870638 -0.44091327616753739 0 0.42984017904353489 -0.46042986879056458 0 0.41583716859034447 -0.46620520778226737 0 0.42866409193048188 -0.47676758270227471 0 0.42984017904353489 -0.46042986879056458 0 0.4067145811385029 -0.45234669657804139 0 0.42984017904353489 -0.46042986879056458 0 0.41583716859034447 -0.46620520778226737 0 0.4067145811385029 -0.45234669657804139 0 0.41583716859034447 -0.46620520778226737 0 0.4067145811385029 -0.45234669657804139 0 0.40148396946935899 -0.46677367853588281 0 0.42984017904353489 -0.46042986879056458 0 0.4067145811385029 -0.45234669657804139 0 0.41630162367870638 -0.44091327616753739 0 0.4067145811385029 -0.45234669657804139 0 0.38358898323347101 -0.44426352436551808 0 0.39182712026942329 -0.45690385307896481 0 0.39495441733924969 -0.43334788207120151 0 0.4067145811385029 -0.45234669657804139 0 0.41630162367870638 -0.44091327616753739 0 0.39495441733924969 -0.43334788207120151 0 0.4067145811385029 -0.45234669657804139 0 0.38358898323347101 -0.44426352436551808 0 0.4067145811385029 -0.45234669657804139 0 0.38358898323347101 -0.44426352436551808 0 0.38358898323347101 -0.44426352436551808 0 0.37514595674159079 -0.45476526552439389 0 0.39182712026942329 -0.45690385307896481 0 0.38276612650569841 -0.43173139982273478 0 0.38358898323347101 -0.44426352436551808 0 0.36596817218281208 -0.43846752572535042 0 0.37514595674159079 -0.45476526552439389 0 0.38538716437757631 -0.46842775420537441 0 0.39182712026942329 -0.45690385307896481 0 0.37514595674159079 -0.45476526552439389 0 0.38538716437757631 -0.46842775420537441 0 0.37212180294075042 -0.46808428500039262 0 0.38538716437757631 -0.46842775420537441 0 0.39182712026942329 -0.45690385307896481 0 0.40148396946935899 -0.46677367853588281 0 0.4067145811385029 -0.45234669657804139 0 0.39182712026942329 -0.45690385307896481 0 0.40148396946935899 -0.46677367853588281 0 0.39434508200087892 -0.48168095957978257 0 0.4057717135424021 -0.48929931529832937 0 0.41138522724611992 -0.47610642689805982 0 0.38538716437757631 -0.46842775420537441 0 0.40148396946935899 -0.46677367853588281 0 0.39434508200087892 -0.48168095957978257 0 0.40148396946935899 -0.46677367853588281 0 0.39434508200087892 -0.48168095957978257 0 0.41138522724611992 -0.47610642689805982 0 0.38538716437757631 -0.46842775420537441 0 0.39434508200087892 -0.48168095957978257 0 0.37586822855092661 -0.48439202442808083 0 0.38538716437757631 -0.46842775420537441 0 0.37586822855092661 -0.48439202442808083 0 0.37212180294075042 -0.46808428500039262 0 0.39434508200087892 -0.48168095957978257 0 0.37586822855092661 -0.48439202442808083 0 0.39289039342582149 -0.5 0 0.37586822855092661 -0.48439202442808083 0 0.39289039342582149 -0.5 0 0.3704665795387827 -0.49999999999999961 0 0.39434508200087892 -0.48168095957978257 0 0.39289039342582149 -0.5 0 0.4057717135424021 -0.48929931529832937 0 0.39289039342582149 -0.5 0 0.4057717135424021 -0.48929931529832937 0 0.41531420731286051 -0.5 0 0.4057717135424021 -0.48929931529832937 0 0.41138522724611992 -0.47610642689805982 0 0.425256426736628 -0.48969697811313823 0 0.4057717135424021 -0.48929931529832937 0 0.41531420731286051 -0.5 0 0.425256426736628 -0.48969697811313823 0 0.41583716859034447 -0.46620520778226737 0 0.41138522724611992 -0.47610642689805982 0 0.42866409193048188 -0.47676758270227471 0 0.41138522724611992 -0.47610642689805982 0 0.42866409193048188 -0.47676758270227471 0 0.425256426736628 -0.48969697811313823 0 0.41583716859034447 -0.46620520778226737 0 0.40148396946935899 -0.46677367853588281 0 0.41138522724611992 -0.47610642689805982 0 0.44535189907423273 -0.48425652050154361 0 0.42866409193048188 -0.47676758270227471 0 0.425256426736628 -0.48969697811313823 0 0.43920548674920379 -0.47249175324936749 0 0.42984017904353489 -0.46042986879056458 0 0.42866409193048188 -0.47676758270227471 0 0.43773802119989941 -0.49999999999999978 0 0.44535189907423273 -0.48425652050154361 0 0.425256426736628 -0.48969697811313823 0 0.43773802119989941 -0.49999999999999978 0 0.41531420731286051 -0.5 0 0.425256426736628 -0.48969697811313823 0 0.32577547594680167 -0.48549728563522948 0 0.313100747974287 -0.5 0 0.34178366375653479 -0.5 0 0.32577547594680167 -0.48549728563522948 0 0.33309118936964399 -0.46704031311580291 0 0.30810638268294871 -0.47012115952174682 0 0.353331436476917 -0.48488928282810861 0 0.33309118936964399 -0.46704031311580291 0 0.32577547594680167 -0.48549728563522948 0 0.353331436476917 -0.48488928282810861 0 0.33309118936964399 -0.46704031311580291 0 0.32577547594680167 -0.48549728563522948 0 0.353331436476917 -0.48488928282810861 0 0.32577547594680167 -0.48549728563522948 0 0.34178366375653479 -0.5 0 0.353331436476917 -0.48488928282810861 0 0.34178366375653479 -0.5 0 0.353331436476917 -0.48488928282810861 0 0.3704665795387827 -0.49999999999999961 0 0.353331436476917 -0.48488928282810861 0 0.3704665795387827 -0.49999999999999961 0 0.37586822855092661 -0.48439202442808083 0 0.353331436476917 -0.48488928282810861 0 0.37586822855092661 -0.48439202442808083 0 0.353331436476917 -0.48488928282810861 0 0.3704665795387827 -0.49999999999999961 0 0.37586822855092661 -0.48439202442808083 0 0.353331436476917 -0.48488928282810861 0 0.36174609683149922 -0.47333229839911978 0 0.37586822855092661 -0.48439202442808083 0 0.36174609683149922 -0.47333229839911978 0 0.37212180294075042 -0.46808428500039262 0 0.353331436476917 -0.48488928282810861 0 0.3511187368843669 -0.46644655109408317 0 0.33309118936964399 -0.46704031311580291 0 0.353331436476917 -0.48488928282810861 0 0.36174609683149922 -0.47333229839911978 0 0.3511187368843669 -0.46644655109408317 0 0.3511187368843669 -0.46644655109408317 0 0.34821094164401439 -0.44963138573543099 0 0.33309118936964399 -0.46704031311580291 0 0.3511187368843669 -0.46644655109408317 0 0.36000734278227892 -0.4581682973830864 0 0.34821094164401439 -0.44963138573543099 0 0.36174609683149922 -0.47333229839911978 0 0.3511187368843669 -0.46644655109408317 0 0.36000734278227892 -0.4581682973830864 0 0.36174609683149922 -0.47333229839911978 0 0.36000734278227892 -0.4581682973830864 0 0.37212180294075042 -0.46808428500039262 0 0.37514595674159079 -0.45476526552439389 0 0.36000734278227892 -0.4581682973830864 0 0.37212180294075042 -0.46808428500039262 0 0.38358898323347101 -0.44426352436551808 0 0.37514595674159079 -0.45476526552439389 0 0.36596817218281208 -0.43846752572535042 0 0.37514595674159079 -0.45476526552439389 0 0.36000734278227892 -0.4581682973830864 0 0.36596817218281208 -0.43846752572535042 0 0.36596817218281208 -0.43846752572535042 0 0.34821094164401439 -0.44963138573543099 0 0.34622956703096991 -0.43300533851794337 0 0.36000734278227892 -0.4581682973830864 0 0.36596817218281208 -0.43846752572535042 0 0.34821094164401439 -0.44963138573543099 0 0.34821094164401439 -0.44963138573543099 0 0.33295970409203041 -0.44505156475946112 0 0.34622956703096991 -0.43300533851794337 0 0.34821094164401439 -0.44963138573543099 0 0.33295970409203041 -0.44505156475946112 0 0.33309118936964399 -0.46704031311580291 0 0.33295970409203041 -0.44505156475946112 0 0.33309118936964399 -0.46704031311580291 0 0.31285094226236981 -0.44919134340349842 0 0.33309118936964399 -0.46704031311580291 0 0.31285094226236981 -0.44919134340349842 0 0.33309118936964399 -0.46704031311580291 0 0.31285094226236981 -0.44919134340349842 0 0.30810638268294871 -0.47012115952174682 0 0.33295970409203041 -0.44505156475946112 0 0.31285094226236981 -0.44919134340349842 0 0.32443481461114221 -0.42819348402864749 0 0.31285094226236981 -0.44919134340349842 0 0.32443481461114221 -0.42819348402864749 0 0.30716585811758268 -0.42152601893676211 0 0.32443481461114221 -0.42819348402864749 0 0.3377381929345476 -0.41993594981441068 0 0.31826237910007699 -0.40611857650776678 0 0.32443481461114221 -0.42819348402864749 0 0.31826237910007699 -0.40611857650776678 0 0.30716585811758268 -0.42152601893676211 0 0.3377381929345476 -0.41993594981441068 0 0.33955155732169001 -0.40481801647484189 0 0.31826237910007699 -0.40611857650776678 0 0.32443481461114221 -0.42819348402864749 0 0.3377381929345476 -0.41993594981441068 0 0.34622956703096991 -0.43300533851794337 0 0.33295970409203041 -0.44505156475946112 0 0.32443481461114221 -0.42819348402864749 0 0.34622956703096991 -0.43300533851794337 0 0.3377381929345476 -0.41993594981441068 0 0.34622956703096991 -0.43300533851794337 0 0.35818280584871282 -0.41603879828427831 0 0.36596817218281208 -0.43846752572535042 0 0.34622956703096991 -0.43300533851794337 0 0.35818280584871282 -0.41603879828427831 0 0.3754845505291648 -0.42231636227288599 0 0.36596817218281208 -0.43846752572535042 0 0.35818280584871282 -0.41603879828427831 0 0.3754845505291648 -0.42231636227288599 0 0.38276612650569841 -0.43173139982273478 0 0.36596817218281208 -0.43846752572535042 0 0.37842665921942997 -0.40887405987875969 0 0.3754845505291648 -0.42231636227288599 0 0.35818280584871282 -0.41603879828427831 0 0.37842665921942997 -0.40887405987875969 0 0.35818280584871282 -0.41603879828427831 0 0.36824105802713031 -0.4000969440192842 0 0.3377381929345476 -0.41993594981441068 0 0.35818280584871282 -0.41603879828427831 0 0.33955155732169001 -0.40481801647484189 0 0.35818280584871282 -0.41603879828427831 0 0.35120943534252291 -0.3914849644630724 0 0.33955155732169001 -0.40481801647484189 0 0.35818280584871282 -0.41603879828427831 0 0.35120943534252291 -0.3914849644630724 0 0.36824105802713031 -0.4000969440192842 0 0.37900977316023637 -0.39091548517495972 0 0.36824105802713031 -0.4000969440192842 0 0.36724772315424481 -0.38247146420994571 0 0.35120943534252291 -0.3914849644630724 0 0.36824105802713031 -0.4000969440192842 0 0.36724772315424481 -0.38247146420994571 0 0.36724772315424481 -0.38247146420994571 0 0.3553956415560332 -0.375446985373177 0 0.36664078794155069 -0.36853845970684512 0 0.35120943534252291 -0.3914849644630724 0 0.3553956415560332 -0.375446985373177 0 0.34024068493209042 -0.37145909403295352 0 0.35120943534252291 -0.3914849644630724 0 0.36724772315424481 -0.38247146420994571 0 0.3553956415560332 -0.375446985373177 0 0.35120943534252291 -0.3914849644630724 0 0.33045907805143321 -0.38798152631774108 0 0.34024068493209042 -0.37145909403295352 0 0.33045907805143321 -0.38798152631774108 0 0.34024068493209042 -0.37145909403295352 0 0.32473595581008968 -0.36877041147622941 0 0.33045907805143321 -0.38798152631774108 0 0.33955155732169001 -0.40481801647484189 0 0.31826237910007699 -0.40611857650776678 0 0.35120943534252291 -0.3914849644630724 0 0.33045907805143321 -0.38798152631774108 0 0.33955155732169001 -0.40481801647484189 0 0.33045907805143321 -0.38798152631774108 0 0.31826237910007699 -0.40611857650776678 0 0.30852465471842783 -0.38296478278532459 0 0.33045907805143321 -0.38798152631774108 0 0.30852465471842783 -0.38296478278532459 0 0.32473595581008968 -0.36877041147622941 0 0.30852465471842783 -0.38296478278532459 0 0.30157177088572762 -0.39984768184154418 0 0.28524522637625171 -0.38748256695808048 0 0.31826237910007699 -0.40611857650776678 0 0.30852465471842783 -0.38296478278532459 0 0.30157177088572762 -0.39984768184154418 0 0.30157177088572762 -0.39984768184154418 0 0.28524522637625171 -0.38748256695808048 0 0.28909827497095891 -0.41314244090476959 0 0.30852465471842783 -0.38296478278532459 0 0.28524522637625171 -0.38748256695808048 0 0.29576167506738288 -0.36584798696867898 0 0.28524522637625171 -0.38748256695808048 0 0.26194523537769671 -0.38343407302417171 0 0.27628411724202862 -0.36524783617958329 0 0.26194523537769671 -0.38343407302417171 0 0.2677956642119742 -0.40840362680373948 0 0.24730388124056729 -0.40448370284608931 0 0.28524522637625171 -0.38748256695808048 0 0.26194523537769671 -0.38343407302417171 0 0.2677956642119742 -0.40840362680373948 0 0.28524522637625171 -0.38748256695808048 0 0.2677956642119742 -0.40840362680373948 0 0.28909827497095891 -0.41314244090476959 0 0.2677956642119742 -0.40840362680373948 0 0.27472650047210662 -0.43131219108599711 0 0.28909827497095891 -0.41314244090476959 0 0.2677956642119742 -0.40840362680373948 0 0.24845486683426421 -0.43056678600332871 0 0.24730388124056729 -0.40448370284608931 0 0.2677956642119742 -0.40840362680373948 0 0.27472650047210662 -0.43131219108599711 0 0.24845486683426421 -0.43056678600332871 0 0.27472650047210662 -0.43131219108599711 0 0.26710508502781599 -0.44926171113960661 0 0.24845486683426421 -0.43056678600332871 0 0.27472650047210662 -0.43131219108599711 0 0.29418269027227539 -0.43431919247607059 0 0.28909827497095891 -0.41314244090476959 0 0.29418269027227539 -0.43431919247607059 0 0.28909827497095891 -0.41314244090476959 0 0.30716585811758268 -0.42152601893676211 0 0.31826237910007699 -0.40611857650776678 0 0.30157177088572762 -0.39984768184154418 0 0.30716585811758268 -0.42152601893676211 0 0.30157177088572762 -0.39984768184154418 0 0.28909827497095891 -0.41314244090476959 0 0.30716585811758268 -0.42152601893676211 0 0.31285094226236981 -0.44919134340349842 0 0.29418269027227539 -0.43431919247607059 0 0.30716585811758268 -0.42152601893676211 0 0.31285094226236981 -0.44919134340349842 0 0.29418269027227539 -0.43431919247607059 0 0.28597809560131299 -0.4567624239266439 0 0.31285094226236981 -0.44919134340349842 0 0.28597809560131299 -0.4567624239266439 0 0.30810638268294871 -0.47012115952174682 0 0.28597809560131299 -0.4567624239266439 0 0.27356505094757272 -0.46654042127887851 0 0.28658471780149791 -0.47429793876749549 0 0.28597809560131299 -0.4567624239266439 0 0.28658471780149791 -0.47429793876749549 0 0.30810638268294871 -0.47012115952174682 0 0.27472650047210662 -0.43131219108599711 0 0.29418269027227539 -0.43431919247607059 0 0.28597809560131299 -0.4567624239266439 0 0.27472650047210662 -0.43131219108599711 0 0.28597809560131299 -0.4567624239266439 0 0.26710508502781599 -0.44926171113960661 0 0.26710508502781599 -0.44926171113960661 0 0.25055382002994903 -0.45112655962101422 0 0.24845486683426421 -0.43056678600332871 0 0.25055382002994903 -0.45112655962101422 0 0.25749380142066591 -0.46566674131117769 0 0.24452211955108941 -0.47321082899062988 0 0.26710508502781599 -0.44926171113960661 0 0.25055382002994903 -0.45112655962101422 0 0.25749380142066591 -0.46566674131117769 0 0.26710508502781599 -0.44926171113960661 0 0.25749380142066591 -0.46566674131117769 0 0.27356505094757272 -0.46654042127887851 0 0.28597809560131299 -0.4567624239266439 0 0.26710508502781599 -0.44926171113960661 0 0.27356505094757272 -0.46654042127887851 0 0.25749380142066591 -0.46566674131117769 0 0.27356505094757272 -0.46654042127887851 0 0.27066355488657068 -0.48671329124946883 0 0.27356505094757272 -0.46654042127887851 0 0.27066355488657068 -0.48671329124946883 0 0.28658471780149791 -0.47429793876749549 0 0.27066355488657068 -0.48671329124946883 0 0.24310759435645521 -0.48732129405658853 0 0.24452211955108941 -0.47321082899062988 0 0.25749380142066591 -0.46566674131117769 0 0.27066355488657068 -0.48671329124946883 0 0.24452211955108941 -0.47321082899062988 0 0.25573491640979129 -0.5 0 0.27066355488657068 -0.48671329124946883 0 0.24310759435645521 -0.48732129405658853 0 0.27066355488657068 -0.48671329124946883 0 0.24310759435645521 -0.48732129405658853 0 0.25573491640979129 -0.5 0 0.27066355488657068 -0.48671329124946883 0 0.2844178321920392 -0.5 0 0.27066355488657068 -0.48671329124946883 0 0.2844178321920392 -0.5 0 0.29821951541668618 -0.48610528844234918 0 0.27066355488657068 -0.48671329124946883 0 0.29821951541668618 -0.48610528844234918 0 0.27066355488657068 -0.48671329124946883 0 0.28658471780149791 -0.47429793876749549 0 0.29821951541668618 -0.48610528844234918 0 0.28658471780149791 -0.47429793876749549 0 0.30810638268294871 -0.47012115952174682 0 0.29821951541668618 -0.48610528844234918 0 0.32577547594680167 -0.48549728563522948 0 0.30810638268294871 -0.47012115952174682 0 0.29821951541668618 -0.48610528844234918 0 0.313100747974287 -0.5 0 0.2844178321920392 -0.5 0 0.29821951541668618 -0.48610528844234918 0 0.32577547594680167 -0.48549728563522948 0 0.29821951541668618 -0.48610528844234918 0 0.32577547594680167 -0.48549728563522948 0 0.313100747974287 -0.5 0 0.29821951541668618 -0.48610528844234918 0 0.330274064289036 -0.28402767586280209 0 0.34332234684577362 -0.29793808318023329 0 0.34457666422559302 -0.26801309975333321 0 0.330274064289036 -0.28402767586280209 0 0.34332234684577362 -0.29793808318023329 0 0.32977293544345387 -0.30596193421111573 0 0.34332234684577362 -0.29793808318023329 0 0.32977293544345387 -0.30596193421111573 0 0.34206802946595682 -0.32786306660713371 0 0.31744302567780058 -0.29875438106107682 0 0.32081511337912821 -0.31891284763754968 0 0.29956219729229971 -0.30996262866796498 0 0.32977293544345387 -0.30596193421111573 0 0.31744302567780058 -0.29875438106107682 0 0.32081511337912821 -0.31891284763754968 0 0.31744302567780058 -0.29875438106107682 0 0.315203972569992 -0.28599406388836862 0 0.30893165249025939 -0.29458973757352408 0 0.330274064289036 -0.28402767586280209 0 0.32977293544345387 -0.30596193421111573 0 0.31744302567780058 -0.29875438106107682 0 0.330274064289036 -0.28402767586280209 0 0.31744302567780058 -0.29875438106107682 0 0.315203972569992 -0.28599406388836862 0 0.31616400359283131 -0.27140021809428472 0 0.31565659849655159 -0.26881006701694032 0 0.34457666422559302 -0.26801309975333321 0 0.31616400359283131 -0.27140021809428472 0 0.31565659849655159 -0.26881006701694032 0 0.330274064289036 -0.28402767586280209 0 0.315203972569992 -0.28599406388836862 0 0.31616400359283131 -0.27140021809428472 0 0.31140457280844042 -0.24710474912070499 0 0.31565659849655159 -0.26881006701694032 0 0.31140457280844042 -0.24710474912070499 0 0.31565659849655159 -0.26881006701694032 0 0.32909477526671738 -0.25319804842994992 0 0.34542116247921317 -0.24786541093840589 0 0.32909477526671738 -0.25319804842994992 0 0.34457666422559302 -0.26801309975333321 0 0.31565659849655159 -0.26881006701694032 0 0.32909477526671738 -0.25319804842994992 0 0.34457666422559302 -0.26801309975333321 0 0.31565659849655159 -0.26881006701694032 0 0.34457666422559302 -0.26801309975333321 0 0.330274064289036 -0.28402767586280209 0 0.31616400359283131 -0.27140021809428472 0 0.34457666422559302 -0.26801309975333321 0 0.35327842571551671 -0.2677733001931194 0 0.36211004630048071 -0.25874315800932568 0 0.36139056500297317 -0.28258450191058321 0 0.34457666422559302 -0.26801309975333321 0 0.35327842571551671 -0.2677733001931194 0 0.36139056500297317 -0.28258450191058321 0 0.34457666422559302 -0.26801309975333321 0 0.35327842571551671 -0.2677733001931194 0 0.34542116247921317 -0.24786541093840589 0 0.35327842571551671 -0.2677733001931194 0 0.36211004630048071 -0.25874315800932568 0 0.34542116247921317 -0.24786541093840589 0 0.34457666422559302 -0.26801309975333321 0 0.34542116247921317 -0.24786541093840589 0 0.34457666422559302 -0.26801309975333321 0 0.35327842571551671 -0.2677733001931194 0 0.36876625398544938 -0.24898888889403961 0 0.37754581309809132 -0.23651361028518689 0 0.3725796289452375 -0.26579697317357759 0 0.36876625398544938 -0.24898888889403961 0 0.36211004630048071 -0.25874315800932568 0 0.3725796289452375 -0.26579697317357759 0 0.36211004630048071 -0.25874315800932568 0 0.36139056500297317 -0.28258450191058321 0 0.36211004630048071 -0.25874315800932568 0 0.3725796289452375 -0.26579697317357759 0 0.36139056500297317 -0.28258450191058321 0 0.3725796289452375 -0.26579697317357759 0 0.36761344479238373 -0.29508033606196837 0 0.3725796289452375 -0.26579697317357759 0 0.36139056500297317 -0.28258450191058321 0 0.36761344479238373 -0.29508033606196837 0 0.36139056500297317 -0.28258450191058321 0 0.36067108370546558 -0.30642584581184062 0 0.36139056500297317 -0.28258450191058321 0 0.36761344479238373 -0.29508033606196837 0 0.36067108370546558 -0.30642584581184062 0 0.37929392098169401 -0.28404327537796259 0 0.3725796289452375 -0.26579697317357759 0 0.36761344479238373 -0.29508033606196837 0 0.34332234684577362 -0.29793808318023329 0 0.36139056500297317 -0.28258450191058321 0 0.36067108370546558 -0.30642584581184062 0 0.34332234684577362 -0.29793808318023329 0 0.34457666422559302 -0.26801309975333321 0 0.34332234684577362 -0.29793808318023329 0 0.34457666422559302 -0.26801309975333321 0 0.36139056500297317 -0.28258450191058321 0 0.34332234684577362 -0.29793808318023329 0 0.36067108370546558 -0.30642584581184062 0 0.35385294866325562 -0.31815161708919842 0 0.37804720550635529 -0.30651687721429538 0 0.36761344479238373 -0.29508033606196837 0 0.37325959660283969 -0.31225701655594912 0 0.36761344479238373 -0.29508033606196837 0 0.37325959660283969 -0.31225701655594912 0 0.36522996683296982 -0.32210974174446261 0 0.36761344479238373 -0.29508033606196837 0 0.3626472606395299 -0.32436369895035932 0 0.36761344479238373 -0.29508033606196837 0 0.36067108370546558 -0.30642584581184062 0 0.3626472606395299 -0.32436369895035932 0 0.36067108370546558 -0.30642584581184062 0 0.35995160240795782 -0.33026718971309799 0 0.37325959660283969 -0.31225701655594912 0 0.36522996683296982 -0.32210974174446261 0 0.37029473460036533 -0.32565573538444043 0 0.36761344479238373 -0.29508033606196837 0 0.3626472606395299 -0.32436369895035932 0 0.36522996683296982 -0.32210974174446261 0 0.36067108370546558 -0.30642584581184062 0 0.3626472606395299 -0.32436369895035932 0 0.35995160240795782 -0.33026718971309799 0 0.38064079273778262 -0.31288188218018531 0 0.37325959660283969 -0.31225701655594912 0 0.37029473460036533 -0.32565573538444043 0 0.3626472606395299 -0.32436369895035932 0 0.37029473460036533 -0.32565573538444043 0 0.35995160240795782 -0.33026718971309799 0 0.37029473460036533 -0.32565573538444043 0 0.35995160240795782 -0.33026718971309799 0 0.3626472606395299 -0.32436369895035932 0 0.36522996683296982 -0.32210974174446261 0 0.37029473460036533 -0.32565573538444043 0 0.36522996683296982 -0.32210974174446261 0 0.37029473460036533 -0.32565573538444043 0 0.35995160240795782 -0.33026718971309799 0 0.35941557651728179 -0.34802939929915899 0 0.37029473460036533 -0.32565573538444043 0 0.37212478857772979 -0.33864880005647208 0 0.35995160240795782 -0.33026718971309799 0 0.3654326502107581 -0.34245967622864359 0 0.35995160240795782 -0.33026718971309799 0 0.35941557651728179 -0.34802939929915899 0 0.37212478857772979 -0.33864880005647208 0 0.3654326502107581 -0.34245967622864359 0 0.37040156667629781 -0.34671437794913718 0 0.37212478857772979 -0.33864880005647208 0 0.3654326502107581 -0.34245967622864359 0 0.35995160240795782 -0.33026718971309799 0 0.35995160240795782 -0.33026718971309799 0 0.35941557651728179 -0.34802939929915899 0 0.34162477060798069 -0.33843815246039383 0 0.35941557651728179 -0.34802939929915899 0 0.34146637893605181 -0.3422169952266676 0 0.34162477060798069 -0.33843815246039383 0 0.35995160240795782 -0.33026718971309799 0 0.34162477060798069 -0.33843815246039383 0 0.35995160240795782 -0.33026718971309799 0 0.34764647170350632 -0.33021231032179682 0 0.34162477060798069 -0.33843815246039383 0 0.35995160240795782 -0.33026718971309799 0 0.34764647170350632 -0.33021231032179682 0 0.35274785573456591 -0.3260756163463463 0 0.34764647170350632 -0.33021231032179682 0 0.34206802946595682 -0.32786306660713371 0 0.34162477060798069 -0.33843815246039383 0 0.34764647170350632 -0.33021231032179682 0 0.34206802946595682 -0.32786306660713371 0 0.35385294866325562 -0.31815161708919842 0 0.35274785573456591 -0.3260756163463463 0 0.34206802946595682 -0.32786306660713371 0 0.34764647170350632 -0.33021231032179682 0 0.35274785573456591 -0.3260756163463463 0 0.34206802946595682 -0.32786306660713371 0 0.34332234684577362 -0.29793808318023329 0 0.35385294866325562 -0.31815161708919842 0 0.34206802946595682 -0.32786306660713371 0 0.36067108370546558 -0.30642584581184062 0 0.35995160240795782 -0.33026718971309799 0 0.35385294866325562 -0.31815161708919842 0 0.35995160240795782 -0.33026718971309799 0 0.35385294866325562 -0.31815161708919842 0 0.35274785573456591 -0.3260756163463463 0 0.38249634533461108 -0.36797477098799591 0 0.36724772315424481 -0.38247146420994571 0 0.36664078794155069 -0.36853845970684512 0 0.38249634533461108 -0.36797477098799591 0 0.36664078794155069 -0.36853845970684512 0 0.37305712147220338 -0.36102055586376819 0 0.3553956415560332 -0.375446985373177 0 0.36664078794155069 -0.36853845970684512 0 0.35901533294662008 -0.36129221050145399 0 0.36664078794155069 -0.36853845970684512 0 0.37305712147220338 -0.36102055586376819 0 0.36517854466496658 -0.35714892472411869 0 0.36664078794155069 -0.36853845970684512 0 0.36517854466496658 -0.35714892472411869 0 0.35901533294662008 -0.36129221050145399 0 0.36517854466496658 -0.35714892472411869 0 0.35941557651728179 -0.34802939929915899 0 0.35901533294662008 -0.36129221050145399 0 0.36517854466496658 -0.35714892472411869 0 0.36469303305047901 -0.34973837317986511 0 0.35941557651728179 -0.34802939929915899 0 0.36517854466496658 -0.35714892472411869 0 0.37030234625384911 -0.35279401393457888 0 0.36469303305047901 -0.34973837317986511 0 0.37818146540529818 -0.34934783795600571 0 0.37305712147220338 -0.36102055586376819 0 0.37030234625384911 -0.35279401393457888 0 0.37305712147220338 -0.36102055586376819 0 0.36517854466496658 -0.35714892472411869 0 0.37030234625384911 -0.35279401393457888 0 0.37818146540529818 -0.34934783795600571 0 0.37212478857772979 -0.33864880005647208 0 0.37040156667629781 -0.34671437794913718 0 0.37818146540529818 -0.34934783795600571 0 0.37030234625384911 -0.35279401393457888 0 0.37040156667629781 -0.34671437794913718 0 0.37030234625384911 -0.35279401393457888 0 0.37040156667629781 -0.34671437794913718 0 0.36469303305047901 -0.34973837317986511 0 0.3654326502107581 -0.34245967622864359 0 0.37040156667629781 -0.34671437794913718 0 0.36469303305047901 -0.34973837317986511 0 0.36469303305047901 -0.34973837317986511 0 0.35941557651728179 -0.34802939929915899 0 0.3654326502107581 -0.34245967622864359 0 0.36469303305047901 -0.34973837317986511 0 0.35941557651728179 -0.34802939929915899 0 0.35003449333301101 -0.35574942476505861 0 0.34024068493209042 -0.37145909403295352 0 0.34146637893605181 -0.3422169952266676 0 0.35941557651728179 -0.34802939929915899 0 0.35003449333301101 -0.35574942476505861 0 0.34146637893605181 -0.3422169952266676 0 0.35941557651728179 -0.34802939929915899 0 0.34146637893605181 -0.3422169952266676 0 0.35941557651728179 -0.34802939929915899 0 0.35901533294662008 -0.36129221050145399 0 0.35941557651728179 -0.34802939929915899 0 0.35003449333301101 -0.35574942476505861 0 0.35901533294662008 -0.36129221050145399 0 0.35003449333301101 -0.35574942476505861 0 0.35901533294662008 -0.36129221050145399 0 0.34024068493209042 -0.37145909403295352 0 0.3553956415560332 -0.375446985373177 0 0.35901533294662008 -0.36129221050145399 0 0.34024068493209042 -0.37145909403295352 0 0.34024068493209042 -0.37145909403295352 0 0.33264239376833749 -0.35548373211026962 0 0.32473595581008968 -0.36877041147622941 0 0.34024068493209042 -0.37145909403295352 0 0.33264239376833749 -0.35548373211026962 0 0.34146637893605181 -0.3422169952266676 0 0.34024068493209042 -0.37145909403295352 0 0.34146637893605181 -0.3422169952266676 0 0.33264239376833749 -0.35548373211026962 0 0.32969677432389999 -0.34883746930945858 0 0.32350037713642671 -0.3535383953733186 0 0.33264239376833749 -0.35548373211026962 0 0.33484083241944268 -0.34588391539316982 0 0.34146637893605181 -0.3422169952266676 0 0.33264239376833749 -0.35548373211026962 0 0.33484083241944268 -0.34588391539316982 0 0.32969677432389999 -0.34883746930945858 0 0.33484083241944268 -0.34588391539316982 0 0.32969677432389999 -0.34883746930945858 0 0.33080291213000951 -0.34437854531234752 0 0.32969677432389999 -0.34883746930945858 0 0.33080291213000951 -0.34437854531234752 0 0.32576759743036687 -0.34544500479448842 0 0.32576759743036687 -0.34544500479448842 0 0.32008489300350967 -0.34478001059398899 0 0.32350037713642671 -0.3535383953733186 0 0.32969677432389999 -0.34883746930945858 0 0.32576759743036687 -0.34544500479448842 0 0.32350037713642671 -0.3535383953733186 0 0.32576759743036687 -0.34544500479448842 0 0.32008489300350967 -0.34478001059398899 0 0.3230261242077439 -0.3426129045732173 0 0.32008489300350967 -0.34478001059398899 0 0.31455300750316167 -0.34989325112993808 0 0.32350037713642671 -0.3535383953733186 0 0.32008489300350967 -0.34478001059398899 0 0.31455300750316167 -0.34989325112993808 0 0.31278358272303802 -0.34129775444127147 0 0.31455300750316167 -0.34989325112993808 0 0.32350037713642671 -0.3535383953733186 0 0.31266700858965563 -0.36105898834543543 0 0.33264239376833749 -0.35548373211026962 0 0.32350037713642671 -0.3535383953733186 0 0.32473595581008968 -0.36877041147622941 0 0.30852465471842783 -0.38296478278532459 0 0.31266700858965563 -0.36105898834543543 0 0.32473595581008968 -0.36877041147622941 0 0.32350037713642671 -0.3535383953733186 0 0.31266700858965563 -0.36105898834543543 0 0.32473595581008968 -0.36877041147622941 0 0.34332234684577362 -0.29793808318023329 0 0.34206802946595682 -0.32786306660713371 0 0.32977293544345387 -0.30596193421111573 0 0.34206802946595682 -0.32786306660713371 0 0.32081511337912821 -0.31891284763754968 0 0.34206802946595682 -0.32786306660713371 0 0.32602109842812482 -0.32927153728442071 0 0.32081511337912821 -0.31891284763754968 0 0.34206802946595682 -0.32786306660713371 0 0.32081511337912821 -0.31891284763754968 0 0.34206802946595682 -0.32786306660713371 0 0.34162477060798069 -0.33843815246039383 0 0.33801441914131958 -0.33597980122333287 0 0.34206802946595682 -0.32786306660713371 0 0.34162477060798069 -0.33843815246039383 0 0.34206802946595682 -0.32786306660713371 0 0.33503975802439162 -0.33352730776002742 0 0.32602109842812482 -0.32927153728442071 0 0.34206802946595682 -0.32786306660713371 0 0.33801441914131958 -0.33597980122333287 0 0.33503975802439162 -0.33352730776002742 0 0.34146637893605181 -0.3422169952266676 0 0.34162477060798069 -0.33843815246039383 0 0.33664845261102122 -0.34065682884787418 0 0.34146637893605181 -0.3422169952266676 0 0.34162477060798069 -0.33843815246039383 0 0.34162477060798069 -0.33843815246039383 0 0.33801441914131958 -0.33597980122333287 0 0.33664845261102122 -0.34065682884787418 0 0.34162477060798069 -0.33843815246039383 0 0.33664845261102122 -0.34065682884787418 0 0.33801441914131958 -0.33597980122333287 0 0.33664845261102122 -0.34065682884787418 0 0.334556636173299 -0.33621284741772872 0 0.33484083241944268 -0.34588391539316982 0 0.34146637893605181 -0.3422169952266676 0 0.33664845261102122 -0.34065682884787418 0 0.34146637893605181 -0.3422169952266676 0 0.33664845261102122 -0.34065682884787418 0 0.33080291213000951 -0.34437854531234752 0 0.33664845261102122 -0.34065682884787418 0 0.32753883147517121 -0.34023469067202677 0 0.33664845261102122 -0.34065682884787418 0 0.334556636173299 -0.33621284741772872 0 0.32852391491646382 -0.33468745183968091 0 0.33484083241944268 -0.34588391539316982 0 0.33080291213000951 -0.34437854531234752 0 0.33664845261102122 -0.34065682884787418 0 0.33503975802439162 -0.33352730776002742 0 0.32852391491646382 -0.33468745183968091 0 0.32602109842812482 -0.32927153728442071 0 0.334556636173299 -0.33621284741772872 0 0.33503975802439162 -0.33352730776002742 0 0.32852391491646382 -0.33468745183968091 0 0.33801441914131958 -0.33597980122333287 0 0.334556636173299 -0.33621284741772872 0 0.33503975802439162 -0.33352730776002742 0 0.32753883147517121 -0.34023469067202677 0 0.31871317492192791 -0.33999191223236508 0 0.30992165968220392 -0.33200201743577268 0 0.32852391491646382 -0.33468745183968091 0 0.32602109842812482 -0.32927153728442071 0 0.30992165968220392 -0.33200201743577268 0 0.33664845261102122 -0.34065682884787418 0 0.32852391491646382 -0.33468745183968091 0 0.30992165968220392 -0.33200201743577268 0 0.33664845261102122 -0.34065682884787418 0 0.32753883147517121 -0.34023469067202677 0 0.30992165968220392 -0.33200201743577268 0 0.32602109842812482 -0.32927153728442071 0 0.31516553794356478 -0.32688419612254632 0 0.30992165968220392 -0.33200201743577268 0 0.33664845261102122 -0.34065682884787418 0 0.30992165968220392 -0.33200201743577268 0 0.32753883147517121 -0.34023469067202677 0 0.3230261242077439 -0.3426129045732173 0 0.31871317492192791 -0.33999191223236508 0 0.33080291213000951 -0.34437854531234752 0 0.32576759743036687 -0.34544500479448842 0 0.32753883147517121 -0.34023469067202677 0 0.32576759743036687 -0.34544500479448842 0 0.32753883147517121 -0.34023469067202677 0 0.3230261242077439 -0.3426129045732173 0 0.32008489300350967 -0.34478001059398899 0 0.3230261242077439 -0.3426129045732173 0 0.31871317492192791 -0.33999191223236508 0 0.31871317492192791 -0.33999191223236508 0 0.31278358272303802 -0.34129775444127147 0 0.30992165968220392 -0.33200201743577268 0 0.32008489300350967 -0.34478001059398899 0 0.31871317492192791 -0.33999191223236508 0 0.31278358272303802 -0.34129775444127147 0 0.32602109842812482 -0.32927153728442071 0 0.31516553794356478 -0.32688419612254632 0 0.32081511337912821 -0.31891284763754968 0 0.31516553794356478 -0.32688419612254632 0 0.32081511337912821 -0.31891284763754968 0 0.29956219729229971 -0.30996262866796498 0 0.31516553794356478 -0.32688419612254632 0 0.30992165968220392 -0.33200201743577268 0 0.29956219729229971 -0.30996262866796498 0 0.30992165968220392 -0.33200201743577268 0 0.28319486675338662 -0.32334720602367162 0 0.29956219729229971 -0.30996262866796498 0 0.32081511337912821 -0.31891284763754968 0 0.29956219729229971 -0.30996262866796498 0 0.31516553794356478 -0.32688419612254632 0 0.29956219729229971 -0.30996262866796498 0 0.31278358272303802 -0.34129775444127147 0 0.30544777269898171 -0.33968681455295602 0 0.30372917606317851 -0.34879110689567611 0 0.31278358272303802 -0.34129775444127147 0 0.30992165968220392 -0.33200201743577268 0 0.30544777269898171 -0.33968681455295602 0 0.30992165968220392 -0.33200201743577268 0 0.30544777269898171 -0.33968681455295602 0 0.29535667232750618 -0.33665637943910393 0 0.30544777269898171 -0.33968681455295602 0 0.29535667232750618 -0.33665637943910393 0 0.30372917606317851 -0.34879110689567611 0 0.30992165968220392 -0.33200201743577268 0 0.29535667232750618 -0.33665637943910393 0 0.28319486675338662 -0.32334720602367162 0 0.29535667232750618 -0.33665637943910393 0 0.28811986741475609 -0.34954264064797458 0 0.28056009198101312 -0.33712721632873971 0 0.29535667232750618 -0.33665637943910393 0 0.28319486675338662 -0.32334720602367162 0 0.28056009198101312 -0.33712721632873971 0 0.30992165968220392 -0.33200201743577268 0 0.28319486675338662 -0.32334720602367162 0 0.30852465471842783 -0.38296478278532459 0 0.31266700858965563 -0.36105898834543543 0 0.29576167506738288 -0.36584798696867898 0 0.31266700858965563 -0.36105898834543543 0 0.30372917606317851 -0.34879110689567611 0 0.29576167506738288 -0.36584798696867898 0 0.31455300750316167 -0.34989325112993808 0 0.31266700858965563 -0.36105898834543543 0 0.30372917606317851 -0.34879110689567611 0 0.31455300750316167 -0.34989325112993808 0 0.31278358272303802 -0.34129775444127147 0 0.30372917606317851 -0.34879110689567611 0 0.30372917606317851 -0.34879110689567611 0 0.28811986741475609 -0.34954264064797458 0 0.29576167506738288 -0.36584798696867898 0 0.29535667232750618 -0.33665637943910393 0 0.30372917606317851 -0.34879110689567611 0 0.28811986741475609 -0.34954264064797458 0 0.28811986741475609 -0.34954264064797458 0 0.29576167506738288 -0.36584798696867898 0 0.27628411724202862 -0.36524783617958329 0 0.28524522637625171 -0.38748256695808048 0 0.29576167506738288 -0.36584798696867898 0 0.27628411724202862 -0.36524783617958329 0 0.27628411724202862 -0.36524783617958329 0 0.26970242523906313 -0.3463930650348116 0 0.25620327224306561 -0.36049072758523892 0 0.28811986741475609 -0.34954264064797458 0 0.27628411724202862 -0.36524783617958329 0 0.26970242523906313 -0.3463930650348116 0 0.28811986741475609 -0.34954264064797458 0 0.26970242523906313 -0.3463930650348116 0 0.28056009198101312 -0.33712721632873971 0 0.26970242523906313 -0.3463930650348116 0 0.25620327224306561 -0.36049072758523892 0 0.25110761996098008 -0.33756133299550262 0 0.26194523537769671 -0.38343407302417171 0 0.27628411724202862 -0.36524783617958329 0 0.25620327224306561 -0.36049072758523892 0 0.26194523537769671 -0.38343407302417171 0 0.25620327224306561 -0.36049072758523892 0 0.2380746425401753 -0.37739124482652259 0 0.28319486675338662 -0.32334720602367162 0 0.25646807382456938 -0.31469239461157061 0 0.28319486675338662 -0.32334720602367162 0 0.25646807382456938 -0.31469239461157061 0 0.26668910057358802 -0.30550764638795852 0 0.28319486675338662 -0.32334720602367162 0 0.26642662817035351 -0.32969679049813649 0 0.25646807382456938 -0.31469239461157061 0 0.26970242523906313 -0.3463930650348116 0 0.26642662817035351 -0.32969679049813649 0 0.28056009198101312 -0.33712721632873971 0 0.28319486675338662 -0.32334720602367162 0 0.26642662817035351 -0.32969679049813649 0 0.28056009198101312 -0.33712721632873971 0 0.26970242523906313 -0.3463930650348116 0 0.26642662817035351 -0.32969679049813649 0 0.25110761996098008 -0.33756133299550262 0 0.26642662817035351 -0.32969679049813649 0 0.25110761996098008 -0.33756133299550262 0 0.25646807382456938 -0.31469239461157061 0 0.26020915296869068 -0.2933899210744732 0 0.26668910057358802 -0.30550764638795852 0 0.24613976577650579 -0.30323365481969039 0 0.25646807382456938 -0.31469239461157061 0 0.26668910057358802 -0.30550764638795852 0 0.24613976577650579 -0.30323365481969039 0 0.26020915296869068 -0.2933899210744732 0 0.25058364390229548 -0.28023087545190861 0 0.26295470628353768 -0.27026240406269297 0 0.26020915296869068 -0.2933899210744732 0 0.25058364390229548 -0.28023087545190861 0 0.24053263080688631 -0.28510356727772701 0 0.26020915296869068 -0.2933899210744732 0 0.24053263080688631 -0.28510356727772701 0 0.26020915296869068 -0.2933899210744732 0 0.28125845178791892 -0.29011251636532881 0 0.26295470628353768 -0.27026240406269297 0 0.26020915296869068 -0.2933899210744732 0 0.27988567513049512 -0.30167627487121951 0 0.28125845178791892 -0.29011251636532881 0 0.26020915296869068 -0.2933899210744732 0 0.26668910057358802 -0.30550764638795852 0 0.27988567513049512 -0.30167627487121951 0 0.26020915296869068 -0.2933899210744732 0 0.27988567513049512 -0.30167627487121951 0 0.28319486675338662 -0.32334720602367162 0 0.26668910057358802 -0.30550764638795852 0 0.27988567513049512 -0.30167627487121951 0 0.27988567513049512 -0.30167627487121951 0 0.29956219729229971 -0.30996262866796498 0 0.28125845178791892 -0.29011251636532881 0 0.29956219729229971 -0.30996262866796498 0 0.27988567513049512 -0.30167627487121951 0 0.28125845178791892 -0.29011251636532881 0 0.29956219729229971 -0.30996262866796498 0 0.28319486675338662 -0.32334720602367162 0 0.27988567513049512 -0.30167627487121951 0 0.29956219729229971 -0.30996262866796498 0 0.28125845178791892 -0.29011251636532881 0 0.30351741442094582 -0.28364787667668517 0 0.29956219729229971 -0.30996262866796498 0 0.30351741442094582 -0.28364787667668517 0 0.30893165249025939 -0.29458973757352408 0 0.29956219729229971 -0.30996262866796498 0 0.315203972569992 -0.28599406388836862 0 0.30351741442094582 -0.28364787667668517 0 0.30893165249025939 -0.29458973757352408 0 0.31744302567780058 -0.29875438106107682 0 0.30893165249025939 -0.29458973757352408 0 0.29956219729229971 -0.30996262866796498 0 0.31140457280844042 -0.24710474912070499 0 0.31565659849655159 -0.26881006701694032 0 0.29718577407036301 -0.25519814195989071 0 0.31565659849655159 -0.26881006701694032 0 0.29718577407036301 -0.25519814195989071 0 0.28930565239004458 -0.26953623553981648 0 0.31565659849655159 -0.26881006701694032 0 0.28930565239004458 -0.26953623553981648 0 0.31565659849655159 -0.26881006701694032 0 0.30351741442094582 -0.28364787667668517 0 0.28930565239004458 -0.26953623553981648 0 0.315203972569992 -0.28599406388836862 0 0.31616400359283131 -0.27140021809428472 0 0.30351741442094582 -0.28364787667668517 0 0.31616400359283131 -0.27140021809428472 0 0.31565659849655159 -0.26881006701694032 0 0.30351741442094582 -0.28364787667668517 0 0.28125845178791892 -0.29011251636532881 0 0.30351741442094582 -0.28364787667668517 0 0.28930565239004458 -0.26953623553981648 0 0.29234931722919649 -0.23956849287787771 0 0.29718577407036301 -0.25519814195989071 0 0.28009493911397709 -0.25531812806766069 0 0.29718577407036301 -0.25519814195989071 0 0.28930565239004458 -0.26953623553981648 0 0.28009493911397709 -0.25531812806766069 0 0.28009493911397709 -0.25531812806766069 0 0.26295470628353768 -0.27026240406269297 0 0.26515279713901752 -0.25474276698909742 0 0.28930565239004458 -0.26953623553981648 0 0.28009493911397709 -0.25531812806766069 0 0.26295470628353768 -0.27026240406269297 0 0.27362138757170362 -0.2426007269765893 0 0.28009493911397709 -0.25531812806766069 0 0.26515279713901752 -0.25474276698909742 0 0.28930565239004458 -0.26953623553981648 0 0.26295470628353768 -0.27026240406269297 0 0.28125845178791892 -0.29011251636532881 0 0.28930565239004458 -0.26953623553981648 0 0.26295470628353768 -0.27026240406269297 0 0.28125845178791892 -0.29011251636532881 0 0.26295470628353768 -0.27026240406269297 0 0.26295470628353768 -0.27026240406269297 0 0.25920525151110962 -0.26619618175379239 0 0.2333624491378041 -0.27107789530058801 0 0.26295470628353768 -0.27026240406269297 0 0.25920525151110962 -0.26619618175379239 0 0.26515279713901752 -0.25474276698909742 0 0.25909559454287789 -0.26033526294480458 0 0.25575058308532189 -0.25269357128633052 0 0.26295470628353768 -0.27026240406269297 0 0.25920525151110962 -0.26619618175379239 0 0.25909559454287789 -0.26033526294480458 0 0.26295470628353768 -0.27026240406269297 0 0.26515279713901752 -0.25474276698909742 0 0.25909559454287789 -0.26033526294480458 0 0.25920525151110962 -0.26619618175379239 0 0.25909559454287789 -0.26033526294480458 0 0.2525593813984649 -0.26013433662011259 0 0.2525593813984649 -0.26013433662011259 0 0.25575058308532189 -0.25269357128633052 0 0.2462907050713771 -0.25204034373521428 0 0.25909559454287789 -0.26033526294480458 0 0.2525593813984649 -0.26013433662011259 0 0.25575058308532189 -0.25269357128633052 0 0.2525593813984649 -0.26013433662011259 0 0.2372713891187809 -0.25677075628574592 0 0.2333624491378041 -0.27107789530058801 0 0.2525593813984649 -0.26013433662011259 0 0.2462907050713771 -0.25204034373521428 0 0.2372713891187809 -0.25677075628574592 0 0.2525593813984649 -0.26013433662011259 0 0.2372713891187809 -0.25677075628574592 0 0.2462907050713771 -0.25204034373521428 0 0.2372713891187809 -0.25677075628574592 0 0.2374752251495614 -0.24157268794541539 0 0.26295470628353768 -0.27026240406269297 0 0.2333624491378041 -0.27107789530058801 0 0.25058364390229548 -0.28023087545190861 0 0.2333624491378041 -0.27107789530058801 0 0.24053263080688631 -0.28510356727772701 0 0.25920525151110962 -0.26619618175379239 0 0.2525593813984649 -0.26013433662011259 0 0.2333624491378041 -0.27107789530058801 0 0.25058364390229548 -0.28023087545190861 0 0.26295470628353768 -0.27026240406269297 0 0.2333624491378041 -0.27107789530058801 0 0.2333624491378041 -0.27107789530058801 0 0.22391874229476511 -0.2824004848955064 0 0.24053263080688631 -0.28510356727772701 0 0.2333624491378041 -0.27107789530058801 0 0.22198339683909701 -0.25340717595137879 0 0.22391874229476511 -0.2824004848955064 0 0.22198339683909701 -0.25340717595137879 0 0.21277476220729311 -0.27908963951381288 0 0.22391874229476511 -0.2824004848955064 0 0.22198339683909701 -0.25340717595137879 0 0.22391874229476511 -0.2824004848955064 0 0.2372713891187809 -0.25677075628574592 0 0.2333624491378041 -0.27107789530058801 0 0.22198339683909701 -0.25340717595137879 0 0.2372713891187809 -0.25677075628574592 0 0.22198339683909701 -0.25340717595137879 0 0.2374752251495614 -0.24157268794541539 0 0.2372713891187809 -0.25677075628574592 0 0.22198339683909701 -0.25340717595137879 0 0.22198339683909701 -0.25340717595137879 0 0.19767743283581299 -0.26201501502554969 0 0.19815896102696709 -0.24816545406213189 0 0.22198339683909701 -0.25340717595137879 0 0.19815896102696709 -0.24816545406213189 0 0.22198339683909701 -0.25340717595137879 0 0.2070014623020448 -0.26844420161526761 0 0.19767743283581299 -0.26201501502554969 0 0.22198339683909701 -0.25340717595137879 0 0.21277476220729311 -0.27908963951381288 0 0.2070014623020448 -0.26844420161526761 0 0.21277476220729311 -0.27908963951381288 0 0.19627752834655959 -0.27465633278028612 0 0.20552852767052071 -0.28818040814850709 0 0.21277476220729311 -0.27908963951381288 0 0.2070014623020448 -0.26844420161526761 0 0.19627752834655959 -0.27465633278028612 0 0.2070014623020448 -0.26844420161526761 0 0.19627752834655959 -0.27465633278028612 0 0.19767743283581299 -0.26201501502554969 0 0.19627752834655959 -0.27465633278028612 0 0.19767743283581299 -0.26201501502554969 0 0.1861358052291735 -0.26379397041404468 0 0.19767743283581299 -0.26201501502554969 0 0.1861358052291735 -0.26379397041404468 0 0.19815896102696709 -0.24816545406213189 0 0.1861358052291735 -0.26379397041404468 0 0.18066177981631051 -0.25348299893649828 0 0.19815896102696709 -0.24816545406213189 0 0.20129939135720101 -0.31175464383988888 0 0.20552852767052071 -0.28818040814850709 0 0.1861316223780578 -0.30340045511113362 0 0.20552852767052071 -0.28818040814850709 0 0.18615950714984131 -0.28714944863913389 0 0.1861316223780578 -0.30340045511113362 0 0.19627752834655959 -0.27465633278028612 0 0.20552852767052071 -0.28818040814850709 0 0.18615950714984131 -0.28714944863913389 0 0.21277476220729311 -0.27908963951381288 0 0.20552852767052071 -0.28818040814850709 0 0.22391874229476511 -0.2824004848955064 0 0.20552852767052071 -0.28818040814850709 0 0.21283890344555609 -0.30228465628523993 0 0.22391874229476511 -0.2824004848955064 0 0.20129939135720101 -0.31175464383988888 0 0.20552852767052071 -0.28818040814850709 0 0.21283890344555609 -0.30228465628523993 0 0.225854087750432 -0.31139379383963389 0 0.22391874229476511 -0.2824004848955064 0 0.21283890344555609 -0.30228465628523993 0 0.225854087750432 -0.31139379383963389 0 0.22391874229476511 -0.2824004848955064 0 0.225854087750432 -0.31139379383963389 0 0.22391874229476511 -0.2824004848955064 0 0.24053263080688631 -0.28510356727772701 0 0.26020915296869068 -0.2933899210744732 0 0.24053263080688631 -0.28510356727772701 0 0.24613976577650579 -0.30323365481969039 0 0.225854087750432 -0.31139379383963389 0 0.24053263080688631 -0.28510356727772701 0 0.24613976577650579 -0.30323365481969039 0 0.225854087750432 -0.31139379383963389 0 0.24613976577650579 -0.30323365481969039 0 0.24147179610371719 -0.32145365581003182 0 0.25110761996098008 -0.33756133299550262 0 0.25646807382456938 -0.31469239461157061 0 0.24147179610371719 -0.32145365581003182 0 0.25646807382456938 -0.31469239461157061 0 0.24613976577650579 -0.30323365481969039 0 0.24147179610371719 -0.32145365581003182 0 0.25110761996098008 -0.33756133299550262 0 0.24147179610371719 -0.32145365581003182 0 0.2277894332060989 -0.3403871027837615 0 0.225854087750432 -0.31139379383963389 0 0.24147179610371719 -0.32145365581003182 0 0.2277894332060989 -0.3403871027837615 0 0.225854087750432 -0.31139379383963389 0 0.2277894332060989 -0.3403871027837615 0 0.2131017443993804 -0.32550716011161479 0 0.225854087750432 -0.31139379383963389 0 0.2277894332060989 -0.3403871027837615 0 0.25620327224306561 -0.36049072758523892 0 0.23939100935974761 -0.35412122659527612 0 0.2380746425401753 -0.37739124482652259 0 0.25110761996098008 -0.33756133299550262 0 0.2277894332060989 -0.3403871027837615 0 0.23939100935974761 -0.35412122659527612 0 0.25620327224306561 -0.36049072758523892 0 0.25110761996098008 -0.33756133299550262 0 0.23939100935974761 -0.35412122659527612 0 0.2277894332060989 -0.3403871027837615 0 0.23939100935974761 -0.35412122659527612 0 0.22160146260088931 -0.35672021721344238 0 0.2277894332060989 -0.3403871027837615 0 0.22160146260088931 -0.35672021721344238 0 0.21393580002607371 -0.34141846605291087 0 0.23939100935974761 -0.35412122659527612 0 0.22160146260088931 -0.35672021721344238 0 0.2380746425401753 -0.37739124482652259 0 0.22160146260088931 -0.35672021721344238 0 0.21646245367279571 -0.38358476595235552 0 0.22160146260088931 -0.35672021721344238 0 0.2380746425401753 -0.37739124482652259 0 0.21646245367279571 -0.38358476595235552 0 0.22160146260088931 -0.35672021721344238 0 0.19836301469614079 -0.36402790855933592 0 0.2025217842010896 -0.37807387373583923 0 0.22160146260088931 -0.35672021721344238 0 0.21646245367279571 -0.38358476595235552 0 0.2025217842010896 -0.37807387373583923 0 0.22160146260088931 -0.35672021721344238 0 0.20535211274276649 -0.35018034328080122 0 0.21393580002607371 -0.34141846605291087 0 0.22160146260088931 -0.35672021721344238 0 0.20535211274276649 -0.35018034328080122 0 0.19836301469614079 -0.36402790855933592 0 0.20535211274276649 -0.35018034328080122 0 0.19180082998577391 -0.35029167033112268 0 0.20100079568597551 -0.33875735092892167 0 0.19180082998577391 -0.35029167033112268 0 0.19836301469614079 -0.36402790855933592 0 0.18636698824462991 -0.36225910140511608 0 0.19180082998577391 -0.35029167033112268 0 0.18636698824462991 -0.36225910140511608 0 0.18448777755487131 -0.35210036546502188 0 0.20535211274276649 -0.35018034328080122 0 0.19180082998577391 -0.35029167033112268 0 0.19836301469614079 -0.36402790855933592 0 0.19836301469614079 -0.36402790855933592 0 0.19083927531350181 -0.37426462870353422 0 0.18636698824462991 -0.36225910140511608 0 0.19836301469614079 -0.36402790855933592 0 0.19083927531350181 -0.37426462870353422 0 0.2025217842010896 -0.37807387373583923 0 0.20129939135720101 -0.31175464383988888 0 0.21283890344555609 -0.30228465628523993 0 0.2131017443993804 -0.32550716011161479 0 0.21283890344555609 -0.30228465628523993 0 0.225854087750432 -0.31139379383963389 0 0.2131017443993804 -0.32550716011161479 0 0.2277894332060989 -0.3403871027837615 0 0.2131017443993804 -0.32550716011161479 0 0.21393580002607371 -0.34141846605291087 0 0.2131017443993804 -0.32550716011161479 0 0.21393580002607371 -0.34141846605291087 0 0.20100079568597551 -0.33875735092892167 0 0.20535211274276649 -0.35018034328080122 0 0.21393580002607371 -0.34141846605291087 0 0.20100079568597551 -0.33875735092892167 0 0.19180082998577391 -0.35029167033112268 0 0.20100079568597551 -0.33875735092892167 0 0.1840044286915227 -0.33601373309634508 0 0.20100079568597551 -0.33875735092892167 0 0.19352690233448341 -0.32516644492614982 0 0.1840044286915227 -0.33601373309634508 0 0.2131017443993804 -0.32550716011161479 0 0.20100079568597551 -0.33875735092892167 0 0.19352690233448341 -0.32516644492614982 0 0.20129939135720101 -0.31175464383988888 0 0.2131017443993804 -0.32550716011161479 0 0.19352690233448341 -0.32516644492614982 0 0.20129939135720101 -0.31175464383988888 0 0.19352690233448341 -0.32516644492614982 0 0.1861316223780578 -0.30340045511113362 0 0.19352690233448341 -0.32516644492614982 0 0.17526094699071121 -0.32121364916979261 0 0.1840044286915227 -0.33601373309634508 0 0.19352690233448341 -0.32516644492614982 0 0.17526094699071121 -0.32121364916979261 0 0.1861316223780578 -0.30340045511113362 0 0.17526094699071121 -0.32121364916979261 0 0.1840044286915227 -0.33601373309634508 0 0.17670370261134591 -0.35101137430815987 0 0.17526094699071121 -0.32121364916979261 0 0.16632300769682529 -0.33914532989683449 0 0.17670370261134591 -0.35101137430815987 0 0.17526094699071121 -0.32121364916979261 0 0.17670370261134591 -0.35101137430815987 0 0.16632300769682529 -0.33914532989683449 0 0.15635532043033851 -0.32762317205032648 0 0.15384528835215919 -0.34888323103730828 0 0.17526094699071121 -0.32121364916979261 0 0.16632300769682529 -0.33914532989683449 0 0.15635532043033851 -0.32762317205032648 0 0.17526094699071121 -0.32121364916979261 0 0.15635532043033851 -0.32762317205032648 0 0.16613015085753399 -0.29794196337136208 0 0.19083927531350181 -0.37426462870353422 0 0.18636698824462991 -0.36225910140511608 0 0.17814645823198061 -0.38080909944652741 0 0.17670370261134591 -0.35101137430815987 0 0.1695008882053643 -0.3539014675276998 0 0.17814645823198061 -0.38080909944652741 0 0.17670370261134591 -0.35101137430815987 0 0.17814645823198061 -0.38080909944652741 0 0.18636698824462991 -0.36225910140511608 0 0.17670370261134591 -0.35101137430815987 0 0.17814645823198061 -0.38080909944652741 0 0.18636698824462991 -0.36225910140511608 0 0.18448777755487131 -0.35210036546502188 0 0.17670370261134591 -0.35101137430815987 0 0.18448777755487131 -0.35210036546502188 0 0.18424918471087839 -0.34735428580016242 0 0.17670370261134591 -0.35101137430815987 0 0.19180082998577391 -0.35029167033112268 0 0.1840044286915227 -0.33601373309634508 0 0.18424918471087839 -0.34735428580016242 0 0.1840044286915227 -0.33601373309634508 0 0.18424918471087839 -0.34735428580016242 0 0.17670370261134591 -0.35101137430815987 0 0.19180082998577391 -0.35029167033112268 0 0.18448777755487131 -0.35210036546502188 0 0.18424918471087839 -0.34735428580016242 0 0.16632300769682529 -0.33914532989683449 0 0.1695008882053643 -0.3539014675276998 0 0.15384528835215919 -0.34888323103730828 0 0.1695008882053643 -0.3539014675276998 0 0.15622266046030589 -0.36560529067035252 0 0.15384528835215919 -0.34888323103730828 0 0.16632300769682529 -0.33914532989683449 0 0.17670370261134591 -0.35101137430815987 0 0.1695008882053643 -0.3539014675276998 0 0.1695008882053643 -0.3539014675276998 0 0.15622266046030589 -0.36560529067035252 0 0.1662516937484437 -0.37945746017663878 0 0.1695008882053643 -0.3539014675276998 0 0.17814645823198061 -0.38080909944652741 0 0.1662516937484437 -0.37945746017663878 0 0.1695008882053643 -0.3539014675276998 0 0.1662516937484437 -0.37945746017663878 0 0.15622266046030589 -0.36560529067035252 0 0.15384528835215919 -0.34888323103730828 0 0.13913284643621729 -0.36987147755796063 0 0.15622266046030589 -0.36560529067035252 0 0.13913284643621729 -0.36987147755796063 0 0.15122325216971341 -0.38057118911269922 0 0.15384528835215919 -0.34888323103730828 0 0.13913284643621729 -0.36987147755796063 0 0.1385684583736729 -0.34280877879487409 0 0.1385684583736729 -0.34280877879487409 0 0.1245186505824013 -0.36113750934922573 0 0.1203073559828662 -0.34481831064573482 0 0.13913284643621729 -0.36987147755796063 0 0.1385684583736729 -0.34280877879487409 0 0.13913284643621729 -0.36987147755796063 0 0.1385684583736729 -0.34280877879487409 0 0.1245186505824013 -0.36113750934922573 0 0.13913284643621729 -0.36987147755796063 0 0.12672469353237761 -0.38193719477194499 0 0.1245186505824013 -0.36113750934922573 0 0.15635532043033851 -0.32762317205032648 0 0.13800407031112841 -0.31574608003178772 0 0.16613015085753399 -0.29794196337136208 0 0.15635532043033851 -0.32762317205032648 0 0.15384528835215919 -0.34888323103730828 0 0.1385684583736729 -0.34280877879487409 0 0.15635532043033851 -0.32762317205032648 0 0.1385684583736729 -0.34280877879487409 0 0.13800407031112841 -0.31574608003178772 0 0.1385684583736729 -0.34280877879487409 0 0.13800407031112841 -0.31574608003178772 0 0.1385684583736729 -0.34280877879487409 0 0.1252730154641265 -0.33501756179834041 0 0.127277047630593 -0.32368123984794023 0 0.1385684583736729 -0.34280877879487409 0 0.1252730154641265 -0.33501756179834041 0 0.1203073559828662 -0.34481831064573482 0 0.13800407031112841 -0.31574608003178772 0 0.127277047630593 -0.32368123984794023 0 0.1207194796176513 -0.31206082339016011 0 0.1385684583736729 -0.34280877879487409 0 0.13800407031112841 -0.31574608003178772 0 0.127277047630593 -0.32368123984794023 0 0.13800407031112841 -0.31574608003178772 0 0.13743968224858391 -0.28868338126870119 0 0.1207194796176513 -0.31206082339016011 0 0.13800407031112841 -0.31574608003178772 0 0.13743968224858391 -0.28868338126870119 0 0.13800407031112841 -0.31574608003178772 0 0.13743968224858391 -0.28868338126870119 0 0.16613015085753399 -0.29794196337136208 0 0.13743968224858391 -0.28868338126870119 0 0.16013622185265231 -0.27370264407204231 0 0.16613015085753399 -0.29794196337136208 0 0.13743968224858391 -0.28868338126870119 0 0.13687529418603939 -0.26162068250561471 0 0.13743968224858391 -0.28868338126870119 0 0.13687529418603939 -0.26162068250561471 0 0.12122917553908071 -0.27280048239714111 0 0.13687529418603939 -0.26162068250561471 0 0.15867772839633809 -0.25707915377424612 0 0.15532271566916761 -0.23874085795770611 0 0.13687529418603939 -0.26162068250561471 0 0.16013622185265231 -0.27370264407204231 0 0.15867772839633809 -0.25707915377424612 0 0.13743968224858391 -0.28868338126870119 0 0.13687529418603939 -0.26162068250561471 0 0.16013622185265231 -0.27370264407204231 0 0.16013622185265231 -0.27370264407204231 0 0.17163424862532001 -0.26348395238230132 0 0.17866520103123101 -0.27392164610568698 0 0.16013622185265231 -0.27370264407204231 0 0.15867772839633809 -0.25707915377424612 0 0.17163424862532001 -0.26348395238230132 0 0.15867772839633809 -0.25707915377424612 0 0.17163424862532001 -0.26348395238230132 0 0.17304535898525439 -0.24904788565112909 0 0.17163424862532001 -0.26348395238230132 0 0.18066177981631051 -0.25348299893649828 0 0.17304535898525439 -0.24904788565112909 0 0.17163424862532001 -0.26348395238230132 0 0.1861358052291735 -0.26379397041404468 0 0.18066177981631051 -0.25348299893649828 0 0.19627752834655959 -0.27465633278028612 0 0.17866520103123101 -0.27392164610568698 0 0.18615950714984131 -0.28714944863913389 0 0.19627752834655959 -0.27465633278028612 0 0.1861358052291735 -0.26379397041404468 0 0.17866520103123101 -0.27392164610568698 0 0.17163424862532001 -0.26348395238230132 0 0.1861358052291735 -0.26379397041404468 0 0.17866520103123101 -0.27392164610568698 0 0.17866520103123101 -0.27392164610568698 0 0.18615950714984131 -0.28714944863913389 0 0.16613015085753399 -0.29794196337136208 0 0.18615950714984131 -0.28714944863913389 0 0.1861316223780578 -0.30340045511113362 0 0.16613015085753399 -0.29794196337136208 0 0.17526094699071121 -0.32121364916979261 0 0.1861316223780578 -0.30340045511113362 0 0.16613015085753399 -0.29794196337136208 0 0.16013622185265231 -0.27370264407204231 0 0.17866520103123101 -0.27392164610568698 0 0.16613015085753399 -0.29794196337136208 0 0.19650118937966099 -0.48458767462136337 0 0.18247472509388471 -0.47020227486163019 0 0.1839174807145193 -0.49999999999999789 0 0.19650118937966099 -0.48458767462136337 0 0.2054847406710314 -0.5 0 0.1839174807145193 -0.49999999999999789 0 0.19650118937966099 -0.48458767462136337 0 0.1995265252191368 -0.47051219141525807 0 0.18247472509388471 -0.47020227486163019 0 0.19650118937966099 -0.48458767462136337 0 0.1995265252191368 -0.47051219141525807 0 0.21142085222808771 -0.48158275099342862 0 0.1995265252191368 -0.47051219141525807 0 0.21142085222808771 -0.48158275099342862 0 0.21140626781342409 -0.46122374827882839 0 0.21142085222808771 -0.48158275099342862 0 0.23068219321441441 -0.47630316546961982 0 0.21140626781342409 -0.46122374827882839 0 0.19650118937966099 -0.48458767462136337 0 0.21142085222808771 -0.48158275099342862 0 0.2054847406710314 -0.5 0 0.21142085222808771 -0.48158275099342862 0 0.2054847406710314 -0.5 0 0.22705200062754341 -0.49999999999999972 0 0.21142085222808771 -0.48158275099342862 0 0.22705200062754341 -0.49999999999999972 0 0.23068219321441441 -0.47630316546961982 0 0.22705200062754341 -0.49999999999999972 0 0.24310759435645521 -0.48732129405658853 0 0.23068219321441441 -0.47630316546961982 0 0.22705200062754341 -0.49999999999999972 0 0.23068219321441441 -0.47630316546961982 0 0.25573491640979129 -0.5 0 0.22705200062754341 -0.49999999999999972 0 0.24310759435645521 -0.48732129405658853 0 0.24310759435645521 -0.48732129405658853 0 0.24452211955108941 -0.47321082899062988 0 0.23068219321441441 -0.47630316546961982 0 0.23068219321441441 -0.47630316546961982 0 0.23431238580128549 -0.45260633093924002 0 0.23068219321441441 -0.47630316546961982 0 0.23431238580128549 -0.45260633093924002 0 0.21140626781342409 -0.46122374827882839 0 0.24452211955108941 -0.47321082899062988 0 0.23068219321441441 -0.47630316546961982 0 0.23431238580128549 -0.45260633093924002 0 0.25055382002994903 -0.45112655962101422 0 0.24452211955108941 -0.47321082899062988 0 0.23431238580128549 -0.45260633093924002 0 0.25055382002994903 -0.45112655962101422 0 0.23431238580128549 -0.45260633093924002 0 0.24845486683426421 -0.43056678600332871 0 0.23431238580128549 -0.45260633093924002 0 0.2061844358166085 -0.43731386343018219 0 0.22816721351006641 -0.42382217308135922 0 0.23431238580128549 -0.45260633093924002 0 0.21140626781342409 -0.46122374827882839 0 0.2061844358166085 -0.43731386343018219 0 0.21140626781342409 -0.46122374827882839 0 0.1958295915806266 -0.45496450832104018 0 0.2061844358166085 -0.43731386343018219 0 0.1995265252191368 -0.47051219141525807 0 0.1958295915806266 -0.45496450832104018 0 0.18247472509388471 -0.47020227486163019 0 0.1995265252191368 -0.47051219141525807 0 0.21140626781342409 -0.46122374827882839 0 0.1958295915806266 -0.45496450832104018 0 0.1958295915806266 -0.45496450832104018 0 0.2061844358166085 -0.43731386343018219 0 0.18103196947325001 -0.44040454972326271 0 0.19189840580791451 -0.42494462472696731 0 0.2061844358166085 -0.43731386343018219 0 0.18103196947325001 -0.44040454972326271 0 0.19189840580791451 -0.42494462472696731 0 0.1954291475964339 -0.41062193775622902 0 0.2113234447447021 -0.41044931469126889 0 0.19189840580791451 -0.42494462472696731 0 0.1954291475964339 -0.41062193775622902 0 0.17958921385261531 -0.41060682458489489 0 0.19189840580791451 -0.42494462472696731 0 0.2113234447447021 -0.41044931469126889 0 0.2061844358166085 -0.43731386343018219 0 0.2113234447447021 -0.41044931469126889 0 0.2061844358166085 -0.43731386343018219 0 0.22816721351006641 -0.42382217308135922 0 0.2113234447447021 -0.41044931469126889 0 0.2061844358166085 -0.43731386343018219 0 0.23431238580128549 -0.45260633093924002 0 0.22816721351006641 -0.42382217308135922 0 0.24845486683426421 -0.43056678600332871 0 0.22816721351006641 -0.42382217308135922 0 0.24845486683426421 -0.43056678600332871 0 0.24730388124056729 -0.40448370284608931 0 0.22816721351006641 -0.42382217308135922 0 0.22802948983690591 -0.39972126622214238 0 0.24730388124056729 -0.40448370284608931 0 0.2113234447447021 -0.41044931469126889 0 0.22816721351006641 -0.42382217308135922 0 0.22802948983690591 -0.39972126622214238 0 0.22802948983690591 -0.39972126622214238 0 0.24730388124056729 -0.40448370284608931 0 0.2380746425401753 -0.37739124482652259 0 0.26194523537769671 -0.38343407302417171 0 0.24730388124056729 -0.40448370284608931 0 0.2380746425401753 -0.37739124482652259 0 0.22802948983690591 -0.39972126622214238 0 0.2380746425401753 -0.37739124482652259 0 0.21646245367279571 -0.38358476595235552 0 0.21646245367279571 -0.38358476595235552 0 0.19890552598050351 -0.3964869870217847 0 0.2025217842010896 -0.37807387373583923 0 0.2113234447447021 -0.41044931469126889 0 0.22802948983690591 -0.39972126622214238 0 0.21646245367279571 -0.38358476595235552 0 0.2113234447447021 -0.41044931469126889 0 0.21646245367279571 -0.38358476595235552 0 0.2113234447447021 -0.41044931469126889 0 0.21646245367279571 -0.38358476595235552 0 0.19890552598050351 -0.3964869870217847 0 0.1954291475964339 -0.41062193775622902 0 0.2113234447447021 -0.41044931469126889 0 0.19890552598050351 -0.3964869870217847 0 0.1954291475964339 -0.41062193775622902 0 0.19890552598050351 -0.3964869870217847 0 0.17958921385261531 -0.41060682458489489 0 0.19890552598050351 -0.3964869870217847 0 0.19000045151593811 -0.3880482826985161 0 0.17958921385261531 -0.41060682458489489 0 0.19890552598050351 -0.3964869870217847 0 0.19000045151593811 -0.3880482826985161 0 0.2025217842010896 -0.37807387373583923 0 0.19083927531350181 -0.37426462870353422 0 0.19000045151593811 -0.3880482826985161 0 0.2025217842010896 -0.37807387373583923 0 0.19083927531350181 -0.37426462870353422 0 0.19000045151593811 -0.3880482826985161 0 0.17814645823198061 -0.38080909944652741 0 0.17814645823198061 -0.38080909944652741 0 0.17958921385261531 -0.41060682458489489 0 0.19000045151593811 -0.3880482826985161 0 0.17814645823198061 -0.38080909944652741 0 0.17958921385261531 -0.41060682458489489 0 0.17814645823198061 -0.38080909944652741 0 0.17073561596382039 -0.39301209499015272 0 0.17958921385261531 -0.41060682458489489 0 0.16300249929152311 -0.40501345282557782 0 0.1662516937484437 -0.37945746017663878 0 0.1548118257048379 -0.39098754083749682 0 0.17073561596382039 -0.39301209499015272 0 0.16300249929152311 -0.40501345282557782 0 0.1662516937484437 -0.37945746017663878 0 0.17073561596382039 -0.39301209499015272 0 0.16300249929152311 -0.40501345282557782 0 0.17958921385261531 -0.41060682458489489 0 0.16300249929152311 -0.40501345282557782 0 0.1662516937484437 -0.37945746017663878 0 0.1662516937484437 -0.37945746017663878 0 0.15122325216971341 -0.38057118911269922 0 0.1548118257048379 -0.39098754083749682 0 0.17814645823198061 -0.38080909944652741 0 0.17073561596382039 -0.39301209499015272 0 0.1662516937484437 -0.37945746017663878 0 0.15622266046030589 -0.36560529067035252 0 0.1662516937484437 -0.37945746017663878 0 0.15122325216971341 -0.38057118911269922 0 0.15122325216971341 -0.38057118911269922 0 0.13969723449876181 -0.39693417632104711 0 0.1548118257048379 -0.39098754083749682 0 0.13913284643621729 -0.36987147755796063 0 0.15122325216971341 -0.38057118911269922 0 0.13969723449876181 -0.39693417632104711 0 0.13913284643621729 -0.36987147755796063 0 0.12672469353237761 -0.38193719477194499 0 0.13969723449876181 -0.39693417632104711 0 0.13913284643621729 -0.36987147755796063 0 0.13969723449876181 -0.39693417632104711 0 0.12672469353237761 -0.38193719477194499 0 0.13969723449876181 -0.39693417632104711 0 0.1219351525082772 -0.40864131998943182 0 0.16300249929152311 -0.40501345282557782 0 0.13969723449876181 -0.39693417632104711 0 0.1524997256598466 -0.41582351463554701 0 0.16300249929152311 -0.40501345282557782 0 0.13969723449876181 -0.39693417632104711 0 0.1548118257048379 -0.39098754083749682 0 0.13969723449876181 -0.39693417632104711 0 0.1524997256598466 -0.41582351463554701 0 0.14026162256130631 -0.42399687508413381 0 0.13969723449876181 -0.39693417632104711 0 0.14026162256130631 -0.42399687508413381 0 0.13969723449876181 -0.39693417632104711 0 0.14026162256130631 -0.42399687508413381 0 0.1219351525082772 -0.40864131998943182 0 0.1272554141007321 -0.42571201066291808 0 0.14026162256130631 -0.42399687508413381 0 0.1219351525082772 -0.40864131998943182 0 0.13018508541287829 -0.43658956786597553 0 0.14026162256130631 -0.42399687508413381 0 0.14082601062385081 -0.45105957384722029 0 0.13018508541287829 -0.43658956786597553 0 0.1272554141007321 -0.42571201066291808 0 0.14026162256130631 -0.42399687508413381 0 0.1524997256598466 -0.41582351463554701 0 0.14026162256130631 -0.42399687508413381 0 0.15975330483460251 -0.43056944547451692 0 0.14026162256130631 -0.42399687508413381 0 0.15975330483460251 -0.43056944547451692 0 0.14082601062385081 -0.45105957384722029 0 0.16300249929152311 -0.40501345282557782 0 0.15975330483460251 -0.43056944547451692 0 0.17958921385261531 -0.41060682458489489 0 0.16300249929152311 -0.40501345282557782 0 0.15975330483460251 -0.43056944547451692 0 0.16300249929152311 -0.40501345282557782 0 0.1524997256598466 -0.41582351463554701 0 0.15975330483460251 -0.43056944547451692 0 0.15975330483460251 -0.43056944547451692 0 0.17958921385261531 -0.41060682458489489 0 0.18103196947325001 -0.44040454972326271 0 0.17958921385261531 -0.41060682458489489 0 0.18103196947325001 -0.44040454972326271 0 0.19189840580791451 -0.42494462472696731 0 0.17958921385261531 -0.41060682458489489 0 0.18103196947325001 -0.44040454972326271 0 0.18103196947325001 -0.44040454972326271 0 0.16491961284223791 -0.45249038001545161 0 0.18247472509388471 -0.47020227486163019 0 0.18103196947325001 -0.44040454972326271 0 0.18247472509388471 -0.47020227486163019 0 0.1958295915806266 -0.45496450832104018 0 0.18103196947325001 -0.44040454972326271 0 0.18247472509388471 -0.47020227486163019 0 0.16491961284223791 -0.45249038001545161 0 0.1605120541856016 -0.47021605617062739 0 0.18247472509388471 -0.47020227486163019 0 0.15975330483460251 -0.43056944547451692 0 0.18103196947325001 -0.44040454972326271 0 0.16491961284223791 -0.45249038001545161 0 0.15975330483460251 -0.43056944547451692 0 0.16491961284223791 -0.45249038001545161 0 0.14082601062385081 -0.45105957384722029 0 0.14026162256130631 -0.42399687508413381 0 0.14082601062385081 -0.45105957384722029 0 0.14082601062385081 -0.45105957384722029 0 0.12543676829432579 -0.44683393452868708 0 0.12531186358948529 -0.45757018679138572 0 0.13018508541287829 -0.43658956786597553 0 0.14082601062385081 -0.45105957384722029 0 0.12543676829432579 -0.44683393452868708 0 0.14082601062385081 -0.45105957384722029 0 0.12842365125323091 -0.46593607888014599 0 0.13328939848609819 -0.47119455711627289 0 0.14082601062385081 -0.45105957384722029 0 0.14139039868639619 -0.47812227261030682 0 0.13328939848609819 -0.47119455711627289 0 0.12842365125323091 -0.46593607888014599 0 0.12531186358948529 -0.45757018679138572 0 0.1232316263288145 -0.46410889533344052 0 0.12842365125323091 -0.46593607888014599 0 0.1245497287119053 -0.47085317529077592 0 0.12311265484265969 -0.46777846846391841 0 0.14082601062385081 -0.45105957384722029 0 0.12842365125323091 -0.46593607888014599 0 0.12531186358948529 -0.45757018679138572 0 0.16491961284223791 -0.45249038001545161 0 0.14082601062385081 -0.45105957384722029 0 0.1605120541856016 -0.47021605617062739 0 0.14082601062385081 -0.45105957384722029 0 0.14139039868639619 -0.47812227261030682 0 0.14082601062385081 -0.45105957384722029 0 0.14139039868639619 -0.47812227261030682 0 0.1605120541856016 -0.47021605617062739 0 0.14139039868639619 -0.47812227261030682 0 0.15939735020609169 -0.48906113630515408 0 0.1605120541856016 -0.47021605617062739 0 0.14139039868639619 -0.47812227261030682 0 0.15939735020609169 -0.48906113630515408 0 0.14139039868639619 -0.47812227261030682 0 0.13328939848609819 -0.47119455711627289 0 0.13520794413867351 -0.47916570768291911 0 0.14139039868639619 -0.47812227261030682 0 0.13520794413867351 -0.47916570768291911 0 0.13309005864575499 -0.48654881223837643 0 0.13328939848609819 -0.47119455711627289 0 0.13520794413867351 -0.47916570768291911 0 0.1282166063692238 -0.47963436787526348 0 0.13520794413867351 -0.47916570768291911 0 0.1282166063692238 -0.47963436787526348 0 0.13309005864575499 -0.48654881223837643 0 0.12842365125323091 -0.46593607888014599 0 0.1275076222339897 -0.47406719287555171 0 0.1245497287119053 -0.47085317529077592 0 0.12842365125323091 -0.46593607888014599 0 0.13328939848609819 -0.47119455711627289 0 0.1275076222339897 -0.47406719287555171 0 0.13328939848609819 -0.47119455711627289 0 0.1282166063692238 -0.47963436787526348 0 0.1275076222339897 -0.47406719287555171 0 0.1282166063692238 -0.47963436787526348 0 0.1275076222339897 -0.47406719287555171 0 0.12271037357175291 -0.47562361121234281 0 0.14139039868639619 -0.47812227261030682 0 0.13309005864575499 -0.48654881223837643 0 0.1417493920694651 -0.49533619053082339 0 0.1325088383252874 -0.49999999999999689 0 0.11946717228548211 -0.4870343347309507 0 0.1325088383252874 -0.49999999999999689 0 0.13309005864575499 -0.48654881223837643 0 0.11946717228548211 -0.4870343347309507 0 0.1282166063692238 -0.47963436787526348 0 0.13309005864575499 -0.48654881223837643 0 0.11946717228548211 -0.4870343347309507 0 0.1325088383252874 -0.49999999999999689 0 0.13309005864575499 -0.48654881223837643 0 0.1417493920694651 -0.49533619053082339 0 0.1325088383252874 -0.49999999999999689 0 0.1417493920694651 -0.49533619053082339 0 0.15495657002553739 -0.5 0 0.14139039868639619 -0.47812227261030682 0 0.14937342774687271 -0.49062989986157102 0 0.15939735020609169 -0.48906113630515408 0 0.14139039868639619 -0.47812227261030682 0 0.1417493920694651 -0.49533619053082339 0 0.14139039868639619 -0.47812227261030682 0 0.1417493920694651 -0.49533619053082339 0 0.14937342774687271 -0.49062989986157102 0 0.1417493920694651 -0.49533619053082339 0 0.14937342774687271 -0.49062989986157102 0 0.15495657002553739 -0.5 0 0.14937342774687271 -0.49062989986157102 0 0.15495657002553739 -0.5 0 0.15939735020609169 -0.48906113630515408 0 0.15939735020609169 -0.48906113630515408 0 0.17467337585270831 -0.48420504396041608 0 0.1774043017257875 -0.50000000000000111 0 0.15939735020609169 -0.48906113630515408 0 0.1774043017257875 -0.50000000000000111 0 0.15495657002553739 -0.5 0 0.15939735020609169 -0.48906113630515408 0 0.1774043017257875 -0.50000000000000111 0 0.15939735020609169 -0.48906113630515408 0 0.1605120541856016 -0.47021605617062739 0 0.17467337585270831 -0.48420504396041608 0 0.1605120541856016 -0.47021605617062739 0 0.17467337585270831 -0.48420504396041608 0 0.18247472509388471 -0.47020227486163019 0 0.18247472509388471 -0.47020227486163019 0 0.1839174807145193 -0.49999999999999789 0 0.17467337585270831 -0.48420504396041608 0 0.18247472509388471 -0.47020227486163019 0 0.1839174807145193 -0.49999999999999789 0 0.17467337585270831 -0.48420504396041608 0 0.1839174807145193 -0.49999999999999789 0 0.1774043017257875 -0.50000000000000111 0 0.065949985054517032 -0.48884997455687013 0 0.080677891680827868 -0.48404188118506331 0 0.084758324792090334 -0.49999999999999989 0 0.065949985054517032 -0.48884997455687013 0 0.084758324792090334 -0.49999999999999989 0 0.055728539092515517 -0.5 0 0.065949985054517032 -0.48884997455687013 0 0.069113753880103546 -0.47032146630200872 0 0.080677891680827868 -0.48404188118506331 0 0.065949985054517032 -0.48884997455687013 0 0.069113753880103546 -0.47032146630200872 0 0.057596711449277201 -0.48334309492942701 0 0.069113753880103546 -0.47032146630200872 0 0.080677891680827868 -0.48404188118506331 0 0.088790870678748121 -0.47481427013272492 0 0.069113753880103546 -0.47032146630200872 0 0.088790870678748121 -0.47481427013272492 0 0.09506323621333454 -0.46277261346061632 0 0.080677891680827868 -0.48404188118506331 0 0.088790870678748121 -0.47481427013272492 0 0.094776523998680279 -0.48622369493371298 0 0.080677891680827868 -0.48404188118506331 0 0.084758324792090334 -0.49999999999999989 0 0.094776523998680279 -0.48622369493371298 0 0.084758324792090334 -0.49999999999999989 0 0.10099043700106421 -0.499999999999999 0 0.094776523998680279 -0.48622369493371298 0 0.084758324792090334 -0.49999999999999989 0 0.094776523998680279 -0.48622369493371298 0 0.10099043700106421 -0.499999999999999 0 0.1064255062456735 -0.47406866946190801 0 0.10099043700106421 -0.499999999999999 0 0.094776523998680279 -0.48622369493371298 0 0.1064255062456735 -0.47406866946190801 0 0.10099043700106421 -0.499999999999999 0 0.11946717228548211 -0.4870343347309507 0 0.1064255062456735 -0.47406866946190801 0 0.1325088383252874 -0.49999999999999689 0 0.1167496376631757 -0.5 0 0.11946717228548211 -0.4870343347309507 0 0.10099043700106421 -0.499999999999999 0 0.1167496376631757 -0.5 0 0.11946717228548211 -0.4870343347309507 0 0.12074084002908721 -0.47045370359981148 0 0.12271037357175291 -0.47562361121234281 0 0.11625567037499381 -0.47238364776222469 0 0.12074084002908721 -0.47045370359981148 0 0.11625567037499381 -0.47238364776222469 0 0.1192823524431306 -0.4663394170250621 0 0.12074084002908721 -0.47045370359981148 0 0.1245497287119053 -0.47085317529077592 0 0.12271037357175291 -0.47562361121234281 0 0.12074084002908721 -0.47045370359981148 0 0.1245497287119053 -0.47085317529077592 0 0.12311265484265969 -0.46777846846391841 0 0.1275076222339897 -0.47406719287555171 0 0.1245497287119053 -0.47085317529077592 0 0.12271037357175291 -0.47562361121234281 0 0.1282166063692238 -0.47963436787526348 0 0.11946717228548211 -0.4870343347309507 0 0.12271037357175291 -0.47562361121234281 0 0.11946717228548211 -0.4870343347309507 0 0.12271037357175291 -0.47562361121234281 0 0.11625567037499381 -0.47238364776222469 0 0.11946717228548211 -0.4870343347309507 0 0.1064255062456735 -0.47406866946190801 0 0.11946717228548211 -0.4870343347309507 0 0.11625567037499381 -0.47238364776222469 0 0.1064255062456735 -0.47406866946190801 0 0.11625567037499381 -0.47238364776222469 0 0.1064255062456735 -0.47406866946190801 0 0.11129693947086181 -0.46795476393154728 0 0.1064255062456735 -0.47406866946190801 0 0.10479472320527 -0.47244738986742602 0 0.1075632658294263 -0.46864028970971422 0 0.1064255062456735 -0.47406866946190801 0 0.1075632658294263 -0.46864028970971422 0 0.11129693947086181 -0.46795476393154728 0 0.088790870678748121 -0.47481427013272492 0 0.094776523998680279 -0.48622369493371298 0 0.10479472320527 -0.47244738986742602 0 0.1064255062456735 -0.47406866946190801 0 0.1075632658294263 -0.46864028970971422 0 0.088790870678748121 -0.47481427013272492 0 0.10479472320527 -0.47244738986742602 0 0.09506323621333454 -0.46277261346061632 0 0.10479472320527 -0.47244738986742602 0 0.1075632658294263 -0.46864028970971422 0 0.1064255062456735 -0.47406866946190801 0 0.10479472320527 -0.47244738986742602 0 0.094776523998680279 -0.48622369493371298 0 0.1064255062456735 -0.47406866946190801 0 0.10479472320527 -0.47244738986742602 0 0.094776523998680279 -0.48622369493371298 0 0.10479472320527 -0.47244738986742602 0 0.10479472320527 -0.47244738986742602 0 0.09506323621333454 -0.46277261346061632 0 0.1060131744550812 -0.45411466011360518 0 0.1075632658294263 -0.46864028970971422 0 0.11260152047704799 -0.44460220652757759 0 0.09506323621333454 -0.46277261346061632 0 0.10011436795704159 -0.45274002486564408 0 0.091519926973447546 -0.44626784630584138 0 0.09506323621333454 -0.46277261346061632 0 0.10386028492466159 -0.46021350167150438 0 0.09506323621333454 -0.46277261346061632 0 0.10386028492466159 -0.46021350167150438 0 0.10011436795704159 -0.45274002486564408 0 0.10386028492466159 -0.46021350167150438 0 0.1060131744550812 -0.45411466011360518 0 0.10011436795704159 -0.45274002486564408 0 0.10386028492466159 -0.46021350167150438 0 0.1060131744550812 -0.45411466011360518 0 0.1075632658294263 -0.46864028970971422 0 0.10479472320527 -0.47244738986742602 0 0.09506323621333454 -0.46277261346061632 0 0.1075632658294263 -0.46864028970971422 0 0.09506323621333454 -0.46277261346061632 0 0.10386028492466159 -0.46021350167150438 0 0.1075632658294263 -0.46864028970971422 0 0.1075632658294263 -0.46864028970971422 0 0.1123560704600764 -0.46204957042440498 0 0.11260152047704799 -0.44460220652757759 0 0.1075632658294263 -0.46864028970971422 0 0.1123560704600764 -0.46204957042440498 0 0.1075632658294263 -0.46864028970971422 0 0.11129693947086181 -0.46795476393154728 0 0.1123560704600764 -0.46204957042440498 0 0.1075632658294263 -0.46864028970971422 0 0.11260152047704799 -0.44460220652757759 0 0.11129693947086181 -0.46795476393154728 0 0.1123560704600764 -0.46204957042440498 0 0.11129693947086181 -0.46795476393154728 0 0.1149697984784732 -0.46556593525158491 0 0.1123560704600764 -0.46204957042440498 0 0.11625567037499381 -0.47238364776222469 0 0.1149697984784732 -0.46556593525158491 0 0.1192823524431306 -0.4663394170250621 0 0.11625567037499381 -0.47238364776222469 0 0.11129693947086181 -0.46795476393154728 0 0.1149697984784732 -0.46556593525158491 0 0.1149697984784732 -0.46556593525158491 0 0.1123560704600764 -0.46204957042440498 0 0.118705430672609 -0.46205297743075813 0 0.1123560704600764 -0.46204957042440498 0 0.11635977570981471 -0.45654396370023359 0 0.118705430672609 -0.46205297743075813 0 0.1123560704600764 -0.46204957042440498 0 0.11635977570981471 -0.45654396370023359 0 0.12531186358948529 -0.45757018679138572 0 0.11635977570981471 -0.45654396370023359 0 0.118705430672609 -0.46205297743075813 0 0.12543676829432579 -0.44683393452868708 0 0.12531186358948529 -0.45757018679138572 0 0.11635977570981471 -0.45654396370023359 0 0.12531186358948529 -0.45757018679138572 0 0.1232316263288145 -0.46410889533344052 0 0.118705430672609 -0.46205297743075813 0 0.1232316263288145 -0.46410889533344052 0 0.12311265484265969 -0.46777846846391841 0 0.1192823524431306 -0.4663394170250621 0 0.12842365125323091 -0.46593607888014599 0 0.1232316263288145 -0.46410889533344052 0 0.12311265484265969 -0.46777846846391841 0 0.12074084002908721 -0.47045370359981148 0 0.12311265484265969 -0.46777846846391841 0 0.1192823524431306 -0.4663394170250621 0 0.1149697984784732 -0.46556593525158491 0 0.1192823524431306 -0.4663394170250621 0 0.118705430672609 -0.46205297743075813 0 0.1232316263288145 -0.46410889533344052 0 0.1192823524431306 -0.4663394170250621 0 0.118705430672609 -0.46205297743075813 0 0.1123560704600764 -0.46204957042440498 0 0.11714561148417681 -0.43534544520691831 0 0.1123560704600764 -0.46204957042440498 0 0.11260152047704799 -0.44460220652757759 0 0.11714561148417681 -0.43534544520691831 0 0.1123560704600764 -0.46204957042440498 0 0.11635977570981471 -0.45654396370023359 0 0.11714561148417681 -0.43534544520691831 0 0.12543676829432579 -0.44683393452868708 0 0.11635977570981471 -0.45654396370023359 0 0.11714561148417681 -0.43534544520691831 0 0.13018508541287829 -0.43658956786597553 0 0.12543676829432579 -0.44683393452868708 0 0.11714561148417681 -0.43534544520691831 0 0.10592643308722841 -0.44437727779358549 0 0.083881602994700072 -0.43088647549478237 0 0.10592643308722841 -0.44437727779358549 0 0.091519926973447546 -0.44626784630584138 0 0.083881602994700072 -0.43088647549478237 0 0.11260152047704799 -0.44460220652757759 0 0.10592643308722841 -0.44437727779358549 0 0.1086116799951807 -0.43095684568344572 0 0.1060131744550812 -0.45411466011360518 0 0.10592643308722841 -0.44437727779358549 0 0.10011436795704159 -0.45274002486564408 0 0.1060131744550812 -0.45411466011360518 0 0.11260152047704799 -0.44460220652757759 0 0.10592643308722841 -0.44437727779358549 0 0.10592643308722841 -0.44437727779358549 0 0.10011436795704159 -0.45274002486564408 0 0.091519926973447546 -0.44626784630584138 0 0.09506323621333454 -0.46277261346061632 0 0.073976492589610171 -0.44180875358221461 0 0.09506323621333454 -0.46277261346061632 0 0.091519926973447546 -0.44626784630584138 0 0.073976492589610171 -0.44180875358221461 0 0.091519926973447546 -0.44626784630584138 0 0.073976492589610171 -0.44180875358221461 0 0.083881602994700072 -0.43088647549478237 0 0.069113753880103546 -0.47032146630200872 0 0.09506323621333454 -0.46277261346061632 0 0.09506323621333454 -0.46277261346061632 0 0.075948319170580939 -0.45709497223106438 0 0.073976492589610171 -0.44180875358221461 0 0.069113753880103546 -0.47032146630200872 0 0.09506323621333454 -0.46277261346061632 0 0.075948319170580939 -0.45709497223106438 0 0.069113753880103546 -0.47032146630200872 0 0.075948319170580939 -0.45709497223106438 0 0.064267892493667544 -0.45245405090636609 0 0.064267892493667544 -0.45245405090636609 0 0.073976492589610171 -0.44180875358221461 0 0.061221704008603092 -0.43412854505433712 0 0.075948319170580939 -0.45709497223106438 0 0.064267892493667544 -0.45245405090636609 0 0.073976492589610171 -0.44180875358221461 0 0.083881602994700072 -0.43088647549478237 0 0.061836772902171017 -0.41739567319598042 0 0.061221704008603092 -0.43412854505433712 0 0.073976492589610171 -0.44180875358221461 0 0.083881602994700072 -0.43088647549478237 0 0.061221704008603092 -0.43412854505433712 0 0.083881602994700072 -0.43088647549478237 0 0.061836772902171017 -0.41739567319598042 0 0.087852613914545186 -0.40334306140395609 0 0.070156507476487037 -0.39917662383738439 0 0.061836772902171017 -0.41739567319598042 0 0.087852613914545186 -0.40334306140395609 0 0.061836772902171017 -0.41739567319598042 0 0.090204007114443943 -0.4177400312392191 0 0.087852613914545186 -0.40334306140395609 0 0.061836772902171017 -0.41739567319598042 0 0.090204007114443943 -0.4177400312392191 0 0.083881602994700072 -0.43088647549478237 0 0.061836772902171017 -0.41739567319598042 0 0.090204007114443943 -0.4177400312392191 0 0.083881602994700072 -0.43088647549478237 0 0.10022705322515101 -0.42809075962971732 0 0.10592643308722841 -0.44437727779358549 0 0.083881602994700072 -0.43088647549478237 0 0.10022705322515101 -0.42809075962971732 0 0.10592643308722841 -0.44437727779358549 0 0.10022705322515101 -0.42809075962971732 0 0.1086116799951807 -0.43095684568344572 0 0.10022705322515101 -0.42809075962971732 0 0.1086116799951807 -0.43095684568344572 0 0.10561771621597441 -0.41891116251106192 0 0.11260152047704799 -0.44460220652757759 0 0.11714561148417681 -0.43534544520691831 0 0.11763977512467 -0.42056412334544119 0 0.11714561148417681 -0.43534544520691831 0 0.1219351525082772 -0.40864131998943182 0 0.11260152047704799 -0.44460220652757759 0 0.11763977512467 -0.42056412334544119 0 0.11260152047704799 -0.44460220652757759 0 0.1086116799951807 -0.43095684568344572 0 0.11763977512467 -0.42056412334544119 0 0.1272554141007321 -0.42571201066291808 0 0.11714561148417681 -0.43534544520691831 0 0.1219351525082772 -0.40864131998943182 0 0.1086116799951807 -0.43095684568344572 0 0.11763977512467 -0.42056412334544119 0 0.10561771621597441 -0.41891116251106192 0 0.13018508541287829 -0.43658956786597553 0 0.1272554141007321 -0.42571201066291808 0 0.11714561148417681 -0.43534544520691831 0 0.1219351525082772 -0.40864131998943182 0 0.11763977512467 -0.42056412334544119 0 0.1226780297722921 -0.39652604016330478 0 0.11763977512467 -0.42056412334544119 0 0.1063857367604352 -0.40565829933023112 0 0.1226780297722921 -0.39652604016330478 0 0.11714561148417681 -0.43534544520691831 0 0.1219351525082772 -0.40864131998943182 0 0.11763977512467 -0.42056412334544119 0 0.11763977512467 -0.42056412334544119 0 0.1226780297722921 -0.39652604016330478 0 0.11763977512467 -0.42056412334544119 0 0.10561771621597441 -0.41891116251106192 0 0.1063857367604352 -0.40565829933023112 0 0.090204007114443943 -0.4177400312392191 0 0.1063857367604352 -0.40565829933023112 0 0.087852613914545186 -0.40334306140395609 0 0.090204007114443943 -0.4177400312392191 0 0.10561771621597441 -0.41891116251106192 0 0.1063857367604352 -0.40565829933023112 0 0.090204007114443943 -0.4177400312392191 0 0.10022705322515101 -0.42809075962971732 0 0.10561771621597441 -0.41891116251106192 0 0.1063857367604352 -0.40565829933023112 0 0.11269819459067421 -0.38831450138448881 0 0.097085641119374302 -0.38571424072610178 0 0.1063857367604352 -0.40565829933023112 0 0.097085641119374302 -0.38571424072610178 0 0.087852613914545186 -0.40334306140395609 0 0.12672469353237761 -0.38193719477194499 0 0.1219351525082772 -0.40864131998943182 0 0.1063857367604352 -0.40565829933023112 0 0.1226780297722921 -0.39652604016330478 0 0.11269819459067421 -0.38831450138448881 0 0.12672469353237761 -0.38193719477194499 0 0.1219351525082772 -0.40864131998943182 0 0.1226780297722921 -0.39652604016330478 0 0.12672469353237761 -0.38193719477194499 0 0.11269819459067421 -0.38831450138448881 0 0.1080928822255358 -0.3703790814713866 0 0.12672469353237761 -0.38193719477194499 0 0.1226780297722921 -0.39652604016330478 0 0.11269819459067421 -0.38831450138448881 0 0.11269819459067421 -0.38831450138448881 0 0.097085641119374302 -0.38571424072610178 0 0.1080928822255358 -0.3703790814713866 0 0.097085641119374302 -0.38571424072610178 0 0.078524092076429908 -0.38558307009035819 0 0.085574671404253372 -0.36606529366265911 0 0.097085641119374302 -0.38571424072610178 0 0.078524092076429908 -0.38558307009035819 0 0.087852613914545186 -0.40334306140395609 0 0.078524092076429908 -0.38558307009035819 0 0.087852613914545186 -0.40334306140395609 0 0.070156507476487037 -0.39917662383738439 0 0.078524092076429908 -0.38558307009035819 0 0.070156507476487037 -0.39917662383738439 0 0.064141871653705745 -0.38905297891460661 0 0.070156507476487037 -0.39917662383738439 0 0.058427186835583247 -0.40050833558202109 0 0.061836772902171017 -0.41739567319598042 0 0.070156507476487037 -0.39917662383738439 0 0.064141871653705745 -0.38905297891460661 0 0.058427186835583247 -0.40050833558202109 0 0.078524092076429908 -0.38558307009035819 0 0.064141871653705745 -0.38905297891460661 0 0.064781398010314309 -0.37536455347105108 0 0.078524092076429908 -0.38558307009035819 0 0.064781398010314309 -0.37536455347105108 0 0.085574671404253372 -0.36606529366265911 0 0.064781398010314309 -0.37536455347105108 0 0.05115882120843647 -0.38571757356542352 0 0.043890455581289831 -0.3709268115488259 0 0.05115882120843647 -0.38571757356542352 0 0.043890455581289831 -0.3709268115488259 0 0.064141871653705745 -0.38905297891460661 0 0.064781398010314309 -0.37536455347105108 0 0.05115882120843647 -0.38571757356542352 0 0.064141871653705745 -0.38905297891460661 0 0.05115882120843647 -0.38571757356542352 0 0.058427186835583247 -0.40050833558202109 0 0.05115882120843647 -0.38571757356542352 0 0.058427186835583247 -0.40050833558202109 0 0.05115882120843647 -0.38571757356542352 0 0.058427186835583247 -0.40050833558202109 0 0.039291666751458072 -0.38953557003537942 0 0.058427186835583247 -0.40050833558202109 0 0.03861507037192409 -0.403184658796582 0 0.039291666751458072 -0.38953557003537942 0 0.039291666751458072 -0.38953557003537942 0 0.030780854092194759 -0.38031894893150719 0 0.043890455581289831 -0.3709268115488259 0 0.05115882120843647 -0.38571757356542352 0 0.039291666751458072 -0.38953557003537942 0 0.043890455581289831 -0.3709268115488259 0 0.030780854092194759 -0.38031894893150719 0 0.043890455581289831 -0.3709268115488259 0 0.030780854092194759 -0.38031894893150719 0 0.0132535835722172 -0.37610527220974688 0 0.01539336784167648 -0.38897364439718468 0 0.039291666751458072 -0.38953557003537942 0 0.030780854092194759 -0.38031894893150719 0 0.01539336784167648 -0.38897364439718468 0 0.030780854092194759 -0.38031894893150719 0 0.0132535835722172 -0.37610527220974688 0 0.022072978528308879 -0.36937310690127451 0 -0.0078283346885702904 -0.37476262999778609 0 -0.0023576536845698339 -0.39611583857600319 0 0.01539336784167648 -0.38897364439718468 0 -0.0078283346885702904 -0.37476262999778609 0 0.01539336784167648 -0.38897364439718468 0 -0.0078283346885702904 -0.37476262999778609 0 0.0132535835722172 -0.37610527220974688 0 0.01539336784167648 -0.38897364439718468 0 -0.0023576536845698339 -0.39611583857600319 0 -0.0081630895937607941 -0.41129335178386173 0 0.01158543002224671 -0.40754374071996963 0 -0.0023576536845698339 -0.39611583857600319 0 0.01539336784167648 -0.38897364439718468 0 0.01158543002224671 -0.40754374071996963 0 0.03861507037192409 -0.403184658796582 0 0.039291666751458072 -0.38953557003537942 0 0.01539336784167648 -0.38897364439718468 0 0.03861507037192409 -0.403184658796582 0 0.01539336784167648 -0.38897364439718468 0 0.026736383496206509 -0.41290648431754168 0 0.01539336784167648 -0.38897364439718468 0 0.026736383496206509 -0.41290648431754168 0 0.01158543002224671 -0.40754374071996963 0 0.03861507037192409 -0.403184658796582 0 0.01539336784167648 -0.38897364439718468 0 0.026736383496206509 -0.41290648431754168 0 0.01158543002224671 -0.40754374071996963 0 0.01747615232015888 -0.42514842909431222 0 0.026736383496206509 -0.41290648431754168 0 0.01747615232015888 -0.42514842909431222 0 0.02768083642208749 -0.42593076319487821 0 0.01158543002224671 -0.40754374071996963 0 0.0026957591361241309 -0.41958824334712869 0 0.01747615232015888 -0.42514842909431222 0 -0.0081630895937607941 -0.41129335178386173 0 0.01158543002224671 -0.40754374071996963 0 0.0026957591361241309 -0.41958824334712869 0 0.0026957591361241309 -0.41958824334712869 0 0.003851027954898749 -0.43172418954792041 0 0.01747615232015888 -0.42514842909431222 0 0.003851027954898749 -0.43172418954792041 0 0.01410030331848921 -0.43483725365991388 0 0.01747615232015888 -0.42514842909431222 0 0.003851027954898749 -0.43172418954792041 0 0.01410030331848921 -0.43483725365991388 0 0.011432193992105429 -0.44462200732167467 0 0.01747615232015888 -0.42514842909431222 0 0.023728282280598981 -0.43798020184644493 0 0.01410030331848921 -0.43483725365991388 0 0.01747615232015888 -0.42514842909431222 0 0.023728282280598981 -0.43798020184644493 0 0.01747615232015888 -0.42514842909431222 0 0.02768083642208749 -0.42593076319487821 0 0.023728282280598981 -0.43798020184644493 0 0.026736383496206509 -0.41290648431754168 0 0.02768083642208749 -0.42593076319487821 0 0.042782527591385587 -0.42768793752121392 0 0.042782527591385587 -0.42768793752121392 0 0.023728282280598981 -0.43798020184644493 0 0.02768083642208749 -0.42593076319487821 0 0.042782527591385587 -0.42768793752121392 0 0.023728282280598981 -0.43798020184644493 0 0.042782527591385587 -0.42768793752121392 0 0.038339333849137569 -0.44224603439757942 0 0.023728282280598981 -0.43798020184644493 0 0.03861507037192409 -0.403184658796582 0 0.026736383496206509 -0.41290648431754168 0 0.042782527591385587 -0.42768793752121392 0 0.03861507037192409 -0.403184658796582 0 0.042782527591385587 -0.42768793752121392 0 0.061836772902171017 -0.41739567319598042 0 0.03861507037192409 -0.403184658796582 0 0.061836772902171017 -0.41739567319598042 0 0.058427186835583247 -0.40050833558202109 0 0.03861507037192409 -0.403184658796582 0 0.061836772902171017 -0.41739567319598042 0 0.042782527591385587 -0.42768793752121392 0 0.061836772902171017 -0.41739567319598042 0 0.061221704008603092 -0.43412854505433712 0 0.042782527591385587 -0.42768793752121392 0 0.061836772902171017 -0.41739567319598042 0 0.042782527591385587 -0.42768793752121392 0 0.061221704008603092 -0.43412854505433712 0 0.052693917870023622 -0.44730825455084611 0 0.064267892493667544 -0.45245405090636609 0 0.061221704008603092 -0.43412854505433712 0 0.052693917870023622 -0.44730825455084611 0 0.069113753880103546 -0.47032146630200872 0 0.064267892493667544 -0.45245405090636609 0 0.052594011880735161 -0.46258963849414558 0 0.064267892493667544 -0.45245405090636609 0 0.052693917870023622 -0.44730825455084611 0 0.052594011880735161 -0.46258963849414558 0 0.033446276913734967 -0.45792526049492271 0 0.024747075647264399 -0.46972246297684461 0 0.043164271546872197 -0.4778703191434 0 0.052693917870023622 -0.44730825455084611 0 0.052594011880735161 -0.46258963849414558 0 0.033446276913734967 -0.45792526049492271 0 0.052594011880735161 -0.46258963849414558 0 0.033446276913734967 -0.45792526049492271 0 0.043164271546872197 -0.4778703191434 0 0.033446276913734967 -0.45792526049492271 0 0.043164271546872197 -0.4778703191434 0 0.042782527591385587 -0.42768793752121392 0 0.052693917870023622 -0.44730825455084611 0 0.038339333849137569 -0.44224603439757942 0 0.033446276913734967 -0.45792526049492271 0 0.038339333849137569 -0.44224603439757942 0 0.023728282280598981 -0.43798020184644493 0 0.052693917870023622 -0.44730825455084611 0 0.033446276913734967 -0.45792526049492271 0 0.038339333849137569 -0.44224603439757942 0 0.023728282280598981 -0.43798020184644493 0 0.011432193992105429 -0.44462200732167467 0 0.01779212199045099 -0.45571080357091009 0 0.033446276913734967 -0.45792526049492271 0 0.023728282280598981 -0.43798020184644493 0 0.033446276913734967 -0.45792526049492271 0 0.023728282280598981 -0.43798020184644493 0 0.01779212199045099 -0.45571080357091009 0 0.023728282280598981 -0.43798020184644493 0 0.011432193992105429 -0.44462200732167467 0 0.01410030331848921 -0.43483725365991388 0 0.023728282280598981 -0.43798020184644493 0 0.011432193992105429 -0.44462200732167467 0 -0.01027783979290609 -0.4450418277695869 0 0.011432193992105429 -0.44462200732167467 0 0.0031349746952128348 -0.45732154608844711 0 -0.01027783979290609 -0.4450418277695869 0 0.003851027954898749 -0.43172418954792041 0 0.011432193992105429 -0.44462200732167467 0 0.011432193992105429 -0.44462200732167467 0 0.0031349746952128348 -0.45732154608844711 0 0.01779212199045099 -0.45571080357091009 0 -0.00094907817261298132 -0.47112804672216879 0 0.0031349746952128348 -0.45732154608844711 0 0.01026392841378935 -0.46669334269712659 0 0.0031349746952128348 -0.45732154608844711 0 0.01026392841378935 -0.46669334269712659 0 0.01779212199045099 -0.45571080357091009 0 0.01026392841378935 -0.46669334269712659 0 0.01779212199045099 -0.45571080357091009 0 0.024747075647264399 -0.46972246297684461 0 0.033446276913734967 -0.45792526049492271 0 0.01779212199045099 -0.45571080357091009 0 0.024747075647264399 -0.46972246297684461 0 0.024747075647264399 -0.46972246297684461 0 0.019392481307258409 -0.48478566889839131 0 0.043164271546872197 -0.4778703191434 0 0.01026392841378935 -0.46669334269712659 0 0.024747075647264399 -0.46972246297684461 0 0.019392481307258409 -0.48478566889839131 0 0.01026392841378935 -0.46669334269712659 0 0.0053352152350804568 -0.4807791696356124 0 0.019392481307258409 -0.48478566889839131 0 -0.0043176495648967151 -0.48070428616945038 0 -0.00094907817261298132 -0.47112804672216879 0 0.0053352152350804568 -0.4807791696356124 0 -0.00094907817261298132 -0.47112804672216879 0 0.01026392841378935 -0.46669334269712659 0 0.0053352152350804568 -0.4807791696356124 0 -0.0023310323066341181 -0.5 0 -0.0043793089323552817 -0.49170101865338262 0 0.019392481307258409 -0.48478566889839131 0 -0.0043793089323552817 -0.49170101865338262 0 0.019392481307258409 -0.48478566889839131 0 -0.0043793089323552817 -0.49170101865338262 0 0.0053352152350804568 -0.4807791696356124 0 0.019392481307258409 -0.48478566889839131 0 -0.0023310323066341181 -0.5 0 0.019392481307258409 -0.48478566889839131 0 0.026698753392940699 -0.5 0 0.019392481307258409 -0.48478566889839131 0 0.026698753392940699 -0.5 0 0.035353585390671842 -0.48974665193930511 0 0.035353585390671842 -0.48974665193930511 0 0.043164271546872197 -0.4778703191434 0 0.052158835315616027 -0.49633061971542908 0 0.026698753392940699 -0.5 0 0.055728539092515517 -0.5 0 0.052158835315616027 -0.49633061971542908 0 0.026698753392940699 -0.5 0 0.035353585390671842 -0.48974665193930511 0 0.052158835315616027 -0.49633061971542908 0 0.019392481307258409 -0.48478566889839131 0 0.035353585390671842 -0.48974665193930511 0 0.043164271546872197 -0.4778703191434 0 0.019392481307258409 -0.48478566889839131 0 0.043164271546872197 -0.4778703191434 0 0.069113753880103546 -0.47032146630200872 0 0.052594011880735161 -0.46258963849414558 0 0.043164271546872197 -0.4778703191434 0 0.069113753880103546 -0.47032146630200872 0 0.043164271546872197 -0.4778703191434 0 0.057596711449277201 -0.48334309492942701 0 0.069113753880103546 -0.47032146630200872 0 0.043164271546872197 -0.4778703191434 0 0.043164271546872197 -0.4778703191434 0 0.057596711449277201 -0.48334309492942701 0 0.052158835315616027 -0.49633061971542908 0 0.065949985054517032 -0.48884997455687013 0 0.057596711449277201 -0.48334309492942701 0 0.052158835315616027 -0.49633061971542908 0 0.043164271546872197 -0.4778703191434 0 0.052158835315616027 -0.49633061971542908 0 0.065949985054517032 -0.48884997455687013 0 0.055728539092515517 -0.5 0 0.052158835315616027 -0.49633061971542908 0 0.091646396761647708 -0.28947790237370968 0 0.07071546022358817 -0.28620470259943642 0 0.079999995207784586 -0.26983589460815821 0 0.091646396761647708 -0.28947790237370968 0 0.072783535289555654 -0.30157633939854622 0 0.07071546022358817 -0.28620470259943642 0 0.091646396761647708 -0.28947790237370968 0 0.087363613427391865 -0.30807629250996549 0 0.072783535289555654 -0.30157633939854622 0 0.072783535289555654 -0.30157633939854622 0 0.073259594084162577 -0.32259772896999273 0 0.056038135353808333 -0.31320409925325249 0 0.087363613427391865 -0.30807629250996549 0 0.072783535289555654 -0.30157633939854622 0 0.073259594084162577 -0.32259772896999273 0 0.072783535289555654 -0.30157633939854622 0 0.07071546022358817 -0.28620470259943642 0 0.04944647540011983 -0.29680206833493911 0 0.07071546022358817 -0.28620470259943642 0 0.079999995207784586 -0.26983589460815821 0 0.059700898458833078 -0.27333130828182889 0 0.06835359365392131 -0.25019388684260668 0 0.079999995207784586 -0.26983589460815821 0 0.08421140423371333 -0.243891226620808 0 0.06835359365392131 -0.25019388684260668 0 0.079999995207784586 -0.26983589460815821 0 0.06835359365392131 -0.25019388684260668 0 0.079999995207784586 -0.26983589460815821 0 0.059700898458833078 -0.27333130828182889 0 0.079999995207784586 -0.26983589460815821 0 0.097662046653794854 -0.25561444261418242 0 0.08421140423371333 -0.243891226620808 0 0.079999995207784586 -0.26983589460815821 0 0.1034904733698796 -0.27103876000237981 0 0.097662046653794854 -0.25561444261418242 0 0.091646396761647708 -0.28947790237370968 0 0.079999995207784586 -0.26983589460815821 0 0.091646396761647708 -0.28947790237370968 0 0.079999995207784586 -0.26983589460815821 0 0.1034904733698796 -0.27103876000237981 0 0.1034904733698796 -0.27103876000237981 0 0.097662046653794854 -0.25561444261418242 0 0.1147239364606354 -0.25215539330366038 0 0.13687529418603939 -0.26162068250561471 0 0.1147239364606354 -0.25215539330366038 0 0.1223190960555403 -0.2394332616338683 0 0.1034904733698796 -0.27103876000237981 0 0.1147239364606354 -0.25215539330366038 0 0.12122917553908071 -0.27280048239714111 0 0.13687529418603939 -0.26162068250561471 0 0.1147239364606354 -0.25215539330366038 0 0.12122917553908071 -0.27280048239714111 0 0.1034904733698796 -0.27103876000237981 0 0.12122917553908071 -0.27280048239714111 0 0.11361649143026541 -0.29050419490534962 0 0.13743968224858391 -0.28868338126870119 0 0.12122917553908071 -0.27280048239714111 0 0.11361649143026541 -0.29050419490534962 0 0.091646396761647708 -0.28947790237370968 0 0.11361649143026541 -0.29050419490534962 0 0.10329279831551071 -0.3091199101392611 0 0.091646396761647708 -0.28947790237370968 0 0.1034904733698796 -0.27103876000237981 0 0.11361649143026541 -0.29050419490534962 0 0.091646396761647708 -0.28947790237370968 0 0.10329279831551071 -0.3091199101392611 0 0.091646396761647708 -0.28947790237370968 0 0.087363613427391865 -0.30807629250996549 0 0.10329279831551071 -0.3091199101392611 0 0.11361649143026541 -0.29050419490534962 0 0.10329279831551071 -0.3091199101392611 0 0.1207194796176513 -0.31206082339016011 0 0.13743968224858391 -0.28868338126870119 0 0.11361649143026541 -0.29050419490534962 0 0.1207194796176513 -0.31206082339016011 0 0.10329279831551071 -0.3091199101392611 0 0.11030782598785099 -0.32334328523235578 0 0.1149391998693738 -0.32876191790481257 0 0.10329279831551071 -0.3091199101392611 0 0.1207194796176513 -0.31206082339016011 0 0.1149391998693738 -0.32876191790481257 0 0.127277047630593 -0.32368123984794023 0 0.1207194796176513 -0.31206082339016011 0 0.1149391998693738 -0.32876191790481257 0 0.1252730154641265 -0.33501756179834041 0 0.127277047630593 -0.32368123984794023 0 0.1149391998693738 -0.32876191790481257 0 0.11030782598785099 -0.32334328523235578 0 0.1149391998693738 -0.32876191790481257 0 0.1071562875265276 -0.34088406714172798 0 0.1252730154641265 -0.33501756179834041 0 0.1149391998693738 -0.32876191790481257 0 0.1203073559828662 -0.34481831064573482 0 0.1149391998693738 -0.32876191790481257 0 0.1071562875265276 -0.34088406714172798 0 0.1203073559828662 -0.34481831064573482 0 0.11030782598785099 -0.32334328523235578 0 0.1071562875265276 -0.34088406714172798 0 0.088168702518997374 -0.33920446067117932 0 0.11030782598785099 -0.32334328523235578 0 0.088168702518997374 -0.33920446067117932 0 0.11030782598785099 -0.32334328523235578 0 0.092685396428672781 -0.32103820683708328 0 0.088168702518997374 -0.33920446067117932 0 0.10329279831551071 -0.3091199101392611 0 0.11030782598785099 -0.32334328523235578 0 0.092685396428672781 -0.32103820683708328 0 0.087363613427391865 -0.30807629250996549 0 0.10329279831551071 -0.3091199101392611 0 0.092685396428672781 -0.32103820683708328 0 0.10329279831551071 -0.3091199101392611 0 0.1149391998693738 -0.32876191790481257 0 0.1245186505824013 -0.36113750934922573 0 0.111761677400382 -0.35565256239397869 0 0.1080928822255358 -0.3703790814713866 0 0.12672469353237761 -0.38193719477194499 0 0.1245186505824013 -0.36113750934922573 0 0.1080928822255358 -0.3703790814713866 0 0.1245186505824013 -0.36113750934922573 0 0.111761677400382 -0.35565256239397869 0 0.1203073559828662 -0.34481831064573482 0 0.1071562875265276 -0.34088406714172798 0 0.111761677400382 -0.35565256239397869 0 0.1203073559828662 -0.34481831064573482 0 0.1071562875265276 -0.34088406714172798 0 0.09828664694928807 -0.35383226801130691 0 0.088168702518997374 -0.33920446067117932 0 0.1071562875265276 -0.34088406714172798 0 0.111761677400382 -0.35565256239397869 0 0.09828664694928807 -0.35383226801130691 0 0.097085641119374302 -0.38571424072610178 0 0.1080928822255358 -0.3703790814713866 0 0.085574671404253372 -0.36606529366265911 0 0.111761677400382 -0.35565256239397869 0 0.09828664694928807 -0.35383226801130691 0 0.1080928822255358 -0.3703790814713866 0 0.09828664694928807 -0.35383226801130691 0 0.1080928822255358 -0.3703790814713866 0 0.085574671404253372 -0.36606529366265911 0 0.085574671404253372 -0.36606529366265911 0 0.066029579050143783 -0.35506563611000291 0 0.088168702518997374 -0.33920446067117932 0 0.09828664694928807 -0.35383226801130691 0 0.085574671404253372 -0.36606529366265911 0 0.088168702518997374 -0.33920446067117932 0 0.066029579050143783 -0.35506563611000291 0 0.088168702518997374 -0.33920446067117932 0 0.064781398010314309 -0.37536455347105108 0 0.085574671404253372 -0.36606529366265911 0 0.066029579050143783 -0.35506563611000291 0 0.066029579050143783 -0.35506563611000291 0 0.088168702518997374 -0.33920446067117932 0 0.073259594084162577 -0.32259772896999273 0 0.066029579050143783 -0.35506563611000291 0 0.073259594084162577 -0.32259772896999273 0 0.048222299164917798 -0.333319266554439 0 0.092685396428672781 -0.32103820683708328 0 0.088168702518997374 -0.33920446067117932 0 0.073259594084162577 -0.32259772896999273 0 0.087363613427391865 -0.30807629250996549 0 0.092685396428672781 -0.32103820683708328 0 0.073259594084162577 -0.32259772896999273 0 0.073259594084162577 -0.32259772896999273 0 0.056038135353808333 -0.31320409925325249 0 0.048222299164917798 -0.333319266554439 0 0.056038135353808333 -0.31320409925325249 0 0.048222299164917798 -0.333319266554439 0 0.036478772830285791 -0.31172509300834528 0 0.048222299164917798 -0.333319266554439 0 0.033610930591278822 -0.35000849021355163 0 0.023331405601267931 -0.32909016887827719 0 0.048222299164917798 -0.333319266554439 0 0.023331405601267931 -0.32909016887827719 0 0.036478772830285791 -0.31172509300834528 0 0.066029579050143783 -0.35506563611000291 0 0.048355778033110031 -0.35315995845717169 0 0.043890455581289831 -0.3709268115488259 0 0.066029579050143783 -0.35506563611000291 0 0.043890455581289831 -0.3709268115488259 0 0.064781398010314309 -0.37536455347105108 0 0.066029579050143783 -0.35506563611000291 0 0.043890455581289831 -0.3709268115488259 0 0.066029579050143783 -0.35506563611000291 0 0.048222299164917798 -0.333319266554439 0 0.048355778033110031 -0.35315995845717169 0 0.048222299164917798 -0.333319266554439 0 0.048355778033110031 -0.35315995845717169 0 0.033610930591278822 -0.35000849021355163 0 0.048355778033110031 -0.35315995845717169 0 0.033610930591278822 -0.35000849021355163 0 0.043890455581289831 -0.3709268115488259 0 0.033610930591278822 -0.35000849021355163 0 0.03286340713970079 -0.36889202113574671 0 0.043890455581289831 -0.3709268115488259 0 0.033610930591278822 -0.35000849021355163 0 0.043890455581289831 -0.3709268115488259 0 0.030780854092194759 -0.38031894893150719 0 0.03286340713970079 -0.36889202113574671 0 0.043890455581289831 -0.3709268115488259 0 0.033610930591278822 -0.35000849021355163 0 0.03286340713970079 -0.36889202113574671 0 0.022072978528308879 -0.36937310690127451 0 0.030780854092194759 -0.38031894893150719 0 0.03286340713970079 -0.36889202113574671 0 0.022072978528308879 -0.36937310690127451 0 0.033610930591278822 -0.35000849021355163 0 0.022072978528308879 -0.36937310690127451 0 0.014393680356963701 -0.35536411395587292 0 0.033610930591278822 -0.35000849021355163 0 0.014393680356963701 -0.35536411395587292 0 0.0105762414372169 -0.3395135522035268 0 -0.00014080085946228561 -0.35082738964002957 0 0.014393680356963701 -0.35536411395587292 0 0.0105762414372169 -0.3395135522035268 0 -0.00014080085946228561 -0.35082738964002957 0 0.014393680356963701 -0.35536411395587292 0 0.0058490520874761691 -0.36709803082098191 0 0.022072978528308879 -0.36937310690127451 0 0.014393680356963701 -0.35536411395587292 0 0.0058490520874761691 -0.36709803082098191 0 0.022072978528308879 -0.36937310690127451 0 0.0058490520874761691 -0.36709803082098191 0 0.0132535835722172 -0.37610527220974688 0 0.022072978528308879 -0.36937310690127451 0 0.0058490520874761691 -0.36709803082098191 0 -0.0078283346885702904 -0.37476262999778609 0 0.0132535835722172 -0.37610527220974688 0 0.0058490520874761691 -0.36709803082098191 0 0.023331405601267931 -0.32909016887827719 0 0.013051880611257029 -0.30817184754300292 0 0.023331405601267931 -0.32909016887827719 0 0.013051880611257029 -0.30817184754300292 0 0.036478772830285791 -0.31172509300834528 0 0.033610930591278822 -0.35000849021355163 0 0.023331405601267931 -0.32909016887827719 0 0.0105762414372169 -0.3395135522035268 0 0.033610930591278822 -0.35000849021355163 0 0.023331405601267931 -0.32909016887827719 0 0.023331405601267931 -0.32909016887827719 0 0.0105762414372169 -0.3395135522035268 0 3.5896068887442723e-05 -0.32803491845883598 0 -0.00014080085946228561 -0.35082738964002957 0 0.0105762414372169 -0.3395135522035268 0 3.5896068887442723e-05 -0.32803491845883598 0 -0.0063780240591087903 -0.31078717533589839 0 3.5896068887442723e-05 -0.32803491845883598 0 0.013051880611257029 -0.30817184754300292 0 0.023331405601267931 -0.32909016887827719 0 3.5896068887442723e-05 -0.32803491845883598 0 0.013051880611257029 -0.30817184754300292 0 0.013051880611257029 -0.30817184754300292 0 0.0027723556212477219 -0.28725352620772771 0 0.0027723556212477219 -0.28725352620772771 0 0.026109415510684009 -0.29202779727133188 0 -0.0017476628817073611 -0.27805551369469472 0 0.0027723556212477219 -0.28725352620772771 0 0.01602201902671789 -0.28191194131808539 0 0.013051880611257029 -0.30817184754300292 0 0.0027723556212477219 -0.28725352620772771 0 0.026109415510684009 -0.29202779727133188 0 0.0027723556212477219 -0.28725352620772771 0 0.026109415510684009 -0.29202779727133188 0 0.01602201902671789 -0.28191194131808539 0 -0.0074917523477661804 -0.29461577546968681 0 0.013051880611257029 -0.30817184754300292 0 0.0027723556212477219 -0.28725352620772771 0 -0.0017476628817073611 -0.27805551369469472 0 0.0027723556212477219 -0.28725352620772771 0 0.026109415510684009 -0.29202779727133188 0 0.01602201902671789 -0.28191194131808539 0 0.036314123194761641 -0.27872041929058161 0 0.013051880611257029 -0.30817184754300292 0 0.026109415510684009 -0.29202779727133188 0 0.036478772830285791 -0.31172509300834528 0 0.026109415510684009 -0.29202779727133188 0 0.036478772830285791 -0.31172509300834528 0 0.04944647540011983 -0.29680206833493911 0 0.026109415510684009 -0.29202779727133188 0 0.04944647540011983 -0.29680206833493911 0 0.036314123194761641 -0.27872041929058161 0 0.026109415510684009 -0.29202779727133188 0 0.04944647540011983 -0.29680206833493911 0 0.04944647540011983 -0.29680206833493911 0 0.059700898458833078 -0.27333130828182889 0 0.036314123194761641 -0.27872041929058161 0 0.07071546022358817 -0.28620470259943642 0 0.04944647540011983 -0.29680206833493911 0 0.059700898458833078 -0.27333130828182889 0 0.072783535289555654 -0.30157633939854622 0 0.04944647540011983 -0.29680206833493911 0 0.056038135353808333 -0.31320409925325249 0 0.036478772830285791 -0.31172509300834528 0 0.04944647540011983 -0.29680206833493911 0 0.072783535289555654 -0.30157633939854622 0 0.056038135353808333 -0.31320409925325249 0 0.04944647540011983 -0.29680206833493911 0 0.06835359365392131 -0.25019388684260668 0 0.044986508142045613 -0.25948109579330381 0 0.047362788675733028 -0.24199119006041811 0 0.06835359365392131 -0.25019388684260668 0 0.059700898458833078 -0.27333130828182889 0 0.044986508142045613 -0.25948109579330381 0 0.06835359365392131 -0.25019388684260668 0 0.044986508142045613 -0.25948109579330381 0 0.059700898458833078 -0.27333130828182889 0 0.036314123194761641 -0.27872041929058161 0 0.044986508142045613 -0.25948109579330381 0 0.036314123194761641 -0.27872041929058161 0 0.044986508142045613 -0.25948109579330381 0 0.02161942263016943 -0.26876830474400021 0 0.044986508142045613 -0.25948109579330381 0 0.02161942263016943 -0.26876830474400021 0 0.044986508142045613 -0.25948109579330381 0 0.029973277209287209 -0.25054958921230208 0 0.02161942263016943 -0.26876830474400021 0 0.044986508142045613 -0.25948109579330381 0 0.029973277209287209 -0.25054958921230208 0 0.047362788675733028 -0.24199119006041811 0 0.029973277209287209 -0.25054958921230208 0 0.015960739131678031 -0.25406337006458851 0 0.02161942263016943 -0.26876830474400021 0 0.01602201902671789 -0.28191194131808539 0 0.036314123194761641 -0.27872041929058161 0 0.02161942263016943 -0.26876830474400021 0 -0.0017476628817073611 -0.27805551369469472 0 0.01602201902671789 -0.28191194131808539 0 0.02161942263016943 -0.26876830474400021 0 -0.0017476628817073611 -0.27805551369469472 0 0.02161942263016943 -0.26876830474400021 0 -0.0017476628817073611 -0.27805551369469472 0 0.02161942263016943 -0.26876830474400021 0 0.0057386521092319797 -0.26220041049146298 0 0.015960739131678031 -0.25406337006458851 0 0.02161942263016943 -0.26876830474400021 0 0.0057386521092319797 -0.26220041049146298 0 0.015960739131678031 -0.25406337006458851 0 0.0057386521092319797 -0.26220041049146298 0 0.0025328853753160741 -0.24958102673793139 0 0.0010854142569982001 -0.23807309260292489 0 0.010575476039053681 -0.22730954243123891 0 0.017210747296828609 -0.24036453645492739 0 0.0010854142569982001 -0.23807309260292489 0 0.0025328853753160741 -0.24958102673793139 0 0.017210747296828609 -0.24036453645492739 0 0.015960739131678031 -0.25406337006458851 0 0.0025328853753160741 -0.24958102673793139 0 0.017210747296828609 -0.24036453645492739 0 -0.0061584899570064598 -0.22962027277065361 0 0.0010854142569982001 -0.23807309260292489 0 0.010575476039053681 -0.22730954243123891 0 -0.0061584899570064598 -0.22962027277065361 0 0.010575476039053681 -0.22730954243123891 0 0.0064165675551885711 -0.21575046092143421 0 -0.0061584899570064598 -0.22962027277065361 0 0.0064165675551885711 -0.21575046092143421 0 0.010575476039053681 -0.22730954243123891 0 0.0064165675551885711 -0.21575046092143421 0 0.021509429760601551 -0.21557394742371069 0 0.010575476039053681 -0.22730954243123891 0 0.0064165675551885711 -0.21575046092143421 0 0.010575476039053681 -0.22730954243123891 0 0.02225812238200572 -0.22838936745028471 0 0.017210747296828609 -0.24036453645492739 0 0.010575476039053681 -0.22730954243123891 0 0.02225812238200572 -0.22838936745028471 0 0.021509429760601551 -0.21557394742371069 0 0.02225812238200572 -0.22838936745028471 0 0.029479073121619459 -0.22118232130399371 0 0.021509429760601551 -0.21557394742371069 0 0.02225812238200572 -0.22838936745028471 0 0.029479073121619459 -0.22118232130399371 0 0.031866256870133697 -0.23515517363185631 0 0.029973277209287209 -0.25054958921230208 0 0.017210747296828609 -0.24036453645492739 0 0.031866256870133697 -0.23515517363185631 0 0.02225812238200572 -0.22838936745028471 0 0.017210747296828609 -0.24036453645492739 0 0.031866256870133697 -0.23515517363185631 0 0.029973277209287209 -0.25054958921230208 0 0.015960739131678031 -0.25406337006458851 0 0.017210747296828609 -0.24036453645492739 0 -0.0015622250741301779 -0.1935745667631632 0 0.01896638504685547 -0.20190848785827681 0 0.0091962193441852118 -0.18107109871456811 0 -0.0015622250741301779 -0.1935745667631632 0 0.0064165675551885711 -0.21575046092143421 0 0.01896638504685547 -0.20190848785827681 0 -0.0015622250741301779 -0.1935745667631632 0 0.0064165675551885711 -0.21575046092143421 0 0.0064165675551885711 -0.21575046092143421 0 0.01896638504685547 -0.20190848785827681 0 0.0064165675551885711 -0.21575046092143421 0 0.021509429760601551 -0.21557394742371069 0 0.01896638504685547 -0.20190848785827681 0 0.029479073121619459 -0.22118232130399371 0 0.021509429760601551 -0.21557394742371069 0 0.033558692489570878 -0.21195100443687931 0 0.021509429760601551 -0.21557394742371069 0 0.029251690937081031 -0.20258635003767089 0 0.033558692489570878 -0.21195100443687931 0 0.021509429760601551 -0.21557394742371069 0 0.01896638504685547 -0.20190848785827681 0 0.029251690937081031 -0.20258635003767089 0 0.01896638504685547 -0.20190848785827681 0 0.031516202538524517 -0.1880665147951214 0 0.0091962193441852118 -0.18107109871456811 0 0.01896638504685547 -0.20190848785827681 0 0.029251690937081031 -0.20258635003767089 0 0.031516202538524517 -0.1880665147951214 0 0.01896638504685547 -0.20190848785827681 0 0.031516202538524517 -0.1880665147951214 0 0.043838458457815248 -0.18986676967386279 0 0.039506267971797952 -0.20154200132731501 0 0.055741541871671067 -0.19352675789948551 0 0.043838458457815248 -0.18986676967386279 0 0.031516202538524517 -0.1880665147951214 0 0.039506267971797952 -0.20154200132731501 0 0.031516202538524517 -0.1880665147951214 0 0.039506267971797952 -0.20154200132731501 0 0.029251690937081031 -0.20258635003767089 0 0.031516202538524517 -0.1880665147951214 0 0.039506267971797952 -0.20154200132731501 0 0.039506267971797952 -0.20154200132731501 0 0.033558692489570878 -0.21195100443687931 0 0.047496333405074677 -0.2150174878595065 0 0.039506267971797952 -0.20154200132731501 0 0.047496333405074677 -0.2150174878595065 0 0.029251690937081031 -0.20258635003767089 0 0.039506267971797952 -0.20154200132731501 0 0.033558692489570878 -0.21195100443687931 0 0.033558692489570878 -0.21195100443687931 0 0.047496333405074677 -0.2150174878595065 0 0.033558692489570878 -0.21195100443687931 0 0.047496333405074677 -0.2150174878595065 0 0.039554961726260877 -0.22474601638733641 0 0.039506267971797952 -0.20154200132731501 0 0.047496333405074677 -0.2150174878595065 0 0.05523956109653505 -0.20714630445374671 0 0.047496333405074677 -0.2150174878595065 0 0.05523956109653505 -0.20714630445374671 0 0.064206587222380762 -0.21869398638814641 0 0.047496333405074677 -0.2150174878595065 0 0.064206587222380762 -0.21869398638814641 0 0.039506267971797952 -0.20154200132731501 0 0.05523956109653505 -0.20714630445374671 0 0.055741541871671067 -0.19352675789948551 0 0.05523956109653505 -0.20714630445374671 0 0.055741541871671067 -0.19352675789948551 0 0.069247075011750078 -0.20695128879428309 0 0.055741541871671067 -0.19352675789948551 0 0.069247075011750078 -0.20695128879428309 0 0.029973277209287209 -0.25054958921230208 0 0.031866256870133697 -0.23515517363185631 0 0.047362788675733028 -0.24199119006041811 0 0.031866256870133697 -0.23515517363185631 0 0.039554961726260877 -0.22474601638733641 0 0.047362788675733028 -0.24199119006041811 0 0.029479073121619459 -0.22118232130399371 0 0.031866256870133697 -0.23515517363185631 0 0.039554961726260877 -0.22474601638733641 0 0.029479073121619459 -0.22118232130399371 0 0.033558692489570878 -0.21195100443687931 0 0.039554961726260877 -0.22474601638733641 0 0.047496333405074677 -0.2150174878595065 0 0.05536207860111314 -0.2282833045590259 0 0.064206587222380762 -0.21869398638814641 0 0.05536207860111314 -0.2282833045590259 0 0.063311866646695691 -0.24149928944984211 0 0.064206587222380762 -0.21869398638814641 0 0.039554961726260877 -0.22474601638733641 0 0.05536207860111314 -0.2282833045590259 0 0.047362788675733028 -0.24199119006041811 0 0.047496333405074677 -0.2150174878595065 0 0.039554961726260877 -0.22474601638733641 0 0.05536207860111314 -0.2282833045590259 0 0.047496333405074677 -0.2150174878595065 0 0.05536207860111314 -0.2282833045590259 0 0.05536207860111314 -0.2282833045590259 0 0.063311866646695691 -0.24149928944984211 0 0.06835359365392131 -0.25019388684260668 0 0.047362788675733028 -0.24199119006041811 0 0.063311866646695691 -0.24149928944984211 0 0.05536207860111314 -0.2282833045590259 0 0.047362788675733028 -0.24199119006041811 0 0.063311866646695691 -0.24149928944984211 0 0.06835359365392131 -0.25019388684260668 0 0.08421140423371333 -0.243891226620808 0 0.06835359365392131 -0.25019388684260668 0 0.063311866646695691 -0.24149928944984211 0 0.063311866646695691 -0.24149928944984211 0 0.074219814037010917 -0.24224782663387789 0 0.081086434463253185 -0.23335707181355411 0 0.06835359365392131 -0.25019388684260668 0 0.063311866646695691 -0.24149928944984211 0 0.074219814037010917 -0.24224782663387789 0 0.06835359365392131 -0.25019388684260668 0 0.074219814037010917 -0.24224782663387789 0 0.08421140423371333 -0.243891226620808 0 0.08421140423371333 -0.243891226620808 0 0.081086434463253185 -0.23335707181355411 0 0.10006921481350529 -0.2375885663990091 0 0.08421140423371333 -0.243891226620808 0 0.10006921481350529 -0.2375885663990091 0 0.074219814037010917 -0.24224782663387789 0 0.08421140423371333 -0.243891226620808 0 0.081086434463253185 -0.23335707181355411 0 0.081086434463253185 -0.23335707181355411 0 0.085851572697872774 -0.2234561975504171 0 0.10006921481350529 -0.2375885663990091 0 0.085851572697872774 -0.2234561975504171 0 0.08275260815182911 -0.2203758196890806 0 0.098293187803831117 -0.21887499219370271 0 0.085851572697872774 -0.2234561975504171 0 0.10006921481350529 -0.2375885663990091 0 0.081086434463253185 -0.23335707181355411 0 0.085851572697872774 -0.2234561975504171 0 0.080916841039686133 -0.2223704849167896 0 0.085851572697872774 -0.2234561975504171 0 0.080916841039686133 -0.2223704849167896 0 0.085851572697872774 -0.2234561975504171 0 0.08275260815182911 -0.2203758196890806 0 0.080916841039686133 -0.2223704849167896 0 0.085851572697872774 -0.2234561975504171 0 0.08275260815182911 -0.2203758196890806 0 0.08275260815182911 -0.2203758196890806 0 0.080916841039686133 -0.2223704849167896 0 0.063311866646695691 -0.24149928944984211 0 0.080916841039686133 -0.2223704849167896 0 0.063311866646695691 -0.24149928944984211 0 0.080916841039686133 -0.2223704849167896 0 0.064206587222380762 -0.21869398638814641 0 0.080916841039686133 -0.2223704849167896 0 0.064206587222380762 -0.21869398638814641 0 0.063311866646695691 -0.24149928944984211 0 0.081086434463253185 -0.23335707181355411 0 0.080916841039686133 -0.2223704849167896 0 0.080916841039686133 -0.2223704849167896 0 0.064206587222380762 -0.21869398638814641 0 0.069247075011750078 -0.20695128879428309 0 0.05523956109653505 -0.20714630445374671 0 0.064206587222380762 -0.21869398638814641 0 0.069247075011750078 -0.20695128879428309 0 0.08275260815182911 -0.2203758196890806 0 0.069247075011750078 -0.20695128879428309 0 0.08275260815182911 -0.2203758196890806 0 0.080916841039686133 -0.2223704849167896 0 0.069247075011750078 -0.20695128879428309 0 0.055741541871671067 -0.19352675789948551 0 0.069247075011750078 -0.20695128879428309 0 0.070887819862862286 -0.1914088031202833 0 0.069247075011750078 -0.20695128879428309 0 0.070887819862862286 -0.1914088031202833 0 0.082832551139222166 -0.19914513048671481 0 0.070887819862862286 -0.1914088031202833 0 0.082832551139222166 -0.19914513048671481 0 0.081821336385090343 -0.18186245165470949 0 0.082832551139222166 -0.19914513048671481 0 0.097084301305641635 -0.20480362112478781 0 0.095405874932467813 -0.18887779734800569 0 0.082832551139222166 -0.19914513048671481 0 0.095405874932467813 -0.18887779734800569 0 0.081821336385090343 -0.18186245165470949 0 0.08275260815182911 -0.2203758196890806 0 0.082832551139222166 -0.19914513048671481 0 0.097084301305641635 -0.20480362112478781 0 0.08275260815182911 -0.2203758196890806 0 0.069247075011750078 -0.20695128879428309 0 0.082832551139222166 -0.19914513048671481 0 0.08275260815182911 -0.2203758196890806 0 0.097084301305641635 -0.20480362112478781 0 0.098293187803831117 -0.21887499219370271 0 0.08275260815182911 -0.2203758196890806 0 0.097084301305641635 -0.20480362112478781 0 0.097084301305641635 -0.20480362112478781 0 0.1146962174531268 -0.21673223195775559 0 0.098293187803831117 -0.21887499219370271 0 0.097084301305641635 -0.20480362112478781 0 0.095405874932467813 -0.18887779734800569 0 0.11141599445945349 -0.1892314225604943 0 0.097084301305641635 -0.20480362112478781 0 0.11141599445945349 -0.1892314225604943 0 0.097084301305641635 -0.20480362112478781 0 0.1210323504124224 -0.2015702574875764 0 0.11141599445945349 -0.1892314225604943 0 0.1210323504124224 -0.2015702574875764 0 0.11141599445945349 -0.1892314225604943 0 0.13523084618428721 -0.18276855246186111 0 0.1210323504124224 -0.2015702574875764 0 0.1146962174531268 -0.21673223195775559 0 0.13583218450739579 -0.2116030352811932 0 0.097084301305641635 -0.20480362112478781 0 0.1210323504124224 -0.2015702574875764 0 0.1146962174531268 -0.21673223195775559 0 0.1110812394106853 -0.22900709064647229 0 0.12594488917549271 -0.2231145762792166 0 0.1363109061234978 -0.23455798374252809 0 0.1110812394106853 -0.22900709064647229 0 0.1223190960555403 -0.2394332616338683 0 0.1363109061234978 -0.23455798374252809 0 0.1110812394106853 -0.22900709064647229 0 0.1363109061234978 -0.23455798374252809 0 0.1146962174531268 -0.21673223195775559 0 0.1110812394106853 -0.22900709064647229 0 0.12594488917549271 -0.2231145762792166 0 0.1110812394106853 -0.22900709064647229 0 0.1223190960555403 -0.2394332616338683 0 0.1084330749156753 -0.23426436422737831 0 0.1147239364606354 -0.25215539330366038 0 0.1223190960555403 -0.2394332616338683 0 0.1084330749156753 -0.23426436422737831 0 0.097662046653794854 -0.25561444261418242 0 0.1147239364606354 -0.25215539330366038 0 0.10006921481350529 -0.2375885663990091 0 0.1147239364606354 -0.25215539330366038 0 0.10006921481350529 -0.2375885663990091 0 0.1084330749156753 -0.23426436422737831 0 0.097662046653794854 -0.25561444261418242 0 0.08421140423371333 -0.243891226620808 0 0.10006921481350529 -0.2375885663990091 0 0.10006921481350529 -0.2375885663990091 0 0.1084330749156753 -0.23426436422737831 0 0.1147239364606354 -0.25215539330366038 0 0.10006921481350529 -0.2375885663990091 0 0.085851572697872774 -0.2234561975504171 0 0.1110812394106853 -0.22900709064647229 0 0.1146962174531268 -0.21673223195775559 0 0.1110812394106853 -0.22900709064647229 0 0.098293187803831117 -0.21887499219370271 0 0.085851572697872774 -0.2234561975504171 0 0.1110812394106853 -0.22900709064647229 0 0.098293187803831117 -0.21887499219370271 0 0.085851572697872774 -0.2234561975504171 0 0.1110812394106853 -0.22900709064647229 0 0.10006921481350529 -0.2375885663990091 0 0.1110812394106853 -0.22900709064647229 0 0.10006921481350529 -0.2375885663990091 0 0.1084330749156753 -0.23426436422737831 0 0.1040552578412003 -0.15282191894301261 0 0.1005807427949069 -0.13366374688330029 0 0.11727103389215909 -0.1361484369810822 0 0.1005807427949069 -0.13366374688330029 0 0.11727103389215909 -0.1361484369810822 0 0.1051359327507693 -0.1227177542784853 0 0.1040552578412003 -0.15282191894301261 0 0.1005807427949069 -0.13366374688330029 0 0.082362828069140165 -0.1319846138898183 0 0.11727103389215909 -0.1361484369810822 0 0.1154331983948798 -0.1174886032934183 0 0.13404900744611239 -0.12609877526333699 0 0.11727103389215909 -0.1361484369810822 0 0.1051359327507693 -0.1227177542784853 0 0.1154331983948798 -0.1174886032934183 0 0.1040552578412003 -0.15282191894301261 0 0.11727103389215909 -0.1361484369810822 0 0.1232701832726428 -0.15427141090171109 0 0.11727103389215909 -0.1361484369810822 0 0.1232701832726428 -0.15427141090171109 0 0.13444198148756639 -0.1449420832838656 0 0.1040552578412003 -0.15282191894301261 0 0.12574768761326591 -0.17365922399620121 0 0.1040552578412003 -0.15282191894301261 0 0.1002282447692335 -0.17458527697826651 0 0.12574768761326591 -0.17365922399620121 0 0.1040552578412003 -0.15282191894301261 0 0.1232701832726428 -0.15427141090171109 0 0.12574768761326591 -0.17365922399620121 0 0.11141599445945349 -0.1892314225604943 0 0.1002282447692335 -0.17458527697826651 0 0.12574768761326591 -0.17365922399620121 0 0.11141599445945349 -0.1892314225604943 0 0.12574768761326591 -0.17365922399620121 0 0.13523084618428721 -0.18276855246186111 0 0.11141599445945349 -0.1892314225604943 0 0.12574768761326591 -0.17365922399620121 0 0.095405874932467813 -0.18887779734800569 0 0.11141599445945349 -0.1892314225604943 0 0.1002282447692335 -0.17458527697826651 0 0.1040552578412003 -0.15282191894301261 0 0.1002282447692335 -0.17458527697826651 0 0.08311303581058499 -0.16124853818171381 0 0.095405874932467813 -0.18887779734800569 0 0.1002282447692335 -0.17458527697826651 0 0.081821336385090343 -0.18186245165470949 0 0.1002282447692335 -0.17458527697826651 0 0.08311303581058499 -0.16124853818171381 0 0.081821336385090343 -0.18186245165470949 0 0.08311303581058499 -0.16124853818171381 0 0.081821336385090343 -0.18186245165470949 0 0.066780308608768796 -0.17493307235476979 0 0.070887819862862286 -0.1914088031202833 0 0.081821336385090343 -0.18186245165470949 0 0.066780308608768796 -0.17493307235476979 0 0.055741541871671067 -0.19352675789948551 0 0.070887819862862286 -0.1914088031202833 0 0.066780308608768796 -0.17493307235476979 0 0.08311303581058499 -0.16124853818171381 0 0.066780308608768796 -0.17493307235476979 0 0.065413952892267702 -0.150678580858252 0 0.065413952892267702 -0.150678580858252 0 0.082362828069140165 -0.1319846138898183 0 0.08311303581058499 -0.16124853818171381 0 0.065413952892267702 -0.150678580858252 0 0.082362828069140165 -0.1319846138898183 0 0.1040552578412003 -0.15282191894301261 0 0.08311303581058499 -0.16124853818171381 0 0.082362828069140165 -0.1319846138898183 0 0.1040552578412003 -0.15282191894301261 0 0.082362828069140165 -0.1319846138898183 0 0.1005807427949069 -0.13366374688330029 0 0.082362828069140165 -0.1319846138898183 0 0.095577299328253623 -0.1174095529111252 0 0.082362828069140165 -0.1319846138898183 0 0.070308403876621794 -0.13238109852993221 0 0.069837722907261313 -0.1199532536492431 0 0.065413952892267702 -0.150678580858252 0 0.082362828069140165 -0.1319846138898183 0 0.070308403876621794 -0.13238109852993221 0 0.082362828069140165 -0.1319846138898183 0 0.069837722907261313 -0.1199532536492431 0 0.065413952892267702 -0.150678580858252 0 0.070308403876621794 -0.13238109852993221 0 0.06118566078759103 -0.13005342953014129 0 0.070308403876621794 -0.13238109852993221 0 0.06118566078759103 -0.13005342953014129 0 0.069837722907261313 -0.1199532536492431 0 0.065413952892267702 -0.150678580858252 0 0.06118566078759103 -0.13005342953014129 0 0.053245925046226952 -0.14076102386291889 0 0.06118566078759103 -0.13005342953014129 0 0.049352038069647858 -0.1295439288512826 0 0.048525659269531229 -0.11802361343548989 0 0.049352038069647858 -0.1295439288512826 0 0.053245925046226952 -0.14076102386291889 0 0.041700188437408421 -0.13409859591225329 0 0.06118566078759103 -0.13005342953014129 0 0.049352038069647858 -0.1295439288512826 0 0.053245925046226952 -0.14076102386291889 0 0.065413952892267702 -0.150678580858252 0 0.053245925046226952 -0.14076102386291889 0 0.048465077715394989 -0.16937254782668559 0 0.053245925046226952 -0.14076102386291889 0 0.040505841312838547 -0.14468304457988079 0 0.048465077715394989 -0.16937254782668559 0 0.040505841312838547 -0.14468304457988079 0 0.03393783807298914 -0.14093707321474161 0 0.030230252537669321 -0.1566253376229266 0 0.040505841312838547 -0.14468304457988079 0 0.030230252537669321 -0.1566253376229266 0 0.040505841312838547 -0.14468304457988079 0 0.03393783807298914 -0.14093707321474161 0 0.041700188437408421 -0.13409859591225329 0 0.03393783807298914 -0.14093707321474161 0 0.041700188437408421 -0.13409859591225329 0 0.024480650806643651 -0.1375151559245551 0 0.041700188437408421 -0.13409859591225329 0 0.042102756807481732 -0.1247829815156095 0 0.031290738437872938 -0.1201921761368282 0 0.049352038069647858 -0.1295439288512826 0 0.041700188437408421 -0.13409859591225329 0 0.042102756807481732 -0.1247829815156095 0 0.053245925046226952 -0.14076102386291889 0 0.040505841312838547 -0.14468304457988079 0 0.041700188437408421 -0.13409859591225329 0 0.055741541871671067 -0.19352675789948551 0 0.066780308608768796 -0.17493307235476979 0 0.048465077715394989 -0.16937254782668559 0 0.043838458457815248 -0.18986676967386279 0 0.055741541871671067 -0.19352675789948551 0 0.048465077715394989 -0.16937254782668559 0 0.066780308608768796 -0.17493307235476979 0 0.065413952892267702 -0.150678580858252 0 0.048465077715394989 -0.16937254782668559 0 0.065413952892267702 -0.150678580858252 0 0.048465077715394989 -0.16937254782668559 0 0.040505841312838547 -0.14468304457988079 0 0.048465077715394989 -0.16937254782668559 0 0.030230252537669321 -0.1566253376229266 0 0.048465077715394989 -0.16937254782668559 0 0.033338822752702377 -0.1705348433046637 0 0.030230252537669321 -0.1566253376229266 0 0.043838458457815248 -0.18986676967386279 0 0.031516202538524517 -0.1880665147951214 0 0.048465077715394989 -0.16937254782668559 0 0.031516202538524517 -0.1880665147951214 0 0.048465077715394989 -0.16937254782668559 0 0.031516202538524517 -0.1880665147951214 0 0.048465077715394989 -0.16937254782668559 0 0.033338822752702377 -0.1705348433046637 0 0.031516202538524517 -0.1880665147951214 0 0.033338822752702377 -0.1705348433046637 0 0.01995466376250531 -0.16856763066597699 0 0.031516202538524517 -0.1880665147951214 0 0.01995466376250531 -0.16856763066597699 0 0.031516202538524517 -0.1880665147951214 0 0.01995466376250531 -0.16856763066597699 0 0.0091962193441852118 -0.18107109871456811 0 0.01995466376250531 -0.16856763066597699 0 0.030230252537669321 -0.1566253376229266 0 0.008868239412810253 -0.14987004135808221 0 0.033338822752702377 -0.1705348433046637 0 0.01995466376250531 -0.16856763066597699 0 0.030230252537669321 -0.1566253376229266 0 0.01995466376250531 -0.16856763066597699 0 0.030230252537669321 -0.1566253376229266 0 -0.0025999653858941639 -0.16131422913783491 0 0.0067086063528142403 -0.16809244781376179 0 0.008868239412810253 -0.14987004135808221 0 0.01995466376250531 -0.16856763066597699 0 0.008868239412810253 -0.14987004135808221 0 0.01995466376250531 -0.16856763066597699 0 0.0067086063528142403 -0.16809244781376179 0 0.008868239412810253 -0.14987004135808221 0 -0.0084927016390539001 -0.17431231470194719 0 0.0067086063528142403 -0.16809244781376179 0 0.0091962193441852118 -0.18107109871456811 0 0.01995466376250531 -0.16856763066597699 0 0.0091962193441852118 -0.18107109871456811 0 0.01995466376250531 -0.16856763066597699 0 0.0067086063528142403 -0.16809244781376179 0 0.0091962193441852118 -0.18107109871456811 0 -0.0015622250741301779 -0.1935745667631632 0 0.0091962193441852118 -0.18107109871456811 0 0.041700188437408421 -0.13409859591225329 0 0.014197789575412951 -0.12328672932727321 0 0.031290738437872938 -0.1201921761368282 0 0.041700188437408421 -0.13409859591225329 0 0.024480650806643651 -0.1375151559245551 0 0.014197789575412951 -0.12328672932727321 0 0.041700188437408421 -0.13409859591225329 0 0.014197789575412951 -0.12328672932727321 0 0.024480650806643651 -0.1375151559245551 0 0.011332123714495041 -0.13546109466502479 0 0.014197789575412951 -0.12328672932727321 0 0.03393783807298914 -0.14093707321474161 0 0.030230252537669321 -0.1566253376229266 0 0.024480650806643651 -0.1375151559245551 0 0.030230252537669321 -0.1566253376229266 0 0.024480650806643651 -0.1375151559245551 0 0.008868239412810253 -0.14987004135808221 0 0.024480650806643651 -0.1375151559245551 0 0.008868239412810253 -0.14987004135808221 0 0.011332123714495041 -0.13546109466502479 0 -0.00221818493688669 -0.13117245205018849 0 -0.0031786103040098569 -0.14705450477373769 0 0.008868239412810253 -0.14987004135808221 0 -0.0031786103040098569 -0.14705450477373769 0 -0.0025999653858941639 -0.16131422913783491 0 0.008868239412810253 -0.14987004135808221 0 -0.00221818493688669 -0.13117245205018849 0 0.008868239412810253 -0.14987004135808221 0 -0.00221818493688669 -0.13117245205018849 0 0.011332123714495041 -0.13546109466502479 0 0.014197789575412951 -0.12328672932727321 0 -0.00221818493688669 -0.13117245205018849 0 0.008868239412810253 -0.14987004135808221 0 0.011332123714495041 -0.13546109466502479 0 -0.013304609286582791 -0.1124748627422944 0 0.014197789575412951 -0.12328672932727321 0 0.014197789575412951 -0.12328672932727321 0 0.020945276257035669 -0.1055296092587116 0 0.0046245275045138064 -0.1076828264142336 0 -0.013304609286582791 -0.1124748627422944 0 0.014197789575412951 -0.12328672932727321 0 0.0046245275045138064 -0.1076828264142336 0 0.014197789575412951 -0.12328672932727321 0 0.020945276257035669 -0.1055296092587116 0 0.031290738437872938 -0.1201921761368282 0 0.020945276257035669 -0.1055296092587116 0 0.031290738437872938 -0.1201921761368282 0 0.040241467446851142 -0.1026788937802551 0 0.020945276257035669 -0.1055296092587116 0 0.028115865357471449 -0.087896533900266943 0 0.040241467446851142 -0.1026788937802551 0 0.020945276257035669 -0.1055296092587116 0 0.0072012692200917657 -0.09144049599341271 0 0.028115865357471449 -0.087896533900266943 0 -0.0070294542012635762 -0.10327829347153671 0 0.0046245275045138064 -0.1076828264142336 0 0.0072012692200917657 -0.09144049599341271 0 0.020945276257035669 -0.1055296092587116 0 0.0046245275045138064 -0.1076828264142336 0 0.0072012692200917657 -0.09144049599341271 0 0.0072012692200917657 -0.09144049599341271 0 0.0054575408194632406 -0.073720759659108445 0 0.018511759797904249 -0.077210571545524964 0 -0.0056293594721457006 -0.082036805430144924 0 0.0072012692200917657 -0.09144049599341271 0 0.0054575408194632406 -0.073720759659108445 0 0.0054575408194632406 -0.073720759659108445 0 0.018354718881549058 -0.065167425818499949 0 0.003426744450576454 -0.054815297075420773 0 -0.0072319765520409062 -0.068818796064575097 0 0.0054575408194632406 -0.073720759659108445 0 0.003426744450576454 -0.054815297075420773 0 0.0054575408194632406 -0.073720759659108445 0 0.018354718881549058 -0.065167425818499949 0 0.018511759797904249 -0.077210571545524964 0 0.018511759797904249 -0.077210571545524964 0 0.028115865357471449 -0.087896533900266943 0 0.033429404710945708 -0.067827642356336801 0 0.018354718881549058 -0.065167425818499949 0 0.018511759797904249 -0.077210571545524964 0 0.033429404710945708 -0.067827642356336801 0 0.0072012692200917657 -0.09144049599341271 0 0.018511759797904249 -0.077210571545524964 0 0.028115865357471449 -0.087896533900266943 0 0.028115865357471449 -0.087896533900266943 0 0.044094628308957058 -0.087651847290754856 0 0.040241467446851142 -0.1026788937802551 0 0.028115865357471449 -0.087896533900266943 0 0.044094628308957058 -0.087651847290754856 0 0.033429404710945708 -0.067827642356336801 0 0.044094628308957058 -0.087651847290754856 0 0.033429404710945708 -0.067827642356336801 0 0.052580487019044733 -0.06457445167855122 0 0.052580487019044733 -0.06457445167855122 0 0.057640786708643768 -0.07951032993234286 0 0.068682665651441266 -0.069637891440837665 0 0.044094628308957058 -0.087651847290754856 0 0.052580487019044733 -0.06457445167855122 0 0.057640786708643768 -0.07951032993234286 0 0.044094628308957058 -0.087651847290754856 0 0.057640786708643768 -0.07951032993234286 0 0.064045145718632748 -0.088800152685812248 0 0.056223070490067702 -0.1049071233711502 0 0.048525659269531229 -0.11802361343548989 0 0.040241467446851142 -0.1026788937802551 0 0.044094628308957058 -0.087651847290754856 0 0.056223070490067702 -0.1049071233711502 0 0.064045145718632748 -0.088800152685812248 0 0.06118566078759103 -0.13005342953014129 0 0.056223070490067702 -0.1049071233711502 0 0.048525659269531229 -0.11802361343548989 0 0.048525659269531229 -0.11802361343548989 0 0.042102756807481732 -0.1247829815156095 0 0.031290738437872938 -0.1201921761368282 0 0.048525659269531229 -0.11802361343548989 0 0.031290738437872938 -0.1201921761368282 0 0.040241467446851142 -0.1026788937802551 0 0.049352038069647858 -0.1295439288512826 0 0.048525659269531229 -0.11802361343548989 0 0.042102756807481732 -0.1247829815156095 0 0.044094628308957058 -0.087651847290754856 0 0.056223070490067702 -0.1049071233711502 0 0.040241467446851142 -0.1026788937802551 0 0.020415517075116841 0.0076517724901667356 0 0.020207185183206099 -0.010785841930981459 0 0.039787151186370009 -0.0039594854922263374 0 0.020207185183206099 -0.010785841930981459 0 0.0047038114401232534 -0.001040937293712483 0 0.0026421611525163911 -0.019923693291100199 0 0.020415517075116841 0.0076517724901667356 0 0.020207185183206099 -0.010785841930981459 0 0.0047038114401232534 -0.001040937293712483 0 0.020207185183206099 -0.010785841930981459 0 0.0026421611525163911 -0.019923693291100199 0 0.018057611388834851 -0.030223969914345401 0 0.0026421611525163911 -0.019923693291100199 0 0.018057611388834851 -0.030223969914345401 0 0.001114662024295677 -0.034644724797188199 0 0.018057611388834851 -0.030223969914345401 0 0.03214982838215158 -0.036550164909951742 0 0.03396684481877061 -0.021771474300517551 0 0.020207185183206099 -0.010785841930981459 0 0.018057611388834851 -0.030223969914345401 0 0.03396684481877061 -0.021771474300517551 0 0.018057611388834851 -0.030223969914345401 0 0.010882918392325341 -0.043546784918672053 0 0.022583515379492949 -0.04946345385366932 0 0.018057611388834851 -0.030223969914345401 0 0.022583515379492949 -0.04946345385366932 0 0.03214982838215158 -0.036550164909951742 0 0.010882918392325341 -0.043546784918672053 0 0.001114662024295677 -0.034644724797188199 0 0.003426744450576454 -0.054815297075420773 0 0.018057611388834851 -0.030223969914345401 0 0.010882918392325341 -0.043546784918672053 0 0.001114662024295677 -0.034644724797188199 0 0.018354718881549058 -0.065167425818499949 0 0.003426744450576454 -0.054815297075420773 0 0.022583515379492949 -0.04946345385366932 0 0.010882918392325341 -0.043546784918672053 0 0.003426744450576454 -0.054815297075420773 0 0.022583515379492949 -0.04946345385366932 0 0.018354718881549058 -0.065167425818499949 0 0.033429404710945708 -0.067827642356336801 0 0.022583515379492949 -0.04946345385366932 0 0.033429404710945708 -0.067827642356336801 0 0.022583515379492949 -0.04946345385366932 0 0.040434423972952403 -0.049093231793294147 0 0.033429404710945708 -0.067827642356336801 0 0.052580487019044733 -0.06457445167855122 0 0.040434423972952403 -0.049093231793294147 0 0.052580487019044733 -0.06457445167855122 0 0.040434423972952403 -0.049093231793294147 0 0.05544232884238081 -0.044875881875575382 0 0.052580487019044733 -0.06457445167855122 0 0.05544232884238081 -0.044875881875575382 0 0.068339170937992105 -0.053424337060716878 0 0.040434423972952403 -0.049093231793294147 0 0.05544232884238081 -0.044875881875575382 0 0.045706746350707102 -0.032198694687932281 0 0.05544232884238081 -0.044875881875575382 0 0.045706746350707102 -0.032198694687932281 0 0.061157621829282929 -0.025231604425866621 0 0.040434423972952403 -0.049093231793294147 0 0.045706746350707102 -0.032198694687932281 0 0.03214982838215158 -0.036550164909951742 0 0.022583515379492949 -0.04946345385366932 0 0.040434423972952403 -0.049093231793294147 0 0.03214982838215158 -0.036550164909951742 0 0.045706746350707102 -0.032198694687932281 0 0.03214982838215158 -0.036550164909951742 0 0.03396684481877061 -0.021771474300517551 0 0.045706746350707102 -0.032198694687932281 0 0.03396684481877061 -0.021771474300517551 0 0.047710046720236987 -0.018368172826886429 0 0.061157621829282929 -0.025231604425866621 0 0.047710046720236987 -0.018368172826886429 0 0.057931869416054299 -0.0086796052278893948 0 0.045706746350707102 -0.032198694687932281 0 0.061157621829282929 -0.025231604425866621 0 0.047710046720236987 -0.018368172826886429 0 0.053306813386582982 0.0056008818424343951 0 0.057931869416054299 -0.0086796052278893948 0 0.039787151186370009 -0.0039594854922263374 0 0.047710046720236987 -0.018368172826886429 0 0.057931869416054299 -0.0086796052278893948 0 0.039787151186370009 -0.0039594854922263374 0 0.053306813386582982 0.0056008818424343951 0 0.065940651683257009 0.0024831850618150888 0 0.057931869416054299 -0.0086796052278893948 0 0.020207185183206099 -0.010785841930981459 0 0.03396684481877061 -0.021771474300517551 0 0.039787151186370009 -0.0039594854922263374 0 0.03396684481877061 -0.021771474300517551 0 0.047710046720236987 -0.018368172826886429 0 0.039787151186370009 -0.0039594854922263374 0 0.07992851590561921 0.0082161523869754144 0 0.085319843464057188 -0.007629982329875426 0 0.074177093133044117 -0.010507922444979889 0 0.07992851590561921 0.0082161523869754144 0 0.085319843464057188 -0.007629982329875426 0 0.09649789417263642 -0.0037639840011086311 0 0.093491186985964037 -0.01472799792969565 0 0.085319843464057188 -0.007629982329875426 0 0.09649789417263642 -0.0037639840011086311 0 0.093491186985964037 -0.01472799792969565 0 0.085319843464057188 -0.007629982329875426 0 0.083581835824733053 -0.016535058395947159 0 0.085319843464057188 -0.007629982329875426 0 0.074177093133044117 -0.010507922444979889 0 0.083581835824733053 -0.016535058395947159 0 0.061157621829282929 -0.025231604425866621 0 0.057931869416054299 -0.0086796052278893948 0 0.074177093133044117 -0.010507922444979889 0 0.065940651683257009 0.0024831850618150888 0 0.057931869416054299 -0.0086796052278893948 0 0.074177093133044117 -0.010507922444979889 0 0.061157621829282929 -0.025231604425866621 0 0.077044537184394621 -0.024954964190685061 0 0.071280738265345076 -0.03811759874850193 0 0.061157621829282929 -0.025231604425866621 0 0.074177093133044117 -0.010507922444979889 0 0.077044537184394621 -0.024954964190685061 0 0.077044537184394621 -0.024954964190685061 0 0.087876518356205288 -0.024854425084499782 0 0.083696735197635597 -0.035074751153617953 0 0.077044537184394621 -0.024954964190685061 0 0.083581835824733053 -0.016535058395947159 0 0.087876518356205288 -0.024854425084499782 0 0.074177093133044117 -0.010507922444979889 0 0.077044537184394621 -0.024954964190685061 0 0.083581835824733053 -0.016535058395947159 0 0.093491186985964037 -0.01472799792969565 0 0.083581835824733053 -0.016535058395947159 0 0.087876518356205288 -0.024854425084499782 0 0.093491186985964037 -0.01472799792969565 0 0.087876518356205288 -0.024854425084499782 0 0.096892307268332672 -0.02266252034611416 0 0.087876518356205288 -0.024854425084499782 0 0.093921030959280866 -0.033511072873054298 0 0.096892307268332672 -0.02266252034611416 0 0.087876518356205288 -0.024854425084499782 0 0.083696735197635597 -0.035074751153617953 0 0.093921030959280866 -0.033511072873054298 0 0.088828324516270887 -0.041348533459236683 0 0.095977453204919599 -0.050472192210401508 0 0.093921030959280866 -0.033511072873054298 0 0.088828324516270887 -0.041348533459236683 0 0.083696735197635597 -0.035074751153617953 0 0.093921030959280866 -0.033511072873054298 0 0.088828324516270887 -0.041348533459236683 0 0.081718078703247488 -0.046336117599872988 0 0.095977453204919599 -0.050472192210401508 0 0.088828324516270887 -0.041348533459236683 0 0.081718078703247488 -0.046336117599872988 0 0.083696735197635597 -0.035074751153617953 0 0.081718078703247488 -0.046336117599872988 0 0.083696735197635597 -0.035074751153617953 0 0.071280738265345076 -0.03811759874850193 0 0.05544232884238081 -0.044875881875575382 0 0.061157621829282929 -0.025231604425866621 0 0.071280738265345076 -0.03811759874850193 0 0.05544232884238081 -0.044875881875575382 0 0.071280738265345076 -0.03811759874850193 0 0.068339170937992105 -0.053424337060716878 0 0.077044537184394621 -0.024954964190685061 0 0.083696735197635597 -0.035074751153617953 0 0.071280738265345076 -0.03811759874850193 0 0.081718078703247488 -0.046336117599872988 0 0.071280738265345076 -0.03811759874850193 0 0.068339170937992105 -0.053424337060716878 0 0.081718078703247488 -0.046336117599872988 0 0.068339170937992105 -0.053424337060716878 0 0.079819511512682115 -0.059373961925762081 0 0.068339170937992105 -0.053424337060716878 0 0.079819511512682115 -0.059373961925762081 0 0.068682665651441266 -0.069637891440837665 0 0.079819511512682115 -0.059373961925762081 0 0.095977453204919599 -0.050472192210401508 0 0.084380189065810102 -0.076999271316981366 0 0.081718078703247488 -0.046336117599872988 0 0.079819511512682115 -0.059373961925762081 0 0.095977453204919599 -0.050472192210401508 0 0.095977453204919599 -0.050472192210401508 0 0.1084893608633546 -0.054995312108922077 0 0.1003826539890946 -0.069656067773248523 0 0.095977453204919599 -0.050472192210401508 0 0.1084893608633546 -0.054995312108922077 0 0.10497618281608501 -0.042163163930312997 0 0.1084893608633546 -0.054995312108922077 0 0.12021542192502691 -0.05736310542253667 0 0.11225492598618329 -0.067700646346746801 0 0.12021542192502691 -0.05736310542253667 0 0.1181844865236701 -0.045884275653046647 0 0.1350650896680477 -0.050994701792827862 0 0.1084893608633546 -0.054995312108922077 0 0.12021542192502691 -0.05736310542253667 0 0.1181844865236701 -0.045884275653046647 0 0.1084893608633546 -0.054995312108922077 0 0.1181844865236701 -0.045884275653046647 0 0.10497618281608501 -0.042163163930312997 0 0.1181844865236701 -0.045884275653046647 0 0.1169603374125384 -0.034526050343312617 0 0.10497618281608501 -0.042163163930312997 0 0.10497618281608501 -0.042163163930312997 0 0.1139069069496291 -0.021464697665753471 0 0.1169603374125384 -0.034526050343312617 0 0.10497618281608501 -0.042163163930312997 0 0.1139069069496291 -0.021464697665753471 0 0.1181844865236701 -0.045884275653046647 0 0.1169603374125384 -0.034526050343312617 0 0.1283586559847627 -0.040725310836502493 0 0.095977453204919599 -0.050472192210401508 0 0.10497618281608501 -0.042163163930312997 0 0.1075747173440291 -0.023945113103821601 0 0.095977453204919599 -0.050472192210401508 0 0.093921030959280866 -0.033511072873054298 0 0.1075747173440291 -0.023945113103821601 0 0.095977453204919599 -0.050472192210401508 0 0.1075747173440291 -0.023945113103821601 0 0.10497618281608501 -0.042163163930312997 0 0.1075747173440291 -0.023945113103821601 0 0.1139069069496291 -0.021464697665753471 0 0.093921030959280866 -0.033511072873054298 0 0.096892307268332672 -0.02266252034611416 0 0.1075747173440291 -0.023945113103821601 0 0.093491186985964037 -0.01472799792969565 0 0.096892307268332672 -0.02266252034611416 0 0.10169828607787421 -0.015923098960230999 0 0.096892307268332672 -0.02266252034611416 0 0.10169828607787421 -0.015923098960230999 0 0.1075747173440291 -0.023945113103821601 0 0.10169828607787421 -0.015923098960230999 0 0.1075747173440291 -0.023945113103821601 0 0.1082483433893755 -0.0084409933366877514 0 0.1169603374125384 -0.034526050343312617 0 0.1213672368215104 -0.025634276355807499 0 0.12969235634276979 -0.031284000123743903 0 0.1169603374125384 -0.034526050343312617 0 0.1213672368215104 -0.025634276355807499 0 0.1139069069496291 -0.021464697665753471 0 0.1213672368215104 -0.025634276355807499 0 0.1139069069496291 -0.021464697665753471 0 0.12490934658110441 -0.01526235729042 0 0.11917198148314 0.002581966002757949 0 0.1075747173440291 -0.023945113103821601 0 0.1139069069496291 -0.021464697665753471 0 0.11917198148314 0.002581966002757949 0 0.1139069069496291 -0.021464697665753471 0 0.1228376310831711 -0.00076623140119310329 0 0.11917198148314 0.002581966002757949 0 0.1075747173440291 -0.023945113103821601 0 0.1082483433893755 -0.0084409933366877514 0 0.1139069069496291 -0.021464697665753471 0 0.12490934658110441 -0.01526235729042 0 0.1228376310831711 -0.00076623140119310329 0 0.1139069069496291 -0.021464697665753471 0 0.1228376310831711 -0.00076623140119310329 0 0.11917198148314 0.002581966002757949 0 0.1075747173440291 -0.023945113103821601 0 0.11917198148314 0.002581966002757949 0 0.1105415625726717 -0.0014271332550589229 0 0.1082483433893755 -0.0084409933366877514 0 0.1078625722471533 0.0022823866337398822 0 0.1105415625726717 -0.0014271332550589229 0 0.1039166904039584 -0.0028966343462391718 0 0.1039166904039584 -0.0028966343462391718 0 0.1082483433893755 -0.0084409933366877514 0 0.10154047648190589 -0.00941290969201335 0 0.1105415625726717 -0.0014271332550589229 0 0.1039166904039584 -0.0028966343462391718 0 0.1082483433893755 -0.0084409933366877514 0 0.10169828607787421 -0.015923098960230999 0 0.1082483433893755 -0.0084409933366877514 0 0.10154047648190589 -0.00941290969201335 0 0.093491186985964037 -0.01472799792969565 0 0.10154047648190589 -0.00941290969201335 0 0.09649789417263642 -0.0037639840011086311 0 0.093491186985964037 -0.01472799792969565 0 0.10169828607787421 -0.015923098960230999 0 0.10154047648190589 -0.00941290969201335 0 0.1039166904039584 -0.0028966343462391718 0 0.10154047648190589 -0.00941290969201335 0 0.09649789417263642 -0.0037639840011086311 0 0.088046088292129038 -0.10430519341125349 0 0.072782924926700548 -0.1035263504235614 0 0.088717560391344957 -0.092993146067331611 0 0.088046088292129038 -0.10430519341125349 0 0.080670658246847674 -0.112136361820053 0 0.072782924926700548 -0.1035263504235614 0 0.088046088292129038 -0.10430519341125349 0 0.088717560391344957 -0.092993146067331611 0 0.100171096126226 -0.096028489315426471 0 0.088046088292129038 -0.10430519341125349 0 0.089116900718008318 -0.11226838151764811 0 0.096817389343646892 -0.1088784313235004 0 0.088046088292129038 -0.10430519341125349 0 0.089116900718008318 -0.11226838151764811 0 0.080670658246847674 -0.112136361820053 0 0.089116900718008318 -0.11226838151764811 0 0.082844213492092533 -0.1195429602861619 0 0.095577299328253623 -0.1174095529111252 0 0.082362828069140165 -0.1319846138898183 0 0.082844213492092533 -0.1195429602861619 0 0.095577299328253623 -0.1174095529111252 0 0.082362828069140165 -0.1319846138898183 0 0.095577299328253623 -0.1174095529111252 0 0.082362828069140165 -0.1319846138898183 0 0.082844213492092533 -0.1195429602861619 0 0.069837722907261313 -0.1199532536492431 0 0.089116900718008318 -0.11226838151764811 0 0.082844213492092533 -0.1195429602861619 0 0.080670658246847674 -0.112136361820053 0 0.080670658246847674 -0.112136361820053 0 0.069837722907261313 -0.1199532536492431 0 0.072782924926700548 -0.1035263504235614 0 0.06118566078759103 -0.13005342953014129 0 0.072782924926700548 -0.1035263504235614 0 0.06118566078759103 -0.13005342953014129 0 0.069837722907261313 -0.1199532536492431 0 0.072782924926700548 -0.1035263504235614 0 0.06118566078759103 -0.13005342953014129 0 0.056223070490067702 -0.1049071233711502 0 0.072782924926700548 -0.1035263504235614 0 0.082844213492092533 -0.1195429602861619 0 0.080670658246847674 -0.112136361820053 0 0.069837722907261313 -0.1199532536492431 0 0.056223070490067702 -0.1049071233711502 0 0.072782924926700548 -0.1035263504235614 0 0.064045145718632748 -0.088800152685812248 0 0.057640786708643768 -0.07951032993234286 0 0.064045145718632748 -0.088800152685812248 0 0.068682665651441266 -0.069637891440837665 0 0.064045145718632748 -0.088800152685812248 0 0.068682665651441266 -0.069637891440837665 0 0.084380189065810102 -0.076999271316981366 0 0.072782924926700548 -0.1035263504235614 0 0.064045145718632748 -0.088800152685812248 0 0.084380189065810102 -0.076999271316981366 0 0.052580487019044733 -0.06457445167855122 0 0.068339170937992105 -0.053424337060716878 0 0.068682665651441266 -0.069637891440837665 0 0.079819511512682115 -0.059373961925762081 0 0.068682665651441266 -0.069637891440837665 0 0.084380189065810102 -0.076999271316981366 0 0.095977453204919599 -0.050472192210401508 0 0.084380189065810102 -0.076999271316981366 0 0.1003826539890946 -0.069656067773248523 0 0.095977453204919599 -0.050472192210401508 0 0.084380189065810102 -0.076999271316981366 0 0.084380189065810102 -0.076999271316981366 0 0.095693843046354268 -0.0841642264331387 0 0.1003826539890946 -0.069656067773248523 0 0.072782924926700548 -0.1035263504235614 0 0.084380189065810102 -0.076999271316981366 0 0.072782924926700548 -0.1035263504235614 0 0.084380189065810102 -0.076999271316981366 0 0.088717560391344957 -0.092993146067331611 0 0.084380189065810102 -0.076999271316981366 0 0.088717560391344957 -0.092993146067331611 0 0.095693843046354268 -0.0841642264331387 0 0.088717560391344957 -0.092993146067331611 0 0.095693843046354268 -0.0841642264331387 0 0.100171096126226 -0.096028489315426471 0 0.095693843046354268 -0.0841642264331387 0 0.1061825878765964 -0.082065358753895937 0 0.100171096126226 -0.096028489315426471 0 0.095693843046354268 -0.0841642264331387 0 0.1061825878765964 -0.082065358753895937 0 0.1003826539890946 -0.069656067773248523 0 0.1061825878765964 -0.082065358753895937 0 0.1152940355071756 -0.093458773729521216 0 0.100171096126226 -0.096028489315426471 0 0.1061825878765964 -0.082065358753895937 0 0.1003826539890946 -0.069656067773248523 0 0.11225492598618329 -0.067700646346746801 0 0.1084893608633546 -0.054995312108922077 0 0.1003826539890946 -0.069656067773248523 0 0.11225492598618329 -0.067700646346746801 0 0.1061825878765964 -0.082065358753895937 0 0.11225492598618329 -0.067700646346746801 0 0.1171317857577618 -0.078667044940758796 0 0.1171317857577618 -0.078667044940758796 0 0.12857779857738699 -0.078718698725873171 0 0.12708324658387871 -0.067240591211139955 0 0.11225492598618329 -0.067700646346746801 0 0.1171317857577618 -0.078667044940758796 0 0.12708324658387871 -0.067240591211139955 0 0.12021542192502691 -0.05736310542253667 0 0.11225492598618329 -0.067700646346746801 0 0.12708324658387871 -0.067240591211139955 0 0.1061825878765964 -0.082065358753895937 0 0.1152940355071756 -0.093458773729521216 0 0.1171317857577618 -0.078667044940758796 0 0.1171317857577618 -0.078667044940758796 0 0.1286838548293292 -0.09135300801218077 0 0.12857779857738699 -0.078718698725873171 0 0.1152940355071756 -0.093458773729521216 0 0.1171317857577618 -0.078667044940758796 0 0.1286838548293292 -0.09135300801218077 0 0.1152940355071756 -0.093458773729521216 0 0.1230450488982011 -0.098166020395255585 0 0.1286838548293292 -0.09135300801218077 0 0.1152940355071756 -0.093458773729521216 0 0.1230450488982011 -0.098166020395255585 0 0.1196469902177196 -0.1061558951397697 0 0.1230450488982011 -0.098166020395255585 0 0.1196469902177196 -0.1061558951397697 0 0.12917406780106669 -0.1036793655145172 0 0.1196469902177196 -0.1061558951397697 0 0.1094725419179296 -0.1044020385603272 0 0.1154331983948798 -0.1174886032934183 0 0.1152940355071756 -0.093458773729521216 0 0.1196469902177196 -0.1061558951397697 0 0.1094725419179296 -0.1044020385603272 0 0.1152940355071756 -0.093458773729521216 0 0.1094725419179296 -0.1044020385603272 0 0.100171096126226 -0.096028489315426471 0 0.1094725419179296 -0.1044020385603272 0 0.096817389343646892 -0.1088784313235004 0 0.100171096126226 -0.096028489315426471 0 0.088046088292129038 -0.10430519341125349 0 0.096817389343646892 -0.1088784313235004 0 0.100171096126226 -0.096028489315426471 0 0.096817389343646892 -0.1088784313235004 0 0.1051359327507693 -0.1227177542784853 0 0.1154331983948798 -0.1174886032934183 0 0.096817389343646892 -0.1088784313235004 0 0.1154331983948798 -0.1174886032934183 0 0.1005807427949069 -0.13366374688330029 0 0.095577299328253623 -0.1174095529111252 0 0.1051359327507693 -0.1227177542784853 0 0.1094725419179296 -0.1044020385603272 0 0.096817389343646892 -0.1088784313235004 0 0.1154331983948798 -0.1174886032934183 0 0.089116900718008318 -0.11226838151764811 0 0.096817389343646892 -0.1088784313235004 0 0.095577299328253623 -0.1174095529111252 0 0.096817389343646892 -0.1088784313235004 0 0.095577299328253623 -0.1174095529111252 0 0.1051359327507693 -0.1227177542784853 0 0.1154331983948798 -0.1174886032934183 0 0.13404900744611239 -0.12609877526333699 0 0.1196469902177196 -0.1061558951397697 0 0.1154331983948798 -0.1174886032934183 0 0.12686113813069899 -0.1114359576666621 0 0.1154331983948798 -0.1174886032934183 0 0.12686113813069899 -0.1114359576666621 0 0.13390982127973511 -0.11942472678041111 0 0.1154331983948798 -0.1174886032934183 0 0.13390982127973511 -0.11942472678041111 0 0.13404900744611239 -0.12609877526333699 0 0.12686113813069899 -0.1114359576666621 0 0.13614161296009411 -0.11043119760519431 0 0.13390982127973511 -0.11942472678041111 0 0.13614161296009411 -0.11043119760519431 0 0.14023431030656019 -0.11642081500581559 0 0.13390982127973511 -0.11942472678041111 0 0.13614161296009411 -0.11043119760519431 0 0.14023431030656019 -0.11642081500581559 0 0.14347338005148061 -0.1082488085161593 0 0.13773130733042549 -0.12113088311922759 0 0.1427320902892944 -0.12257921542734659 0 0.13404900744611239 -0.12609877526333699 0 0.13390982127973511 -0.11942472678041111 0 0.13773130733042549 -0.12113088311922759 0 0.13404900744611239 -0.12609877526333699 0 0.13390982127973511 -0.11942472678041111 0 0.13404900744611239 -0.12609877526333699 0 0.14023431030656019 -0.11642081500581559 0 0.13773130733042549 -0.12113088311922759 0 0.1427320902892944 -0.12257921542734659 0 0.14023431030656019 -0.11642081500581559 0 0.13390982127973511 -0.11942472678041111 0 0.13773130733042549 -0.12113088311922759 0 0.1427320902892944 -0.12257921542734659 0 0.15192118682329561 -0.12273271218809589 0 0.1490682445489844 -0.1279194233146575 0 0.1427320902892944 -0.12257921542734659 0 0.1474293378639818 -0.11515719203513899 0 0.15192118682329561 -0.12273271218809589 0 0.14023431030656019 -0.11642081500581559 0 0.1427320902892944 -0.12257921542734659 0 0.1474293378639818 -0.11515719203513899 0 0.1474293378639818 -0.11515719203513899 0 0.15201290161170181 -0.107226104105896 0 0.14347338005148061 -0.1082488085161593 0 0.14023431030656019 -0.11642081500581559 0 0.1474293378639818 -0.11515719203513899 0 0.14347338005148061 -0.1082488085161593 0 0.1474293378639818 -0.11515719203513899 0 0.15419764536576119 -0.1149677746217292 0 0.15201290161170181 -0.107226104105896 0 0.15419764536576119 -0.1149677746217292 0 0.15201290161170181 -0.107226104105896 0 0.1590985184781393 -0.1107939778183322 0 0.15419764536576119 -0.1149677746217292 0 0.15192118682329561 -0.12273271218809589 0 0.1605262820516872 -0.11892888696118289 0 0.1474293378639818 -0.11515719203513899 0 0.15419764536576119 -0.1149677746217292 0 0.15192118682329561 -0.12273271218809589 0 0.153855148049276 -0.097460838801678593 0 0.15201290161170181 -0.107226104105896 0 0.1462355681673109 -0.099255024001954253 0 0.153855148049276 -0.097460838801678593 0 0.1462355681673109 -0.099255024001954253 0 0.1490737095502995 -0.088653392770718792 0 0.153855148049276 -0.097460838801678593 0 0.15201290161170181 -0.107226104105896 0 0.16008969536972259 -0.10263897543636979 0 0.14347338005148061 -0.1082488085161593 0 0.1462355681673109 -0.099255024001954253 0 0.13800617896953651 -0.1013117005447786 0 0.15201290161170181 -0.107226104105896 0 0.14347338005148061 -0.1082488085161593 0 0.1462355681673109 -0.099255024001954253 0 0.1462355681673109 -0.099255024001954253 0 0.13800617896953651 -0.1013117005447786 0 0.14099209077157121 -0.092629299272494275 0 0.13800617896953651 -0.1013117005447786 0 0.1286838548293292 -0.09135300801218077 0 0.14099209077157121 -0.092629299272494275 0 0.13614161296009411 -0.11043119760519431 0 0.13800617896953651 -0.1013117005447786 0 0.12917406780106669 -0.1036793655145172 0 0.13614161296009411 -0.11043119760519431 0 0.14347338005148061 -0.1082488085161593 0 0.13800617896953651 -0.1013117005447786 0 0.1196469902177196 -0.1061558951397697 0 0.12686113813069899 -0.1114359576666621 0 0.12917406780106669 -0.1036793655145172 0 0.12686113813069899 -0.1114359576666621 0 0.13614161296009411 -0.11043119760519431 0 0.12917406780106669 -0.1036793655145172 0 0.1230450488982011 -0.098166020395255585 0 0.12917406780106669 -0.1036793655145172 0 0.1286838548293292 -0.09135300801218077 0 0.13800617896953651 -0.1013117005447786 0 0.12917406780106669 -0.1036793655145172 0 0.1286838548293292 -0.09135300801218077 0 0.1286838548293292 -0.09135300801218077 0 0.12857779857738699 -0.078718698725873171 0 0.13748132505412469 -0.08396770010957226 0 0.13748132505412469 -0.08396770010957226 0 0.1367334774756912 -0.073531819827653083 0 0.14538989296775451 -0.078880163337803719 0 0.12857779857738699 -0.078718698725873171 0 0.13748132505412469 -0.08396770010957226 0 0.1367334774756912 -0.073531819827653083 0 0.1286838548293292 -0.09135300801218077 0 0.13748132505412469 -0.08396770010957226 0 0.14099209077157121 -0.092629299272494275 0 0.12857779857738699 -0.078718698725873171 0 0.12708324658387871 -0.067240591211139955 0 0.1367334774756912 -0.073531819827653083 0 0.12708324658387871 -0.067240591211139955 0 0.1367334774756912 -0.073531819827653083 0 0.14110971147140131 -0.064913967020147179 0 0.1367334774756912 -0.073531819827653083 0 0.14110971147140131 -0.064913967020147179 0 0.14964674351361701 -0.070099729323911744 0 0.14110971147140131 -0.064913967020147179 0 0.14964674351361701 -0.070099729323911744 0 0.15194569281242609 -0.056105127932606663 0 0.1367334774756912 -0.073531819827653083 0 0.14964674351361701 -0.070099729323911744 0 0.14538989296775451 -0.078880163337803719 0 0.14964674351361701 -0.070099729323911744 0 0.14538989296775451 -0.078880163337803719 0 0.15822082836811369 -0.079982126599630443 0 0.14964674351361701 -0.070099729323911744 0 0.15822082836811369 -0.079982126599630443 0 0.1603896916223197 -0.069044426588861466 0 0.14964674351361701 -0.070099729323911744 0 0.1603896916223197 -0.069044426588861466 0 0.15194569281242609 -0.056105127932606663 0 0.13748132505412469 -0.08396770010957226 0 0.14099209077157121 -0.092629299272494275 0 0.1490737095502995 -0.088653392770718792 0 0.1462355681673109 -0.099255024001954253 0 0.14099209077157121 -0.092629299272494275 0 0.1490737095502995 -0.088653392770718792 0 0.13748132505412469 -0.08396770010957226 0 0.14538989296775451 -0.078880163337803719 0 0.1490737095502995 -0.088653392770718792 0 0.14538989296775451 -0.078880163337803719 0 0.1490737095502995 -0.088653392770718792 0 0.15822082836811369 -0.079982126599630443 0 0.153855148049276 -0.097460838801678593 0 0.1490737095502995 -0.088653392770718792 0 0.1594354292934542 -0.091737259282716963 0 0.1490737095502995 -0.088653392770718792 0 0.1594354292934542 -0.091737259282716963 0 0.15822082836811369 -0.079982126599630443 0 0.1594354292934542 -0.091737259282716963 0 0.15822082836811369 -0.079982126599630443 0 0.1684140015429216 -0.087293140772549349 0 0.15822082836811369 -0.079982126599630443 0 0.1684140015429216 -0.087293140772549349 0 0.1694423915093585 -0.075846288749261012 0 0.1684140015429216 -0.087293140772549349 0 0.1776016981043757 -0.094466756631608209 0 0.16825903644140999 -0.098606158866582916 0 0.1594354292934542 -0.091737259282716963 0 0.1684140015429216 -0.087293140772549349 0 0.16825903644140999 -0.098606158866582916 0 0.15822082836811369 -0.079982126599630443 0 0.1603896916223197 -0.069044426588861466 0 0.1694423915093585 -0.075846288749261012 0 0.1603896916223197 -0.069044426588861466 0 0.1694423915093585 -0.075846288749261012 0 0.17187576892014289 -0.062138750134232333 0 0.17971720707086189 -0.073145871694163048 0 0.17187576892014289 -0.062138750134232333 0 0.19180584502786041 -0.068172372335855602 0 0.17187576892014289 -0.062138750134232333 0 0.19180584502786041 -0.068172372335855602 0 0.1694423915093585 -0.075846288749261012 0 0.17971720707086189 -0.073145871694163048 0 0.17187576892014289 -0.062138750134232333 0 0.1694423915093585 -0.075846288749261012 0 0.17971720707086189 -0.073145871694163048 0 0.17803685153179119 -0.083473416706129469 0 0.17971720707086189 -0.073145871694163048 0 0.18645595400882431 -0.078186102724248294 0 0.19180584502786041 -0.068172372335855602 0 0.1684140015429216 -0.087293140772549349 0 0.17803685153179119 -0.083473416706129469 0 0.1776016981043757 -0.094466756631608209 0 0.1684140015429216 -0.087293140772549349 0 0.1694423915093585 -0.075846288749261012 0 0.17803685153179119 -0.083473416706129469 0 0.17803685153179119 -0.083473416706129469 0 0.18645595400882431 -0.078186102724248294 0 0.18748362772352481 -0.090285751384613616 0 0.17971720707086189 -0.073145871694163048 0 0.17803685153179119 -0.083473416706129469 0 0.18645595400882431 -0.078186102724248294 0 0.17803685153179119 -0.083473416706129469 0 0.18748362772352481 -0.090285751384613616 0 0.1776016981043757 -0.094466756631608209 0 0.1776016981043757 -0.094466756631608209 0 0.1757785255420414 -0.1036637588673371 0 0.18737718651252391 -0.1018645954104864 0 0.18748362772352481 -0.090285751384613616 0 0.1776016981043757 -0.094466756631608209 0 0.18737718651252391 -0.1018645954104864 0 0.1776016981043757 -0.094466756631608209 0 0.1757785255420414 -0.1036637588673371 0 0.16825903644140999 -0.098606158866582916 0 0.1757785255420414 -0.1036637588673371 0 0.17797479248166551 -0.1125427820454727 0 0.16787713834435419 -0.11000951374301229 0 0.1757785255420414 -0.1036637588673371 0 0.18737718651252391 -0.1018645954104864 0 0.17797479248166551 -0.1125427820454727 0 0.18737718651252391 -0.1018645954104864 0 0.18701697985041221 -0.11880972375357141 0 0.17797479248166551 -0.1125427820454727 0 0.18701697985041221 -0.11880972375357141 0 0.173543926957343 -0.1211375462363173 0 0.17990838590865871 -0.12844737664361131 0 0.18701697985041221 -0.11880972375357141 0 0.173543926957343 -0.1211375462363173 0 0.17797479248166551 -0.1125427820454727 0 0.173543926957343 -0.1211375462363173 0 0.17797479248166551 -0.1125427820454727 0 0.16787713834435419 -0.11000951374301229 0 0.173543926957343 -0.1211375462363173 0 0.16787713834435419 -0.11000951374301229 0 0.1605262820516872 -0.11892888696118289 0 0.173543926957343 -0.1211375462363173 0 0.1605262820516872 -0.11892888696118289 0 0.1641162962428066 -0.126449221113482 0 0.15192118682329561 -0.12273271218809589 0 0.1605262820516872 -0.11892888696118289 0 0.1587247560068413 -0.12564209046719049 0 0.1605262820516872 -0.11892888696118289 0 0.1587247560068413 -0.12564209046719049 0 0.1641162962428066 -0.126449221113482 0 0.15419764536576119 -0.1149677746217292 0 0.1605262820516872 -0.11892888696118289 0 0.1590985184781393 -0.1107939778183322 0 0.16787713834435419 -0.11000951374301229 0 0.1605262820516872 -0.11892888696118289 0 0.1590985184781393 -0.1107939778183322 0 0.15201290161170181 -0.107226104105896 0 0.1590985184781393 -0.1107939778183322 0 0.16008969536972259 -0.10263897543636979 0 0.16787713834435419 -0.11000951374301229 0 0.1590985184781393 -0.1107939778183322 0 0.16008969536972259 -0.10263897543636979 0 0.1594354292934542 -0.091737259282716963 0 0.16008969536972259 -0.10263897543636979 0 0.16825903644140999 -0.098606158866582916 0 0.153855148049276 -0.097460838801678593 0 0.1594354292934542 -0.091737259282716963 0 0.16008969536972259 -0.10263897543636979 0 0.1757785255420414 -0.1036637588673371 0 0.16787713834435419 -0.11000951374301229 0 0.16825903644140999 -0.098606158866582916 0 0.16787713834435419 -0.11000951374301229 0 0.16008969536972259 -0.10263897543636979 0 0.16825903644140999 -0.098606158866582916 0 0.1552076984021574 -0.0047487866015848753 0 0.1380919344669613 -0.01469948322874493 0 0.1606476670511833 -0.017066892083396779 0 0.14127976741107601 0.00215554095495248 0 0.1552076984021574 -0.0047487866015848753 0 0.1380919344669613 -0.01469948322874493 0 0.14127976741107601 0.00215554095495248 0 0.1228376310831711 -0.00076623140119310329 0 0.1380919344669613 -0.01469948322874493 0 0.1228376310831711 -0.00076623140119310329 0 0.1380919344669613 -0.01469948322874493 0 0.12490934658110441 -0.01526235729042 0 0.1228376310831711 -0.00076623140119310329 0 0.1380919344669613 -0.01469948322874493 0 0.1380919344669613 -0.01469948322874493 0 0.1415761600091012 -0.038003691908970592 0 0.12969235634276979 -0.031284000123743903 0 0.1213672368215104 -0.025634276355807499 0 0.12490934658110441 -0.01526235729042 0 0.12969235634276979 -0.031284000123743903 0 0.12490934658110441 -0.01526235729042 0 0.1380919344669613 -0.01469948322874493 0 0.12969235634276979 -0.031284000123743903 0 0.1380919344669613 -0.01469948322874493 0 0.15334623785075199 -0.02863273505629621 0 0.1415761600091012 -0.038003691908970592 0 0.1380919344669613 -0.01469948322874493 0 0.15334623785075199 -0.02863273505629621 0 0.1606476670511833 -0.017066892083396779 0 0.1380919344669613 -0.01469948322874493 0 0.15334623785075199 -0.02863273505629621 0 0.15437572795414581 -0.042117567211766717 0 0.1415761600091012 -0.038003691908970592 0 0.15194569281242609 -0.056105127932606663 0 0.15334623785075199 -0.02863273505629621 0 0.15437572795414581 -0.042117567211766717 0 0.1415761600091012 -0.038003691908970592 0 0.1181844865236701 -0.045884275653046647 0 0.1283586559847627 -0.040725310836502493 0 0.1350650896680477 -0.050994701792827862 0 0.1415761600091012 -0.038003691908970592 0 0.12969235634276979 -0.031284000123743903 0 0.1283586559847627 -0.040725310836502493 0 0.1169603374125384 -0.034526050343312617 0 0.12969235634276979 -0.031284000123743903 0 0.1283586559847627 -0.040725310836502493 0 0.1415761600091012 -0.038003691908970592 0 0.1283586559847627 -0.040725310836502493 0 0.1350650896680477 -0.050994701792827862 0 0.1181844865236701 -0.045884275653046647 0 0.1350650896680477 -0.050994701792827862 0 0.12021542192502691 -0.05736310542253667 0 0.12708324658387871 -0.067240591211139955 0 0.1350650896680477 -0.050994701792827862 0 0.12708324658387871 -0.067240591211139955 0 0.14110971147140131 -0.064913967020147179 0 0.1350650896680477 -0.050994701792827862 0 0.14110971147140131 -0.064913967020147179 0 0.15194569281242609 -0.056105127932606663 0 0.1415761600091012 -0.038003691908970592 0 0.1350650896680477 -0.050994701792827862 0 0.15194569281242609 -0.056105127932606663 0 0.1350650896680477 -0.050994701792827862 0 0.15194569281242609 -0.056105127932606663 0 0.14110971147140131 -0.064913967020147179 0 0.1350650896680477 -0.050994701792827862 0 0.15194569281242609 -0.056105127932606663 0 0.15194569281242609 -0.056105127932606663 0 0.16860054123454279 -0.042565986883847551 0 0.15437572795414581 -0.042117567211766717 0 0.15194569281242609 -0.056105127932606663 0 0.16860054123454279 -0.042565986883847551 0 0.1603896916223197 -0.069044426588861466 0 0.15194569281242609 -0.056105127932606663 0 0.17187576892014289 -0.062138750134232333 0 0.15194569281242609 -0.056105127932606663 0 0.165016394264413 -0.053661354003145263 0 0.17187576892014289 -0.062138750134232333 0 0.15194569281242609 -0.056105127932606663 0 0.165016394264413 -0.053661354003145263 0 0.16860054123454279 -0.042565986883847551 0 0.15194569281242609 -0.056105127932606663 0 0.17187576892014289 -0.062138750134232333 0 0.165016394264413 -0.053661354003145263 0 0.17187576892014289 -0.062138750134232333 0 0.18345715790010181 -0.056135992415964377 0 0.165016394264413 -0.053661354003145263 0 0.18345715790010181 -0.056135992415964377 0 0.16860054123454279 -0.042565986883847551 0 0.17187576892014289 -0.062138750134232333 0 0.18345715790010181 -0.056135992415964377 0 0.19180584502786041 -0.068172372335855602 0 0.18345715790010181 -0.056135992415964377 0 0.17385144243116649 -0.043269821226828903 0 0.18595588634396351 -0.043176695624854357 0 0.18345715790010181 -0.056135992415964377 0 0.17385144243116649 -0.043269821226828903 0 0.16860054123454279 -0.042565986883847551 0 0.18345715790010181 -0.056135992415964377 0 0.16860054123454279 -0.042565986883847551 0 0.18595588634396351 -0.043176695624854357 0 0.1782733089797521 -0.034702753096601993 0 0.1941468740000297 -0.021798736782002521 0 0.17385144243116649 -0.043269821226828903 0 0.18595588634396351 -0.043176695624854357 0 0.1782733089797521 -0.034702753096601993 0 0.17385144243116649 -0.043269821226828903 0 0.1782733089797521 -0.034702753096601993 0 0.16860054123454279 -0.042565986883847551 0 0.1782733089797521 -0.034702753096601993 0 0.16860054123454279 -0.042565986883847551 0 0.17385144243116649 -0.043269821226828903 0 0.1782733089797521 -0.034702753096601993 0 0.1782733089797521 -0.034702753096601993 0 0.16860054123454279 -0.042565986883847551 0 0.1670526359884773 -0.02836254214418232 0 0.15334623785075199 -0.02863273505629621 0 0.16860054123454279 -0.042565986883847551 0 0.1670526359884773 -0.02836254214418232 0 0.15334623785075199 -0.02863273505629621 0 0.15437572795414581 -0.042117567211766717 0 0.16860054123454279 -0.042565986883847551 0 0.15334623785075199 -0.02863273505629621 0 0.16860054123454279 -0.042565986883847551 0 0.15334623785075199 -0.02863273505629621 0 0.1606476670511833 -0.017066892083396779 0 0.1670526359884773 -0.02836254214418232 0 0.1606476670511833 -0.017066892083396779 0 0.1670526359884773 -0.02836254214418232 0 0.1743954248261565 -0.018844343600769399 0 0.1782733089797521 -0.034702753096601993 0 0.1743954248261565 -0.018844343600769399 0 0.1918659379284415 -0.0083679514935210662 0 0.1782733089797521 -0.034702753096601993 0 0.1670526359884773 -0.02836254214418232 0 0.1743954248261565 -0.018844343600769399 0 0.1782733089797521 -0.034702753096601993 0 0.1918659379284415 -0.0083679514935210662 0 0.1782733089797521 -0.034702753096601993 0 0.1941468740000297 -0.021798736782002521 0 0.1743954248261565 -0.018844343600769399 0 0.17983697574181159 -0.0080573062328258595 0 0.1918659379284415 -0.0083679514935210662 0 0.1743954248261565 -0.018844343600769399 0 0.17983697574181159 -0.0080573062328258595 0 0.17056947168728639 -0.0076341498549102596 0 0.17983697574181159 -0.0080573062328258595 0 0.18580903226614379 -0.0011502469314075439 0 0.17786282304025339 -0.001583287003114023 0 0.17983697574181159 -0.0080573062328258595 0 0.18580903226614379 -0.0011502469314075439 0 0.1918659379284415 -0.0083679514935210662 0 0.17983697574181159 -0.0080573062328258595 0 0.17786282304025339 -0.001583287003114023 0 0.17056947168728639 -0.0076341498549102596 0 0.17227434920368959 0.00081991249798677823 0 0.17786282304025339 -0.001583287003114023 0 0.17056947168728639 -0.0076341498549102596 0 0.17227434920368959 0.00081991249798677823 0 0.16550177429739321 0.001625335581948511 0 0.17056947168728639 -0.0076341498549102596 0 0.1606476670511833 -0.017066892083396779 0 0.1743954248261565 -0.018844343600769399 0 0.17056947168728639 -0.0076341498549102596 0 0.1552076984021574 -0.0047487866015848753 0 0.1606476670511833 -0.017066892083396779 0 0.17056947168728639 -0.0076341498549102596 0 0.15830422717032419 0.0026668804518291322 0 0.16550177429739321 0.001625335581948511 0 0.1552076984021574 -0.0047487866015848753 0 0.16550177429739321 0.001625335581948511 0 0.1552076984021574 -0.0047487866015848753 0 0.17056947168728639 -0.0076341498549102596 0 0.21653748859829491 -0.0035968485671754561 0 0.20239897911060981 -0.0049616950454924097 0 0.1941468740000297 -0.021798736782002521 0 0.21653748859829491 -0.0035968485671754561 0 0.1941468740000297 -0.021798736782002521 0 0.20955206102217341 -0.019021580532265901 0 0.21653748859829491 -0.0035968485671754561 0 0.20955206102217341 -0.019021580532265901 0 0.22864161374710179 -0.024239001361894639 0 0.21653748859829491 -0.0035968485671754561 0 0.1941468740000297 -0.021798736782002521 0 0.20938161325362409 0.0025060029461209908 0 0.21653748859829491 -0.0035968485671754561 0 0.20239897911060981 -0.0049616950454924097 0 0.19981118715584381 0.0070254328827108366 0 0.20239897911060981 -0.0049616950454924097 0 0.1918659379284415 -0.0083679514935210662 0 0.19981118715584381 0.0070254328827108366 0 0.1918659379284415 -0.0083679514935210662 0 0.20239897911060981 -0.0049616950454924097 0 0.1918659379284415 -0.0083679514935210662 0 0.1941468740000297 -0.021798736782002521 0 0.1894192936343001 0.0060385698470956234 0 0.18580903226614379 -0.0011502469314075439 0 0.1918659379284415 -0.0083679514935210662 0 0.1894192936343001 0.0060385698470956234 0 0.1918659379284415 -0.0083679514935210662 0 0.1918659379284415 -0.0083679514935210662 0 0.1941468740000297 -0.021798736782002521 0 0.1782733089797521 -0.034702753096601993 0 0.1918659379284415 -0.0083679514935210662 0 0.1941468740000297 -0.021798736782002521 0 0.1941468740000297 -0.021798736782002521 0 0.2031559883210855 -0.029985938475911671 0 0.20955206102217341 -0.019021580532265901 0 0.20955206102217341 -0.019021580532265901 0 0.21066165658577479 -0.033085676709690801 0 0.22864161374710179 -0.024239001361894639 0 0.2031559883210855 -0.029985938475911671 0 0.20955206102217341 -0.019021580532265901 0 0.21066165658577479 -0.033085676709690801 0 0.21864271396698939 -0.038649087319523719 0 0.21066165658577479 -0.033085676709690801 0 0.21034122995680221 -0.050048420551560682 0 0.21066165658577479 -0.033085676709690801 0 0.1982633616763636 -0.046037759879686967 0 0.21034122995680221 -0.050048420551560682 0 0.2031559883210855 -0.029985938475911671 0 0.21066165658577479 -0.033085676709690801 0 0.1982633616763636 -0.046037759879686967 0 0.21864271396698939 -0.038649087319523719 0 0.21034122995680221 -0.050048420551560682 0 0.21819242210762169 -0.050823402618315167 0 0.1941468740000297 -0.021798736782002521 0 0.2031559883210855 -0.029985938475911671 0 0.1982633616763636 -0.046037759879686967 0 0.18595588634396351 -0.043176695624854357 0 0.1941468740000297 -0.021798736782002521 0 0.1982633616763636 -0.046037759879686967 0 0.1941468740000297 -0.021798736782002521 0 0.1982633616763636 -0.046037759879686967 0 0.1982633616763636 -0.046037759879686967 0 0.19180584502786041 -0.068172372335855602 0 0.20237984935269879 -0.070276782977371152 0 0.1982633616763636 -0.046037759879686967 0 0.20237984935269879 -0.070276782977371152 0 0.18345715790010181 -0.056135992415964377 0 0.1982633616763636 -0.046037759879686967 0 0.19180584502786041 -0.068172372335855602 0 0.18345715790010181 -0.056135992415964377 0 0.18595588634396351 -0.043176695624854357 0 0.1982633616763636 -0.046037759879686967 0 0.21034122995680221 -0.050048420551560682 0 0.21390737605136481 -0.061417813804776289 0 0.20237984935269879 -0.070276782977371152 0 0.1982633616763636 -0.046037759879686967 0 0.21034122995680221 -0.050048420551560682 0 0.20237984935269879 -0.070276782977371152 0 0.21034122995680221 -0.050048420551560682 0 0.21819242210762169 -0.050823402618315167 0 0.21390737605136481 -0.061417813804776289 0 0.2255736282180465 -0.056882305063223393 0 0.23627526009844421 -0.049694667024589079 0 0.23165324526163639 -0.065502610206523884 0 0.21390737605136481 -0.061417813804776289 0 0.2255736282180465 -0.056882305063223393 0 0.2221192681341374 -0.068345353637844553 0 0.21819242210762169 -0.050823402618315167 0 0.21390737605136481 -0.061417813804776289 0 0.2255736282180465 -0.056882305063223393 0 0.21819242210762169 -0.050823402618315167 0 0.2255736282180465 -0.056882305063223393 0 0.22546512762764079 -0.044057692677509197 0 0.2255736282180465 -0.056882305063223393 0 0.23627526009844421 -0.049694667024589079 0 0.22546512762764079 -0.044057692677509197 0 0.24617004458672351 -0.058202332164817121 0 0.23627526009844421 -0.049694667024589079 0 0.24390890644978661 -0.075150332687283522 0 0.23627526009844421 -0.049694667024589079 0 0.24390890644978661 -0.075150332687283522 0 0.25164978009717781 -0.053061021673298493 0 0.24617004458672351 -0.058202332164817121 0 0.24422464309495209 -0.046986837608536558 0 0.24617004458672351 -0.058202332164817121 0 0.24422464309495209 -0.046986837608536558 0 0.23627526009844421 -0.049694667024589079 0 0.25164978009717781 -0.053061021673298493 0 0.2539732262079259 -0.044675773385505282 0 0.24422464309495209 -0.046986837608536558 0 0.24422464309495209 -0.046986837608536558 0 0.23627526009844421 -0.049694667024589079 0 0.24524507923365879 -0.0330622213940093 0 0.25845033672230949 -0.02738613623275089 0 0.24422464309495209 -0.046986837608536558 0 0.24524507923365879 -0.0330622213940093 0 0.23627526009844421 -0.049694667024589079 0 0.24524507923365879 -0.0330622213940093 0 0.22864161374710179 -0.024239001361894639 0 0.21864271396698939 -0.038649087319523719 0 0.21066165658577479 -0.033085676709690801 0 0.22864161374710179 -0.024239001361894639 0 0.23627526009844421 -0.049694667024589079 0 0.22864161374710179 -0.024239001361894639 0 0.21864271396698939 -0.038649087319523719 0 0.22546512762764079 -0.044057692677509197 0 0.22864161374710179 -0.024239001361894639 0 0.23627526009844421 -0.049694667024589079 0 0.22546512762764079 -0.044057692677509197 0 0.22864161374710179 -0.024239001361894639 0 0.21864271396698939 -0.038649087319523719 0 0.21819242210762169 -0.050823402618315167 0 0.22546512762764079 -0.044057692677509197 0 0.22864161374710179 -0.024239001361894639 0 0.24437070500465241 -0.019757014484825589 0 0.23246643938152739 -0.0092251246746631842 0 0.24524507923365879 -0.0330622213940093 0 0.22864161374710179 -0.024239001361894639 0 0.24437070500465241 -0.019757014484825589 0 0.25013504981522988 -0.025019616072594848 0 0.24524507923365879 -0.0330622213940093 0 0.24437070500465241 -0.019757014484825589 0 0.25247407830029878 -0.019873092178793648 0 0.25006914023697918 -0.01208141302270524 0 0.24437070500465241 -0.019757014484825589 0 0.25013504981522988 -0.025019616072594848 0 0.25247407830029878 -0.019873092178793648 0 0.24437070500465241 -0.019757014484825589 0 0.24437070500465241 -0.019757014484825589 0 0.242989310538931 -0.0092135161021761666 0 0.23246643938152739 -0.0092251246746631842 0 0.25006914023697918 -0.01208141302270524 0 0.242989310538931 -0.0092135161021761666 0 0.2479891295484222 -0.0022684572774312019 0 0.25006914023697918 -0.01208141302270524 0 0.24437070500465241 -0.019757014484825589 0 0.242989310538931 -0.0092135161021761666 0 0.2429424487767215 0.0026164120279975069 0 0.2479891295484222 -0.0022684572774312019 0 0.24005113852307369 -0.0027355710512556022 0 0.242989310538931 -0.0092135161021761666 0 0.2479891295484222 -0.0022684572774312019 0 0.24005113852307369 -0.0027355710512556022 0 0.23517440673197429 0.0051848507458196356 0 0.24005113852307369 -0.0027355710512556022 0 0.23246643938152739 -0.0092251246746631842 0 0.242989310538931 -0.0092135161021761666 0 0.24005113852307369 -0.0027355710512556022 0 0.23246643938152739 -0.0092251246746631842 0 0.22100796739575951 0.001216664300799794 0 0.22864161374710179 -0.024239001361894639 0 0.23246643938152739 -0.0092251246746631842 0 0.23517440673197429 0.0051848507458196356 0 0.22100796739575951 0.001216664300799794 0 0.23246643938152739 -0.0092251246746631842 0 0.22100796739575951 0.001216664300799794 0 0.21653748859829491 -0.0035968485671754561 0 0.22864161374710179 -0.024239001361894639 0 0.22100796739575951 0.001216664300799794 0 0.22864161374710179 -0.024239001361894639 0 0.206496337029034 -0.094515806075055359 0 0.21061282470536921 -0.1187548291727395 0 0.206496337029034 -0.094515806075055359 0 0.22623965631488491 -0.089683688039789988 0 0.22333782165884589 -0.10574313483481231 0 0.206496337029034 -0.094515806075055359 0 0.21061282470536921 -0.1187548291727395 0 0.22333782165884589 -0.10574313483481231 0 0.18737718651252391 -0.1018645954104864 0 0.18701697985041221 -0.11880972375357141 0 0.21061282470536921 -0.1187548291727395 0 0.18701697985041221 -0.11880972375357141 0 0.21061282470536921 -0.1187548291727395 0 0.19260125287660149 -0.13207131947283501 0 0.18748362772352481 -0.090285751384613616 0 0.18737718651252391 -0.1018645954104864 0 0.206496337029034 -0.094515806075055359 0 0.18737718651252391 -0.1018645954104864 0 0.206496337029034 -0.094515806075055359 0 0.21061282470536921 -0.1187548291727395 0 0.18748362772352481 -0.090285751384613616 0 0.206496337029034 -0.094515806075055359 0 0.19448955746265811 -0.082220240722777116 0 0.206496337029034 -0.094515806075055359 0 0.19448955746265811 -0.082220240722777116 0 0.20237984935269879 -0.070276782977371152 0 0.18645595400882431 -0.078186102724248294 0 0.18748362772352481 -0.090285751384613616 0 0.19448955746265811 -0.082220240722777116 0 0.18645595400882431 -0.078186102724248294 0 0.19448955746265811 -0.082220240722777116 0 0.19180584502786041 -0.068172372335855602 0 0.19448955746265811 -0.082220240722777116 0 0.19180584502786041 -0.068172372335855602 0 0.20237984935269879 -0.070276782977371152 0 0.21390737605136481 -0.061417813804776289 0 0.20237984935269879 -0.070276782977371152 0 0.21248527081093549 -0.070330245212121473 0 0.20237984935269879 -0.070276782977371152 0 0.21248527081093549 -0.070330245212121473 0 0.2145783618208984 -0.079628257083024359 0 0.21248527081093549 -0.070330245212121473 0 0.2145783618208984 -0.079628257083024359 0 0.2221192681341374 -0.068345353637844553 0 0.21390737605136481 -0.061417813804776289 0 0.21248527081093549 -0.070330245212121473 0 0.2221192681341374 -0.068345353637844553 0 0.206496337029034 -0.094515806075055359 0 0.20237984935269879 -0.070276782977371152 0 0.2145783618208984 -0.079628257083024359 0 0.206496337029034 -0.094515806075055359 0 0.2145783618208984 -0.079628257083024359 0 0.22623965631488491 -0.089683688039789988 0 0.206496337029034 -0.094515806075055359 0 0.20237984935269879 -0.070276782977371152 0 0.2145783618208984 -0.079628257083024359 0 0.22623965631488491 -0.089683688039789988 0 0.23038916340776741 -0.077440392619678861 0 0.22623965631488491 -0.089683688039789988 0 0.23038916340776741 -0.077440392619678861 0 0.23781669784438761 -0.088769324738514177 0 0.22623965631488491 -0.089683688039789988 0 0.23781669784438761 -0.088769324738514177 0 0.23714180950183539 -0.10160942858925499 0 0.2145783618208984 -0.079628257083024359 0 0.2221192681341374 -0.068345353637844553 0 0.23038916340776741 -0.077440392619678861 0 0.2255736282180465 -0.056882305063223393 0 0.2221192681341374 -0.068345353637844553 0 0.23165324526163639 -0.065502610206523884 0 0.2221192681341374 -0.068345353637844553 0 0.23038916340776741 -0.077440392619678861 0 0.23165324526163639 -0.065502610206523884 0 0.25256726729664603 -0.064532785491330763 0 0.24617004458672351 -0.058202332164817121 0 0.24390890644978661 -0.075150332687283522 0 0.23627526009844421 -0.049694667024589079 0 0.23165324526163639 -0.065502610206523884 0 0.24390890644978661 -0.075150332687283522 0 0.23038916340776741 -0.077440392619678861 0 0.23165324526163639 -0.065502610206523884 0 0.24390890644978661 -0.075150332687283522 0 0.25154255280112903 -0.1006059983499779 0 0.24390890644978661 -0.075150332687283522 0 0.25154255280112903 -0.1006059983499779 0 0.24390890644978661 -0.075150332687283522 0 0.23781669784438761 -0.088769324738514177 0 0.23038916340776741 -0.077440392619678861 0 0.24390890644978661 -0.075150332687283522 0 0.23781669784438761 -0.088769324738514177 0 0.25154255280112903 -0.1006059983499779 0 0.23714180950183539 -0.10160942858925499 0 0.24954668948061209 -0.11284283178631641 0 0.25154255280112903 -0.1006059983499779 0 0.23781669784438761 -0.088769324738514177 0 0.23714180950183539 -0.10160942858925499 0 0.23714180950183539 -0.10160942858925499 0 0.22333782165884589 -0.10574313483481231 0 0.23542538064511609 -0.1194854446592761 0 0.22623965631488491 -0.089683688039789988 0 0.23714180950183539 -0.10160942858925499 0 0.22333782165884589 -0.10574313483481231 0 0.21061282470536921 -0.1187548291727395 0 0.22333782165884589 -0.10574313483481231 0 0.23542538064511609 -0.1194854446592761 0 0.25741251913389712 -0.1305951081492244 0 0.23542538064511609 -0.1194854446592761 0 0.24954668948061209 -0.11284283178631641 0 0.23714180950183539 -0.10160942858925499 0 0.23542538064511609 -0.1194854446592761 0 0.24954668948061209 -0.11284283178631641 0 0.25741251913389712 -0.1305951081492244 0 0.25452239946831973 -0.14829655140993131 0 0.23191914561449989 -0.13726295483178369 0 0.25741251913389712 -0.1305951081492244 0 0.23542538064511609 -0.1194854446592761 0 0.23191914561449989 -0.13726295483178369 0 0.25452239946831973 -0.14829655140993131 0 0.23782434991563151 -0.15439369078169049 0 0.23191914561449989 -0.13726295483178369 0 0.23782434991563151 -0.15439369078169049 0 0.2147293123817042 -0.1429938522704238 0 0.23782434991563151 -0.15439369078169049 0 0.2147293123817042 -0.1429938522704238 0 0.21952864142792899 -0.1712536350637954 0 0.23782434991563151 -0.15439369078169049 0 0.23191914561449989 -0.13726295483178369 0 0.2147293123817042 -0.1429938522704238 0 0.21061282470536921 -0.1187548291727395 0 0.23542538064511609 -0.1194854446592761 0 0.23191914561449989 -0.13726295483178369 0 0.21061282470536921 -0.1187548291727395 0 0.23191914561449989 -0.13726295483178369 0 0.2147293123817042 -0.1429938522704238 0 0.2147293123817042 -0.1429938522704238 0 0.19260125287660149 -0.13207131947283501 0 0.21061282470536921 -0.1187548291727395 0 0.2147293123817042 -0.1429938522704238 0 0.19260125287660149 -0.13207131947283501 0 0.21061282470536921 -0.1187548291727395 0 0.2147293123817042 -0.1429938522704238 0 0.2147293123817042 -0.1429938522704238 0 0.20548350855114439 -0.15623176612928341 0 0.19677556980284089 -0.14597147697610061 0 0.20548350855114439 -0.15623176612928341 0 0.19677556980284089 -0.14597147697610061 0 0.19325106823209409 -0.153061144976989 0 0.19677556980284089 -0.14597147697610061 0 0.19325106823209409 -0.153061144976989 0 0.18786488322971459 -0.15098965934649999 0 0.19325106823209409 -0.153061144976989 0 0.18786488322971459 -0.15098965934649999 0 0.1842505296355367 -0.15589311325690541 0 0.19677556980284089 -0.14597147697610061 0 0.18786488322971459 -0.15098965934649999 0 0.188659048266132 -0.1418371739210742 0 0.2147293123817042 -0.1429938522704238 0 0.19677556980284089 -0.14597147697610061 0 0.19260125287660149 -0.13207131947283501 0 0.19677556980284089 -0.14597147697610061 0 0.188659048266132 -0.1418371739210742 0 0.19260125287660149 -0.13207131947283501 0 0.18830323417204939 -0.1765657128700695 0 0.20313295091115369 -0.1678787213591082 0 0.20600005448239761 -0.18645800734220749 0 0.18830323417204939 -0.1765657128700695 0 0.20600005448239761 -0.18645800734220749 0 0.1956377870383576 -0.1970896374814364 0 0.19325106823209409 -0.153061144976989 0 0.18830323417204939 -0.1765657128700695 0 0.19325106823209409 -0.153061144976989 0 0.18830323417204939 -0.1765657128700695 0 0.20313295091115369 -0.1678787213591082 0 0.19325106823209409 -0.153061144976989 0 0.18830323417204939 -0.1765657128700695 0 0.18144082188941271 -0.16389154531309821 0 0.20548350855114439 -0.15623176612928341 0 0.19325106823209409 -0.153061144976989 0 0.20313295091115369 -0.1678787213591082 0 0.20548350855114439 -0.15623176612928341 0 0.20313295091115369 -0.1678787213591082 0 0.21952864142792899 -0.1712536350637954 0 0.2147293123817042 -0.1429938522704238 0 0.21952864142792899 -0.1712536350637954 0 0.2147293123817042 -0.1429938522704238 0 0.20548350855114439 -0.15623176612928341 0 0.21952864142792899 -0.1712536350637954 0 0.20600005448239761 -0.18645800734220749 0 0.21952864142792899 -0.1712536350637954 0 0.22432797047415351 -0.19951341785716731 0 0.20313295091115369 -0.1678787213591082 0 0.20600005448239761 -0.18645800734220749 0 0.21952864142792899 -0.1712536350637954 0 0.21952864142792899 -0.1712536350637954 0 0.2437278363918948 -0.18195096812212239 0 0.22432797047415351 -0.19951341785716731 0 0.21952864142792899 -0.1712536350637954 0 0.22432797047415351 -0.19951341785716731 0 0.23782434991563151 -0.15439369078169049 0 0.21952864142792899 -0.1712536350637954 0 0.2437278363918948 -0.18195096812212239 0 0.260919387449559 -0.16579352929295721 0 0.23782434991563151 -0.15439369078169049 0 0.260919387449559 -0.16579352929295721 0 0.23782434991563151 -0.15439369078169049 0 0.2437278363918948 -0.18195096812212239 0 0.2437278363918948 -0.18195096812212239 0 0.24314545538918961 -0.20571013864437751 0 0.22432797047415351 -0.19951341785716731 0 0.2593871514889205 -0.19799184377322379 0 0.2437278363918948 -0.18195096812212239 0 0.24314545538918961 -0.20571013864437751 0 0.22432797047415351 -0.19951341785716731 0 0.2342802842193491 -0.2219117808856606 0 0.21564630723174069 -0.21833189921059021 0 0.24314545538918961 -0.20571013864437751 0 0.22432797047415351 -0.19951341785716731 0 0.2342802842193491 -0.2219117808856606 0 0.2462907050713771 -0.25204034373521428 0 0.2499607574480687 -0.24385609709525671 0 0.2374752251495614 -0.24157268794541539 0 0.25134951441318748 -0.22920843539767929 0 0.2499607574480687 -0.24385609709525671 0 0.2374752251495614 -0.24157268794541539 0 0.25134951441318748 -0.22920843539767929 0 0.24314545538918961 -0.20571013864437751 0 0.2342802842193491 -0.2219117808856606 0 0.25134951441318748 -0.22920843539767929 0 0.2374752251495614 -0.24157268794541539 0 0.2342802842193491 -0.2219117808856606 0 0.2374752251495614 -0.24157268794541539 0 0.22060620183210919 -0.232775489656291 0 0.2342802842193491 -0.2219117808856606 0 0.22060620183210919 -0.232775489656291 0 0.2342802842193491 -0.2219117808856606 0 0.21564630723174069 -0.21833189921059021 0 0.22198339683909701 -0.25340717595137879 0 0.2374752251495614 -0.24157268794541539 0 0.22060620183210919 -0.232775489656291 0 0.22198339683909701 -0.25340717595137879 0 0.22060620183210919 -0.232775489656291 0 0.22198339683909701 -0.25340717595137879 0 0.22060620183210919 -0.232775489656291 0 0.20573671357227499 -0.23448295905173899 0 0.22198339683909701 -0.25340717595137879 0 0.20573671357227499 -0.23448295905173899 0 0.19815896102696709 -0.24816545406213189 0 0.22060620183210919 -0.232775489656291 0 0.20573671357227499 -0.23448295905173899 0 0.21564630723174069 -0.21833189921059021 0 0.20573671357227499 -0.23448295905173899 0 0.19801089506944891 -0.22061097325298201 0 0.21564630723174069 -0.21833189921059021 0 0.20573671357227499 -0.23448295905173899 0 0.19801089506944891 -0.22061097325298201 0 0.18862314846194941 -0.23474346369713109 0 0.19801089506944891 -0.22061097325298201 0 0.18862314846194941 -0.23474346369713109 0 0.17884496266341901 -0.22149700646801701 0 0.20573671357227499 -0.23448295905173899 0 0.18862314846194941 -0.23474346369713109 0 0.19815896102696709 -0.24816545406213189 0 0.20600005448239761 -0.18645800734220749 0 0.22432797047415351 -0.19951341785716731 0 0.20571207111442141 -0.20503903284801611 0 0.22432797047415351 -0.19951341785716731 0 0.21564630723174069 -0.21833189921059021 0 0.20571207111442141 -0.20503903284801611 0 0.19801089506944891 -0.22061097325298201 0 0.21564630723174069 -0.21833189921059021 0 0.20571207111442141 -0.20503903284801611 0 0.19801089506944891 -0.22061097325298201 0 0.19227081910603411 -0.2100117569492751 0 0.17884496266341901 -0.22149700646801701 0 0.20571207111442141 -0.20503903284801611 0 0.19227081910603411 -0.2100117569492751 0 0.1956377870383576 -0.1970896374814364 0 0.19801089506944891 -0.22061097325298201 0 0.20571207111442141 -0.20503903284801611 0 0.19227081910603411 -0.2100117569492751 0 0.18830323417204939 -0.1765657128700695 0 0.1956377870383576 -0.1970896374814364 0 0.18335540011200491 -0.20007028076315 0 0.19227081910603411 -0.2100117569492751 0 0.1956377870383576 -0.1970896374814364 0 0.18335540011200491 -0.20007028076315 0 0.1956377870383576 -0.1970896374814364 0 0.18335540011200491 -0.20007028076315 0 0.20600005448239761 -0.18645800734220749 0 0.20571207111442141 -0.20503903284801611 0 0.1956377870383576 -0.1970896374814364 0 0.18830323417204939 -0.1765657128700695 0 0.18335540011200491 -0.20007028076315 0 0.18335540011200491 -0.20007028076315 0 0.16873688803845349 -0.19227854821165941 0 0.17543185729929969 -0.18273889272689711 0 0.19227081910603411 -0.2100117569492751 0 0.18335540011200491 -0.20007028076315 0 0.17884496266341901 -0.22149700646801701 0 0.18335540011200491 -0.20007028076315 0 0.17884496266341901 -0.22149700646801701 0 0.18335540011200491 -0.20007028076315 0 0.16621660047528611 -0.21253283526692829 0 0.17884496266341901 -0.22149700646801701 0 0.16621660047528611 -0.21253283526692829 0 0.1593158439583067 -0.2059041094785751 0 0.15302060169630469 -0.2217977003443504 0 0.18335540011200491 -0.20007028076315 0 0.16621660047528611 -0.21253283526692829 0 0.1593158439583067 -0.2059041094785751 0 0.16621660047528611 -0.21253283526692829 0 0.1593158439583067 -0.2059041094785751 0 0.1593158439583067 -0.2059041094785751 0 0.15759932706250929 -0.18907488386135229 0 0.16873688803845349 -0.19227854821165941 0 0.18335540011200491 -0.20007028076315 0 0.1593158439583067 -0.2059041094785751 0 0.18335540011200491 -0.20007028076315 0 0.1593158439583067 -0.2059041094785751 0 0.16873688803845349 -0.19227854821165941 0 0.18066177981631051 -0.25348299893649828 0 0.19815896102696709 -0.24816545406213189 0 0.17433452521483719 -0.24292373217288479 0 0.19815896102696709 -0.24816545406213189 0 0.17433452521483719 -0.24292373217288479 0 0.18862314846194941 -0.23474346369713109 0 0.19815896102696709 -0.24816545406213189 0 0.17433452521483719 -0.24292373217288479 0 0.18066177981631051 -0.25348299893649828 0 0.17304535898525439 -0.24904788565112909 0 0.17433452521483719 -0.24292373217288479 0 0.17304535898525439 -0.24904788565112909 0 0.17433452521483719 -0.24292373217288479 0 0.18862314846194941 -0.23474346369713109 0 0.17433452521483719 -0.24292373217288479 0 0.17884496266341901 -0.22149700646801701 0 0.17433452521483719 -0.24292373217288479 0 0.17884496266341901 -0.22149700646801701 0 0.17433452521483719 -0.24292373217288479 0 0.17884496266341901 -0.22149700646801701 0 0.16512535944417561 -0.22744738033917331 0 0.16512535944417561 -0.22744738033917331 0 0.15532271566916761 -0.23874085795770611 0 0.15302060169630469 -0.2217977003443504 0 0.16621660047528611 -0.21253283526692829 0 0.17884496266341901 -0.22149700646801701 0 0.16512535944417561 -0.22744738033917331 0 0.16621660047528611 -0.21253283526692829 0 0.16512535944417561 -0.22744738033917331 0 0.15302060169630469 -0.2217977003443504 0 0.17304535898525439 -0.24904788565112909 0 0.17433452521483719 -0.24292373217288479 0 0.15532271566916761 -0.23874085795770611 0 0.15867772839633809 -0.25707915377424612 0 0.17304535898525439 -0.24904788565112909 0 0.15532271566916761 -0.23874085795770611 0 0.17433452521483719 -0.24292373217288479 0 0.16512535944417561 -0.22744738033917331 0 0.15532271566916761 -0.23874085795770611 0 0.17433452521483719 -0.24292373217288479 0 0.15532271566916761 -0.23874085795770611 0 0.15532271566916761 -0.23874085795770611 0 0.1363109061234978 -0.23455798374252809 0 0.13687529418603939 -0.26162068250561471 0 0.15532271566916761 -0.23874085795770611 0 0.1363109061234978 -0.23455798374252809 0 0.15532271566916761 -0.23874085795770611 0 0.15302060169630469 -0.2217977003443504 0 0.1363109061234978 -0.23455798374252809 0 0.15302060169630469 -0.2217977003443504 0 0.1363109061234978 -0.23455798374252809 0 0.13583218450739579 -0.2116030352811932 0 0.12594488917549271 -0.2231145762792166 0 0.1363109061234978 -0.23455798374252809 0 0.13583218450739579 -0.2116030352811932 0 0.1363109061234978 -0.23455798374252809 0 0.13583218450739579 -0.2116030352811932 0 0.13687529418603939 -0.26162068250561471 0 0.1363109061234978 -0.23455798374252809 0 0.13687529418603939 -0.26162068250561471 0 0.1223190960555403 -0.2394332616338683 0 0.1363109061234978 -0.23455798374252809 0 0.1593158439583067 -0.2059041094785751 0 0.15759932706250929 -0.18907488386135229 0 0.14727334507129489 -0.19433633097022029 0 0.14727334507129489 -0.19433633097022029 0 0.13523084618428721 -0.18276855246186111 0 0.1593158439583067 -0.2059041094785751 0 0.14727334507129489 -0.19433633097022029 0 0.1593158439583067 -0.2059041094785751 0 0.14727334507129489 -0.19433633097022029 0 0.13583218450739579 -0.2116030352811932 0 0.1593158439583067 -0.2059041094785751 0 0.13583218450739579 -0.2116030352811932 0 0.1593158439583067 -0.2059041094785751 0 0.15302060169630469 -0.2217977003443504 0 0.13583218450739579 -0.2116030352811932 0 0.1146962174531268 -0.21673223195775559 0 0.12594488917549271 -0.2231145762792166 0 0.13583218450739579 -0.2116030352811932 0 0.1146962174531268 -0.21673223195775559 0 0.13583218450739579 -0.2116030352811932 0 0.13583218450739579 -0.2116030352811932 0 0.13523084618428721 -0.18276855246186111 0 0.1210323504124224 -0.2015702574875764 0 0.13583218450739579 -0.2116030352811932 0 0.13523084618428721 -0.18276855246186111 0 0.14727334507129489 -0.19433633097022029 0 0.13583218450739579 -0.2116030352811932 0 0.13523084618428721 -0.18276855246186111 0 0.13523084618428721 -0.18276855246186111 0 0.13483495552902119 -0.16378539130439421 0 0.13523084618428721 -0.18276855246186111 0 0.14953284821028701 -0.17659781711855899 0 0.13483495552902119 -0.16378539130439421 0 0.12574768761326591 -0.17365922399620121 0 0.13523084618428721 -0.18276855246186111 0 0.13483495552902119 -0.16378539130439421 0 0.12574768761326591 -0.17365922399620121 0 0.13523084618428721 -0.18276855246186111 0 0.15759932706250929 -0.18907488386135229 0 0.14727334507129489 -0.19433633097022029 0 0.14953284821028701 -0.17659781711855899 0 0.14727334507129489 -0.19433633097022029 0 0.13523084618428721 -0.18276855246186111 0 0.14953284821028701 -0.17659781711855899 0 0.15759932706250929 -0.18907488386135229 0 0.14953284821028701 -0.17659781711855899 0 0.16056198994912749 -0.17787080610445691 0 0.14953284821028701 -0.17659781711855899 0 0.15118562361057611 -0.16212531631630639 0 0.13483495552902119 -0.16378539130439421 0 0.15118562361057611 -0.16212531631630639 0 0.13483495552902119 -0.16378539130439421 0 0.15272907190244081 -0.1550331303974728 0 0.15118562361057611 -0.16212531631630639 0 0.15272907190244081 -0.1550331303974728 0 0.15987479688754311 -0.1572750313981319 0 0.14953284821028701 -0.17659781711855899 0 0.15118562361057611 -0.16212531631630639 0 0.1601367247146048 -0.167216461388007 0 0.1232701832726428 -0.15427141090171109 0 0.12574768761326591 -0.17365922399620121 0 0.13483495552902119 -0.16378539130439421 0 0.12574768761326591 -0.17365922399620121 0 0.13483495552902119 -0.16378539130439421 0 0.13483495552902119 -0.16378539130439421 0 0.13444198148756639 -0.1449420832838656 0 0.14315652521050079 -0.14523933820255211 0 0.1232701832726428 -0.15427141090171109 0 0.13483495552902119 -0.16378539130439421 0 0.13444198148756639 -0.1449420832838656 0 0.13483495552902119 -0.16378539130439421 0 0.13444198148756639 -0.1449420832838656 0 0.13444198148756639 -0.1449420832838656 0 0.1434537453928684 -0.13532839273855221 0 0.14315652521050079 -0.14523933820255211 0 0.13444198148756639 -0.1449420832838656 0 0.13404900744611239 -0.12609877526333699 0 0.13444198148756639 -0.1449420832838656 0 0.13404900744611239 -0.12609877526333699 0 0.1434537453928684 -0.13532839273855221 0 0.11727103389215909 -0.1361484369810822 0 0.13444198148756639 -0.1449420832838656 0 0.13404900744611239 -0.12609877526333699 0 0.13404900744611239 -0.12609877526333699 0 0.1490682445489844 -0.1279194233146575 0 0.1609569453379138 -0.13854421730491809 0 0.13404900744611239 -0.12609877526333699 0 0.1609569453379138 -0.13854421730491809 0 0.13404900744611239 -0.12609877526333699 0 0.1434537453928684 -0.13532839273855221 0 0.1609569453379138 -0.13854421730491809 0 0.1434537453928684 -0.13532839273855221 0 0.14993504674019009 -0.14021612160814689 0 0.1609569453379138 -0.13854421730491809 0 0.1427320902892944 -0.12257921542734659 0 0.13404900744611239 -0.12609877526333699 0 0.1490682445489844 -0.1279194233146575 0 0.1434537453928684 -0.13532839273855221 0 0.14993504674019009 -0.14021612160814689 0 0.14315652521050079 -0.14523933820255211 0 0.14993504674019009 -0.14021612160814689 0 0.15469010670848909 -0.14221164189652771 0 0.1609569453379138 -0.13854421730491809 0 0.15568199284830581 -0.1296421963895899 0 0.1490682445489844 -0.1279194233146575 0 0.1609569453379138 -0.13854421730491809 0 0.15192118682329561 -0.12273271218809589 0 0.15568199284830581 -0.1296421963895899 0 0.1587247560068413 -0.12564209046719049 0 0.15192118682329561 -0.12273271218809589 0 0.15568199284830581 -0.1296421963895899 0 0.1490682445489844 -0.1279194233146575 0 0.13483495552902119 -0.16378539130439421 0 0.15469010670848909 -0.14221164189652771 0 0.13483495552902119 -0.16378539130439421 0 0.14315652521050079 -0.14523933820255211 0 0.15469010670848909 -0.14221164189652771 0 0.13483495552902119 -0.16378539130439421 0 0.15469010670848909 -0.14221164189652771 0 0.15272907190244081 -0.1550331303974728 0 0.14993504674019009 -0.14021612160814689 0 0.14315652521050079 -0.14523933820255211 0 0.15469010670848909 -0.14221164189652771 0 0.15272907190244081 -0.1550331303974728 0 0.16278769519534109 -0.1503194818261428 0 0.15987479688754311 -0.1572750313981319 0 0.16278769519534109 -0.1503194818261428 0 0.15987479688754311 -0.1572750313981319 0 0.16866771310860729 -0.15951236945753941 0 0.15469010670848909 -0.14221164189652771 0 0.15272907190244081 -0.1550331303974728 0 0.16278769519534109 -0.1503194818261428 0 0.15469010670848909 -0.14221164189652771 0 0.16278769519534109 -0.1503194818261428 0 0.1609569453379138 -0.13854421730491809 0 0.16278769519534109 -0.1503194818261428 0 0.1609569453379138 -0.13854421730491809 0 0.17433915911560069 -0.15342176620747169 0 0.16278769519534109 -0.1503194818261428 0 0.17433915911560069 -0.15342176620747169 0 0.16866771310860729 -0.15951236945753941 0 0.1609569453379138 -0.13854421730491809 0 0.16898528270356589 -0.1319020538664718 0 0.17739448715537109 -0.13831623988886119 0 0.1587247560068413 -0.12564209046719049 0 0.1613780220681113 -0.13045743568360191 0 0.1641162962428066 -0.126449221113482 0 0.15568199284830581 -0.1296421963895899 0 0.1587247560068413 -0.12564209046719049 0 0.1613780220681113 -0.13045743568360191 0 0.15568199284830581 -0.1296421963895899 0 0.1613780220681113 -0.13045743568360191 0 0.1609569453379138 -0.13854421730491809 0 0.1613780220681113 -0.13045743568360191 0 0.1609569453379138 -0.13854421730491809 0 0.16898528270356589 -0.1319020538664718 0 0.173543926957343 -0.1211375462363173 0 0.16898528270356589 -0.1319020538664718 0 0.1641162962428066 -0.126449221113482 0 0.1613780220681113 -0.13045743568360191 0 0.16898528270356589 -0.1319020538664718 0 0.1641162962428066 -0.126449221113482 0 0.173543926957343 -0.1211375462363173 0 0.16898528270356589 -0.1319020538664718 0 0.17990838590865871 -0.12844737664361131 0 0.16898528270356589 -0.1319020538664718 0 0.17739448715537109 -0.13831623988886119 0 0.17990838590865871 -0.12844737664361131 0 0.188659048266132 -0.1418371739210742 0 0.19260125287660149 -0.13207131947283501 0 0.17739448715537109 -0.13831623988886119 0 0.19260125287660149 -0.13207131947283501 0 0.17739448715537109 -0.13831623988886119 0 0.17990838590865871 -0.12844737664361131 0 0.18701697985041221 -0.11880972375357141 0 0.19260125287660149 -0.13207131947283501 0 0.17990838590865871 -0.12844737664361131 0 0.18786488322971459 -0.15098965934649999 0 0.1609569453379138 -0.13854421730491809 0 0.17433915911560069 -0.15342176620747169 0 0.18786488322971459 -0.15098965934649999 0 0.1609569453379138 -0.13854421730491809 0 0.18786488322971459 -0.15098965934649999 0 0.1609569453379138 -0.13854421730491809 0 0.17739448715537109 -0.13831623988886119 0 0.18786488322971459 -0.15098965934649999 0 0.188659048266132 -0.1418371739210742 0 0.17739448715537109 -0.13831623988886119 0 0.18786488322971459 -0.15098965934649999 0 0.17433915911560069 -0.15342176620747169 0 0.1842505296355367 -0.15589311325690541 0 0.17433915911560069 -0.15342176620747169 0 0.1842505296355367 -0.15589311325690541 0 0.18144082188941271 -0.16389154531309821 0 0.19325106823209409 -0.153061144976989 0 0.1842505296355367 -0.15589311325690541 0 0.18144082188941271 -0.16389154531309821 0 0.18830323417204939 -0.1765657128700695 0 0.18144082188941271 -0.16389154531309821 0 0.17072519494025609 -0.1704686386871877 0 0.17433915911560069 -0.15342176620747169 0 0.18144082188941271 -0.16389154531309821 0 0.16866771310860729 -0.15951236945753941 0 0.18144082188941271 -0.16389154531309821 0 0.16866771310860729 -0.15951236945753941 0 0.17072519494025609 -0.1704686386871877 0 0.18830323417204939 -0.1765657128700695 0 0.18335540011200491 -0.20007028076315 0 0.17543185729929969 -0.18273889272689711 0 0.18830323417204939 -0.1765657128700695 0 0.17543185729929969 -0.18273889272689711 0 0.17072519494025609 -0.1704686386871877 0 0.17543185729929969 -0.18273889272689711 0 0.16056198994912749 -0.17787080610445691 0 0.17072519494025609 -0.1704686386871877 0 0.16873688803845349 -0.19227854821165941 0 0.17543185729929969 -0.18273889272689711 0 0.16056198994912749 -0.17787080610445691 0 0.15759932706250929 -0.18907488386135229 0 0.16873688803845349 -0.19227854821165941 0 0.16056198994912749 -0.17787080610445691 0 0.14953284821028701 -0.17659781711855899 0 0.16056198994912749 -0.17787080610445691 0 0.1601367247146048 -0.167216461388007 0 0.16056198994912749 -0.17787080610445691 0 0.1601367247146048 -0.167216461388007 0 0.17072519494025609 -0.1704686386871877 0 0.1601367247146048 -0.167216461388007 0 0.15987479688754311 -0.1572750313981319 0 0.16866771310860729 -0.15951236945753941 0 0.15118562361057611 -0.16212531631630639 0 0.1601367247146048 -0.167216461388007 0 0.15987479688754311 -0.1572750313981319 0 0.1601367247146048 -0.167216461388007 0 0.16866771310860729 -0.15951236945753941 0 0.17072519494025609 -0.1704686386871877 0 
</DataArray>
</Points>
<Cells>
<DataArray type="UInt32" Name="connectivity" format="ascii">
0 1 2 3 4 5 6 7 8 9 10 11 12 13 14 15 16 17 18 19 20 21 22 23 24 25 26 27 28 29 30 31 32 33 34 35 36 37 38 39 40 41 42 43 44 45 46 47 48 49 50 51 52 53 54 55 56 57 58 59 60 61 62 63 64 65 66 67 68 69 70 71 72 73 74 75 76 77 78 79 80 81 82 83 84 85 86 87 88 89 90 91 92 93 94 95 96 97 98 99 100 101 102 103 104 105 106 107 108 109 110 111 112 113 114 115 116 117 118 119 120 121 122 123 124 125 126 127 128 129 130 131 132 133 134 135 136 137 138 139 140 141 142 143 144 145 146 147 148 149 150 151 152 153 154 155 156 157 158 159 160 161 162 163 164 165 166 167 168 169 170 171 172 173 174 175 176 177 178 179 180 181 182 183 184 185 186 187 188 189 190 191 192 193 194 195 196 197 198 199 200 201 202 203 204 205 206 207 208 209 210 211 212 213 214 215 216 217 218 219 220 221 222 223 224 225 226 227 228 229 230 231 232 233 234 235 236 237 238 239 240 241 242 243 244 245 246 247 248 249 250 251 252 253 254 255 256 257 258 259 260 261 262 263 264 265 266 267 268 269 270 271 272 273 274 275 276 277 278 279 280 281 282 283 284 285 286 287 288 289 290 291 292 293 294 295 296 297 298 299 300 301 302 303 304 305 306 307 308 309 310 311 312 313 314 315 316 317 318 319 320 321 322 323 324 325 326 327 328 329 330 331 332 333 334 335 336 337 338 339 340 341 342 343 344 345 346 347 348 349 350 351 352 353 354 355 356 357 358 359 360 361 362 363 364 365 366 367 368 369 370 371 372 373 374 375 376 377 378 379 380 381 382 383 384 385 386 387 388 389 390 391 392 393 394 395 396 397 398 399 400 401 402 403 404 405 406 407 408 409 410 411 412 413 414 415 416 417 418 419 420 421 422 423 424 425 426 427 428 429 430 431 432 433 434 435 436 437 438 439 440 441 442 443 444 445 446 447 448 449 450 451 452 453 454 455 456 457 458 459 460 461 462 463 464 465 466 467 468 469 470 471 472 473 474 475 476 477 478 479 480 481 482 483 484 485 486 487 488 489 490 491 492 493 494 495 496 497 498 499 500 501 502 503 504 505 506 507 508 509 510 511 512 513 514 515 516 517 518 519 520 521 522 523 524 525 526 527 528 529 530 531 532 533 534 535 536 537 538 539 540 541 542 543 544 545 546 547 548 549 550 551 552 553 554 555 556 557 558 559 560 561 562 563 564 565 566 567 568 569 570 571 572 573 574 575 576 577 578 579 580 581 582 583 584 585 586 587 588 589 590 591 592 593 594 595 596 597 598 599 600 601 602 603 604 605 606 607 608 609 610 611 612 613 614 615 616 617 618 619 620 621 622 623 624 625 626 627 628 629 630 631 632 633 634 635 636 637 638 639 640 641 642 643 644 645 646 647 648 649 650 651 652 653 654 655 656 657 658 659 660 661 662 663 664 665 666 667 668 669 670 671 672 673 674 675 676 677 678 679 680 681 682 683 684 685 686 687 688 689 690 691 692 693 694 695 696 697 698 699 700 701 702 703 704 705 706 707 708 709 710 711 712 713 714 715 716 717 718 719 720 721 722 723 724 725 726 727 728 729 730 731 732 733 734 735 736 737 738 739 740 741 742 743 744 745 746 747 748 749 750 751 752 753 754 755 756 757 758 759 760 761 762 763 764 765 766 767 768 769 770 771 772 773 774 775 776 777 778 779 780 781 782 783 784 785 786 787 788 789 790 791 792 793 794 795 796 797 798 799 800 801 802 803 804 805 806 807 808 809 810 811 812 813 814 815 816 817 818 819 820 821 822 823 824 825 826 827 828 829 830 831 832 833 834 835 836 837 838 839 840 841 842 843 844 845 846 847 848 849 850 851 852 853 854 855 856 857 858 859 860 861 862 863 864 865 866 867 868 869 870 871 872 873 874 875 876 877 878 879 880 881 882 883 884 885 886 887 888 889 890 891 892 893 894 895 896 897 898 899 900 901 902 903 904 905 906 907 908 909 910 911 912 913 914 915 916 917 918 919 920 921 922 923 924 925 926 927 928 929 930 931 932 933 934 935 936 937 938 939 940 941 942 943 944 945 946 947 948 949 950 951 952 953 954 955 956 957 958 959 960 961 962 963 964 965 966 967 968 969 970 971 972 973 974 975 976 977 978 979 980 981 982 983 984 985 986 987 988 989 990 991 992 993 994 995 996 997 998 999 1000 1001 1002 1003 1004 1005 1006 1007 1008 1009 1010 1011 1012 1013 1014 1015 1016 1017 1018 1019 1020 1021 1022 1023 1024 1025 1026 1027 1028 1029 1030 1031 1032 1033 1034 1035 1036 1037 1038 1039 1040 1041 1042 1043 1044 1045 1046 1047 1048 1049 1050 1051 1052 1053 1054 1055 1056 1057 1058 1059 1060 1061 1062 1063 1064 1065 1066 1067 1068 1069 1070 1071 1072 1073 1074 1075 1076 1077 1078 1079 1080 1081 1082 1083 1084 1085 1086 1087 1088 1089 1090 1091 1092 1093 1094 1095 1096 1097 1098 1099 1100 1101 1102 1103 1104 1105 1106 1107 1108 1109 1110 1111 1112 1113 1114 1115 1116 1117 1118 1119 1120 1121 1122 1123 1124 1125 1126 1127 1128 1129 1130 1131 1132 1133 1134 1135 1136 1137 1138 1139 1140 1141 1142 1143 1144 1145 1146 1147 1148 1149 1150 1151 1152 1153 1154 1155 1156 1157 1158 1159 1160 1161 1162 1163 1164 1165 1166 1167 1168 1169 1170 1171 1172 1173 1174 1175 1176 1177 1178 1179 1180 1181 1182 1183 1184 1185 1186 1187 1188 1189 1190 1191 1192 1193 1194 1195 1196 1197 1198 1199 1200 1201 1202 1203 1204 1205 1206 1207 1208 1209 1210 1211 1212 1213 1214 1215 1216 1217 1218 1219 1220 1221 1222 1223 1224 1225 1226 1227 1228 1229 1230 1231 1232 1233 1234 1235 1236 1237 1238 1239 1240 1241 1242 1243 1244 1245 1246 1247 1248 1249 1250 1251 1252 1253 1254 1255 1256 1257 1258 1259 1260 1261 1262 1263 1264 1265 1266 1267 1268 1269 1270 1271 1272 1273 1274 1275 1276 1277 1278 1279 1280 1281 1282 1283 1284 1285 1286 1287 1288 1289 1290 1291 1292 1293 1294 1295 1296 1297 1298 1299 1300 1301 1302 1303 1304 1305 1306 1307 1308 1309 1310 1311 1312 1313 1314 1315 1316 1317 1318 1319 1320 1321 1322 1323 1324 1325 1326 1327 1328 1329 1330 1331 1332 1333 1334 1335 1336 1337 1338 1339 1340 1341 1342 1343 1344 1345 1346 1347 1348 1349 1350 1351 1352 1353 1354 1355 1356 1357 1358 1359 1360 1361 1362 1363 1364 1365 1366 1367 1368 1369 1370 1371 1372 1373 1374 1375 1376 1377 1378 1379 1380 1381 1382 1383 1384 1385 1386 1387 1388 1389 1390 1391 1392 1393 1394 1395 1396 1397 1398 1399 1400 1401 1402 1403 1404 1405 1406 1407 1408 1409 1410 1411 1412 1413 1414 1415 1416 1417 1418 1419 1420 1421 1422 1423 1424 1425 1426 1427 1428 1429 1430 1431 1432 1433 1434 1435 1436 1437 1438 1439 1440 1441 1442 1443 1444 1445 1446 1447 1448 1449 1450 1451 1452 1453 1454 1455 1456 1457 1458 1459 1460 1461 1462 1463 1464 1465 1466 1467 1468 1469 1470 1471 1472 1473 1474 1475 1476 1477 1478 1479 1480 1481 1482 1483 1484 1485 1486 1487 1488 1489 1490 1491 1492 1493 1494 1495 1496 1497 1498 1499 1500 1501 1502 1503 1504 1505 1506 1507 1508 1509 1510 1511 1512 1513 1514 1515 1516 1517 1518 1519 1520 1521 1522 1523 1524 1525 1526 1527 1528 1529 1530 1531 1532 1533 1534 1535 1536 1537 1538 1539 1540 1541 1542 1543 1544 1545 1546 1547 1548 1549 1550 1551 1552 1553 1554 1555 1556 1557 1558 1559 1560 1561 1562 1563 1564 1565 1566 1567 1568 1569 1570 1571 1572 1573 1574 1575 1576 1577 1578 1579 1580 1581 1582 1583 1584 1585 1586 1587 1588 1589 1590 1591 1592 1593 1594 1595 1596 1597 1598 1599 1600 1601 1602 1603 1604 1605 1606 1607 1608 1609 1610 1611 1612 1613 1614 1615 1616 1617 1618 1619 1620 1621 1622 1623 1624 1625 1626 1627 1628 1629 1630 1631 1632 1633 1634 1635 1636 1637 1638 1639 1640 1641 1642 1643 1644 1645 1646 1647 1648 1649 1650 1651 1652 1653 1654 1655 1656 1657 1658 1659 1660 1661 1662 1663 1664 1665 1666 1667 1668 1669 1670 1671 1672 1673 1674 1675 1676 1677 1678 1679 1680 1681 1682 1683 1684 1685 1686 1687 1688 1689 1690 1691 1692 1693 1694 1695 1696 1697 1698 1699 1700 1701 1702 1703 1704 1705 1706 1707 1708 1709 1710 1711 1712 1713 1714 1715 1716 1717 1718 1719 1720 1721 1722 1723 1724 1725 1726 1727 1728 1729 1730 1731 1732 1733 1734 1735 1736 1737 1738 1739 1740 1741 1742 1743 1744 1745 1746 1747 1748 1749 1750 1751 1752 1753 1754 1755 1756 1757 1758 1759 1760 1761 1762 1763 1764 1765 1766 1767 1768 1769 1770 1771 1772 1773 1774 1775 1776 1777 1778 1779 1780 1781 1782 1783 1784 1785 1786 1787 1788 1789 1790 1791 1792 1793 1794 1795 1796 1797 1798 1799 1800 1801 1802 1803 1804 1805 1806 1807 1808 1809 1810 1811 1812 1813 1814 1815 1816 1817 1818 1819 1820 1821 1822 1823 1824 1825 1826 1827 1828 1829 1830 1831 1832 1833 1834 1835 1836 1837 1838 1839 1840 1841 1842 1843 1844 1845 1846 1847 1848 1849 1850 1851 1852 1853 1854 1855 1856 1857 1858 1859 1860 1861 1862 1863 1864 1865 1866 1867 1868 1869 1870 1871 1872 1873 1874 1875 1876 1877 1878 1879 1880 1881 1882 1883 1884 1885 1886 1887 1888 1889 1890 1891 1892 1893 1894 1895 1896 1897 1898 1899 1900 1901 1902 1903 1904 1905 1906 1907 1908 1909 1910 1911 1912 1913 1914 1915 1916 1917 1918 1919 1920 1921 1922 1923 1924 1925 1926 1927 1928 1929 1930 1931 1932 1933 1934 1935 1936 1937 1938 1939 1940 1941 1942 1943 1944 1945 1946 1947 1948 1949 1950 1951 1952 1953 1954 1955 1956 1957 1958 1959 1960 1961 1962 1963 1964 1965 1966 1967 1968 1969 1970 1971 1972 1973 1974 1975 1976 1977 1978 1979 1980 1981 1982 1983 1984 1985 1986 1987 1988 1989 1990 1991 1992 1993 1994 1995 1996 1997 1998 1999 2000 2001 2002 2003 2004 2005 2006 2007 2008 2009 2010 2011 2012 2013 2014 2015 2016 2017 2018 2019 2020 2021 2022 2023 2024 2025 2026 2027 2028 2029 2030 2031 2032 2033 2034 2035 2036 2037 2038 2039 2040 2041 2042 2043 2044 2045 2046 2047 2048 2049 2050 2051 2052 2053 2054 2055 2056 2057 2058 2059 2060 2061 2062 2063 2064 2065 2066 2067 2068 2069 2070 2071 2072 2073 2074 2075 2076 2077 2078 2079 2080 2081 2082 2083 2084 2085 2086 2087 2088 2089 2090 2091 2092 2093 2094 2095 2096 2097 2098 2099 2100 2101 2102 2103 2104 2105 2106 2107 2108 2109 2110 2111 2112 2113 2114 2115 2116 2117 2118 2119 2120 2121 2122 2123 2124 2125 2126 2127 2128 2129 2130 2131 2132 2133 2134 2135 2136 2137 2138 2139 2140 2141 2142 2143 2144 2145 2146 2147 2148 2149 2150 2151 2152 2153 2154 2155 2156 2157 2158 2159 2160 2161 2162 2163 2164 2165 2166 2167 2168 2169 2170 2171 2172 2173 2174 2175 2176 2177 2178 2179 2180 2181 2182 2183 2184 2185 2186 2187 2188 2189 2190 2191 2192 2193 2194 2195 2196 2197 2198 2199 2200 2201 2202 2203 2204 2205 2206 2207 2208 2209 2210 2211 2212 2213 2214 2215 2216 2217 2218 2219 2220 2221 2222 2223 2224 2225 2226 2227 2228 2229 2230 2231 2232 2233 2234 2235 2236 2237 2238 2239 2240 2241 2242 2243 2244 2245 2246 2247 2248 2249 2250 2251 2252 2253 2254 2255 2256 2257 2258 2259 2260 2261 2262 2263 2264 2265 2266 2267 2268 2269 2270 2271 2272 2273 2274 2275 2276 2277 2278 2279 2280 2281 2282 2283 2284 2285 2286 2287 2288 2289 2290 2291 2292 2293 2294 2295 2296 2297 2298 2299 2300 2301 2302 2303 2304 2305 2306 2307 2308 2309 2310 2311 2312 2313 2314 2315 2316 2317 2318 2319 2320 2321 2322 2323 2324 2325 2326 2327 2328 2329 2330 2331 2332 2333 2334 2335 2336 2337 2338 2339 2340 2341 2342 2343 2344 2345 2346 2347 2348 2349 2350 2351 2352 2353 2354 2355 2356 2357 2358 2359 2360 2361 2362 2363 2364 2365 2366 2367 2368 2369 2370 2371 2372 2373 2374 2375 2376 2377 2378 2379 2380 2381 2382 2383 2384 2385 2386 2387 2388 2389 2390 2391 2392 2393 2394 2395 2396 2397 2398 2399 2400 2401 2402 2403 2404 2405 2406 2407 2408 2409 2410 2411 2412 2413 2414 2415 2416 2417 2418 2419 2420 2421 2422 2423 2424 2425 2426 2427 2428 2429 2430 2431 2432 2433 2434 2435 2436 2437 2438 2439 2440 2441 2442 2443 2444 2445 2446 2447 2448 2449 2450 2451 2452 2453 2454 2455 2456 2457 2458 2459 2460 2461 2462 2463 2464 2465 2466 2467 2468 2469 2470 2471 2472 2473 2474 2475 2476 2477 2478 2479 2480 2481 2482 2483 2484 2485 2486 2487 2488 2489 2490 2491 2492 2493 2494 2495 2496 2497 2498 2499 2500 2501 2502 2503 2504 2505 2506 2507 2508 2509 2510 2511 2512 2513 2514 2515 2516 2517 2518 2519 2520 2521 2522 2523 2524 2525 2526 2527 2528 2529 2530 2531 2532 2533 2534 2535 2536 2537 2538 2539 2540 2541 2542 2543 2544 2545 2546 2547 2548 2549 2550 2551 2552 2553 2554 2555 2556 2557 2558 2559 2560 2561 2562 2563 2564 2565 2566 2567 2568 2569 2570 2571 2572 2573 2574 2575 2576 2577 2578 2579 2580 2581 2582 2583 2584 2585 2586 2587 2588 2589 2590 2591 2592 2593 2594 2595 2596 2597 2598 2599 2600 2601 2602 2603 2604 2605 2606 2607 2608 2609 2610 2611 2612 2613 2614 2615 2616 2617 2618 2619 2620 2621 2622 2623 2624 2625 2626 2627 2628 2629 2630 2631 2632 2633 2634 2635 2636 2637 2638 2639 2640 2641 2642 2643 2644 2645 2646 2647 2648 2649 2650 2651 2652 2653 2654 2655 2656 2657 2658 2659 2660 2661 2662 2663 2664 2665 2666 2667 2668 2669 2670 2671 2672 2673 2674 2675 2676 2677 2678 2679 2680 2681 2682 2683 2684 2685 2686 2687 2688 2689 2690 2691 2692 2693 2694 2695 2696 2697 2698 2699 2700 2701 2702 2703 2704 2705 2706 2707 2708 2709 2710 2711 2712 2713 2714 2715 2716 2717 2718 2719 2720 2721 2722 2723 2724 2725 2726 2727 2728 2729 2730 2731 2732 2733 2734 2735 2736 2737 2738 2739 2740 2741 2742 2743 2744 2745 2746 2747 2748 2749 2750 2751 2752 2753 2754 2755 2756 2757 2758 2759 2760 2761 2762 2763 2764 2765 2766 2767 2768 2769 2770 2771 2772 2773 2774 2775 2776 2777 2778 2779 2780 2781 2782 2783 2784 2785 2786 2787 2788 2789 2790 2791 2792 2793 2794 2795 2796 2797 2798 2799 2800 2801 2802 2803 2804 2805 2806 2807 2808 2809 2810 2811 2812 2813 2814 2815 2816 2817 2818 2819 2820 2821 2822 2823 2824 2825 2826 2827 2828 2829 2830 2831 2832 2833 2834 2835 2836 2837 2838 2839 2840 2841 2842 2843 2844 2845 2846 2847 2848 2849 2850 2851 2852 2853 2854 2855 2856 2857 2858 2859 2860 2861 2862 2863 2864 2865 2866 2867 2868 2869 2870 2871 2872 2873 2874 2875 2876 2877 2878 2879 2880 2881 2882 2883 2884 2885 2886 2887 2888 2889 2890 2891 2892 2893 2894 2895 2896 2897 2898 2899 2900 2901 2902 2903 2904 2905 2906 2907 2908 2909 2910 2911 2912 2913 2914 2915 2916 2917 2918 2919 2920 2921 2922 2923 2924 2925 2926 2927 2928 2929 2930 2931 2932 2933 2934 2935 2936 2937 2938 2939 2940 2941 2942 2943 2944 2945 2946 2947 2948 2949 2950 2951 2952 2953 2954 2955 2956 2957 2958 2959 2960 2961 2962 2963 2964 2965 2966 2967 2968 2969 2970 2971 2972 2973 2974 2975 2976 2977 2978 2979 2980 2981 2982 2983 2984 2985 2986 2987 2988 2989 2990 2991 2992 2993 2994 2995 2996 2997 2998 2999 3000 3001 3002 3003 3004 3005 3006 3007 3008 3009 3010 3011 3012 3013 3014 3015 3016 3017 3018 3019 3020 3021 3022 3023 3024 3025 3026 3027 3028 3029 3030 3031 3032 3033 3034 3035 3036 3037 3038 3039 3040 3041 3042 3043 3044 3045 3046 3047 3048 3049 3050 3051 3052 3053 3054 3055 3056 3057 3058 3059 3060 3061 3062 3063 3064 3065 3066 3067 3068 3069 3070 3071 3072 3073 3074 3075 3076 3077 3078 3079 3080 3081 3082 3083 3084 3085 3086 3087 3088 3089 3090 3091 3092 3093 3094 3095 3096 3097 3098 3099 3100 3101 3102 3103 3104 3105 3106 3107 3108 3109 3110 3111 3112 3113 3114 3115 3116 3117 3118 3119 3120 3121 3122 3123 3124 3125 3126 3127 3128 3129 3130 3131 3132 3133 3134 3135 3136 3137 3138 3139 3140 3141 3142 3143 3144 3145 3146 3147 3148 3149 3150 3151 3152 3153 3154 3155 3156 3157 3158 3159 3160 3161 3162 3163 3164 3165 3166 3167 3168 3169 3170 3171 3172 3173 3174 3175 3176 3177 3178 3179 3180 3181 3182 3183 3184 3185 3186 3187 3188 3189 3190 3191 3192 3193 3194 3195 3196 3197 3198 3199 3200 3201 3202 3203 3204 3205 3206 3207 3208 3209 3210 3211 3212 3213 3214 3215 3216 3217 3218 3219 3220 3221 3222 3223 3224 3225 3226 3227 3228 3229 3230 3231 3232 3233 3234 3235 3236 3237 3238 3239 3240 3241 3242 3243 3244 3245 3246 3247 3248 3249 3250 3251 3252 3253 3254 3255 3256 3257 3258 3259 3260 3261 3262 3263 3264 3265 3266 3267 3268 3269 3270 3271 3272 3273 3274 3275 3276 3277 3278 3279 3280 3281 3282 3283 3284 3285 3286 3287 3288 3289 3290 3291 3292 3293 3294 3295 3296 3297 3298 3299 3300 3301 3302 3303 3304 3305 3306 3307 3308 3309 3310 3311 3312 3313 3314 3315 3316 3317 3318 3319 3320 3321 3322 3323 3324 3325 3326 3327 3328 3329 3330 3331 3332 3333 3334 3335 3336 3337 3338 3339 3340 3341 3342 3343 3344 3345 3346 3347 3348 3349 3350 3351 3352 3353 3354 3355 3356 3357 3358 3359 3360 3361 3362 3363 3364 3365 3366 3367 3368 3369 3370 3371 3372 3373 3374 3375 3376 3377 3378 3379 3380 3381 3382 3383 3384 3385 3386 3387 3388 3389 3390 3391 3392 3393 3394 3395 3396 3397 3398 3399 3400 3401 3402 3403 3404 3405 3406 3407 3408 3409 3410 3411 3412 3413 3414 3415 3416 3417 3418 3419 3420 3421 3422 3423 3424 3425 3426 3427 3428 3429 3430 3431 3432 3433 3434 3435 3436 3437 3438 3439 3440 3441 3442 3443 3444 3445 3446 3447 3448 3449 3450 3451 3452 3453 3454 3455 3456 3457 3458 3459 3460 3461 3462 3463 3464 3465 3466 3467 3468 3469 3470 3471 3472 3473 3474 3475 3476 3477 3478 3479 3480 3481 3482 3483 3484 3485 3486 3487 3488 3489 3490 3491 3492 3493 3494 3495 3496 3497 3498 3499 3500 3501 3502 3503 3504 3505 3506 3507 3508 3509 3510 3511 3512 3513 3514 3515 3516 3517 3518 3519 3520 3521 3522 3523 3524 3525 3526 3527 3528 3529 3530 3531 3532 3533 3534 3535 3536 3537 3538 3539 3540 3541 3542 3543 3544 3545 3546 3547 3548 3549 3550 3551 3552 3553 3554 3555 3556 3557 3558 3559 3560 3561 3562 3563 3564 3565 3566 3567 3568 3569 3570 3571 3572 3573 3574 3575 3576 3577 3578 3579 3580 3581 3582 3583 3584 3585 3586 3587 3588 3589 3590 3591 3592 3593 3594 3595 3596 3597 3598 3599 3600 3601 3602 3603 3604 3605 3606 3607 3608 3609 3610 3611 3612 3613 3614 3615 3616 3617 3618 3619 3620 3621 3622 3623 3624 3625 3626 3627 3628 3629 3630 3631 3632 3633 3634 3635 3636 3637 3638 3639 3640 3641 3642 3643 3644 3645 3646 3647 3648 3649 3650 3651 3652 3653 3654 3655 3656 3657 3658 3659 3660 3661 3662 3663 3664 3665 3666 3667 3668 3669 3670 3671 3672 3673 3674 3675 3676 3677 3678 3679 3680 3681 3682 3683 3684 3685 3686 3687 3688 3689 3690 3691 3692 3693 3694 3695 3696 3697 3698 3699 3700 3701 3702 3703 3704 3705 3706 3707 3708 3709 3710 3711 3712 3713 3714 3715 3716 3717 3718 3719 3720 3721 3722 3723 3724 3725 3726 3727 3728 3729 3730 3731 3732 3733 3734 3735 3736 3737 3738 3739 3740 3741 3742 3743 3744 3745 3746 3747 3748 3749 3750 3751 3752 3753 3754 3755 3756 3757 3758 3759 3760 3761 3762 3763 3764 3765 3766 3767 3768 3769 3770 3771 3772 3773 3774 3775 3776 3777 3778 3779 3780 3781 3782 3783 3784 3785 3786 3787 3788 3789 3790 3791 3792 3793 3794 3795 3796 3797 3798 3799 3800 3801 3802 3803 3804 3805 3806 3807 3808 3809 3810 3811 3812 3813 3814 3815 3816 3817 3818 3819 3820 3821 3822 3823 3824 3825 3826 3827 3828 3829 3830 3831 3832 3833 3834 3835 3836 3837 3838 3839 3840 3841 3842 3843 3844 3845 3846 3847 3848 3849 3850 3851 3852 3853 3854 3855 3856 3857 3858 3859 3860 3861 3862 3863 3864 3865 3866 3867 3868 3869 3870 3871 3872 3873 3874 3875 3876 3877 3878 3879 3880 3881 3882 3883 3884 3885 3886 3887 3888 3889 3890 3891 3892 3893 3894 3895 3896 3897 3898 3899 3900 3901 3902 3903 3904 3905 3906 3907 3908 3909 3910 3911 3912 3913 3914 3915 3916 3917 3918 3919 3920 3921 3922 3923 3924 3925 3926 3927 3928 3929 3930 3931 3932 3933 3934 3935 3936 3937 3938 3939 3940 3941 3942 3943 3944 3945 3946 3947 3948 3949 3950 3951 3952 3953 3954 3955 3956 3957 3958 3959 3960 3961 3962 3963 3964 3965 3966 3967 3968 3969 3970 3971 3972 3973 3974 3975 3976 3977 3978 3979 3980 3981 3982 3983 3984 3985 3986 3987 3988 3989 3990 3991 3992 3993 3994 3995 3996 3997 3998 3999 4000 4001 4002 4003 4004 4005 4006 4007 4008 4009 4010 4011 4012 4013 4014 4015 4016 4017 4018 4019 4020 4021 4022 4023 4024 4025 4026 4027 4028 4029 4030 4031 4032 4033 4034 4035 4036 4037 4038 4039 4040 4041 4042 4043 4044 4045 4046 4047 4048 4049 4050 4051 4052 4053 4054 4055 4056 4057 4058 4059 4060 4061 4062 4063 4064 4065 4066 4067 4068 4069 4070 4071 4072 4073 4074 4075 4076 4077 4078 4079 4080 4081 4082 4083 4084 4085 4086 4087 4088 4089 4090 4091 4092 4093 4094 4095 4096 4097 4098 4099 4100 4101 4102 4103 4104 4105 4106 4107 4108 4109 4110 4111 4112 4113 4114 4115 4116 4117 4118 4119 4120 4121 4122 4123 4124 4125 4126 4127 4128 4129 4130 4131 4132 4133 4134 4135 4136 4137 4138 4139 4140 4141 4142 4143 4144 4145 4146 4147 4148 4149 4150 4151 4152 4153 4154 4155 4156 4157 4158 4159 4160 4161 4162 4163 4164 4165 4166 4167 4168 4169 4170 4171 4172 4173 4174 4175 4176 4177 4178 4179 4180 4181 4182 4183 4184 4185 4186 4187 4188 4189 4190 4191 4192 4193 4194 4195 4196 4197 4198 4199 4200 4201 4202 4203 4204 4205 4206 4207 4208 4209 4210 4211 4212 4213 4214 4215 4216 4217 4218 4219 4220 4221 4222 4223 4224 4225 4226 4227 4228 4229 4230 4231 4232 4233 4234 4235 4236 4237 4238 4239 4240 4241 4242 4243 4244 4245 4246 4247 4248 4249 4250 4251 4252 4253 4254 4255 4256 4257 4258 4259 4260 4261 4262 4263 4264 4265 4266 4267 4268 4269 4270 4271 4272 4273 4274 4275 4276 4277 4278 4279 4280 4281 4282 4283 4284 4285 4286 4287 4288 4289 4290 4291 4292 4293 4294 4295 4296 4297 4298 4299 4300 4301 4302 4303 4304 4305 4306 4307 4308 4309 4310 4311 4312 4313 4314 4315 4316 4317 4318 4319 4320 4321 4322 4323 4324 4325 4326 4327 4328 4329 4330 4331 4332 4333 4334 4335 4336 4337 4338 4339 4340 4341 4342 4343 4344 4345 4346 4347 4348 4349 4350 4351 4352 4353 4354 4355 4356 4357 4358 4359 4360 4361 4362 4363 4364 4365 4366 4367 4368 4369 4370 4371 4372 4373 4374 4375 4376 4377 4378 4379 4380 4381 4382 4383 4384 4385 4386 4387 4388 4389 4390 4391 4392 4393 4394 4395 4396 4397 4398 4399 4400 4401 4402 4403 4404 4405 4406 4407 4408 4409 4410 4411 4412 4413 4414 4415 4416 4417 4418 4419 4420 4421 4422 4423 4424 4425 4426 4427 4428 4429 4430 4431 4432 4433 4434 4435 4436 4437 4438 4439 4440 4441 4442 4443 4444 4445 4446 4447 4448 4449 4450 4451 4452 4453 4454 4455 4456 4457 4458 4459 4460 4461 4462 4463 4464 4465 4466 4467 4468 4469 4470 4471 4472 4473 4474 4475 4476 4477 4478 4479 4480 4481 4482 4483 4484 4485 4486 4487 4488 4489 4490 4491 4492 4493 4494 4495 4496 4497 4498 4499 4500 4501 4502 4503 4504 4505 4506 4507 4508 4509 4510 4511 4512 4513 4514 4515 4516 4517 4518 4519 4520 4521 4522 4523 4524 4525 4526 4527 4528 4529 4530 4531 4532 4533 4534 4535 4536 4537 4538 4539 4540 4541 4542 4543 4544 4545 4546 4547 4548 4549 4550 4551 4552 4553 4554 4555 4556 4557 4558 4559 4560 4561 4562 4563 4564 4565 4566 4567 4568 4569 4570 4571 4572 4573 4574 4575 4576 4577 4578 4579 4580 4581 4582 4583 4584 4585 4586 4587 4588 4589 4590 4591 4592 4593 4594 4595 4596 4597 4598 4599 4600 4601 4602 4603 4604 4605 4606 4607 4608 4609 4610 4611 4612 4613 4614 4615 4616 4617 4618 4619 4620 4621 4622 4623 4624 4625 4626 4627 4628 4629 4630 4631 4632 4633 4634 4635 4636 4637 4638 4639 4640 4641 4642 4643 4644 4645 4646 4647 4648 4649 4650 4651 4652 4653 4654 4655 4656 4657 4658 4659 4660 4661 4662 4663 4664 4665 4666 4667 4668 4669 4670 4671 4672 4673 4674 4675 4676 4677 4678 4679 4680 4681 4682 4683 4684 4685 4686 4687 4688 4689 4690 4691 4692 4693 4694 4695 4696 4697 4698 4699 4700 4701 4702 4703 4704 4705 4706 4707 4708 4709 4710 4711 4712 4713 4714 4715 4716 4717 4718 4719 4720 4721 4722 4723 4724 4725 4726 4727 4728 4729 4730 4731 4732 4733 4734 4735 4736 4737 4738 4739 4740 4741 4742 4743 4744 4745 4746 4747 4748 4749 4750 4751 4752 4753 4754 4755 4756 4757 4758 4759 4760 4761 4762 4763 4764 4765 4766 4767 4768 4769 4770 4771 4772 4773 4774 4775 4776 4777 4778 4779 4780 4781 4782 4783 4784 4785 4786 4787 4788 4789 4790 4791 4792 4793 4794 4795 4796 4797 4798 4799 4800 4801 4802 4803 4804 4805 4806 4807 4808 4809 4810 4811 4812 4813 4814 4815 4816 4817 4818 4819 4820 4821 4822 4823 4824 4825 4826 4827 4828 4829 4830 4831 4832 4833 4834 4835 4836 4837 4838 4839 4840 4841 4842 4843 4844 4845 4846 4847 4848 4849 4850 4851 4852 4853 4854 4855 4856 4857 4858 4859 4860 4861 4862 4863 4864 4865 4866 4867 4868 4869 4870 4871 4872 4873 4874 4875 4876 4877 4878 4879 4880 4881 4882 4883 4884 4885 4886 4887 4888 4889 4890 4891 4892 4893 4894 4895 4896 4897 4898 4899 4900 4901 4902 4903 4904 4905 4906 4907 4908 4909 4910 4911 4912 4913 4914 4915 4916 4917 4918 4919 4920 4921 4922 4923 4924 4925 4926 4927 4928 4929 4930 4931 4932 4933 4934 4935 4936 4937 4938 4939 4940 4941 4942 4943 4944 4945 4946 4947 4948 4949 4950 4951 4952 4953 4954 4955 4956 4957 4958 4959 4960 4961 4962 4963 4964 4965 4966 4967 4968 4969 4970 4971 4972 4973 4974 4975 4976 4977 4978 4979 4980 4981 4982 4983 4984 4985 4986 4987 4988 4989 4990 4991 4992 4993 4994 4995 4996 4997 4998 4999 5000 5001 5002 5003 5004 5005 5006 5007 5008 5009 5010 5011 5012 5013 5014 5015 5016 5017 5018 5019 5020 5021 5022 5023 5024 5025 5026 5027 5028 5029 5030 5031 5032 5033 5034 5035 5036 5037 5038 5039 5040 5041 5042 5043 5044 5045 5046 5047 5048 5049 5050 5051 5052 5053 5054 5055 5056 5057 5058 5059 5060 5061 5062 5063 5064 5065 5066 5067 5068 5069 5070 5071 5072 5073 5074 5075 5076 5077 5078 5079 5080 5081 5082 5083 5084 5085 5086 5087 5088 5089 5090 5091 5092 5093 5094 5095 5096 5097 5098 5099 5100 5101 5102 5103 5104 5105 5106 5107 5108 5109 5110 5111 5112 5113 5114 5115 5116 5117 5118 5119 5120 5121 5122 5123 5124 5125 5126 5127 5128 5129 5130 5131 5132 5133 5134 5135 5136 5137 5138 5139 5140 5141 5142 5143 5144 5145 5146 5147 5148 5149 5150 5151 5152 5153 5154 5155 5156 5157 5158 5159 5160 5161 5162 5163 5164 5165 5166 5167 5168 5169 5170 5171 5172 5173 5174 5175 5176 5177 5178 5179 5180 5181 5182 5183 5184 5185 5186 5187 5188 5189 5190 5191 5192 5193 5194 5195 5196 5197 5198 5199 5200 5201 5202 5203 5204 5205 5206 5207 5208 5209 5210 5211 5212 5213 5214 5215 5216 5217 5218 5219 5220 5221 5222 5223 5224 5225 5226 5227 5228 5229 5230 5231 5232 5233 5234 5235 5236 5237 5238 5239 5240 5241 5242 5243 5244 5245 5246 5247 5248 5249 5250 5251 5252 5253 5254 5255 5256 5257 5258 5259 5260 5261 5262 5263 5264 5265 5266 5267 5268 5269 5270 5271 5272 5273 5274 5275 5276 5277 5278 5279 5280 5281 5282 5283 5284 5285 5286 5287 5288 5289 5290 5291 5292 5293 5294 5295 5296 5297 5298 5299 5300 5301 5302 5303 5304 5305 5306 5307 5308 5309 5310 5311 5312 5313 5314 5315 5316 5317 5318 5319 5320 5321 5322 5323 5324 5325 5326 5327 5328 5329 5330 5331 5332 5333 5334 5335 5336 5337 5338 5339 5340 5341 5342 5343 5344 5345 5346 5347 5348 5349 5350 5351 5352 5353 5354 5355 5356 5357 5358 5359 5360 5361 5362 5363 5364 5365 5366 5367 5368 5369 5370 5371 5372 5373 5374 5375 5376 5377 5378 5379 5380 5381 5382 5383 5384 5385 5386 5387 5388 5389 5390 5391 5392 5393 5394 5395 5396 5397 5398 5399 5400 5401 5402 5403 5404 5405 5406 5407 5408 5409 5410 5411 5412 5413 5414 5415 5416 5417 5418 5419 5420 5421 5422 5423 5424 5425 5426 5427 5428 5429 5430 5431 5432 5433 5434 5435 5436 5437 5438 5439 5440 5441 5442 5443 5444 5445 5446 5447 5448 5449 5450 5451 5452 5453 5454 5455 5456 5457 5458 5459 5460 5461 5462 5463 5464 5465 5466 5467 5468 5469 5470 5471 5472 5473 5474 5475 5476 5477 5478 5479 5480 5481 5482 5483 5484 5485 5486 5487 5488 5489 5490 5491 5492 5493 5494 5495 5496 5497 5498 5499 5500 5501 5502 5503 5504 5505 5506 5507 5508 5509 5510 5511 5512 5513 5514 5515 5516 5517 5518 5519 5520 5521 5522 5523 5524 5525 5526 5527 5528 5529 5530 5531 5532 5533 5534 5535 5536 5537 5538 5539 5540 5541 5542 5543 5544 5545 5546 5547 5548 5549 5550 5551 5552 5553 5554 5555 5556 5557 5558 5559 5560 5561 5562 5563 5564 5565 5566 5567 5568 5569 5570 5571 5572 5573 5574 5575 5576 5577 5578 5579 5580 5581 5582 5583 5584 5585 5586 5587 5588 5589 5590 5591 5592 5593 5594 5595 5596 5597 5598 5599 5600 5601 5602 5603 5604 5605 5606 5607 5608 5609 5610 5611 5612 5613 5614 5615 5616 5617 5618 5619 5620 5621 5622 5623 5624 5625 5626 5627 5628 5629 5630 5631 5632 5633 5634 5635 5636 5637 5638 5639 5640 5641 5642 5643 5644 5645 5646 5647 5648 5649 5650 5651 5652 5653 5654 5655 5656 5657 5658 5659 5660 5661 5662 5663 5664 5665 5666 5667 5668 5669 5670 5671 5672 5673 5674 5675 5676 5677 5678 5679 5680 5681 5682 5683 5684 5685 5686 5687 5688 5689 5690 5691 5692 5693 5694 5695 5696 5697 5698 5699 5700 5701 5702 5703 5704 5705 5706 5707 5708 5709 5710 5711 5712 5713 5714 5715 5716 5717 5718 5719 5720 5721 5722 5723 5724 5725 5726 5727 5728 5729 5730 5731 5732 5733 5734 5735 5736 5737 5738 5739 5740 5741 5742 5743 5744 5745 5746 5747 5748 5749 5750 5751 5752 5753 5754 5755 5756 5757 5758 5759 5760 5761 5762 5763 5764 5765 5766 5767 5768 5769 5770 5771 5772 5773 5774 5775 5776 5777 5778 5779 5780 5781 5782 5783 5784 5785 5786 5787 5788 5789 5790 5791 5792 5793 5794 5795 5796 5797 5798 5799 5800 5801 5802 5803 5804 5805 5806 5807 5808 5809 5810 5811 5812 5813 5814 5815 5816 5817 5818 5819 5820 5821 5822 5823 5824 5825 5826 5827 5828 5829 5830 5831 5832 5833 5834 5835 5836 5837 5838 5839 5840 5841 5842 5843 5844 5845 5846 5847 5848 5849 5850 5851 5852 5853 5854 5855 5856 5857 5858 5859 5860 5861 5862 5863 5864 5865 5866 5867 5868 5869 5870 5871 5872 5873 5874 5875 5876 5877 5878 5879 5880 5881 5882 5883 5884 5885 5886 5887 5888 5889 5890 5891 5892 5893 5894 5895 5896 5897 5898 5899 5900 5901 5902 5903 5904 5905 5906 5907 5908 5909 5910 5911 5912 5913 5914 5915 5916 5917 5918 5919 5920 5921 5922 5923 5924 5925 5926 5927 5928 5929 5930 5931 5932 5933 5934 5935 5936 5937 5938 5939 5940 5941 5942 5943 5944 5945 5946 5947 5948 5949 5950 5951 5952 5953 5954 5955 5956 5957 5958 5959 5960 5961 5962 5963 5964 5965 5966 5967 5968 5969 5970 5971 5972 5973 5974 5975 5976 5977 5978 5979 5980 5981 5982 5983 5984 5985 5986 5987 5988 5989 5990 5991 5992 5993 5994 5995 5996 5997 5998 5999 6000 6001 6002 6003 6004 6005 6006 6007 6008 6009 6010 6011 6012 6013 6014 6015 6016 6017 6018 6019 6020 6021 6022 6023 6024 6025 6026 6027 6028 6029 6030 6031 6032 6033 6034 6035 6036 6037 6038 6039 6040 6041 6042 6043 6044 6045 6046 6047 6048 6049 6050 6051 6052 6053 6054 6055 6056 6057 6058 6059 6060 6061 6062 6063 6064 6065 6066 6067 6068 6069 6070 6071 6072 6073 6074 6075 6076 6077 6078 6079 6080 6081 6082 6083 6084 6085 6086 6087 6088 6089 6090 6091 6092 6093 6094 6095 6096 6097 6098 6099 6100 6101 6102 6103 6104 6105 6106 6107 6108 6109 6110 6111 6112 6113 6114 6115 6116 6117 6118 6119 6120 6121 6122 6123 6124 6125 6126 6127 6128 6129 6130 6131 6132 6133 6134 6135 6136 6137 6138 6139 6140 6141 6142 6143 6144 6145 6146 6147 6148 6149 6150 6151 6152 6153 6154 6155 6156 6157 6158 6159 6160 6161 6162 6163 6164 6165 6166 6167 6168 6169 6170 6171 6172 6173 6174 6175 6176 6177 6178 6179 6180 6181 6182 6183 6184 6185 6186 6187 6188 6189 6190 6191 6192 6193 6194 6195 6196 6197 6198 6199 6200 6201 6202 6203 6204 6205 6206 6207 6208 6209 6210 6211 6212 6213 6214 6215 6216 6217 6218 6219 6220 6221 6222 6223 6224 6225 6226 6227 6228 6229 6230 6231 6232 6233 6234 6235 6236 6237 6238 6239 6240 6241 6242 6243 6244 6245 6246 6247 6248 6249 6250 6251 6252 6253 6254 6255 6256 6257 6258 6259 6260 6261 6262 6263 6264 6265 6266 6267 6268 6269 6270 6271 6272 6273 6274 6275 6276 6277 6278 6279 6280 6281 6282 6283 6284 6285 6286 6287 6288 6289 6290 6291 6292 6293 6294 6295 6296 6297 6298 6299 6300 6301 6302 6303 6304 6305 6306 6307 6308 6309 6310 6311 6312 6313 6314 6315 6316 6317 6318 6319 6320 6321 6322 6323 6324 6325 6326 6327 6328 6329 6330 6331 6332 6333 6334 6335 6336 6337 6338 6339 6340 6341 6342 6343 6344 6345 6346 6347 6348 6349 6350 6351 6352 6353 6354 6355 6356 6357 6358 6359 6360 6361 6362 6363 6364 6365 6366 6367 6368 6369 6370 6371 6372 6373 6374 6375 6376 6377 6378 6379 6380 6381 6382 6383 6384 6385 6386 6387 6388 6389 6390 6391 6392 6393 6394 6395 6396 6397 6398 6399 6400 6401 6402 6403 6404 6405 6406 6407 6408 6409 6410 6411 6412 6413 6414 6415 6416 6417 6418 6419 6420 6421 6422 6423 6424 6425 6426 6427 6428 6429 6430 6431 6432 6433 6434 6435 6436 6437 6438 6439 6440 6441 6442 6443 6444 6445 6446 6447 6448 6449 6450 6451 6452 6453 6454 6455 6456 6457 6458 6459 6460 6461 6462 6463 6464 6465 6466 6467 6468 6469 6470 6471 6472 6473 6474 6475 6476 6477 6478 6479 6480 6481 6482 6483 6484 6485 6486 6487 6488 6489 6490 6491 6492 6493 6494 6495 6496 6497 6498 6499 6500 6501 6502 6503 6504 6505 6506 6507 6508 6509 6510 6511 6512 6513 6514 6515 6516 6517 6518 6519 6520 6521 6522 6523 6524 6525 6526 6527 6528 6529 6530 6531 6532 6533 6534 6535 6536 6537 6538 6539 6540 6541 6542 6543 6544 6545 6546 6547 6548 6549 6550 6551 6552 6553 6554 6555 6556 6557 6558 6559 6560 6561 6562 6563 6564 6565 6566 6567 6568 6569 6570 6571 6572 6573 6574 6575 6576 6577 6578 6579 6580 6581 6582 6583 6584 6585 6586 6587 6588 6589 6590 6591 6592 6593 6594 6595 6596 6597 6598 6599 6600 6601 6602 6603 6604 6605 6606 6607 6608 6609 6610 6611 6612 6613 6614 6615 6616 6617 6618 6619 6620 6621 6622 6623 6624 6625 6626 6627 6628 6629 6630 6631 6632 6633 6634 6635 6636 6637 6638 6639 6640 6641 6642 6643 6644 6645 6646 6647 6648 6649 6650 6651 6652 6653 6654 6655 6656 6657 6658 6659 6660 6661 6662 6663 6664 6665 6666 6667 6668 6669 6670 6671 6672 6673 6674 6675 6676 6677 6678 6679 6680 6681 6682 6683 6684 6685 6686 6687 6688 6689 6690 6691 6692 6693 6694 6695 6696 6697 6698 6699 6700 6701 6702 6703 6704 6705 6706 6707 6708 6709 6710 6711 6712 6713 6714 6715 6716 6717 6718 6719 6720 6721 6722 6723 6724 6725 6726 6727 6728 6729 6730 6731 6732 6733 6734 6735 6736 6737 6738 6739 6740 6741 6742 6743 6744 6745 6746 6747 6748 6749 6750 6751 6752 6753 6754 6755 6756 6757 6758 6759 6760 6761 6762 6763 6764 6765 6766 6767 6768 6769 6770 6771 6772 6773 6774 6775 6776 6777 6778 6779 6780 6781 6782 6783 6784 6785 6786 6787 6788 6789 6790 6791 6792 6793 6794 6795 6796 6797 6798 6799 6800 6801 6802 6803 6804 6805 6806 6807 6808 6809 6810 6811 6812 6813 6814 6815 6816 6817 6818 6819 6820 6821 6822 6823 6824 6825 6826 6827 6828 6829 6830 6831 6832 6833 6834 6835 6836 6837 6838 6839 6840 6841 6842 6843 6844 6845 6846 6847 6848 6849 6850 6851 6852 6853 6854 6855 6856 6857 6858 6859 6860 6861 6862 6863 6864 6865 6866 6867 6868 6869 6870 6871 6872 6873 6874 6875 6876 6877 6878 6879 6880 6881 6882 6883 6884 6885 6886 6887 6888 6889 6890 6891 6892 6893 6894 6895 6896 6897 6898 6899 6900 6901 6902 6903 6904 6905 6906 6907 6908 6909 6910 6911 6912 6913 6914 6915 6916 6917 6918 6919 6920 6921 6922 6923 6924 6925 6926 6927 6928 6929 6930 6931 6932 6933 6934 6935 6936 6937 6938 6939 6940 6941 6942 6943 6944 6945 6946 6947 6948 6949 6950 6951 6952 6953 6954 6955 6956 6957 6958 6959 6960 6961 6962 6963 6964 6965 6966 6967 6968 6969 6970 6971 6972 6973 6974 6975 6976 6977 6978 6979 6980 6981 6982 6983 6984 6985 6986 6987 6988 6989 6990 6991 6992 6993 6994 6995 6996 6997 6998 6999 7000 7001 7002 7003 7004 7005 7006 7007 7008 7009 7010 7011 7012 7013 7014 7015 7016 7017 7018 7019 7020 7021 7022 7023 7024 7025 7026 7027 7028 7029 7030 7031 7032 7033 7034 7035 7036 7037 7038 7039 7040 7041 7042 7043 7044 7045 7046 7047 7048 7049 7050 7051 7052 7053 7054 7055 7056 7057 7058 7059 7060 7061 7062 7063 7064 7065 7066 7067 7068 7069 7070 7071 7072 7073 7074 7075 7076 7077 7078 7079 7080 7081 7082 7083 7084 7085 7086 7087 7088 7089 7090 7091 7092 7093 7094 7095 7096 7097 7098 7099 7100 7101 7102 7103 7104 7105 7106 7107 7108 7109 7110 7111 7112 7113 7114 7115 7116 7117 7118 7119 7120 7121 7122 7123 7124 7125 7126 7127 7128 7129 7130 7131 7132 7133 7134 7135 7136 7137 7138 7139 7140 7141 7142 7143 7144 7145 7146 7147 7148 7149 7150 7151 7152 7153 7154 7155 7156 7157 7158 7159 7160 7161 7162 7163 7164 7165 7166 7167 7168 7169 7170 7171 7172 7173 7174 7175 7176 7177 7178 7179 7180 7181 7182 7183 7184 7185 7186 7187 7188 7189 7190 7191 7192 7193 7194 7195 7196 7197 7198 7199 7200 7201 7202 7203 7204 7205 7206 7207 7208 7209 7210 7211 7212 7213 7214 7215 7216 7217 7218 7219 7220 7221 7222 7223 7224 7225 7226 7227 7228 7229 7230 7231 7232 7233 7234 7235 7236 7237 7238 7239 7240 7241 7242 7243 7244 7245 7246 7247 7248 7249 7250 7251 7252 7253 7254 7255 7256 7257 7258 7259 7260 7261 7262 7263 7264 7265 7266 7267 7268 7269 7270 7271 7272 7273 7274 7275 7276 7277 7278 7279 7280 7281 7282 7283 7284 7285 7286 7287 7288 7289 7290 7291 7292 7293 7294 7295 7296 7297 7298 7299 7300 7301 7302 7303 7304 7305 7306 7307 7308 7309 7310 7311 7312 7313 7314 7315 7316 7317 7318 7319 7320 7321 7322 7323 7324 7325 7326 7327 7328 7329 7330 7331 7332 7333 7334 7335 7336 7337 7338 7339 7340 7341 7342 7343 7344 7345 7346 7347 7348 7349 7350 7351 7352 7353 7354 7355 7356 7357 7358 7359 7360 7361 7362 7363 7364 7365 7366 7367 7368 7369 7370 7371 7372 7373 7374 7375 7376 7377 7378 7379 7380 7381 7382 7383 7384 7385 7386 7387 7388 7389 7390 7391 7392 7393 7394 7395 7396 7397 7398 7399 7400 7401 7402 7403 7404 7405 7406 7407 7408 7409 7410 7411 7412 7413 7414 7415 7416 7417 7418 7419 7420 7421 7422 7423 7424 7425 7426 7427 7428 7429 7430 7431 7432 7433 7434 7435 7436 7437 7438 7439 7440 7441 7442 7443 7444 7445 7446 7447 7448 7449 7450 7451 7452 7453 7454 7455 7456 7457 7458 7459 7460 7461 7462 7463 7464 7465 7466 7467 7468 7469 7470 7471 7472 7473 7474 7475 7476 7477 7478 7479 7480 7481 7482 7483 7484 7485 7486 7487 7488 7489 7490 7491 7492 7493 7494 7495 7496 7497 7498 7499 7500 7501 7502 7503 7504 7505 7506 7507 7508 7509 7510 7511 7512 7513 7514 7515 7516 7517 7518 7519 7520 7521 7522 7523 7524 7525 7526 7527 7528 7529 7530 7531 7532 7533 7534 7535 7536 7537 7538 7539 7540 7541 7542 7543 7544 7545 7546 7547 7548 7549 7550 7551 7552 7553 7554 7555 7556 7557 7558 7559 7560 7561 7562 7563 7564 7565 7566 7567 7568 7569 7570 7571 7572 7573 7574 7575 7576 7577 7578 7579 7580 7581 7582 7583 7584 7585 7586 7587 7588 7589 7590 7591 7592 7593 7594 7595 7596 7597 7598 7599 7600 7601 7602 7603 7604 7605 7606 7607 7608 7609 7610 7611 7612 7613 7614 7615 7616 7617 7618 7619 7620 7621 7622 7623 7624 7625 7626 7627 7628 7629 7630 7631 7632 7633 7634 7635 7636 7637 7638 7639 7640 7641 7642 7643 7644 7645 7646 7647 7648 7649 7650 7651 7652 7653 7654 7655 7656 7657 7658 7659 7660 7661 7662 7663 7664 7665 7666 7667 7668 7669 7670 7671 7672 7673 7674 7675 7676 7677 7678 7679 7680 7681 7682 7683 7684 7685 7686 7687 7688 7689 7690 7691 7692 7693 7694 7695 7696 7697 7698 7699 7700 7701 7702 7703 7704 7705 7706 7707 7708 7709 7710 7711 7712 7713 7714 7715 7716 7717 7718 7719 7720 7721 7722 7723 7724 7725 7726 7727 7728 7729 7730 7731 7732 7733 7734 7735 7736 7737 7738 7739 7740 7741 7742 7743 7744 7745 7746 7747 7748 7749 7750 7751 7752 7753 7754 7755 7756 7757 7758 7759 7760 7761 7762 7763 7764 7765 7766 7767 7768 7769 7770 7771 7772 7773 7774 7775 7776 7777 7778 7779 7780 7781 7782 7783 7784 7785 7786 7787 7788 7789 7790 7791 7792 7793 7794 7795 7796 7797 7798 7799 7800 7801 7802 7803 7804 7805 7806 7807 7808 7809 7810 7811 7812 7813 7814 7815 7816 7817 7818 7819 7820 7821 7822 7823 7824 7825 7826 7827 7828 7829 7830 7831 7832 7833 7834 7835 7836 7837 7838 7839 7840 7841 7842 7843 7844 7845 7846 7847 7848 7849 7850 7851 7852 7853 7854 7855 7856 7857 7858 7859 7860 7861 7862 7863 7864 7865 7866 7867 7868 7869 7870 7871 7872 7873 7874 7875 7876 7877 7878 7879 7880 7881 7882 7883 7884 7885 7886 7887 7888 7889 7890 7891 7892 7893 7894 7895 7896 7897 7898 7899 7900 7901 7902 7903 7904 7905 7906 7907 7908 7909 7910 7911 7912 7913 7914 7915 7916 7917 7918 7919 7920 7921 7922 7923 7924 7925 7926 7927 7928 7929 7930 7931 7932 7933 7934 7935 7936 7937 7938 7939 7940 7941 7942 7943 7944 7945 7946 7947 7948 7949 7950 7951 7952 7953 7954 7955 7956 7957 7958 7959 7960 7961 7962 7963 7964 7965 7966 7967 7968 7969 7970 7971 7972 7973 7974 7975 7976 7977 7978 7979 7980 7981 7982 7983 7984 7985 7986 7987 7988 7989 7990 7991 7992 7993 7994 7995 7996 7997 7998 7999 8000 8001 8002 8003 8004 8005 8006 8007 8008 8009 8010 8011 8012 8013 8014 8015 8016 8017 8018 8019 8020 8021 8022 8023 8024 8025 8026 8027 8028 8029 8030 8031 8032 8033 8034 8035 8036 8037 8038 8039 8040 8041 8042 8043 8044 8045 8046 8047 8048 8049 8050 8051 8052 8053 8054 8055 8056 8057 8058 8059 8060 8061 8062 8063 8064 8065 8066 8067 8068 8069 8070 8071 8072 8073 8074 8075 8076 8077 8078 8079 8080 8081 8082 8083 8084 8085 8086 8087 8088 8089 8090 8091 8092 8093 8094 8095 8096 8097 8098 8099 8100 8101 8102 8103 8104 8105 8106 8107 8108 8109 8110 8111 8112 8113 8114 8115 8116 8117 8118 8119 8120 8121 8122 8123 8124 8125 8126 8127 8128 8129 8130 8131 8132 8133 8134 8135 8136 8137 8138 8139 8140 8141 8142 8143 8144 8145 8146 8147 8148 8149 8150 8151 8152 8153 8154 8155 8156 8157 8158 8159 8160 8161 8162 8163 8164 8165 8166 8167 8168 8169 8170 8171 8172 8173 8174 8175 8176 8177 8178 8179 8180 8181 8182 8183 8184 8185 8186 8187 8188 8189 8190 8191 8192 8193 8194 8195 8196 8197 8198 8199 8200 8201 8202 8203 8204 8205 8206 8207 8208 8209 8210 8211 8212 8213 8214 8215 8216 8217 8218 8219 8220 8221 8222 8223 8224 8225 8226 8227 8228 8229 8230 8231 8232 8233 8234 8235 8236 8237 8238 8239 8240 8241 8242 8243 8244 8245 8246 8247 8248 8249 8250 8251 8252 8253 8254 8255 8256 8257 8258 8259 8260 8261 8262 8263 8264 8265 8266 8267 8268 8269 8270 8271 8272 8273 8274 8275 8276 8277 8278 8279 8280 8281 8282 8283 8284 8285 8286 8287 8288 8289 8290 8291 8292 8293 8294 8295 8296 8297 8298 8299 8300 8301 8302 8303 8304 8305 8306 8307 8308 8309 8310 8311 8312 8313 8314 8315 8316 8317 8318 8319 8320 8321 8322 8323 8324 8325 8326 8327 8328 8329 8330 8331 8332 8333 8334 8335 8336 8337 8338 8339 8340 8341 8342 8343 8344 8345 8346 8347 8348 8349 8350 8351 8352 8353 8354 8355 8356 8357 8358 8359 8360 8361 8362 8363 8364 8365 8366 8367 8368 8369 8370 8371 8372 8373 8374 8375 8376 8377 8378 8379 8380 8381 8382 8383 8384 8385 8386 8387 8388 8389 8390 8391 8392 8393 8394 8395 8396 8397 8398 8399 8400 8401 8402 8403 8404 8405 8406 8407 8408 8409 8410 8411 8412 8413 8414 8415 8416 8417 8418 8419 8420 8421 8422 8423 8424 8425 8426 8427 8428 8429 8430 8431 8432 8433 8434 8435 8436 8437 8438 8439 8440 8441 8442 8443 8444 8445 8446 8447 8448 8449 8450 8451 8452 8453 8454 8455 8456 8457 8458 8459 8460 8461 8462 8463 8464 8465 8466 8467 8468 8469 8470 8471 8472 8473 8474 8475 8476 8477 8478 8479 8480 8481 8482 8483 8484 8485 8486 8487 8488 8489 8490 8491 8492 8493 8494 8495 8496 8497 8498 8499 8500 8501 8502 8503 8504 8505 8506 8507 8508 8509 8510 8511 8512 8513 8514 8515 8516 8517 8518 8519 8520 8521 8522 8523 8524 8525 8526 8527 8528 8529 8530 8531 8532 8533 8534 8535 8536 8537 8538 8539 8540 8541 8542 8543 8544 8545 8546 8547 8548 8549 8550 8551 8552 8553 8554 8555 8556 8557 8558 8559 8560 8561 8562 8563 8564 8565 8566 8567 8568 8569 8570 8571 8572 8573 8574 8575 8576 8577 8578 8579 8580 8581 8582 8583 8584 8585 8586 8587 8588 8589 8590 8591 8592 8593 8594 8595 8596 8597 8598 8599 8600 8601 8602 8603 8604 8605 8606 8607 8608 8609 8610 8611 8612 8613 8614 8615 8616 8617 8618 8619 8620 8621 8622 8623 8624 8625 8626 8627 8628 8629 8630 8631 8632 8633 8634 8635 8636 8637 8638 8639 8640 8641 8642 8643 8644 8645 8646 8647 8648 8649 8650 8651 8652 8653 8654 8655 8656 8657 8658 8659 8660 8661 8662 8663 8664 8665 8666 8667 8668 8669 8670 8671 8672 8673 8674 8675 8676 8677 8678 8679 8680 8681 8682 8683 8684 8685 8686 8687 8688 8689 8690 8691 8692 8693 8694 8695 8696 8697 8698 8699 8700 8701 8702 8703 8704 8705 8706 8707 8708 8709 8710 8711 8712 8713 8714 8715 8716 8717 8718 8719 8720 8721 8722 8723 8724 8725 8726 8727 8728 8729 8730 8731 8732 8733 8734 8735 8736 8737 8738 8739 8740 8741 8742 8743 8744 8745 8746 8747 8748 8749 8750 8751 8752 8753 8754 8755 8756 8757 8758 8759 8760 8761 8762 8763 8764 8765 8766 8767 8768 8769 8770 8771 8772 8773 8774 8775 8776 8777 8778 8779 8780 8781 8782 8783 8784 8785 8786 8787 8788 8789 8790 8791 8792 8793 8794 8795 8796 8797 8798 8799 8800 8801 8802 8803 8804 8805 8806 8807 8808 8809 8810 8811 8812 8813 8814 8815 8816 8817 8818 8819 8820 8821 8822 8823 8824 8825 8826 8827 8828 8829 8830 8831 8832 8833 8834 8835 8836 8837 8838 8839 8840 8841 8842 8843 8844 8845 8846 8847 8848 8849 8850 8851 8852 8853 8854 8855 8856 8857 8858 8859 8860 8861 8862 8863 8864 8865 8866 8867 8868 8869 8870 8871 8872 8873 8874 8875 8876 8877 8878 8879 8880 8881 8882 8883 8884 8885 8886 8887 8888 8889 8890 8891 8892 8893 8894 8895 8896 8897 8898 8899 8900 8901 8902 8903 8904 8905 8906 8907 8908 8909 8910 8911 8912 8913 8914 8915 8916 8917 8918 8919 8920 8921 8922 8923 8924 8925 8926 8927 8928 8929 8930 8931 8932 8933 8934 8935 8936 8937 8938 8939 8940 8941 8942 8943 8944 8945 8946 8947 8948 8949 8950 8951 8952 8953 8954 8955 8956 8957 8958 8959 8960 8961 8962 8963 8964 8965 8966 8967 8968 8969 8970 8971 8972 8973 8974 8975 8976 8977 8978 8979 8980 8981 8982 8983 8984 8985 8986 8987 8988 8989 8990 8991 8992 8993 8994 8995 8996 8997 8998 8999 9000 9001 9002 9003 9004 9005 9006 9007 9008 9009 9010 9011 9012 9013 9014 9015 9016 9017 9018 9019 9020 9021 9022 9023 9024 9025 9026 9027 9028 9029 9030 9031 9032 9033 9034 9035 9036 9037 9038 9039 9040 9041 9042 9043 9044 9045 9046 9047 9048 9049 9050 9051 9052 9053 9054 9055 9056 9057 9058 9059 9060 9061 9062 9063 9064 9065 9066 9067 9068 9069 9070 9071 9072 9073 9074 9075 9076 9077 9078 9079 9080 9081 9082 9083 9084 9085 9086 9087 9088 9089 9090 9091 9092 9093 9094 9095 9096 9097 9098 9099 9100 9101 9102 9103 9104 9105 9106 9107 9108 9109 9110 9111 9112 9113 9114 9115 9116 9117 9118 9119 9120 9121 9122 9123 9124 9125 9126 9127 9128 9129 9130 9131 9132 9133 9134 9135 9136 9137 9138 9139 9140 9141 9142 9143 9144 9145 9146 9147 9148 9149 9150 9151 9152 9153 9154 9155 9156 9157 9158 9159 9160 9161 9162 9163 9164 9165 9166 9167 9168 9169 9170 9171 9172 9173 9174 9175 9176 9177 9178 9179 9180 9181 9182 9183 9184 9185 9186 9187 9188 9189 9190 9191 9192 9193 9194 9195 9196 9197 9198 9199 9200 9201 9202 9203 9204 9205 9206 9207 9208 9209 9210 9211 9212 9213 9214 9215 9216 9217 9218 9219 9220 9221 9222 9223 9224 9225 9226 9227 9228 9229 9230 9231 9232 9233 9234 9235 9236 9237 9238 9239 9240 9241 9242 9243 9244 9245 9246 9247 9248 9249 9250 9251 9252 9253 9254 9255 9256 9257 9258 9259 9260 9261 9262 9263 9264 9265 9266 9267 9268 9269 9270 9271 9272 9273 9274 9275 9276 9277 9278 9279 9280 9281 9282 9283 9284 9285 9286 9287 9288 9289 9290 9291 9292 9293 9294 9295 9296 9297 9298 9299 9300 9301 9302 9303 9304 9305 9306 9307 9308 9309 9310 9311 9312 9313 9314 9315 9316 9317 9318 9319 9320 9321 9322 9323 9324 9325 9326 9327 9328 9329 9330 9331 9332 9333 9334 9335 9336 9337 9338 9339 9340 9341 9342 9343 9344 9345 9346 9347 9348 9349 9350 9351 9352 9353 9354 9355 9356 9357 9358 9359 9360 9361 9362 9363 9364 9365 9366 9367 9368 9369 9370 9371 9372 9373 9374 9375 9376 9377 9378 9379 9380 9381 9382 9383 9384 9385 9386 9387 9388 9389 9390 9391 9392 9393 9394 9395 9396 9397 9398 9399 9400 9401 9402 9403 9404 9405 9406 9407 9408 9409 9410 9411 9412 9413 9414 9415 9416 9417 9418 9419 9420 9421 9422 9423 9424 9425 9426 9427 9428 9429 9430 9431 9432 9433 9434 9435 9436 9437 9438 9439 9440 9441 9442 9443 9444 9445 9446 9447 9448 9449 9450 9451 9452 9453 9454 9455 9456 9457 9458 9459 9460 9461 9462 9463 9464 9465 9466 9467 9468 9469 9470 9471 9472 9473 9474 9475 9476 9477 9478 9479 9480 9481 9482 9483 9484 9485 9486 9487 9488 9489 9490 9491 9492 9493 9494 9495 9496 9497 9498 9499 9500 9501 9502 9503 9504 9505 9506 9507 9508 9509 9510 9511 9512 9513 9514 9515 9516 9517 9518 9519 9520 9521 9522 9523 9524 9525 9526 9527 9528 9529 9530 9531 9532 9533 9534 9535 9536 9537 9538 9539 9540 9541 9542 9543 9544 9545 9546 9547 9548 9549 9550 9551 9552 9553 9554 9555 9556 9557 9558 9559 9560 9561 9562 9563 9564 9565 9566 9567 9568 9569 9570 9571 9572 9573 9574 9575 9576 9577 9578 9579 9580 9581 9582 9583 9584 9585 9586 9587 9588 9589 9590 9591 9592 9593 9594 9595 9596 9597 9598 9599 9600 9601 9602 9603 9604 9605 9606 9607 9608 9609 9610 9611 9612 9613 9614 9615 9616 9617 9618 9619 9620 9621 9622 9623 9624 9625 9626 9627 9628 9629 9630 9631 9632 9633 9634 9635 9636 9637 9638 9639 9640 9641 9642 9643 9644 9645 9646 9647 9648 9649 9650 9651 9652 9653 9654 9655 9656 9657 9658 9659 9660 9661 9662 9663 9664 9665 9666 9667 9668 9669 9670 9671 9672 9673 9674 9675 9676 9677 9678 9679 9680 9681 9682 9683 9684 9685 9686 9687 9688 9689 9690 9691 9692 9693 9694 9695 9696 9697 9698 9699 9700 9701 9702 9703 9704 9705 9706 9707 9708 9709 9710 9711 9712 9713 9714 9715 9716 9717 9718 9719 9720 9721 9722 9723 9724 9725 9726 9727 9728 9729 9730 9731 9732 9733 9734 9735 9736 9737 9738 9739 9740 9741 9742 9743 9744 9745 9746 9747 9748 9749 9750 9751 9752 9753 9754 9755 9756 9757 9758 9759 9760 9761 9762 9763 9764 9765 9766 9767 9768 9769 9770 9771 9772 9773 9774 9775 9776 9777 9778 9779 9780 9781 9782 9783 9784 9785 9786 9787 9788 9789 9790 9791 9792 9793 9794 9795 9796 9797 9798 9799 9800 9801 9802 9803 9804 9805 9806 9807 9808 9809 9810 9811 9812 9813 9814 9815 9816 9817 9818 9819 9820 9821 9822 9823 9824 9825 9826 9827 9828 9829 9830 9831 9832 9833 9834 9835 9836 9837 9838 9839 9840 9841 9842 9843 9844 9845 9846 9847 9848 9849 9850 9851 9852 9853 9854 9855 9856 9857 9858 9859 9860 9861 9862 9863 9864 9865 9866 9867 9868 9869 9870 9871 9872 9873 9874 9875 9876 9877 9878 9879 9880 9881 9882 9883 9884 9885 9886 9887 9888 9889 9890 9891 9892 9893 9894 9895 9896 9897 9898 9899 9900 9901 9902 9903 9904 9905 9906 9907 9908 9909 9910 9911 9912 9913 9914 9915 9916 9917 9918 9919 9920 9921 9922 9923 9924 9925 9926 9927 9928 9929 9930 9931 9932 9933 9934 9935 9936 9937 9938 9939 9940 9941 9942 9943 9944 9945 9946 9947 9948 9949 9950 9951 9952 9953 9954 9955 9956 9957 9958 9959 9960 9961 9962 9963 9964 9965 9966 9967 9968 9969 9970 9971 9972 9973 9974 9975 9976 9977 9978 9979 9980 9981 9982 9983 9984 9985 9986 9987 9988 9989 9990 9991 9992 9993 9994 9995 9996 9997 9998 9999 10000 10001 10002 10003 10004 10005 10006 10007 10008 10009 10010 10011 10012 10013 10014 10015 10016 10017 10018 10019 10020 10021 10022 10023 10024 10025 10026 10027 10028 10029 10030 10031 10032 10033 10034 10035 10036 10037 10038 10039 10040 10041 10042 10043 10044 10045 10046 10047 10048 10049 10050 10051 10052 10053 10054 10055 10056 10057 10058 10059 10060 10061 10062 10063 10064 10065 10066 10067 10068 10069 10070 10071 10072 10073 10074 10075 10076 10077 10078 10079 10080 10081 10082 10083 10084 10085 10086 10087 10088 10089 10090 10091 10092 10093 10094 10095 10096 10097 10098 10099 10100 10101 10102 10103 10104 10105 10106 10107 10108 10109 10110 10111 10112 10113 10114 10115 10116 10117 10118 10119 10120 10121 10122 10123 10124 10125 10126 10127 10128 10129 10130 10131 10132 10133 10134 10135 10136 10137 10138 10139 10140 10141 10142 10143 10144 10145 10146 10147 10148 10149 10150 10151 10152 10153 10154 10155 10156 10157 10158 10159 10160 10161 10162 10163 10164 10165 10166 10167 10168 10169 10170 10171 10172 10173 10174 10175 10176 10177 10178 10179 10180 10181 10182 10183 10184 10185 10186 10187 10188 10189 10190 10191 10192 10193 10194 10195 10196 10197 10198 10199 10200 10201 10202 10203 10204 10205 10206 10207 10208 10209 10210 10211 10212 10213 10214 10215 10216 10217 10218 10219 10220 10221 10222 10223 10224 10225 10226 10227 10228 10229 10230 10231 10232 10233 10234 10235 10236 10237 10238 10239 10240 10241 10242 10243 10244 10245 10246 10247 10248 10249 10250 10251 10252 10253 10254 10255 10256 10257 10258 10259 10260 10261 10262 10263 10264 10265 10266 10267 10268 10269 10270 10271 10272 10273 10274 10275 10276 10277 10278 10279 10280 10281 10282 10283 10284 10285 10286 10287 10288 10289 10290 10291 10292 10293 10294 10295 10296 10297 10298 10299 10300 10301 10302 10303 10304 10305 10306 10307 10308 10309 10310 10311 10312 10313 10314 10315 10316 10317 10318 10319 10320 10321 10322 10323 10324 10325 10326 10327 10328 10329 10330 10331 10332 10333 10334 10335 10336 10337 10338 10339 10340 10341 10342 10343 10344 10345 10346 10347 10348 10349 10350 10351 10352 10353 10354 10355 10356 10357 10358 10359 10360 10361 10362 10363 10364 10365 10366 10367 10368 10369 10370 10371 10372 10373 10374 10375 10376 10377 10378 10379 10380 10381 10382 10383 10384 10385 10386 10387 10388 10389 10390 10391 10392 10393 10394 10395 10396 10397 10398 10399 10400 10401 10402 10403 10404 10405 10406 10407 10408 10409 10410 10411 10412 10413 10414 10415 10416 10417 10418 10419 10420 10421 10422 10423 10424 10425 10426 10427 10428 10429 10430 10431 10432 10433 10434 10435 10436 10437 10438 10439 10440 10441 10442 10443 10444 10445 10446 10447 10448 10449 10450 10451 10452 10453 10454 10455 10456 10457 10458 10459 10460 10461 10462 10463 10464 10465 10466 10467 10468 10469 10470 10471 10472 10473 10474 10475 10476 10477 10478 10479 10480 10481 10482 10483 10484 10485 10486 10487 10488 10489 10490 10491 10492 10493 10494 10495 10496 10497 10498 10499 10500 10501 10502 10503 10504 10505 10506 10507 10508 10509 10510 10511 10512 10513 10514 10515 10516 10517 10518 10519 10520 10521 10522 10523 10524 10525 10526 10527 10528 10529 10530 10531 10532 10533 10534 10535 10536 10537 10538 10539 10540 10541 10542 10543 10544 10545 10546 10547 10548 10549 10550 10551 10552 10553 10554 10555 10556 10557 10558 10559 10560 10561 10562 10563 10564 10565 10566 10567 10568 10569 10570 10571 10572 10573 10574 10575 10576 10577 10578 10579 10580 10581 10582 10583 10584 10585 10586 10587 10588 10589 10590 10591 10592 10593 10594 10595 10596 10597 10598 10599 10600 10601 10602 10603 10604 10605 10606 10607 10608 10609 10610 10611 10612 10613 10614 10615 10616 10617 10618 10619 10620 10621 10622 10623 10624 10625 10626 10627 10628 10629 10630 10631 10632 10633 10634 10635 10636 10637 10638 10639 10640 10641 10642 10643 10644 10645 10646 10647 10648 10649 10650 10651 10652 10653 10654 10655 10656 10657 10658 10659 10660 10661 10662 10663 10664 10665 10666 10667 10668 10669 10670 10671 10672 10673 10674 10675 10676 10677 10678 10679 10680 10681 10682 10683 10684 10685 10686 10687 10688 10689 10690 10691 10692 10693 10694 10695 10696 10697 10698 10699 10700 10701 10702 10703 10704 10705 10706 10707 10708 10709 10710 10711 10712 10713 10714 10715 10716 10717 10718 10719 10720 10721 10722 10723 10724 10725 10726 10727 10728 10729 10730 10731 10732 10733 10734 10735 10736 10737 10738 10739 10740 10741 10742 10743 10744 10745 10746 10747 10748 10749 10750 10751 10752 10753 10754 10755 10756 10757 10758 10759 10760 10761 10762 10763 10764 10765 10766 10767 10768 10769 10770 10771 10772 10773 10774 10775 10776 10777 10778 10779 10780 10781 10782 10783 10784 10785 10786 10787 10788 10789 10790 10791 10792 10793 10794 10795 10796 10797 10798 10799 10800 10801 10802 10803 10804 10805 10806 10807 10808 10809 10810 10811 10812 10813 10814 10815 10816 10817 10818 10819 10820 10821 10822 10823 10824 10825 10826 10827 10828 10829 10830 10831 10832 10833 10834 10835 10836 10837 10838 10839 10840 10841 10842 10843 10844 10845 10846 10847 10848 10849 10850 10851 10852 10853 10854 10855 10856 10857 10858 10859 10860 10861 10862 10863 10864 10865 10866 10867 10868 10869 10870 10871 10872 10873 10874 10875 10876 10877 10878 10879 10880 10881 10882 10883 10884 10885 10886 10887 10888 10889 10890 10891 10892 10893 10894 10895 10896 10897 10898 10899 10900 10901 10902 10903 10904 10905 10906 10907 10908 10909 10910 10911 10912 10913 10914 10915 10916 10917 10918 10919 10920 10921 10922 10923 10924 10925 10926 10927 10928 10929 10930 10931 10932 10933 10934 10935 10936 10937 10938 10939 10940 10941 10942 10943 10944 10945 10946 10947 10948 10949 10950 10951 10952 10953 10954 10955 10956 10957 10958 10959 10960 10961 10962 10963 10964 10965 10966 10967 10968 10969 10970 10971 10972 10973 10974 10975 10976 10977 10978 10979 10980 10981 10982 10983 10984 10985 10986 10987 10988 10989 10990 10991 10992 10993 10994 10995 10996 10997 10998 10999 11000 11001 11002 11003 11004 11005 11006 11007 11008 11009 11010 11011 11012 11013 11014 11015 11016 11017 11018 11019 11020 11021 11022 11023 11024 11025 11026 11027 11028 11029 11030 11031 11032 11033 11034 11035 11036 11037 11038 11039 11040 11041 11042 11043 11044 11045 11046 11047 11048 11049 11050 11051 11052 11053 11054 11055 11056 11057 11058 11059 11060 11061 11062 11063 11064 11065 11066 11067 11068 11069 11070 11071 11072 11073 11074 11075 11076 11077 11078 11079 11080 11081 11082 11083 11084 11085 11086 11087 11088 11089 11090 11091 11092 11093 11094 11095 11096 11097 11098 11099 11100 11101 11102 11103 11104 11105 11106 11107 11108 11109 11110 11111 11112 11113 11114 11115 11116 11117 11118 11119 11120 11121 11122 11123 11124 11125 11126 11127 11128 11129 11130 11131 11132 11133 11134 11135 11136 11137 11138 11139 11140 11141 11142 11143 11144 11145 11146 11147 11148 11149 11150 11151 11152 11153 11154 11155 11156 11157 11158 11159 11160 11161 11162 11163 11164 11165 11166 11167 11168 11169 11170 11171 11172 11173 11174 11175 11176 11177 11178 11179 11180 11181 11182 11183 11184 11185 11186 11187 11188 11189 11190 11191 11192 11193 11194 11195 11196 11197 11198 11199 11200 11201 11202 11203 11204 11205 11206 11207 11208 11209 11210 11211 11212 11213 11214 11215 11216 11217 11218 11219 11220 11221 11222 11223 11224 11225 11226 11227 11228 11229 11230 11231 11232 11233 11234 11235 11236 11237 11238 11239 11240 11241 11242 11243 11244 11245 11246 11247 11248 11249 11250 11251 11252 11253 11254 11255 11256 11257 11258 11259 11260 11261 11262 11263 11264 11265 11266 11267 11268 11269 11270 11271 11272 11273 11274 11275 11276 11277 11278 11279 11280 11281 11282 11283 11284 11285 11286 11287 11288 11289 11290 11291 11292 11293 11294 11295 11296 11297 11298 11299 11300 11301 11302 11303 11304 11305 11306 11307 11308 11309 11310 11311 11312 11313 11314 11315 11316 11317 11318 11319 11320 11321 11322 11323 11324 11325 11326 11327 11328 11329 11330 11331 11332 11333 11334 11335 11336 11337 11338 11339 11340 11341 11342 11343 11344 11345 11346 11347 11348 11349 11350 11351 11352 11353 11354 11355 11356 11357 11358 11359 11360 11361 11362 11363 11364 11365 11366 11367 11368 11369 11370 11371 11372 11373 11374 11375 11376 11377 11378 11379 11380 11381 11382 11383 11384 11385 11386 11387 11388 11389 11390 11391 11392 11393 11394 11395 11396 11397 11398 11399 11400 11401 11402 11403 11404 11405 11406 11407 11408 11409 11410 11411 11412 11413 11414 11415 11416 11417 11418 11419 11420 11421 11422 11423 11424 11425 11426 11427 11428 11429 11430 11431 11432 11433 11434 11435 11436 11437 11438 11439 11440 11441 11442 11443 11444 11445 11446 11447 11448 11449 11450 11451 11452 11453 11454 11455 11456 11457 11458 11459 11460 11461 11462 11463 11464 11465 11466 11467 11468 11469 11470 11471 11472 11473 11474 11475 11476 11477 11478 11479 11480 11481 11482 11483 11484 11485 11486 11487 11488 11489 11490 11491 11492 11493 11494 11495 11496 11497 11498 11499 11500 11501 11502 11503 11504 11505 11506 11507 11508 11509 11510 11511 11512 11513 11514 11515 11516 11517 11518 11519 11520 11521 11522 11523 11524 11525 11526 11527 11528 11529 11530 11531 11532 11533 11534 11535 11536 11537 11538 11539 11540 11541 11542 11543 11544 11545 11546 11547 11548 11549 11550 11551 11552 11553 11554 11555 11556 11557 11558 11559 11560 11561 11562 11563 11564 11565 11566 11567 11568 11569 11570 11571 11572 11573 11574 11575 11576 11577 11578 11579 11580 11581 11582 11583 11584 11585 11586 11587 11588 11589 11590 11591 11592 11593 11594 11595 11596 11597 11598 11599 11600 11601 11602 11603 11604 11605 11606 11607 11608 11609 11610 11611 11612 11613 11614 11615 11616 11617 11618 11619 11620 11621 11622 11623 11624 11625 11626 11627 11628 11629 11630 11631 11632 11633 11634 11635 11636 11637 11638 11639 11640 11641 11642 11643 11644 11645 11646 11647 11648 11649 11650 11651 11652 11653 11654 11655 11656 11657 11658 11659 11660 11661 11662 11663 11664 11665 11666 11667 11668 11669 11670 11671 11672 11673 11674 11675 11676 11677 11678 11679 11680 11681 11682 11683 11684 11685 11686 11687 11688 11689 11690 11691 11692 11693 11694 11695 11696 11697 11698 11699 11700 11701 11702 11703 11704 11705 11706 11707 11708 11709 11710 11711 11712 11713 11714 11715 11716 11717 11718 11719 11720 11721 11722 11723 11724 11725 11726 11727 11728 11729 11730 11731 11732 11733 11734 11735 11736 11737 11738 11739 11740 11741 11742 11743 11744 11745 11746 11747 11748 11749 11750 11751 11752 11753 11754 11755 11756 11757 11758 11759 11760 11761 11762 11763 11764 11765 11766 11767 11768 11769 11770 11771 11772 11773 11774 11775 11776 11777 11778 11779 11780 11781 11782 11783 11784 11785 11786 11787 11788 11789 11790 11791 11792 11793 11794 11795 11796 11797 11798 11799 11800 11801 11802 11803 11804 11805 11806 11807 11808 11809 11810 11811 11812 11813 11814 11815 11816 11817 11818 11819 11820 11821 11822 11823 11824 11825 11826 11827 11828 11829 11830 11831 11832 11833 11834 11835 11836 11837 11838 11839 11840 11841 11842 11843 11844 11845 11846 11847 11848 11849 11850 11851 11852 11853 11854 11855 11856 11857 11858 11859 11860 11861 11862 11863 11864 11865 11866 11867 11868 11869 11870 11871 11872 11873 11874 11875 11876 11877 11878 11879 11880 11881 11882 11883 11884 11885 11886 11887 11888 11889 11890 11891 11892 11893 11894 11895 11896 11897 11898 11899 11900 11901 11902 11903 11904 11905 11906 11907 11908 11909 11910 11911 11912 11913 11914 11915 11916 11917 11918 11919 11920 11921 11922 11923 11924 11925 11926 11927 11928 11929 11930 11931 11932 11933 11934 11935 11936 11937 11938 11939 11940 11941 11942 11943 11944 11945 11946 11947 11948 11949 11950 11951 11952 11953 11954 11955 11956 11957 11958 11959 11960 11961 11962 11963 11964 11965 11966 11967 11968 11969 11970 11971 11972 11973 11974 11975 11976 11977 11978 11979 11980 11981 11982 11983 11984 11985 11986 11987 11988 11989 11990 11991 11992 11993 11994 11995 11996 11997 11998 11999 12000 12001 12002 12003 12004 12005 12006 12007 12008 12009 12010 12011 12012 12013 12014 12015 12016 12017 12018 12019 12020 12021 12022 12023 12024 12025 12026 12027 12028 12029 12030 12031 12032 12033 12034 12035 12036 12037 12038 12039 12040 12041 12042 12043 12044 12045 12046 12047 12048 12049 12050 12051 12052 12053 12054 12055 12056 12057 12058 12059 12060 12061 12062 12063 12064 12065 12066 12067 12068 12069 12070 12071 12072 12073 12074 12075 12076 12077 12078 12079 12080 12081 12082 12083 12084 12085 12086 12087 12088 12089 12090 12091 12092 12093 12094 12095 12096 12097 12098 12099 12100 12101 12102 12103 12104 12105 12106 12107 12108 12109 12110 12111 12112 12113 12114 12115 12116 12117 12118 12119 12120 12121 12122 12123 12124 12125 12126 12127 12128 12129 12130 12131 12132 12133 12134 12135 12136 12137 12138 12139 12140 12141 12142 12143 12144 12145 12146 12147 12148 12149 12150 12151 12152 12153 12154 12155 12156 12157 12158 12159 12160 12161 12162 12163 12164 12165 12166 12167 12168 12169 12170 12171 12172 12173 12174 12175 12176 12177 12178 12179 12180 12181 12182 12183 12184 12185 12186 12187 12188 12189 12190 12191 12192 12193 12194 12195 12196 12197 12198 12199 12200 12201 12202 12203 12204 12205 12206 12207 12208 12209 12210 12211 12212 12213 12214 12215 12216 12217 12218 12219 12220 12221 12222 12223 12224 12225 12226 12227 12228 12229 12230 12231 12232 12233 12234 12235 12236 12237 12238 12239 12240 12241 12242 12243 12244 12245 12246 12247 12248 12249 12250 12251 12252 12253 12254 12255 12256 12257 12258 12259 12260 12261 12262 12263 12264 12265 12266 12267 12268 12269 12270 12271 12272 12273 12274 12275 12276 12277 12278 12279 12280 12281 12282 12283 12284 12285 12286 12287 12288 12289 12290 12291 12292 12293 12294 12295 12296 12297 12298 12299 12300 12301 12302 12303 12304 12305 12306 12307 12308 12309 12310 12311 12312 12313 12314 12315 12316 12317 12318 12319 12320 12321 12322 12323 12324 12325 12326 12327 12328 12329 12330 12331 12332 12333 12334 12335 12336 12337 12338 12339 12340 12341 12342 12343 12344 12345 12346 12347 12348 12349 12350 12351 12352 12353 12354 12355 12356 12357 12358 12359 12360 12361 12362 12363 12364 12365 12366 12367 12368 12369 12370 12371 12372 12373 12374 12375 12376 12377 12378 12379 12380 12381 12382 12383 12384 12385 12386 12387 12388 12389 12390 12391 12392 12393 12394 12395 12396 12397 12398 12399 12400 12401 12402 12403 12404 12405 12406 12407 12408 12409 12410 12411 12412 12413 12414 12415 12416 12417 12418 12419 12420 12421 12422 12423 12424 12425 12426 12427 12428 12429 12430 12431 12432 12433 12434 12435 12436 12437 12438 12439 12440 12441 12442 12443 12444 12445 12446 12447 12448 12449 12450 12451 12452 12453 12454 12455 12456 12457 12458 12459 12460 12461 12462 12463 12464 12465 12466 12467 12468 12469 12470 12471 12472 12473 12474 12475 12476 12477 12478 12479 12480 12481 12482 12483 12484 12485 12486 12487 12488 12489 12490 12491 12492 12493 12494 12495 12496 12497 12498 12499 12500 12501 12502 12503 12504 12505 12506 12507 12508 12509 12510 12511 12512 12513 12514 12515 12516 12517 12518 12519 12520 12521 12522 12523 12524 12525 12526 12527 12528 12529 12530 12531 12532 12533 12534 12535 12536 12537 12538 12539 12540 12541 12542 12543 12544 12545 12546 12547 12548 12549 12550 12551 12552 12553 12554 12555 12556 12557 12558 12559 12560 12561 12562 12563 12564 12565 12566 12567 12568 12569 12570 12571 12572 12573 12574 12575 12576 12577 12578 12579 12580 12581 12582 12583 12584 12585 12586 12587 12588 12589 12590 12591 12592 12593 12594 12595 12596 12597 12598 12599 12600 12601 12602 12603 12604 12605 12606 12607 12608 12609 12610 12611 12612 12613 12614 12615 12616 12617 12618 12619 12620 12621 12622 12623 12624 12625 12626 12627 12628 12629 12630 12631 12632 12633 12634 12635 12636 12637 12638 12639 12640 12641 12642 12643 12644 12645 12646 12647 12648 12649 12650 12651 12652 12653 12654 12655 12656 12657 12658 12659 12660 12661 12662 12663 12664 12665 12666 12667 12668 12669 12670 12671 12672 12673 12674 12675 12676 12677 12678 12679 12680 12681 12682 12683 12684 12685 12686 12687 12688 12689 12690 12691 12692 12693 12694 12695 12696 12697 12698 12699 12700 12701 12702 12703 12704 12705 12706 12707 12708 12709 12710 12711 12712 12713 12714 12715 12716 12717 12718 12719 12720 12721 12722 12723 12724 12725 12726 12727 12728 12729 12730 12731 12732 12733 12734 12735 12736 12737 12738 12739 12740 12741 12742 12743 12744 12745 12746 12747 12748 12749 12750 12751 12752 12753 12754 12755 12756 12757 12758 12759 12760 12761 12762 12763 12764 12765 12766 12767 12768 12769 12770 12771 12772 12773 12774 12775 12776 12777 12778 12779 12780 12781 12782 12783 12784 12785 12786 12787 12788 12789 12790 12791 12792 12793 12794 12795 12796 12797 12798 12799 12800 12801 12802 12803 12804 12805 12806 12807 12808 12809 12810 12811 12812 12813 12814 12815 12816 12817 12818 12819 12820 12821 12822 12823 12824 12825 12826 12827 12828 12829 12830 12831 12832 12833 12834 12835 12836 12837 12838 12839 12840 12841 12842 12843 12844 12845 12846 12847 12848 12849 12850 12851 12852 12853 12854 12855 12856 12857 12858 12859 12860 12861 12862 12863 12864 12865 12866 12867 12868 12869 12870 12871 12872 12873 12874 12875 12876 12877 12878 12879 12880 12881 12882 12883 12884 12885 12886 12887 12888 12889 12890 12891 12892 12893 12894 12895 12896 12897 12898 12899 12900 12901 12902 12903 12904 12905 12906 12907 12908 12909 12910 12911 12912 12913 12914 12915 12916 12917 12918 12919 12920 12921 12922 12923 12924 12925 12926 12927 12928 12929 12930 12931 12932 12933 12934 12935 12936 12937 12938 12939 12940 12941 12942 12943 12944 12945 12946 12947 12948 12949 12950 12951 12952 12953 12954 12955 12956 12957 12958 12959 12960 12961 12962 12963 12964 12965 12966 12967 12968 12969 12970 12971 12972 12973 12974 12975 12976 12977 12978 12979 12980 12981 12982 12983 12984 12985 12986 12987 12988 12989 12990 12991 12992 12993 12994 12995 12996 12997 12998 12999 13000 13001 13002 13003 13004 13005 13006 13007 13008 13009 13010 13011 13012 13013 13014 13015 13016 13017 13018 13019 13020 13021 13022 13023 13024 13025 13026 13027 13028 13029 13030 13031 13032 13033 13034 13035 13036 13037 13038 13039 13040 13041 13042 13043 13044 13045 13046 13047 13048 13049 13050 13051 13052 13053 13054 13055 13056 13057 13058 13059 13060 13061 13062 13063 13064 13065 13066 13067 13068 13069 13070 13071 13072 13073 13074 13075 13076 13077 13078 13079 13080 13081 13082 13083 13084 13085 13086 13087 13088 13089 13090 13091 13092 13093 13094 13095 13096 13097 13098 13099 13100 13101 13102 13103 13104 13105 13106 13107 13108 13109 13110 13111 13112 13113 13114 13115 13116 13117 13118 13119 13120 13121 13122 13123 13124 13125 13126 13127 13128 13129 13130 13131 13132 13133 13134 13135 13136 13137 13138 13139 13140 13141 13142 13143 13144 13145 13146 13147 13148 13149 13150 13151 13152 13153 13154 13155 13156 13157 13158 13159 13160 13161 13162 13163 13164 13165 13166 13167 13168 13169 13170 13171 13172 13173 13174 13175 13176 13177 13178 13179 13180 13181 13182 13183 13184 13185 13186 13187 13188 13189 13190 13191 13192 13193 13194 13195 13196 13197 13198 13199 13200 13201 13202 13203 13204 13205 13206 13207 13208 13209 13210 13211 13212 13213 13214 13215 13216 13217 13218 13219 13220 13221 13222 13223 13224 13225 13226 13227 13228 13229 13230 13231 13232 13233 13234 13235 13236 13237 13238 13239 13240 13241 13242 13243 13244 13245 13246 13247 13248 13249 13250 13251 13252 13253 13254 13255 13256 13257 13258 13259 13260 13261 13262 13263 13264 13265 13266 13267 13268 13269 13270 13271 13272 13273 13274 13275 13276 13277 13278 13279 13280 13281 13282 13283 13284 13285 13286 13287 13288 13289 13290 13291 13292 13293 13294 13295 13296 13297 13298 13299 13300 13301 13302 13303 13304 13305 13306 13307 13308 13309 13310 13311 13312 13313 13314 13315 13316 13317 13318 13319 13320 13321 13322 13323 13324 13325 13326 13327 13328 13329 13330 13331 13332 13333 13334 13335 13336 13337 13338 13339 13340 13341 13342 13343 13344 13345 13346 13347 13348 13349 13350 13351 13352 13353 13354 13355 13356 13357 13358 13359 13360 13361 13362 13363 13364 13365 13366 13367 13368 13369 13370 13371 13372 13373 13374 13375 13376 13377 13378 13379 13380 13381 13382 13383 13384 13385 13386 13387 13388 13389 13390 13391 13392 13393 13394 13395 13396 13397 13398 13399 13400 13401 13402 13403 13404 13405 13406 13407 13408 13409 13410 13411 13412 13413 13414 13415 13416 13417 13418 13419 13420 13421 13422 13423 13424 13425 13426 13427 13428 13429 13430 13431 13432 13433 13434 13435 13436 13437 13438 13439 13440 13441 13442 13443 13444 13445 13446 13447 13448 13449 13450 13451 13452 13453 13454 13455 13456 13457 13458 13459 13460 13461 13462 13463 13464 13465 13466 13467 13468 13469 13470 13471 13472 13473 13474 13475 13476 13477 13478 13479 13480 13481 13482 13483 13484 13485 13486 13487 13488 13489 13490 13491 13492 13493 13494 13495 13496 13497 13498 13499 13500 13501 13502 13503 13504 13505 13506 13507 13508 13509 13510 13511 13512 13513 13514 13515 13516 13517 13518 13519 13520 13521 13522 13523 13524 13525 13526 13527 13528 13529 13530 13531 13532 13533 13534 13535 13536 13537 13538 13539 13540 13541 13542 13543 13544 13545 13546 13547 13548 13549 13550 13551 13552 13553 13554 13555 13556 13557 13558 13559 13560 13561 13562 13563 13564 13565 13566 13567 13568 13569 13570 13571 13572 13573 13574 13575 13576 13577 13578 13579 13580 13581 13582 13583 13584 13585 13586 13587 13588 13589 13590 13591 13592 13593 13594 13595 13596 13597 13598 13599 13600 13601 13602 13603 13604 13605 13606 13607 13608 13609 13610 13611 13612 13613 13614 13615 13616 13617 13618 13619 13620 13621 13622 13623 13624 13625 13626 13627 13628 13629 13630 13631 13632 13633 13634 13635 13636 13637 13638 13639 13640 13641 13642 13643 13644 13645 13646 13647 13648 13649 13650 13651 13652 13653 13654 13655 13656 13657 13658 13659 13660 13661 13662 13663 13664 13665 13666 13667 13668 13669 13670 13671 13672 13673 13674 13675 13676 13677 13678 13679 13680 13681 13682 13683 13684 13685 13686 13687 13688 13689 13690 13691 13692 13693 13694 13695 13696 13697 13698 13699 13700 13701 13702 13703 13704 13705 13706 13707 13708 13709 13710 13711 13712 13713 13714 13715 13716 13717 13718 13719 13720 13721 13722 13723 13724 13725 13726 13727 13728 13729 13730 13731 13732 13733 13734 13735 13736 13737 13738 13739 13740 13741 13742 13743 13744 13745 13746 13747 13748 13749 13750 13751 13752 13753 13754 13755 13756 13757 13758 13759 13760 13761 13762 13763 13764 13765 13766 13767 13768 13769 13770 13771 13772 13773 13774 13775 13776 13777 13778 13779 13780 13781 13782 13783 13784 13785 13786 13787 13788 13789 13790 13791 13792 13793 13794 13795 13796 13797 13798 13799 13800 13801 13802 13803 13804 13805 13806 13807 13808 13809 13810 13811 13812 13813 13814 13815 13816 13817 13818 13819 13820 13821 13822 13823 13824 13825 13826 13827 13828 13829 13830 13831 13832 13833 13834 13835 13836 13837 13838 13839 13840 13841 13842 13843 13844 13845 13846 13847 13848 13849 13850 13851 13852 13853 13854 13855 13856 13857 13858 13859 13860 13861 13862 13863 13864 13865 13866 13867 13868 13869 13870 13871 13872 13873 13874 13875 13876 13877 13878 13879 13880 13881 13882 13883 13884 13885 13886 13887 13888 13889 13890 13891 13892 13893 13894 13895 13896 13897 13898 13899 13900 13901 13902 13903 13904 13905 13906 13907 13908 13909 13910 13911 13912 13913 13914 13915 13916 13917 13918 13919 13920 13921 13922 13923 13924 13925 13926 13927 13928 13929 13930 13931 13932 13933 13934 13935 13936 13937 13938 13939 13940 13941 13942 13943 13944 13945 13946 13947 13948 13949 13950 13951 13952 13953 13954 13955 13956 13957 13958 13959 13960 13961 13962 13963 13964 13965 13966 13967 13968 13969 13970 13971 13972 13973 13974 13975 13976 13977 13978 13979 13980 13981 13982 13983 13984 13985 13986 13987 13988 13989 13990 13991 13992 13993 13994 13995 13996 13997 13998 13999 14000 14001 14002 14003 14004 14005 14006 14007 14008 14009 14010 14011 14012 14013 14014 14015 14016 14017 14018 14019 14020 14021 14022 14023 14024 14025 14026 14027 14028 14029 14030 14031 14032 14033 14034 14035 14036 14037 14038 14039 14040 14041 14042 14043 14044 14045 14046 14047 14048 14049 14050 14051 14052 14053 14054 14055 14056 14057 14058 14059 14060 14061 14062 14063 14064 14065 14066 14067 14068 14069 14070 14071 14072 14073 14074 14075 14076 14077 14078 14079 14080 14081 14082 14083 14084 14085 14086 14087 14088 14089 14090 14091 14092 14093 14094 14095 14096 14097 14098 14099 14100 14101 14102 14103 14104 14105 14106 14107 14108 14109 14110 14111 14112 14113 14114 14115 14116 14117 14118 14119 14120 14121 14122 14123 14124 14125 14126 14127 14128 14129 14130 14131 14132 14133 14134 14135 14136 14137 14138 14139 14140 14141 14142 14143 14144 14145 14146 14147 14148 14149 14150 14151 14152 14153 14154 14155 14156 14157 14158 14159 14160 14161 14162 14163 14164 14165 14166 14167 14168 14169 14170 14171 14172 14173 14174 14175 14176 14177 14178 14179 14180 14181 14182 14183 14184 14185 14186 14187 14188 14189 14190 14191 14192 14193 14194 14195 14196 14197 14198 14199 14200 14201 14202 14203 14204 14205 14206 14207 14208 14209 14210 14211 14212 14213 14214 14215 14216 14217 14218 14219 14220 14221 14222 14223 14224 14225 14226 14227 14228 14229 14230 14231 14232 14233 14234 14235 14236 14237 14238 14239 14240 14241 14242 14243 14244 14245 14246 14247 14248 14249 14250 14251 14252 14253 14254 14255 14256 14257 14258 14259 14260 14261 14262 14263 14264 14265 14266 14267 14268 14269 14270 14271 14272 14273 14274 14275 14276 14277 14278 14279 14280 14281 14282 14283 14284 14285 14286 14287 14288 14289 14290 14291 14292 14293 14294 14295 14296 14297 14298 14299 14300 14301 14302 14303 14304 14305 14306 14307 14308 14309 14310 14311 14312 14313 14314 14315 14316 14317 14318 14319 14320 14321 14322 14323 14324 14325 14326 14327 14328 14329 14330 14331 14332 14333 14334 14335 14336 14337 14338 14339 14340 14341 14342 14343 14344 14345 14346 14347 14348 14349 14350 14351 14352 14353 14354 14355 14356 14357 14358 14359 14360 14361 14362 14363 14364 14365 14366 14367 14368 14369 14370 14371 14372 14373 14374 14375 14376 14377 14378 14379 14380 14381 14382 14383 14384 14385 14386 14387 14388 14389 14390 14391 14392 14393 14394 14395 14396 14397 14398 14399 14400 14401 14402 14403 14404 14405 14406 14407 14408 14409 14410 14411 14412 14413 14414 14415 14416 14417 14418 14419 14420 14421 14422 14423 14424 14425 14426 14427 14428 14429 14430 14431 14432 14433 14434 14435 14436 14437 14438 14439 14440 14441 14442 14443 14444 14445 14446 14447 14448 14449 14450 14451 14452 14453 14454 14455 14456 14457 14458 14459 14460 14461 14462 14463 14464 14465 14466 14467 14468 14469 14470 14471 14472 14473 14474 14475 14476 14477 14478 14479 14480 14481 14482 14483 14484 14485 14486 14487 14488 14489 14490 14491 14492 14493 14494 14495 14496 14497 14498 14499 14500 14501 14502 14503 14504 14505 14506 14507 14508 14509 14510 14511 14512 14513 14514 14515 14516 14517 14518 14519 14520 14521 14522 14523 14524 14525 14526 14527 14528 14529 14530 14531 14532 14533 14534 14535 14536 14537 14538 14539 14540 14541 14542 14543 14544 14545 14546 14547 14548 14549 14550 14551 14552 14553 14554 14555 14556 14557 14558 14559 14560 14561 14562 14563 14564 14565 14566 14567 14568 14569 14570 14571 14572 14573 14574 14575 14576 14577 14578 14579 14580 14581 14582 14583 14584 14585 14586 14587 14588 14589 14590 14591 14592 14593 14594 14595 14596 14597 14598 14599 14600 14601 14602 14603 14604 14605 14606 14607 14608 14609 14610 14611 14612 14613 14614 14615 14616 14617 14618 14619 14620 14621 14622 14623 14624 14625 14626 14627 14628 14629 14630 14631 14632 14633 14634 14635 14636 14637 14638 14639 14640 14641 14642 14643 14644 14645 14646 14647 14648 14649 14650 14651 14652 14653 14654 14655 14656 14657 14658 14659 14660 14661 14662 14663 14664 14665 14666 14667 14668 14669 14670 14671 14672 14673 14674 14675 14676 14677 14678 14679 14680 14681 14682 14683 14684 14685 14686 14687 14688 14689 14690 14691 14692 14693 14694 14695 14696 14697 14698 14699 14700 14701 14702 14703 14704 14705 14706 14707 14708 14709 14710 14711 14712 14713 14714 14715 14716 14717 14718 14719 14720 14721 14722 14723 14724 14725 14726 14727 14728 14729 14730 14731 14732 14733 14734 14735 14736 14737 14738 14739 14740 14741 14742 14743 14744 14745 14746 14747 14748 14749 14750 14751 14752 14753 14754 14755 14756 14757 14758 14759 14760 14761 14762 14763 14764 14765 14766 14767 14768 14769 14770 14771 14772 14773 14774 14775 14776 14777 14778 14779 14780 14781 14782 14783 14784 14785 14786 14787 14788 14789 14790 14791 14792 14793 14794 14795 14796 14797 14798 14799 14800 14801 14802 14803 14804 14805 14806 14807 14808 14809 14810 14811 14812 14813 14814 14815 14816 14817 14818 14819 14820 14821 14822 14823 14824 14825 14826 14827 14828 14829 14830 14831 14832 14833 14834 14835 14836 14837 14838 14839 14840 14841 14842 14843 14844 14845 14846 14847 14848 14849 14850 14851 14852 14853 14854 14855 14856 14857 14858 14859 14860 14861 14862 14863 14864 14865 14866 14867 14868 14869 14870 14871 14872 14873 14874 14875 14876 14877 14878 14879 14880 14881 14882 14883 14884 14885 14886 14887 14888 14889 14890 14891 14892 14893 14894 14895 14896 14897 14898 14899 14900 14901 14902 14903 14904 14905 14906 14907 14908 14909 14910 14911 14912 14913 14914 14915 14916 14917 14918 14919 14920 14921 14922 14923 14924 14925 14926 14927 14928 14929 14930 14931 14932 14933 14934 14935 14936 14937 14938 14939 14940 14941 14942 14943 14944 14945 14946 14947 14948 14949 14950 14951 14952 14953 14954 14955 14956 14957 14958 14959 14960 14961 14962 14963 14964 14965 14966 14967 14968 14969 14970 14971 14972 14973 14974 14975 14976 14977 14978 14979 14980 14981 14982 14983 14984 14985 14986 14987 14988 14989 14990 14991 14992 14993 14994 14995 14996 14997 14998 14999 15000 15001 15002 15003 15004 15005 15006 15007 15008 15009 15010 15011 15012 15013 15014 15015 15016 15017 15018 15019 15020 15021 15022 15023 15024 15025 15026 15027 15028 15029 15030 15031 15032 15033 15034 15035 15036 15037 15038 15039 15040 15041 15042 15043 15044 15045 15046 15047 15048 15049 15050 15051 15052 15053 15054 15055 15056 15057 15058 15059 15060 15061 15062 15063 15064 15065 15066 15067 15068 15069 15070 15071 15072 15073 15074 15075 15076 15077 15078 15079 15080 15081 15082 15083 15084 15085 15086 15087 15088 15089 15090 15091 15092 15093 15094 15095 15096 15097 15098 15099 15100 15101 15102 15103 15104 15105 15106 15107 15108 15109 15110 15111 15112 15113 15114 15115 15116 15117 15118 15119 15120 15121 15122 15123 15124 15125 15126 15127 15128 15129 15130 15131 15132 15133 15134 15135 15136 15137 15138 15139 15140 15141 15142 15143 15144 15145 15146 15147 15148 15149 15150 15151 15152 15153 15154 15155 15156 15157 15158 15159 15160 15161 15162 15163 15164 15165 15166 15167 15168 15169 15170 15171 15172 15173 15174 15175 15176 15177 15178 15179 15180 15181 15182 15183 15184 15185 15186 15187 15188 15189 15190 15191 15192 15193 15194 15195 15196 15197 15198 15199 15200 15201 15202 15203 15204 15205 15206 15207 15208 15209 15210 15211 15212 15213 15214 15215 15216 15217 15218 15219 15220 15221 15222 15223 15224 15225 15226 15227 15228 15229 15230 15231 15232 15233 15234 15235 15236 15237 15238 15239 15240 15241 15242 15243 15244 15245 15246 15247 15248 15249 15250 15251 15252 15253 15254 15255 15256 15257 15258 15259 15260 15261 15262 15263 15264 15265 15266 15267 15268 15269 15270 15271 15272 15273 15274 15275 15276 15277 15278 15279 15280 15281 15282 15283 15284 15285 15286 15287 15288 15289 15290 15291 15292 15293 15294 15295 15296 15297 15298 15299 15300 15301 15302 15303 15304 15305 15306 15307 15308 15309 15310 15311 15312 15313 15314 15315 15316 15317 15318 15319 15320 15321 15322 15323 15324 15325 15326 15327 15328 15329 15330 15331 15332 15333 15334 15335 15336 15337 15338 15339 15340 15341 15342 15343 15344 15345 15346 15347 15348 15349 15350 15351 15352 15353 15354 15355 15356 15357 15358 15359 15360 15361 15362 15363 15364 15365 15366 15367 15368 15369 15370 15371 15372 15373 15374 15375 15376 15377 15378 15379 15380 15381 15382 15383 15384 15385 15386 15387 15388 15389 15390 15391 15392 15393 15394 15395 15396 15397 15398 15399 15400 15401 15402 15403 15404 15405 15406 15407 15408 15409 15410 15411 15412 15413 15414 15415 15416 15417 15418 15419 15420 15421 15422 15423 15424 15425 15426 15427 15428 15429 15430 15431 15432 15433 15434 15435 15436 15437 15438 15439 15440 15441 15442 15443 15444 15445 15446 15447 15448 15449 15450 15451 15452 15453 15454 15455 15456 15457 15458 15459 15460 15461 15462 15463 15464 15465 15466 15467 15468 15469 15470 15471 15472 15473 15474 15475 15476 15477 15478 15479 15480 15481 15482 15483 15484 15485 15486 15487 15488 15489 15490 15491 15492 15493 15494 15495 15496 15497 15498 15499 15500 15501 15502 15503 15504 15505 15506 15507 15508 15509 15510 15511 15512 15513 15514 15515 15516 15517 15518 15519 15520 15521 15522 15523 15524 15525 15526 15527 15528 15529 15530 15531 15532 15533 15534 15535 15536 15537 15538 15539 15540 15541 15542 15543 15544 15545 15546 15547 15548 15549 15550 15551 15552 15553 15554 15555 15556 15557 15558 15559 15560 15561 15562 15563 15564 15565 15566 15567 15568 15569 15570 15571 15572 15573 15574 15575 15576 15577 15578 15579 15580 15581 15582 15583 15584 15585 15586 15587 15588 15589 15590 15591 15592 15593 15594 15595 15596 15597 15598 15599 15600 15601 15602 15603 15604 15605 15606 15607 15608 15609 15610 15611 15612 15613 15614 15615 15616 15617 15618 15619 15620 15621 15622 15623 15624 15625 15626 15627 15628 15629 15630 15631 15632 15633 15634 15635 15636 15637 15638 15639 15640 15641 15642 15643 15644 15645 15646 15647 15648 15649 15650 15651 15652 15653 15654 15655 15656 15657 15658 15659 15660 15661 15662 15663 15664 15665 15666 15667 15668 15669 15670 15671 15672 15673 15674 15675 15676 15677 15678 15679 15680 15681 15682 15683 15684 15685 15686 15687 15688 15689 15690 15691 15692 15693 15694 15695 15696 15697 15698 15699 15700 15701 15702 15703 15704 15705 15706 15707 15708 15709 15710 15711 15712 15713 15714 15715 15716 15717 15718 15719 15720 15721 15722 15723 15724 15725 15726 15727 15728 15729 15730 15731 15732 15733 15734 15735 15736 15737 15738 15739 15740 15741 15742 15743 15744 15745 15746 15747 15748 15749 15750 15751 15752 15753 15754 15755 15756 15757 15758 15759 15760 15761 15762 15763 15764 15765 15766 15767 15768 15769 15770 15771 15772 15773 15774 15775 15776 15777 15778 15779 15780 15781 15782 15783 15784 15785 15786 15787 15788 15789 15790 15791 15792 15793 15794 15795 15796 15797 15798 15799 15800 15801 15802 15803 15804 15805 15806 15807 15808 15809 15810 15811 15812 15813 15814 15815 15816 15817 15818 15819 15820 15821 15822 15823 15824 15825 15826 15827 15828 15829 15830 15831 15832 15833 15834 15835 15836 15837 15838 15839 15840 15841 15842 15843 15844 15845 15846 15847 15848 15849 15850 15851 15852 15853 15854 15855 15856 15857 15858 15859 15860 15861 15862 15863 15864 15865 15866 15867 15868 15869 15870 15871 15872 15873 15874 15875 15876 15877 15878 15879 15880 15881 15882 15883 15884 15885 15886 15887 15888 15889 15890 15891 15892 15893 15894 15895 15896 15897 15898 15899 15900 15901 15902 15903 15904 15905 15906 15907 15908 15909 15910 15911 15912 15913 15914 15915 15916 15917 15918 15919 15920 15921 15922 15923 15924 15925 15926 15927 15928 15929 15930 15931 15932 15933 15934 15935 15936 15937 15938 15939 15940 15941 15942 15943 15944 15945 15946 15947 15948 15949 15950 15951 15952 15953 15954 15955 15956 15957 15958 15959 15960 15961 15962 15963 15964 15965 15966 15967 15968 15969 15970 15971 15972 15973 15974 15975 15976 15977 15978 15979 15980 15981 15982 15983 15984 15985 15986 15987 15988 15989 15990 15991 15992 15993 15994 15995 15996 15997 15998 15999 16000 16001 16002 16003 16004 16005 16006 16007 16008 16009 16010 16011 16012 16013 16014 16015 16016 16017 16018 16019 16020 16021 16022 16023 16024 16025 16026 16027 16028 16029 16030 16031 16032 16033 16034 16035 16036 16037 16038 16039 16040 16041 16042 16043 16044 16045 16046 16047 16048 16049 16050 16051 16052 16053 16054 16055 16056 16057 16058 16059 16060 16061 16062 16063 16064 16065 16066 16067 16068 16069 16070 16071 16072 16073 16074 16075 16076 16077 16078 16079 16080 16081 16082 16083 16084 16085 16086 16087 16088 16089 16090 16091 16092 16093 16094 16095 16096 16097 16098 16099 16100 16101 16102 16103 16104 16105 16106 16107 16108 16109 16110 16111 16112 16113 16114 16115 16116 16117 16118 16119 16120 16121 16122 16123 16124 16125 16126 16127 16128 16129 16130 16131 16132 16133 16134 16135 16136 16137 16138 16139 16140 16141 16142 16143 16144 16145 16146 16147 16148 16149 16150 16151 16152 16153 16154 16155 16156 16157 16158 16159 16160 16161 16162 16163 16164 16165 16166 16167 16168 16169 16170 16171 16172 16173 16174 16175 16176 16177 16178 16179 16180 16181 16182 16183 16184 16185 16186 16187 16188 16189 16190 16191 16192 16193 16194 16195 16196 16197 16198 16199 16200 16201 16202 16203 16204 16205 16206 16207 16208 16209 16210 16211 16212 16213 16214 16215 16216 16217 16218 16219 16220 16221 16222 16223 16224 16225 16226 16227 16228 16229 16230 16231 16232 16233 16234 16235 16236 16237 16238 16239 16240 16241 16242 16243 16244 16245 16246 16247 16248 16249 16250 16251 16252 16253 16254 16255 16256 16257 16258 16259 16260 16261 16262 16263 16264 16265 16266 16267 16268 16269 16270 16271 16272 16273 16274 16275 16276 16277 16278 16279 16280 16281 16282 16283 16284 16285 16286 16287 16288 16289 16290 16291 16292 16293 16294 16295 16296 16297 16298 16299 16300 16301 16302 16303 16304 16305 16306 16307 16308 16309 16310 16311 16312 16313 16314 16315 16316 16317 16318 16319 16320 16321 16322 16323 16324 16325 16326 16327 16328 16329 16330 16331 16332 16333 16334 16335 16336 16337 16338 16339 16340 16341 16342 16343 16344 16345 16346 16347 16348 16349 16350 16351 16352 16353 16354 16355 16356 16357 16358 16359 16360 16361 16362 16363 16364 16365 16366 16367 16368 16369 16370 16371 16372 16373 16374 16375 16376 16377 16378 16379 16380 16381 16382 16383 16384 16385 16386 16387 16388 16389 16390 16391 16392 16393 16394 16395 16396 16397 16398 16399 16400 16401 16402 16403 16404 16405 16406 16407 16408 16409 16410 16411 16412 16413 16414 16415 16416 16417 16418 16419 16420 16421 16422 16423 16424 16425 16426 16427 16428 16429 16430 16431 16432 16433 16434 16435 16436 16437 16438 16439 16440 16441 16442 16443 16444 16445 16446 16447 16448 16449 16450 16451 16452 16453 16454 16455 16456 16457 16458 16459 16460 16461 16462 16463 16464 16465 16466 16467 16468 16469 16470 16471 16472 16473 16474 16475 16476 16477 16478 16479 16480 16481 16482 16483 16484 16485 16486 16487 16488 16489 16490 16491 16492 16493 16494 16495 16496 16497 16498 16499 16500 16501 16502 16503 16504 16505 16506 16507 16508 16509 16510 16511 16512 16513 16514 16515 16516 16517 16518 16519 16520 16521 16522 16523 16524 16525 16526 16527 16528 16529 16530 16531 16532 16533 16534 16535 16536 16537 16538 16539 16540 16541 16542 16543 16544 16545 16546 16547 16548 16549 16550 16551 16552 16553 16554 16555 16556 16557 16558 16559 16560 16561 16562 16563 16564 16565 16566 16567 16568 16569 16570 16571 16572 16573 16574 16575 16576 16577 16578 16579 16580 16581 16582 16583 16584 16585 16586 16587 16588 16589 16590 16591 16592 16593 16594 16595 16596 16597 16598 16599 16600 16601 16602 16603 16604 16605 16606 16607 16608 16609 16610 16611 16612 16613 16614 16615 16616 16617 16618 16619 16620 16621 16622 16623 16624 16625 16626 16627 16628 16629 16630 16631 16632 16633 16634 16635 16636 16637 16638 16639 16640 16641 16642 16643 16644 16645 16646 16647 16648 16649 16650 16651 16652 16653 16654 16655 16656 16657 16658 16659 16660 16661 16662 16663 16664 16665 16666 16667 16668 16669 16670 16671 16672 16673 16674 16675 16676 16677 16678 16679 16680 16681 16682 16683 16684 16685 16686 16687 16688 16689 16690 16691 16692 16693 16694 16695 16696 16697 16698 16699 16700 16701 16702 16703 16704 16705 16706 16707 16708 16709 16710 16711 16712 16713 16714 16715 16716 16717 16718 16719 16720 16721 16722 16723 16724 16725 16726 16727 16728 16729 16730 16731 16732 16733 16734 16735 16736 16737 16738 16739 16740 16741 16742 16743 16744 16745 16746 16747 16748 16749 16750 16751 16752 16753 16754 16755 16756 16757 16758 16759 16760 16761 16762 16763 16764 16765 16766 16767 16768 16769 16770 16771 16772 16773 16774 16775 16776 16777 16778 16779 16780 16781 16782 16783 16784 16785 16786 16787 16788 16789 16790 16791 16792 16793 16794 16795 16796 16797 16798 16799 16800 16801 16802 16803 16804 16805 16806 16807 16808 16809 16810 16811 16812 16813 16814 16815 16816 16817 16818 16819 16820 16821 16822 16823 16824 16825 16826 16827 16828 16829 16830 16831 16832 16833 16834 16835 16836 16837 16838 16839 16840 16841 16842 16843 16844 16845 16846 16847 16848 16849 16850 16851 16852 16853 16854 16855 16856 16857 16858 16859 16860 16861 16862 16863 16864 16865 16866 16867 16868 16869 16870 16871 16872 16873 16874 16875 16876 16877 16878 16879 16880 16881 16882 16883 16884 16885 16886 16887 16888 16889 16890 16891 16892 16893 16894 16895 16896 16897 16898 16899 16900 16901 16902 16903 16904 16905 16906 16907 16908 16909 16910 16911 16912 16913 16914 16915 16916 16917 16918 16919 16920 16921 16922 16923 16924 16925 16926 16927 16928 16929 16930 16931 16932 16933 16934 16935 16936 16937 16938 16939 16940 16941 16942 16943 16944 16945 16946 16947 16948 16949 16950 16951 16952 16953 16954 16955 16956 16957 16958 16959 16960 16961 16962 16963 16964 16965 16966 16967 16968 16969 16970 16971 16972 16973 16974 16975 16976 16977 16978 16979 16980 16981 16982 16983 16984 16985 16986 16987 16988 16989 16990 16991 16992 16993 16994 16995 16996 16997 16998 16999 17000 17001 17002 17003 17004 17005 17006 17007 17008 17009 17010 17011 17012 17013 17014 17015 17016 17017 17018 17019 17020 17021 17022 17023 17024 17025 17026 17027 17028 17029 17030 17031 17032 17033 17034 17035 17036 17037 17038 17039 17040 17041 17042 17043 17044 17045 17046 17047 17048 17049 17050 17051 17052 17053 17054 17055 17056 17057 17058 17059 17060 17061 17062 17063 17064 17065 17066 17067 17068 17069 17070 17071 17072 17073 17074 17075 17076 17077 17078 17079 17080 17081 17082 17083 17084 17085 17086 17087 17088 17089 17090 17091 17092 17093 17094 17095 17096 17097 17098 17099 17100 17101 17102 17103 17104 17105 17106 17107 17108 17109 17110 17111 17112 17113 17114 17115 17116 17117 17118 17119 17120 17121 17122 17123 17124 17125 17126 17127 17128 17129 17130 17131 17132 17133 17134 17135 17136 17137 17138 17139 17140 17141 17142 17143 17144 17145 17146 17147 17148 17149 17150 17151 17152 17153 17154 17155 17156 17157 17158 17159 17160 17161 17162 17163 17164 17165 17166 17167 17168 17169 17170 17171 17172 17173 17174 17175 17176 17177 17178 17179 17180 17181 17182 17183 17184 17185 17186 17187 17188 17189 17190 17191 17192 17193 17194 17195 17196 17197 17198 17199 17200 17201 17202 17203 17204 17205 17206 17207 17208 17209 17210 17211 17212 17213 17214 17215 17216 17217 17218 17219 17220 17221 17222 17223 17224 17225 17226 17227 17228 17229 17230 17231 17232 17233 17234 17235 17236 17237 17238 17239 17240 17241 17242 17243 17244 17245 17246 17247 17248 17249 17250 17251 17252 17253 17254 17255 17256 17257 17258 17259 17260 17261 17262 17263 17264 17265 17266 17267 17268 17269 17270 17271 17272 17273 17274 17275 17276 17277 17278 17279 17280 17281 17282 17283 17284 17285 17286 17287 17288 17289 17290 17291 17292 17293 17294 17295 17296 17297 17298 17299 17300 17301 17302 17303 17304 17305 17306 17307 17308 17309 17310 17311 17312 17313 17314 17315 17316 17317 17318 17319 17320 17321 17322 17323 17324 17325 17326 17327 17328 17329 17330 17331 17332 17333 17334 17335 17336 17337 17338 17339 17340 17341 17342 17343 17344 17345 17346 17347 17348 17349 17350 17351 17352 17353 17354 17355 17356 17357 17358 17359 17360 17361 17362 17363 17364 17365 17366 17367 17368 17369 17370 17371 17372 17373 17374 17375 17376 17377 17378 17379 17380 17381 17382 17383 17384 17385 17386 17387 17388 17389 17390 17391 17392 17393 17394 17395 17396 17397 17398 17399 17400 17401 17402 17403 17404 17405 17406 17407 17408 17409 17410 17411 17412 17413 17414 17415 17416 17417 17418 17419 17420 17421 17422 17423 17424 17425 17426 17427 17428 17429 17430 17431 17432 17433 17434 17435 17436 17437 17438 17439 17440 17441 17442 17443 17444 17445 17446 17447 17448 17449 17450 17451 17452 17453 17454 17455 17456 17457 17458 17459 17460 17461 17462 17463 17464 17465 17466 17467 17468 17469 17470 17471 17472 17473 17474 17475 17476 17477 17478 17479 17480 17481 17482 17483 17484 17485 17486 17487 17488 17489 17490 17491 17492 17493 17494 17495 17496 17497 17498 17499 17500 17501 17502 17503 17504 17505 17506 17507 17508 17509 17510 17511 17512 17513 17514 17515 17516 17517 17518 17519 17520 17521 17522 17523 17524 17525 17526 17527 17528 17529 17530 17531 17532 17533 17534 17535 17536 17537 17538 17539 17540 17541 17542 17543 17544 17545 17546 17547 17548 17549 17550 17551 17552 17553 17554 17555 17556 17557 17558 17559 17560 17561 17562 17563 17564 17565 17566 17567 17568 17569 17570 17571 17572 17573 17574 17575 17576 17577 17578 17579 17580 17581 17582 17583 17584 17585 17586 17587 17588 17589 17590 17591 17592 17593 17594 17595 17596 17597 17598 17599 17600 17601 17602 17603 17604 17605 17606 17607 17608 17609 17610 17611 17612 17613 17614 17615 17616 17617 17618 17619 17620 17621 17622 17623 17624 17625 17626 17627 17628 17629 17630 17631 17632 17633 17634 17635 17636 17637 17638 17639 17640 17641 17642 17643 17644 17645 17646 17647 17648 17649 17650 17651 17652 17653 17654 17655 17656 17657 17658 17659 17660 17661 17662 17663 17664 17665 17666 17667 17668 17669 17670 17671 17672 17673 17674 17675 17676 17677 17678 17679 17680 17681 17682 17683 17684 17685 17686 17687 17688 17689 17690 17691 17692 17693 17694 17695 17696 17697 17698 17699 17700 17701 17702 17703 17704 17705 17706 17707 17708 17709 17710 17711 17712 17713 17714 17715 17716 17717 17718 17719 17720 17721 17722 17723 17724 17725 17726 17727 17728 17729 17730 17731 17732 17733 17734 17735 17736 17737 17738 17739 17740 17741 17742 17743 17744 17745 17746 17747 17748 17749 17750 17751 17752 17753 17754 17755 17756 17757 17758 17759 17760 17761 17762 17763 17764 17765 17766 17767 17768 17769 17770 17771 17772 17773 17774 17775 17776 17777 17778 17779 17780 17781 17782 17783 17784 17785 17786 17787 17788 17789 17790 17791 17792 17793 17794 17795 17796 17797 17798 17799 17800 17801 17802 17803 17804 17805 17806 17807 17808 17809 17810 17811 17812 17813 17814 17815 17816 17817 17818 17819 17820 17821 17822 17823 17824 17825 17826 17827 17828 17829 17830 17831 17832 17833 17834 17835 17836 17837 17838 17839 17840 17841 17842 17843 17844 17845 17846 17847 17848 17849 17850 17851 17852 17853 17854 17855 17856 17857 17858 17859 17860 17861 17862 17863 17864 17865 17866 17867 17868 17869 17870 17871 17872 17873 17874 17875 17876 17877 17878 17879 17880 17881 17882 17883 17884 17885 17886 17887 17888 17889 17890 17891 17892 17893 17894 17895 17896 17897 17898 17899 17900 17901 17902 17903 17904 17905 17906 17907 17908 17909 17910 17911 17912 17913 17914 17915 17916 17917 17918 17919 17920 17921 17922 17923 17924 17925 17926 17927 17928 17929 17930 17931 17932 17933 17934 17935 17936 17937 17938 17939 17940 17941 17942 17943 17944 17945 17946 17947 17948 17949 17950 17951 17952 17953 17954 17955 17956 17957 17958 17959 17960 17961 17962 17963 17964 17965 17966 17967 17968 17969 17970 17971 17972 17973 17974 17975 17976 17977 17978 17979 17980 17981 17982 17983 17984 17985 17986 17987 17988 17989 17990 17991 17992 17993 17994 17995 17996 17997 17998 17999 18000 18001 18002 18003 18004 18005 18006 18007 18008 18009 18010 18011 18012 18013 18014 18015 18016 18017 18018 18019 18020 18021 18022 18023 18024 18025 18026 18027 18028 18029 18030 18031 18032 18033 18034 18035 18036 18037 18038 18039 18040 18041 18042 18043 18044 18045 18046 18047 18048 18049 18050 18051 18052 18053 18054 18055 18056 18057 18058 18059 18060 18061 18062 18063 18064 18065 18066 18067 18068 18069 18070 18071 18072 18073 18074 18075 18076 18077 18078 18079 18080 18081 18082 18083 18084 18085 18086 18087 18088 18089 18090 18091 18092 18093 18094 18095 18096 18097 18098 18099 18100 18101 18102 18103 18104 18105 18106 18107 18108 18109 18110 18111 18112 18113 18114 18115 18116 18117 18118 18119 18120 18121 18122 18123 18124 18125 18126 18127 18128 18129 18130 18131 18132 18133 18134 18135 18136 18137 18138 18139 18140 18141 18142 18143 18144 18145 18146 18147 18148 18149 18150 18151 18152 18153 18154 18155 18156 18157 18158 18159 18160 18161 18162 18163 18164 18165 18166 18167 18168 18169 18170 18171 18172 18173 18174 18175 18176 18177 18178 18179 18180 18181 18182 18183 18184 18185 18186 18187 18188 18189 18190 18191 18192 18193 18194 18195 18196 18197 18198 18199 18200 18201 18202 18203 18204 18205 18206 18207 18208 18209 18210 18211 18212 18213 18214 18215 18216 18217 18218 18219 18220 18221 18222 18223 18224 18225 18226 18227 18228 18229 18230 18231 18232 18233 18234 18235 18236 18237 18238 18239 18240 18241 18242 18243 18244 18245 18246 18247 18248 18249 18250 18251 18252 18253 18254 18255 18256 18257 18258 18259 18260 18261 18262 18263 18264 18265 18266 18267 18268 18269 18270 18271 18272 18273 18274 18275 18276 18277 18278 18279 18280 18281 18282 18283 18284 18285 18286 18287 18288 18289 18290 18291 18292 18293 18294 18295 18296 18297 18298 18299 18300 18301 18302 18303 18304 18305 18306 18307 18308 18309 18310 18311 18312 18313 18314 18315 18316 18317 18318 18319 18320 18321 18322 18323 18324 18325 18326 18327 18328 18329 18330 18331 18332 18333 18334 18335 18336 18337 18338 18339 18340 18341 18342 18343 18344 18345 18346 18347 18348 18349 18350 18351 18352 18353 18354 18355 18356 18357 18358 18359 18360 18361 18362 18363 18364 18365 18366 18367 18368 18369 18370 18371 18372 18373 18374 18375 18376 18377 18378 18379 18380 18381 18382 18383 18384 18385 18386 18387 18388 18389 18390 18391 18392 18393 18394 18395 18396 18397 18398 18399 18400 18401 18402 18403 18404 18405 18406 18407 18408 18409 18410 18411 18412 18413 18414 18415 18416 18417 18418 18419 18420 18421 18422 18423 18424 18425 18426 18427 18428 18429 18430 18431 18432 18433 18434 18435 18436 18437 18438 18439 18440 18441 18442 18443 18444 18445 18446 18447 18448 18449 18450 18451 18452 18453 18454 18455 18456 18457 18458 18459 18460 18461 18462 18463 18464 18465 18466 18467 18468 18469 18470 18471 18472 18473 18474 18475 18476 18477 18478 18479 18480 18481 18482 18483 18484 18485 18486 18487 18488 18489 18490 18491 18492 18493 18494 18495 18496 18497 18498 18499 18500 18501 18502 18503 18504 18505 18506 18507 18508 18509 18510 18511 18512 18513 18514 18515 18516 18517 18518 18519 18520 18521 18522 18523 18524 18525 18526 18527 18528 18529 18530 18531 18532 18533 18534 18535 18536 18537 18538 18539 18540 18541 18542 18543 18544 18545 18546 18547 18548 18549 18550 18551 18552 18553 18554 18555 18556 18557 18558 18559 18560 18561 18562 18563 18564 18565 18566 18567 18568 18569 18570 18571 18572 18573 18574 18575 18576 18577 18578 18579 18580 18581 18582 18583 18584 18585 18586 18587 18588 18589 18590 18591 18592 18593 18594 18595 18596 18597 18598 18599 18600 18601 18602 18603 18604 18605 18606 18607 18608 18609 18610 18611 18612 18613 18614 18615 18616 18617 18618 18619 18620 18621 18622 18623 18624 18625 18626 18627 18628 18629 18630 18631 18632 18633 18634 18635 18636 18637 18638 18639 18640 18641 18642 18643 18644 18645 18646 18647 18648 18649 18650 18651 18652 18653 18654 18655 18656 18657 18658 18659 18660 18661 18662 18663 18664 18665 18666 18667 18668 18669 18670 18671 18672 18673 18674 18675 18676 18677 18678 18679 18680 18681 18682 18683 18684 18685 18686 18687 18688 18689 18690 18691 18692 18693 18694 18695 18696 18697 18698 18699 18700 18701 18702 18703 18704 18705 18706 18707 18708 18709 18710 18711 18712 18713 18714 18715 18716 18717 18718 18719 18720 18721 18722 18723 18724 18725 18726 18727 18728 18729 18730 18731 18732 18733 18734 18735 18736 18737 18738 18739 18740 18741 18742 18743 18744 18745 18746 18747 18748 18749 18750 18751 18752 18753 18754 18755 18756 18757 18758 18759 18760 18761 18762 18763 18764 18765 18766 18767 18768 18769 18770 18771 18772 18773 18774 18775 18776 18777 18778 18779 18780 18781 18782 18783 18784 18785 18786 18787 18788 18789 18790 18791 18792 18793 18794 18795 18796 18797 18798 18799 18800 18801 18802 18803 18804 18805 18806 18807 18808 18809 18810 18811 18812 18813 18814 18815 18816 18817 18818 18819 18820 18821 18822 18823 18824 18825 18826 18827 18828 18829 18830 18831 18832 18833 18834 18835 18836 18837 18838 18839 18840 18841 18842 18843 18844 18845 18846 18847 18848 18849 18850 18851 18852 18853 18854 18855 18856 18857 18858 18859 18860 18861 18862 18863 18864 18865 18866 18867 18868 18869 18870 18871 18872 18873 18874 18875 18876 18877 18878 18879 18880 18881 18882 18883 18884 18885 18886 18887 18888 18889 18890 18891 18892 18893 18894 18895 18896 18897 18898 18899 18900 18901 18902 18903 18904 18905 18906 18907 18908 18909 18910 18911 18912 18913 18914 18915 18916 18917 18918 18919 18920 18921 18922 18923 18924 18925 18926 18927 18928 18929 18930 18931 18932 18933 18934 18935 18936 18937 18938 18939 18940 18941 18942 18943 18944 18945 18946 18947 18948 18949 18950 18951 18952 18953 18954 18955 18956 18957 18958 18959 18960 18961 18962 18963 18964 18965 18966 18967 18968 18969 18970 18971 18972 18973 18974 18975 18976 18977 18978 18979 18980 18981 18982 18983 18984 18985 18986 18987 18988 18989 18990 18991 18992 18993 18994 18995 18996 18997 18998 18999 19000 19001 19002 19003 19004 19005 19006 19007 19008 19009 19010 19011 19012 19013 19014 19015 19016 19017 19018 19019 19020 19021 19022 19023 19024 19025 19026 19027 19028 19029 19030 19031 19032 19033 19034 19035 19036 19037 19038 19039 19040 19041 19042 19043 19044 19045 19046 19047 19048 19049 19050 19051 19052 19053 19054 19055 19056 19057 19058 19059 19060 19061 19062 19063 19064 19065 19066 19067 19068 19069 19070 19071 19072 19073 19074 19075 19076 19077 19078 19079 19080 19081 19082 19083 19084 19085 19086 19087 19088 19089 19090 19091 19092 19093 19094 19095 19096 19097 19098 19099 19100 19101 19102 19103 19104 19105 19106 19107 19108 19109 19110 19111 19112 19113 19114 19115 19116 19117 19118 19119 19120 19121 19122 19123 19124 19125 19126 19127 19128 19129 19130 19131 19132 19133 19134 19135 19136 19137 19138 19139 19140 19141 19142 19143 19144 19145 19146 19147 19148 19149 19150 19151 19152 19153 19154 19155 19156 19157 19158 19159 19160 19161 19162 19163 19164 19165 19166 19167 19168 19169 19170 19171 19172 19173 19174 19175 19176 19177 19178 19179 19180 19181 19182 19183 19184 19185 19186 19187 19188 19189 19190 19191 19192 19193 19194 19195 19196 19197 19198 19199 19200 19201 19202 19203 19204 19205 19206 19207 19208 19209 19210 19211 19212 19213 19214 19215 19216 19217 19218 19219 19220 19221 19222 19223 19224 19225 19226 19227 19228 19229 19230 19231 19232 19233 19234 19235 19236 19237 19238 19239 19240 19241 19242 19243 19244 19245 19246 19247 19248 19249 19250 19251 19252 19253 19254 19255 19256 19257 19258 19259 19260 19261 19262 19263 19264 19265 19266 19267 19268 19269 19270 19271 19272 19273 19274 19275 19276 19277 19278 19279 19280 19281 19282 19283 19284 19285 19286 19287 19288 19289 19290 19291 19292 19293 19294 19295 19296 19297 19298 19299 19300 19301 19302 19303 19304 19305 19306 19307 19308 19309 19310 19311 19312 19313 19314 19315 19316 19317 19318 19319 19320 19321 19322 19323 19324 19325 19326 19327 19328 19329 19330 19331 19332 19333 19334 19335 19336 19337 19338 19339 19340 19341 19342 19343 19344 19345 19346 19347 19348 19349 19350 19351 19352 19353 19354 19355 19356 19357 19358 19359 19360 19361 19362 19363 19364 19365 19366 19367 19368 19369 19370 19371 19372 19373 19374 19375 19376 19377 19378 19379 19380 19381 19382 19383 19384 19385 19386 19387 19388 19389 19390 19391 19392 19393 19394 19395 19396 19397 19398 19399 19400 19401 19402 19403 19404 19405 19406 19407 19408 19409 19410 19411 19412 19413 19414 19415 19416 19417 19418 19419 19420 19421 19422 19423 19424 19425 19426 19427 19428 19429 19430 19431 19432 19433 19434 19435 19436 19437 19438 19439 19440 19441 19442 19443 19444 19445 19446 19447 19448 19449 19450 19451 19452 19453 19454 19455 19456 19457 19458 19459 19460 19461 19462 19463 19464 19465 19466 19467 19468 19469 19470 19471 19472 19473 19474 19475 19476 19477 19478 19479 19480 19481 19482 19483 19484 19485 19486 19487 19488 19489 19490 19491 19492 19493 19494 19495 19496 19497 19498 19499 19500 19501 19502 19503 19504 19505 19506 19507 19508 19509 19510 19511 19512 19513 19514 19515 19516 19517 19518 19519 19520 19521 19522 19523 19524 19525 19526 19527 19528 19529 19530 19531 19532 19533 19534 19535 19536 19537 19538 19539 19540 19541 19542 19543 19544 19545 19546 19547 19548 19549 19550 19551 19552 19553 19554 19555 19556 19557 19558 19559 19560 19561 19562 19563 19564 19565 19566 19567 19568 19569 19570 19571 19572 19573 19574 19575 19576 19577 19578 19579 19580 19581 19582 19583 19584 19585 19586 19587 19588 19589 19590 19591 19592 19593 19594 19595 19596 19597 19598 19599 19600 19601 19602 19603 19604 19605 19606 19607 19608 19609 19610 19611 19612 19613 19614 19615 19616 19617 19618 19619 19620 19621 19622 19623 19624 19625 19626 19627 19628 19629 19630 19631 19632 19633 19634 19635 19636 19637 19638 19639 19640 19641 19642 19643 19644 19645 19646 19647 19648 19649 19650 19651 19652 19653 19654 19655 19656 19657 19658 19659 19660 19661 19662 19663 19664 19665 19666 19667 19668 19669 19670 19671 19672 19673 19674 19675 19676 19677 19678 19679 19680 19681 19682 19683 19684 19685 19686 19687 19688 19689 19690 19691 19692 19693 19694 19695 19696 19697 19698 19699 19700 19701 19702 19703 19704 19705 19706 19707 19708 19709 19710 19711 19712 19713 19714 19715 19716 19717 19718 19719 19720 19721 19722 19723 19724 19725 19726 19727 19728 19729 19730 19731 19732 19733 19734 19735 19736 19737 19738 19739 19740 19741 19742 19743 19744 19745 19746 19747 19748 19749 19750 19751 19752 19753 19754 19755 19756 19757 19758 19759 19760 19761 19762 19763 19764 19765 19766 19767 19768 19769 19770 19771 19772 19773 19774 19775 19776 19777 19778 19779 19780 19781 19782 19783 19784 19785 19786 19787 19788 19789 19790 19791 19792 19793 19794 19795 19796 19797 19798 19799 19800 19801 19802 19803 19804 19805 19806 19807 19808 19809 19810 19811 19812 19813 19814 19815 19816 19817 19818 19819 19820 19821 19822 19823 19824 19825 19826 19827 19828 19829 19830 19831 19832 19833 19834 19835 19836 19837 19838 19839 19840 19841 19842 19843 19844 19845 19846 19847 19848 19849 19850 19851 19852 19853 19854 19855 19856 19857 19858 19859 19860 19861 19862 19863 19864 19865 19866 19867 19868 19869 19870 19871 19872 19873 19874 19875 19876 19877 19878 19879 19880 19881 19882 19883 19884 19885 19886 19887 19888 19889 19890 19891 19892 19893 19894 19895 19896 19897 19898 19899 19900 19901 19902 19903 19904 19905 19906 19907 19908 19909 19910 19911 19912 19913 19914 19915 19916 19917 19918 19919 19920 19921 19922 19923 19924 19925 19926 19927 19928 19929 19930 19931 19932 19933 19934 19935 19936 19937 19938 19939 19940 19941 19942 19943 19944 19945 19946 19947 19948 19949 19950 19951 19952 19953 19954 19955 19956 19957 19958 19959 19960 19961 19962 19963 19964 19965 19966 19967 19968 19969 19970 19971 19972 19973 19974 19975 19976 19977 19978 19979 19980 19981 19982 19983 19984 19985 19986 19987 19988 19989 19990 19991 19992 19993 19994 19995 19996 19997 19998 19999 20000 20001 20002 20003 20004 20005 20006 20007 20008 20009 20010 20011 20012 20013 20014 20015 20016 20017 20018 20019 20020 20021 20022 20023 20024 20025 20026 20027 20028 20029 20030 20031 20032 20033 20034 20035 20036 20037 20038 20039 20040 20041 20042 20043 20044 20045 20046 20047 20048 20049 20050 20051 20052 20053 20054 20055 20056 20057 20058 20059 20060 20061 20062 20063 20064 20065 20066 20067 20068 20069 20070 20071 20072 20073 20074 20075 20076 20077 20078 20079 20080 20081 20082 20083 20084 20085 20086 20087 20088 20089 20090 20091 20092 20093 20094 20095 20096 20097 20098 20099 20100 20101 20102 20103 20104 20105 20106 20107 20108 20109 20110 20111 20112 20113 20114 20115 20116 20117 20118 20119 20120 20121 20122 20123 20124 20125 20126 20127 20128 20129 20130 20131 20132 20133 20134 20135 20136 20137 20138 20139 20140 20141 20142 20143 20144 20145 20146 20147 20148 20149 20150 20151 20152 20153 20154 20155 20156 20157 20158 20159 20160 20161 20162 20163 20164 20165 20166 20167 20168 20169 20170 20171 20172 20173 20174 20175 20176 20177 20178 20179 20180 20181 20182 20183 20184 20185 20186 20187 20188 20189 20190 20191 20192 20193 20194 20195 20196 20197 20198 20199 20200 20201 20202 20203 20204 20205 20206 20207 20208 20209 20210 20211 20212 20213 20214 20215 20216 20217 20218 20219 20220 20221 20222 20223 20224 20225 20226 20227 20228 20229 20230 20231 20232 20233 20234 20235 20236 20237 20238 20239 20240 20241 20242 20243 20244 20245 20246 20247 20248 20249 20250 20251 20252 20253 20254 20255 20256 20257 20258 20259 20260 20261 20262 20263 20264 20265 20266 20267 20268 20269 20270 20271 20272 20273 20274 20275 20276 20277 20278 20279 20280 20281 20282 20283 20284 20285 20286 20287 20288 20289 20290 20291 20292 20293 20294 20295 20296 20297 20298 20299 20300 20301 20302 20303 20304 20305 20306 20307 20308 20309 20310 20311 20312 20313 20314 20315 20316 20317 20318 20319 20320 20321 20322 20323 20324 20325 20326 20327 20328 20329 20330 20331 20332 20333 20334 20335 20336 20337 20338 20339 20340 20341 20342 20343 20344 20345 20346 20347 20348 20349 20350 20351 20352 20353 20354 20355 20356 20357 20358 20359 20360 20361 20362 20363 20364 20365 20366 20367 20368 20369 20370 20371 20372 20373 20374 20375 20376 20377 20378 20379 20380 20381 20382 20383 20384 20385 20386 20387 20388 20389 20390 20391 20392 20393 20394 20395 20396 20397 20398 20399 20400 20401 20402 20403 20404 20405 20406 20407 20408 20409 20410 20411 20412 20413 20414 20415 20416 20417 20418 20419 20420 20421 20422 20423 20424 20425 20426 20427 20428 20429 20430 20431 20432 20433 20434 20435 20436 20437 20438 20439 20440 20441 20442 20443 20444 20445 20446 20447 20448 20449 20450 20451 20452 20453 20454 20455 20456 20457 20458 20459 20460 20461 20462 20463 20464 20465 20466 20467 20468 20469 20470 20471 20472 20473 20474 20475 20476 20477 20478 20479 20480 20481 20482 20483 20484 20485 20486 20487 20488 20489 20490 20491 20492 20493 20494 20495 20496 20497 20498 20499 20500 20501 20502 20503 20504 20505 20506 20507 20508 20509 20510 20511 20512 20513 20514 20515 20516 20517 20518 20519 20520 20521 20522 20523 20524 20525 20526 20527 20528 20529 20530 20531 20532 20533 20534 20535 20536 20537 20538 20539 20540 20541 20542 20543 20544 20545 20546 20547 20548 20549 20550 20551 20552 20553 20554 20555 20556 20557 20558 20559 20560 20561 20562 20563 20564 20565 20566 20567 20568 20569 20570 20571 20572 20573 20574 20575 20576 20577 20578 20579 20580 20581 20582 20583 20584 20585 20586 20587 20588 20589 20590 20591 20592 20593 20594 20595 20596 20597 20598 20599 20600 20601 20602 20603 20604 20605 20606 20607 20608 20609 20610 20611 20612 20613 20614 20615 20616 20617 20618 20619 20620 20621 20622 20623 20624 20625 20626 20627 20628 20629 20630 20631 20632 20633 20634 20635 20636 20637 20638 20639 20640 20641 20642 20643 20644 20645 20646 20647 20648 20649 20650 20651 20652 20653 20654 20655 20656 20657 20658 20659 20660 20661 20662 20663 20664 20665 20666 20667 20668 20669 20670 20671 20672 20673 20674 20675 20676 20677 20678 20679 20680 20681 20682 20683 20684 20685 20686 20687 20688 20689 20690 20691 20692 20693 20694 20695 20696 20697 20698 20699 20700 20701 20702 20703 20704 20705 20706 20707 20708 20709 20710 20711 20712 20713 20714 20715 20716 20717 20718 20719 20720 20721 20722 20723 20724 20725 20726 20727 20728 20729 20730 20731 20732 20733 20734 20735 20736 20737 20738 20739 20740 20741 20742 20743 20744 20745 20746 20747 20748 20749 20750 20751 20752 20753 20754 20755 20756 20757 20758 20759 20760 20761 20762 20763 20764 20765 20766 20767 20768 20769 20770 20771 20772 20773 20774 20775 20776 20777 20778 20779 20780 20781 20782 20783 20784 20785 20786 20787 20788 20789 20790 20791 20792 20793 20794 20795 20796 20797 20798 20799 20800 20801 20802 20803 20804 20805 20806 20807 20808 20809 20810 20811 20812 20813 20814 20815 20816 20817 20818 20819 20820 20821 20822 20823 20824 20825 20826 20827 20828 20829 20830 20831 20832 20833 20834 20835 20836 20837 20838 20839 20840 20841 20842 20843 20844 20845 20846 20847 20848 20849 20850 20851 20852 20853 20854 20855 20856 20857 20858 20859 20860 20861 20862 20863 20864 20865 20866 20867 20868 20869 20870 20871 20872 20873 20874 20875 20876 20877 20878 20879 20880 20881 20882 20883 20884 20885 20886 20887 20888 20889 20890 20891 20892 20893 20894 20895 20896 20897 20898 20899 20900 20901 20902 20903 20904 20905 20906 20907 20908 20909 20910 20911 20912 20913 20914 20915 20916 20917 20918 20919 20920 20921 20922 20923 20924 20925 20926 20927 20928 20929 20930 20931 20932 20933 20934 20935 20936 20937 20938 20939 20940 20941 20942 20943 20944 20945 20946 20947 20948 20949 20950 20951 20952 20953 20954 20955 20956 20957 20958 20959 20960 20961 20962 20963 20964 20965 20966 20967 20968 20969 20970 20971 20972 20973 20974 20975 20976 20977 20978 20979 20980 20981 20982 20983 20984 20985 20986 20987 20988 20989 20990 20991 20992 20993 20994 20995 20996 20997 20998 20999 21000 21001 21002 21003 21004 21005 21006 21007 21008 21009 21010 21011 21012 21013 21014 21015 21016 21017 21018 21019 21020 21021 21022 21023 21024 21025 21026 21027 21028 21029 21030 21031 21032 21033 21034 21035 21036 21037 21038 21039 21040 21041 21042 21043 21044 21045 21046 21047 21048 21049 21050 21051 21052 21053 21054 21055 21056 21057 21058 21059 21060 21061 21062 21063 21064 21065 21066 21067 21068 21069 21070 21071 21072 21073 21074 21075 21076 21077 21078 21079 21080 21081 21082 21083 21084 21085 21086 21087 21088 21089 21090 21091 21092 21093 21094 21095 21096 21097 21098 21099 21100 21101 21102 21103 21104 21105 21106 21107 21108 21109 21110 21111 21112 21113 21114 21115 21116 21117 21118 21119 21120 21121 21122 21123 21124 21125 21126 21127 21128 21129 21130 21131 21132 21133 21134 21135 21136 21137 21138 21139 21140 21141 21142 21143 21144 21145 21146 21147 21148 21149 21150 21151 21152 21153 21154 21155 21156 21157 21158 21159 21160 21161 21162 21163 21164 21165 21166 21167 21168 21169 21170 21171 21172 21173 21174 21175 21176 21177 21178 21179 21180 21181 21182 21183 21184 21185 21186 21187 21188 21189 21190 21191 21192 21193 21194 21195 21196 21197 21198 21199 21200 21201 21202 21203 21204 21205 21206 21207 21208 21209 21210 21211 21212 21213 21214 21215 21216 21217 21218 21219 21220 21221 21222 21223 21224 21225 21226 21227 21228 21229 21230 21231 21232 21233 21234 21235 21236 21237 21238 21239 21240 21241 21242 21243 21244 21245 21246 21247 21248 21249 21250 21251 21252 21253 21254 21255 21256 21257 21258 21259 21260 21261 21262 21263 21264 21265 21266 21267 21268 21269 21270 21271 21272 21273 21274 21275 21276 21277 21278 21279 21280 21281 21282 21283 21284 21285 21286 21287 21288 21289 21290 21291 21292 21293 21294 21295 21296 21297 21298 21299 21300 21301 21302 21303 21304 21305 21306 21307 21308 21309 21310 21311 21312 21313 21314 21315 21316 21317 21318 21319 21320 21321 21322 21323 21324 21325 21326 21327 21328 21329 21330 21331 21332 21333 21334 21335 21336 21337 21338 21339 21340 21341 21342 21343 21344 21345 21346 21347 21348 21349 21350 21351 21352 21353 21354 21355 21356 21357 21358 21359 21360 21361 21362 21363 21364 21365 21366 21367 21368 21369 21370 21371 21372 21373 21374 21375 21376 21377 21378 21379 21380 21381 21382 21383 21384 21385 21386 21387 21388 21389 21390 21391 21392 21393 21394 21395 21396 21397 21398 21399 21400 21401 21402 21403 21404 21405 21406 21407 21408 21409 21410 21411 21412 21413 21414 21415 21416 21417 21418 21419 21420 21421 21422 21423 21424 21425 21426 21427 21428 21429 21430 21431 21432 21433 21434 21435 21436 21437 21438 21439 21440 21441 21442 21443 21444 21445 21446 21447 21448 21449 21450 21451 21452 21453 21454 21455 21456 21457 21458 21459 21460 21461 21462 21463 21464 21465 21466 21467 21468 21469 21470 21471 21472 21473 21474 21475 21476 21477 21478 21479 21480 21481 21482 21483 21484 21485 21486 21487 21488 21489 21490 21491 21492 21493 21494 21495 21496 21497 21498 21499 21500 21501 21502 21503 21504 21505 21506 21507 21508 21509 21510 21511 21512 21513 21514 21515 21516 21517 21518 21519 21520 21521 21522 21523 21524 21525 21526 21527 21528 21529 21530 21531 21532 21533 21534 21535 21536 21537 21538 21539 21540 21541 21542 21543 21544 21545 21546 21547 21548 21549 21550 21551 21552 21553 21554 21555 21556 21557 21558 21559 21560 21561 21562 21563 21564 21565 21566 21567 21568 21569 21570 21571 21572 21573 21574 21575 21576 21577 21578 21579 21580 21581 21582 21583 21584 21585 21586 21587 21588 21589 21590 21591 21592 21593 21594 21595 21596 21597 21598 21599 21600 21601 21602 21603 21604 21605 21606 21607 21608 21609 21610 21611 21612 21613 21614 21615 21616 21617 21618 21619 21620 21621 21622 21623 21624 21625 21626 21627 21628 21629 21630 21631 21632 21633 21634 21635 21636 21637 21638 21639 21640 21641 21642 21643 21644 21645 21646 21647 21648 21649 21650 21651 21652 21653 21654 21655 21656 21657 21658 21659 21660 21661 21662 21663 21664 21665 21666 21667 21668 21669 21670 21671 21672 21673 21674 21675 21676 21677 21678 21679 21680 21681 21682 21683 21684 21685 21686 21687 21688 21689 21690 21691 21692 21693 21694 21695 21696 21697 21698 21699 21700 21701 21702 21703 21704 21705 21706 21707 21708 21709 21710 21711 21712 21713 21714 21715 21716 21717 21718 21719 21720 21721 21722 21723 21724 21725 21726 21727 21728 21729 21730 21731 21732 21733 21734 21735 21736 21737 21738 21739 21740 21741 21742 21743 21744 21745 21746 21747 21748 21749 21750 21751 21752 21753 21754 21755 21756 21757 21758 21759 21760 21761 21762 21763 21764 21765 21766 21767 21768 21769 21770 21771 21772 21773 21774 21775 21776 21777 21778 21779 21780 21781 21782 21783 21784 21785 21786 21787 21788 21789 21790 21791 21792 21793 21794 21795 21796 21797 21798 21799 21800 21801 21802 21803 21804 21805 21806 21807 21808 21809 21810 21811 21812 21813 21814 21815 21816 21817 21818 21819 21820 21821 21822 21823 21824 21825 21826 21827 21828 21829 21830 21831 21832 21833 21834 21835 21836 21837 21838 21839 21840 21841 21842 21843 21844 21845 21846 21847 21848 21849 21850 21851 21852 21853 21854 21855 21856 21857 21858 21859 21860 21861 21862 21863 21864 21865 21866 21867 21868 21869 21870 21871 21872 21873 21874 21875 21876 21877 21878 21879 21880 21881 21882 21883 21884 21885 21886 21887 21888 21889 21890 21891 21892 21893 21894 21895 21896 21897 21898 21899 21900 21901 21902 21903 21904 21905 21906 21907 21908 21909 21910 21911 21912 21913 21914 21915 21916 21917 21918 21919 21920 21921 21922 21923 21924 21925 21926 21927 21928 21929 21930 21931 21932 21933 21934 21935 21936 21937 21938 21939 21940 21941 21942 21943 21944 21945 21946 21947 21948 21949 21950 21951 21952 21953 21954 21955 21956 21957 21958 21959 21960 21961 21962 21963 21964 21965 21966 21967 21968 21969 21970 21971 21972 21973 21974 21975 21976 21977 21978 21979 21980 21981 21982 21983 21984 21985 21986 21987 21988 21989 21990 21991 21992 21993 21994 21995 21996 21997 21998 21999 22000 22001 22002 22003 22004 22005 22006 22007 22008 22009 22010 22011 22012 22013 22014 22015 22016 22017 22018 22019 22020 22021 22022 22023 22024 22025 22026 22027 22028 22029 22030 22031 22032 22033 22034 22035 22036 22037 22038 22039 22040 22041 22042 22043 22044 22045 22046 22047 22048 22049 22050 22051 22052 22053 22054 22055 22056 22057 22058 22059 22060 22061 22062 22063 22064 22065 22066 22067 22068 22069 22070 22071 22072 22073 22074 22075 22076 22077 22078 22079 22080 22081 22082 22083 22084 22085 22086 22087 22088 22089 22090 22091 22092 22093 22094 22095 22096 22097 22098 22099 22100 22101 22102 22103 22104 22105 22106 22107 22108 22109 22110 22111 22112 22113 22114 22115 22116 22117 22118 22119 22120 22121 22122 22123 22124 22125 22126 22127 22128 22129 22130 22131 22132 22133 22134 22135 22136 22137 22138 22139 22140 22141 22142 22143 22144 22145 22146 22147 22148 22149 22150 22151 22152 22153 22154 22155 22156 22157 22158 22159 22160 22161 22162 22163 22164 22165 22166 22167 22168 22169 22170 22171 22172 22173 22174 22175 22176 22177 22178 22179 22180 22181 22182 22183 22184 22185 22186 22187 22188 22189 22190 22191 22192 22193 22194 22195 22196 22197 22198 22199 22200 22201 22202 22203 22204 22205 22206 22207 22208 22209 22210 22211 22212 22213 22214 22215 22216 22217 22218 22219 22220 22221 22222 22223 22224 22225 22226 22227 22228 22229 22230 22231 22232 22233 22234 22235 22236 22237 22238 22239 22240 22241 22242 22243 22244 22245 22246 22247 22248 22249 22250 22251 22252 22253 22254 22255 22256 22257 22258 22259 22260 22261 22262 22263 22264 22265 22266 22267 22268 22269 22270 22271 22272 22273 22274 22275 22276 22277 22278 22279 22280 22281 22282 22283 22284 22285 22286 22287 22288 22289 22290 22291 22292 22293 22294 22295 22296 22297 22298 22299 22300 22301 22302 22303 22304 22305 22306 22307 22308 22309 22310 22311 22312 22313 22314 22315 22316 22317 22318 22319 22320 22321 22322 22323 22324 22325 22326 22327 22328 22329 22330 22331 22332 22333 22334 22335 22336 22337 22338 22339 22340 22341 22342 22343 22344 22345 22346 22347 22348 22349 22350 22351 22352 22353 22354 22355 22356 22357 22358 22359 22360 22361 22362 22363 22364 22365 22366 22367 22368 22369 22370 22371 22372 22373 22374 22375 22376 22377 22378 22379 22380 22381 22382 22383 22384 22385 22386 22387 22388 22389 22390 22391 22392 22393 22394 22395 22396 22397 22398 22399 22400 22401 22402 22403 22404 22405 22406 22407 22408 22409 22410 22411 22412 22413 22414 22415 22416 22417 22418 22419 22420 22421 22422 22423 22424 22425 22426 22427 22428 22429 22430 22431 22432 22433 22434 22435 22436 22437 22438 22439 22440 22441 22442 22443 22444 22445 22446 22447 22448 22449 22450 22451 22452 22453 22454 22455 22456 22457 22458 22459 22460 22461 22462 22463 22464 22465 22466 22467 22468 22469 22470 22471 22472 22473 22474 22475 22476 22477 22478 22479 22480 22481 22482 22483 22484 22485 22486 22487 22488 22489 22490 22491 22492 22493 22494 22495 22496 22497 22498 22499 22500 22501 22502 22503 22504 22505 22506 22507 22508 22509 22510 22511 22512 22513 22514 22515 22516 22517 22518 22519 22520 22521 22522 22523 22524 22525 22526 22527 22528 22529 22530 22531 22532 22533 22534 22535 22536 22537 22538 22539 22540 22541 22542 22543 22544 22545 22546 22547 22548 22549 22550 22551 22552 22553 22554 22555 22556 22557 22558 22559 22560 22561 22562 22563 22564 22565 22566 22567 22568 22569 22570 22571 22572 22573 22574 22575 22576 22577 22578 22579 22580 22581 22582 22583 22584 22585 22586 22587 22588 22589 22590 22591 22592 22593 22594 22595 22596 22597 22598 22599 22600 22601 22602 22603 22604 22605 22606 22607 22608 22609 22610 22611 22612 22613 22614 22615 22616 22617 22618 22619 22620 22621 22622 22623 22624 22625 22626 22627 22628 22629 22630 22631 22632 22633 22634 22635 22636 22637 22638 22639 22640 22641 22642 22643 22644 22645 22646 22647 22648 22649 22650 22651 22652 22653 22654 22655 22656 22657 22658 22659 22660 22661 22662 22663 22664 22665 22666 22667 22668 22669 22670 22671 22672 22673 22674 22675 22676 22677 22678 22679 22680 22681 22682 22683 22684 22685 22686 22687 22688 22689 22690 22691 22692 22693 22694 22695 22696 22697 22698 22699 22700 22701 22702 22703 22704 22705 22706 22707 22708 22709 22710 22711 22712 22713 22714 22715 22716 22717 22718 22719 22720 22721 22722 22723 22724 22725 22726 22727 22728 22729 22730 22731 22732 22733 22734 22735 22736 22737 22738 22739 22740 22741 22742 22743 22744 22745 22746 22747 22748 22749 22750 22751 22752 22753 22754 22755 22756 22757 22758 22759 22760 22761 22762 22763 22764 22765 22766 22767 22768 22769 22770 22771 22772 22773 22774 22775 22776 22777 22778 22779 22780 22781 22782 22783 22784 22785 22786 22787 22788 22789 22790 22791 22792 22793 22794 22795 22796 22797 22798 22799 22800 22801 22802 22803 22804 22805 22806 22807 22808 22809 22810 22811 22812 22813 22814 22815 22816 22817 22818 22819 22820 22821 22822 22823 22824 22825 22826 22827 22828 22829 22830 22831 22832 22833 22834 22835 22836 22837 22838 22839 22840 22841 22842 22843 22844 22845 22846 22847 22848 22849 22850 22851 22852 22853 22854 22855 22856 22857 22858 22859 22860 22861 22862 22863 22864 22865 22866 22867 22868 22869 22870 22871 22872 22873 22874 22875 22876 22877 22878 22879 22880 22881 22882 22883 22884 22885 22886 22887 22888 22889 22890 22891 22892 22893 22894 22895 22896 22897 22898 22899 22900 22901 22902 22903 22904 22905 22906 22907 22908 22909 22910 22911 22912 22913 22914 22915 22916 22917 22918 22919 22920 22921 22922 22923 22924 22925 22926 22927 22928 22929 22930 22931 22932 22933 22934 22935 22936 22937 22938 22939 22940 22941 22942 22943 22944 22945 22946 22947 22948 22949 22950 22951 22952 22953 22954 22955 22956 22957 22958 22959 22960 22961 22962 22963 22964 22965 22966 22967 22968 22969 22970 22971 22972 22973 22974 22975 22976 22977 22978 22979 22980 22981 22982 22983 22984 22985 22986 22987 22988 22989 22990 22991 22992 22993 22994 22995 22996 22997 22998 22999 23000 23001 23002 23003 23004 23005 23006 23007 23008 23009 23010 23011 23012 23013 23014 23015 23016 23017 23018 23019 23020 23021 23022 23023 23024 23025 23026 23027 23028 23029 23030 23031 23032 23033 23034 23035 23036 23037 23038 23039 23040 23041 23042 23043 23044 23045 23046 23047 23048 23049 23050 23051 23052 23053 23054 23055 23056 23057 23058 23059 23060 23061 23062 23063 23064 23065 23066 23067 23068 23069 23070 23071 23072 23073 23074 23075 23076 23077 23078 23079 23080 23081 23082 23083 23084 23085 23086 23087 23088 23089 23090 23091 23092 23093 23094 23095 23096 23097 23098 23099 23100 23101 23102 23103 23104 23105 23106 23107 23108 23109 23110 23111 23112 23113 23114 23115 23116 23117 23118 23119 23120 23121 23122 23123 23124 23125 23126 23127 23128 23129 23130 23131 23132 23133 23134 23135 23136 23137 23138 23139 23140 23141 23142 23143 23144 23145 23146 23147 23148 23149 23150 23151 23152 23153 23154 23155 23156 23157 23158 23159 23160 23161 23162 23163 23164 23165 23166 23167 23168 23169 23170 23171 23172 23173 23174 23175 23176 23177 23178 23179 23180 23181 23182 23183 23184 23185 23186 23187 23188 23189 23190 23191 23192 23193 23194 23195 23196 23197 23198 23199 23200 23201 23202 23203 23204 23205 23206 23207 23208 23209 23210 23211 23212 23213 23214 23215 23216 23217 23218 23219 23220 23221 23222 23223 23224 23225 23226 23227 23228 23229 23230 23231 23232 23233 23234 23235 23236 23237 23238 23239 23240 23241 23242 23243 23244 23245 23246 23247 23248 23249 23250 23251 23252 23253 23254 23255 23256 23257 23258 23259 23260 23261 23262 23263 23264 23265 23266 23267 23268 23269 23270 23271 23272 23273 23274 23275 23276 23277 23278 23279 23280 23281 23282 23283 23284 23285 23286 23287 23288 23289 23290 23291 23292 23293 23294 23295 23296 23297 23298 23299 23300 23301 23302 23303 23304 23305 23306 23307 23308 23309 23310 23311 23312 23313 23314 23315 23316 23317 23318 23319 23320 23321 23322 23323 23324 23325 23326 23327 23328 23329 23330 23331 23332 23333 23334 23335 23336 23337 23338 23339 23340 23341 23342 23343 23344 23345 23346 23347 23348 23349 23350 23351 23352 23353 23354 23355 23356 23357 23358 23359 23360 23361 23362 23363 23364 23365 23366 23367 23368 23369 23370 23371 23372 23373 23374 23375 23376 23377 23378 23379 23380 23381 23382 23383 23384 23385 23386 23387 23388 23389 23390 23391 23392 23393 23394 23395 23396 23397 23398 23399 23400 23401 23402 23403 23404 23405 23406 23407 23408 23409 23410 23411 23412 23413 23414 23415 23416 23417 23418 23419 23420 23421 23422 23423 23424 23425 23426 23427 23428 23429 23430 23431 23432 23433 23434 23435 23436 23437 23438 23439 23440 23441 23442 23443 23444 23445 23446 23447 23448 23449 23450 23451 23452 23453 23454 23455 23456 23457 23458 23459 23460 23461 23462 23463 23464 23465 23466 23467 23468 23469 23470 23471 23472 23473 23474 23475 23476 23477 23478 23479 23480 23481 23482 23483 23484 23485 23486 23487 23488 23489 23490 23491 23492 23493 23494 23495 23496 23497 23498 23499 23500 23501 23502 23503 23504 23505 23506 23507 23508 23509 23510 23511 23512 23513 23514 23515 23516 23517 23518 23519 23520 23521 23522 23523 23524 23525 23526 23527 23528 23529 23530 23531 23532 23533 23534 23535 23536 23537 23538 23539 23540 23541 23542 23543 23544 23545 23546 23547 23548 23549 23550 23551 23552 23553 23554 23555 23556 23557 23558 23559 23560 23561 23562 23563 23564 23565 23566 23567 23568 23569 23570 23571 23572 23573 23574 23575 23576 23577 23578 23579 23580 23581 23582 23583 23584 23585 23586 23587 23588 23589 23590 23591 23592 23593 23594 23595 23596 23597 23598 23599 23600 23601 23602 23603 23604 23605 23606 23607 23608 23609 23610 23611 23612 23613 23614 23615 23616 23617 23618 23619 23620 23621 23622 23623 23624 23625 23626 23627 23628 23629 23630 23631 23632 23633 23634 23635 23636 23637 23638 23639 23640 23641 23642 23643 23644 23645 23646 23647 23648 23649 23650 23651 23652 23653 23654 23655 23656 23657 23658 23659 23660 23661 23662 23663 23664 23665 23666 23667 23668 23669 23670 23671 23672 23673 23674 23675 23676 23677 23678 23679 23680 23681 23682 23683 23684 23685 23686 23687 23688 23689 23690 23691 23692 23693 23694 23695 23696 23697 23698 23699 23700 23701 23702 23703 23704 23705 23706 23707 23708 23709 23710 23711 23712 23713 23714 23715 23716 23717 23718 23719 23720 23721 23722 23723 23724 23725 23726 23727 23728 23729 23730 23731 23732 23733 23734 23735 23736 23737 23738 23739 23740 23741 23742 23743 23744 23745 23746 23747 23748 23749 23750 23751 23752 23753 23754 23755 23756 23757 23758 23759 23760 23761 23762 23763 23764 23765 23766 23767 23768 23769 23770 23771 23772 23773 23774 23775 23776 23777 23778 23779 23780 23781 23782 23783 23784 23785 23786 23787 23788 23789 23790 23791 23792 23793 23794 23795 23796 23797 23798 23799 23800 23801 23802 23803 23804 23805 23806 23807 23808 23809 23810 23811 23812 23813 23814 23815 23816 23817 23818 23819 23820 23821 23822 23823 23824 23825 23826 23827 23828 23829 23830 23831 23832 23833 23834 23835 23836 23837 23838 23839 23840 23841 23842 23843 23844 23845 23846 23847 23848 23849 23850 23851 23852 23853 23854 23855 23856 23857 23858 23859 23860 23861 23862 23863 23864 23865 23866 23867 23868 23869 23870 23871 23872 23873 23874 23875 23876 23877 23878 23879 23880 23881 23882 23883 23884 23885 23886 23887 23888 23889 23890 23891 23892 23893 23894 23895 23896 23897 23898 23899 23900 23901 23902 23903 23904 23905 23906 23907 23908 23909 23910 23911 23912 23913 23914 23915 23916 23917 23918 23919 23920 23921 23922 23923 23924 23925 23926 23927 23928 23929 23930 23931 23932 23933 23934 23935 23936 23937 23938 23939 23940 23941 23942 23943 23944 23945 23946 23947 23948 23949 23950 23951 23952 23953 23954 23955 23956 23957 23958 23959 23960 23961 23962 23963 23964 23965 23966 23967 23968 23969 23970 23971 23972 23973 23974 23975 23976 23977 23978 23979 23980 23981 23982 23983 23984 23985 23986 23987 23988 23989 23990 23991 23992 23993 23994 23995 23996 23997 23998 23999 24000 24001 24002 24003 24004 24005 24006 24007 24008 24009 24010 24011 24012 24013 24014 24015 24016 24017 24018 24019 24020 24021 24022 24023 24024 24025 24026 24027 24028 24029 24030 24031 24032 24033 24034 24035 24036 24037 24038 24039 24040 24041 24042 24043 24044 24045 24046 24047 24048 24049 24050 24051 24052 24053 24054 24055 24056 24057 24058 24059 24060 24061 24062 24063 24064 24065 24066 24067 24068 24069 24070 24071 24072 24073 24074 24075 24076 24077 24078 24079 24080 24081 24082 24083 24084 24085 24086 24087 24088 24089 24090 24091 24092 24093 24094 24095 24096 24097 24098 24099 24100 24101 24102 24103 24104 24105 24106 24107 24108 24109 24110 24111 24112 24113 24114 24115 24116 24117 24118 24119 24120 24121 24122 24123 24124 24125 24126 24127 24128 24129 24130 24131 24132 24133 24134 24135 24136 24137 24138 24139 24140 24141 24142 24143 24144 24145 24146 24147 24148 24149 24150 24151 24152 24153 24154 24155 24156 24157 24158 24159 24160 24161 24162 24163 24164 24165 24166 24167 24168 24169 24170 24171 24172 24173 24174 24175 24176 24177 24178 24179 24180 24181 24182 24183 24184 24185 24186 24187 24188 24189 24190 24191 24192 24193 24194 24195 24196 24197 24198 24199 24200 24201 24202 24203 24204 24205 24206 24207 24208 24209 24210 24211 24212 24213 24214 24215 24216 24217 24218 24219 24220 24221 24222 24223 24224 24225 24226 24227 24228 24229 24230 24231 24232 24233 24234 24235 24236 24237 24238 24239 24240 24241 24242 24243 24244 24245 24246 24247 24248 24249 24250 24251 24252 24253 24254 24255 24256 24257 24258 24259 24260 24261 24262 24263 24264 24265 24266 24267 24268 24269 24270 24271 24272 24273 24274 24275 24276 24277 24278 24279 24280 24281 24282 24283 24284 24285 24286 24287 24288 24289 24290 24291 24292 24293 24294 24295 24296 24297 24298 24299 24300 24301 24302 24303 24304 24305 24306 24307 24308 24309 24310 24311 24312 24313 24314 24315 24316 24317 24318 24319 24320 24321 24322 24323 24324 24325 24326 24327 24328 24329 24330 24331 24332 24333 24334 24335 24336 24337 24338 24339 24340 24341 24342 24343 24344 24345 24346 24347 24348 24349 24350 24351 24352 24353 24354 24355 24356 24357 24358 24359 24360 24361 24362 24363 24364 24365 24366 24367 24368 24369 24370 24371 24372 24373 24374 24375 24376 24377 24378 24379 24380 24381 24382 24383 24384 24385 24386 24387 24388 24389 24390 24391 24392 24393 24394 24395 24396 24397 24398 24399 24400 24401 24402 24403 24404 24405 24406 24407 24408 24409 24410 24411 24412 24413 24414 24415 24416 24417 24418 24419 24420 24421 24422 24423 24424 24425 24426 24427 24428 24429 24430 24431 24432 24433 24434 24435 24436 24437 24438 24439 24440 24441 24442 24443 24444 24445 24446 24447 24448 24449 24450 24451 24452 24453 24454 24455 24456 24457 24458 24459 24460 24461 24462 24463 24464 24465 24466 24467 24468 24469 24470 24471 24472 24473 24474 24475 24476 24477 24478 24479 24480 24481 24482 24483 24484 24485 24486 24487 24488 24489 24490 24491 24492 24493 24494 24495 24496 24497 24498 24499 24500 24501 24502 24503 24504 24505 24506 24507 24508 24509 24510 24511 24512 24513 24514 24515 24516 24517 24518 24519 24520 24521 24522 24523 24524 24525 24526 24527 24528 24529 24530 24531 24532 24533 24534 24535 24536 24537 24538 24539 24540 24541 24542 24543 24544 24545 24546 24547 24548 24549 24550 24551 24552 24553 24554 24555 24556 24557 24558 24559 24560 24561 24562 24563 24564 24565 24566 24567 24568 24569 24570 24571 24572 24573 24574 24575 24576 24577 24578 24579 24580 24581 24582 24583 24584 24585 24586 24587 24588 24589 24590 24591 24592 24593 24594 24595 24596 24597 24598 24599 24600 24601 24602 24603 24604 24605 24606 24607 24608 24609 24610 24611 24612 24613 24614 24615 24616 24617 24618 24619 24620 24621 24622 24623 24624 24625 24626 24627 24628 24629 24630 24631 24632 24633 24634 24635 24636 24637 24638 24639 24640 24641 24642 24643 24644 24645 24646 24647 24648 24649 24650 24651 24652 24653 24654 24655 24656 24657 24658 24659 24660 24661 24662 24663 24664 24665 24666 24667 24668 24669 24670 24671 24672 24673 24674 24675 24676 24677 24678 24679 24680 24681 24682 24683 24684 24685 24686 24687 24688 24689 24690 24691 24692 24693 24694 24695 24696 24697 24698 24699 24700 24701 24702 24703 24704 24705 24706 24707 24708 24709 24710 24711 24712 24713 24714 24715 24716 24717 24718 24719 24720 24721 24722 24723 24724 24725 24726 24727 24728 24729 24730 24731 24732 24733 24734 24735 24736 24737 24738 24739 24740 24741 24742 24743 24744 24745 24746 24747 24748 24749 24750 24751 24752 24753 24754 24755 24756 24757 24758 24759 24760 24761 24762 24763 24764 24765 24766 24767 24768 24769 24770 24771 24772 24773 24774 24775 24776 24777 24778 24779 24780 24781 24782 24783 24784 24785 24786 24787 24788 24789 24790 24791 24792 24793 24794 24795 24796 24797 24798 24799 24800 24801 24802 24803 24804 24805 24806 24807 24808 24809 24810 24811 24812 24813 24814 24815 24816 24817 24818 24819 24820 24821 24822 24823 24824 24825 24826 24827 24828 24829 24830 24831 24832 24833 24834 24835 24836 24837 24838 24839 24840 24841 24842 24843 24844 24845 24846 24847 24848 24849 24850 24851 24852 24853 24854 24855 24856 24857 24858 24859 24860 24861 24862 24863 24864 24865 24866 24867 24868 24869 24870 24871 24872 24873 24874 24875 24876 24877 24878 24879 24880 24881 24882 24883 24884 24885 24886 24887 24888 24889 24890 24891 24892 24893 24894 24895 24896 24897 24898 24899 24900 24901 24902 24903 24904 24905 24906 24907 24908 24909 24910 24911 24912 24913 24914 24915 24916 24917 24918 24919 24920 24921 24922 24923 24924 24925 24926 24927 24928 24929 24930 24931 24932 24933 24934 24935 24936 24937 24938 24939 24940 24941 24942 24943 24944 24945 24946 24947 24948 24949 24950 24951 24952 24953 24954 24955 24956 24957 24958 24959 24960 24961 24962 24963 24964 24965 24966 24967 24968 24969 24970 24971 24972 24973 24974 24975 24976 24977 24978 24979 24980 24981 24982 24983 24984 24985 24986 24987 24988 24989 24990 24991 24992 24993 24994 24995 24996 24997 24998 24999 25000 25001 25002 25003 25004 25005 25006 25007 25008 25009 25010 25011 25012 25013 25014 25015 25016 25017 25018 25019 25020 25021 25022 25023 25024 25025 25026 25027 25028 25029 25030 25031 25032 25033 25034 25035 25036 25037 25038 25039 25040 25041 25042 25043 25044 25045 25046 25047 25048 25049 25050 25051 25052 25053 25054 25055 25056 25057 25058 25059 25060 25061 25062 25063 25064 25065 25066 25067 25068 25069 25070 25071 25072 25073 25074 25075 25076 25077 25078 25079 25080 25081 25082 25083 25084 25085 25086 25087 25088 25089 25090 25091 25092 25093 25094 25095 25096 25097 25098 25099 25100 25101 25102 25103 25104 25105 25106 25107 25108 25109 25110 25111 25112 25113 25114 25115 25116 25117 25118 25119 25120 25121 25122 25123 25124 25125 25126 25127 25128 25129 25130 25131 25132 25133 25134 25135 25136 25137 25138 25139 25140 25141 25142 25143 25144 25145 25146 25147 25148 25149 25150 25151 25152 25153 25154 25155 25156 25157 25158 25159 25160 25161 25162 25163 25164 25165 25166 25167 25168 25169 25170 25171 25172 25173 25174 25175 25176 25177 25178 25179 25180 25181 25182 25183 25184 25185 25186 25187 25188 25189 25190 25191 25192 25193 25194 25195 25196 25197 25198 25199 25200 25201 25202 25203 25204 25205 25206 25207 25208 25209 25210 25211 25212 25213 25214 25215 25216 25217 25218 25219 25220 25221 25222 25223 25224 25225 25226 25227 25228 25229 25230 25231 25232 25233 25234 25235 25236 25237 25238 25239 25240 25241 25242 25243 25244 25245 25246 25247 25248 25249 25250 25251 25252 25253 25254 25255 25256 25257 25258 25259 25260 25261 25262 25263 25264 25265 25266 25267 25268 25269 25270 25271 25272 25273 25274 25275 25276 25277 25278 25279 25280 25281 25282 25283 25284 25285 25286 25287 25288 25289 25290 25291 25292 25293 25294 25295 25296 25297 25298 25299 25300 25301 25302 25303 25304 25305 25306 25307 25308 25309 25310 25311 25312 25313 25314 25315 25316 25317 25318 25319 25320 25321 25322 25323 25324 25325 25326 25327 25328 25329 25330 25331 25332 25333 25334 25335 25336 25337 25338 25339 25340 25341 25342 25343 25344 25345 25346 25347 25348 25349 25350 25351 25352 25353 25354 25355 25356 25357 25358 25359 25360 25361 25362 25363 25364 25365 25366 25367 25368 25369 25370 25371 25372 25373 25374 25375 25376 25377 25378 25379 25380 25381 25382 25383 25384 25385 25386 25387 25388 25389 25390 25391 25392 25393 25394 25395 25396 25397 25398 25399 25400 25401 25402 25403 25404 25405 25406 25407 25408 25409 25410 25411 25412 25413 25414 25415 25416 25417 25418 25419 25420 25421 25422 25423 25424 25425 25426 25427 25428 25429 25430 25431 25432 25433 25434 25435 25436 25437 25438 25439 25440 25441 25442 25443 25444 25445 25446 25447 25448 25449 25450 25451 25452 25453 25454 25455 25456 25457 25458 25459 25460 25461 25462 25463 25464 25465 25466 25467 25468 25469 25470 25471 25472 25473 25474 25475 25476 25477 25478 25479 25480 25481 25482 25483 25484 25485 25486 25487 25488 25489 25490 25491 25492 25493 25494 25495 25496 25497 25498 25499 25500 25501 25502 25503 25504 25505 25506 25507 25508 25509 25510 25511 25512 25513 25514 25515 25516 25517 25518 25519 25520 25521 25522 25523 25524 25525 25526 25527 25528 25529 25530 25531 25532 25533 25534 25535 25536 25537 25538 25539 25540 25541 25542 25543 25544 25545 25546 25547 25548 25549 25550 25551 25552 25553 25554 25555 25556 25557 25558 25559 25560 25561 25562 25563 25564 25565 25566 25567 25568 25569 25570 25571 25572 25573 25574 25575 25576 25577 25578 25579 25580 25581 25582 25583 25584 25585 25586 25587 25588 25589 25590 25591 25592 25593 25594 25595 25596 25597 25598 25599 25600 25601 25602 25603 25604 25605 25606 25607 25608 25609 25610 25611 25612 25613 25614 25615 25616 25617 25618 25619 25620 25621 25622 25623 25624 25625 25626 25627 25628 25629 25630 25631 25632 25633 25634 25635 25636 25637 25638 25639 25640 25641 25642 25643 25644 25645 25646 25647 25648 25649 25650 25651 25652 25653 25654 25655 25656 25657 25658 25659 25660 25661 25662 25663 25664 25665 25666 25667 25668 25669 25670 25671 25672 25673 25674 25675 25676 25677 25678 25679 25680 25681 25682 25683 25684 25685 25686 25687 25688 25689 25690 25691 25692 25693 25694 25695 25696 25697 25698 25699 25700 25701 25702 25703 25704 25705 25706 25707 25708 25709 25710 25711 25712 25713 25714 25715 25716 25717 25718 25719 25720 25721 25722 25723 25724 25725 25726 25727 25728 25729 25730 25731 25732 25733 25734 25735 25736 25737 25738 25739 25740 25741 25742 25743 25744 25745 25746 25747 25748 25749 25750 25751 25752 25753 25754 25755 25756 25757 25758 25759 25760 25761 25762 25763 25764 25765 25766 25767 25768 25769 25770 25771 25772 25773 25774 25775 25776 25777 25778 25779 25780 25781 25782 25783 25784 25785 25786 25787 25788 25789 25790 25791 25792 25793 25794 25795 25796 25797 25798 25799 25800 25801 25802 25803 25804 25805 25806 25807 25808 25809 25810 25811 25812 25813 25814 25815 25816 25817 25818 25819 25820 25821 25822 25823 25824 25825 25826 25827 25828 25829 25830 25831 25832 25833 25834 25835 25836 25837 25838 25839 25840 25841 25842 25843 25844 25845 25846 25847 25848 25849 25850 25851 25852 25853 25854 25855 25856 25857 25858 25859 25860 25861 25862 25863 25864 25865 25866 25867 25868 25869 25870 25871 25872 25873 25874 25875 25876 25877 25878 25879 25880 25881 25882 25883 25884 25885 25886 25887 25888 25889 25890 25891 25892 25893 25894 25895 25896 25897 25898 25899 25900 25901 25902 25903 25904 25905 25906 25907 25908 25909 25910 25911 25912 25913 25914 25915 25916 25917 25918 25919 25920 25921 25922 25923 25924 25925 25926 25927 25928 25929 25930 25931 25932 25933 25934 25935 25936 25937 25938 25939 25940 25941 25942 25943 25944 25945 25946 25947 25948 25949 25950 25951 25952 25953 25954 25955 25956 25957 25958 25959 25960 25961 25962 25963 25964 25965 25966 25967 25968 25969 25970 25971 25972 25973 25974 25975 25976 25977 25978 25979 25980 25981 25982 25983 25984 25985 25986 25987 25988 25989 25990 25991 25992 25993 25994 25995 25996 25997 25998 25999 26000 26001 26002 26003 26004 26005 26006 26007 26008 26009 26010 26011 26012 26013 26014 26015 26016 26017 26018 26019 26020 26021 26022 26023 26024 26025 26026 26027 26028 26029 26030 26031 26032 26033 26034 26035 26036 26037 26038 26039 26040 26041 26042 26043 26044 26045 26046 26047 26048 26049 26050 26051 26052 26053 26054 26055 26056 26057 26058 26059 26060 26061 26062 26063 26064 26065 26066 26067 26068 26069 26070 26071 26072 26073 26074 26075 26076 26077 26078 26079 26080 26081 26082 26083 26084 26085 26086 26087 26088 26089 26090 26091 26092 26093 26094 26095 26096 26097 26098 26099 26100 26101 26102 26103 26104 26105 26106 26107 26108 26109 26110 26111 26112 26113 26114 26115 26116 26117 26118 26119 26120 26121 26122 26123 26124 26125 26126 26127 26128 26129 26130 26131 26132 26133 26134 26135 26136 26137 26138 26139 26140 26141 26142 26143 26144 26145 26146 26147 26148 26149 26150 26151 26152 26153 26154 26155 26156 26157 26158 26159 26160 26161 26162 26163 26164 26165 26166 26167 26168 26169 26170 26171 26172 26173 26174 26175 26176 26177 26178 26179 26180 26181 26182 26183 26184 26185 26186 26187 26188 26189 26190 26191 26192 26193 26194 26195 26196 26197 26198 26199 26200 26201 26202 26203 26204 26205 26206 26207 26208 26209 26210 26211 26212 26213 26214 26215 26216 26217 26218 26219 26220 26221 26222 26223 26224 26225 26226 26227 26228 26229 26230 26231 26232 26233 26234 26235 26236 26237 26238 26239 26240 26241 26242 26243 26244 26245 26246 26247 26248 26249 26250 26251 26252 26253 26254 26255 26256 26257 26258 26259 26260 26261 26262 26263 26264 26265 26266 26267 26268 26269 26270 26271 26272 26273 26274 26275 26276 26277 26278 26279 26280 26281 26282 26283 26284 26285 26286 26287 26288 26289 26290 26291 26292 26293 26294 26295 26296 26297 26298 26299 26300 26301 26302 26303 26304 26305 26306 26307 26308 26309 26310 26311 26312 26313 26314 26315 26316 26317 26318 26319 26320 26321 26322 26323 26324 26325 26326 26327 26328 26329 26330 26331 26332 26333 26334 26335 26336 26337 26338 26339 26340 26341 26342 26343 26344 26345 26346 26347 26348 26349 26350 26351 26352 26353 26354 26355 26356 26357 26358 26359 26360 26361 26362 26363 26364 26365 26366 26367 26368 26369 26370 26371 26372 26373 26374 26375 26376 26377 26378 26379 26380 26381 26382 26383 26384 26385 26386 26387 26388 26389 26390 26391 26392 26393 26394 26395 26396 26397 26398 26399 26400 26401 26402 26403 26404 26405 26406 26407 26408 26409 26410 26411 26412 26413 26414 26415 26416 26417 26418 26419 26420 26421 26422 26423 26424 26425 26426 26427 26428 26429 26430 26431 26432 26433 26434 26435 26436 26437 26438 26439 26440 26441 26442 26443 26444 26445 26446 26447 26448 26449 26450 26451 26452 26453 26454 26455 26456 26457 26458 26459 26460 26461 26462 26463 26464 26465 26466 26467 26468 26469 26470 26471 26472 26473 26474 26475 26476 26477 26478 26479 26480 26481 26482 26483 26484 26485 26486 26487 26488 26489 26490 26491 26492 26493 26494 26495 26496 26497 26498 26499 26500 26501 26502 26503 26504 26505 26506 26507 26508 26509 26510 26511 26512 26513 26514 26515 26516 26517 26518 26519 26520 26521 26522 26523 26524 26525 26526 26527 26528 26529 26530 26531 26532 26533 26534 26535 26536 26537 26538 26539 26540 26541 26542 26543 26544 26545 26546 26547 26548 26549 26550 26551 26552 26553 26554 26555 26556 26557 26558 26559 26560 26561 26562 26563 26564 26565 26566 26567 26568 26569 26570 26571 26572 26573 26574 26575 26576 26577 26578 26579 26580 26581 26582 26583 26584 26585 26586 26587 26588 26589 26590 26591 26592 26593 26594 26595 26596 26597 26598 26599 26600 26601 26602 26603 26604 26605 26606 26607 26608 26609 26610 26611 26612 26613 26614 26615 26616 26617 26618 26619 26620 26621 26622 26623 26624 26625 26626 26627 26628 26629 26630 26631 26632 26633 26634 26635 26636 26637 26638 26639 26640 26641 26642 26643 26644 26645 26646 26647 26648 26649 26650 26651 26652 26653 26654 26655 26656 26657 26658 26659 26660 26661 26662 26663 26664 26665 26666 26667 26668 26669 26670 26671 26672 26673 26674 26675 26676 26677 26678 26679 26680 26681 26682 26683 26684 26685 26686 26687 26688 26689 26690 26691 26692 26693 26694 26695 26696 26697 26698 26699 26700 26701 26702 26703 26704 26705 26706 26707 26708 26709 26710 26711 26712 26713 26714 26715 26716 26717 26718 26719 26720 26721 26722 26723 26724 26725 26726 26727 26728 26729 26730 26731 26732 26733 26734 26735 26736 26737 26738 26739 26740 26741 26742 26743 26744 26745 26746 26747 26748 26749 26750 26751 26752 26753 26754 26755 26756 26757 26758 26759 26760 26761 26762 26763 26764 26765 26766 26767 26768 26769 26770 26771 26772 26773 26774 26775 26776 26777 26778 26779 26780 26781 26782 26783 26784 26785 26786 26787 26788 26789 26790 26791 26792 26793 26794 26795 26796 26797 26798 26799 26800 26801 26802 26803 26804 26805 26806 26807 26808 26809 26810 26811 26812 26813 26814 26815 26816 26817 26818 26819 26820 26821 26822 26823 26824 26825 26826 26827 26828 26829 26830 26831 26832 26833 26834 26835 26836 26837 26838 26839 26840 26841 26842 26843 26844 26845 26846 26847 26848 26849 26850 26851 26852 26853 26854 26855 26856 26857 26858 26859 26860 26861 26862 26863 26864 26865 26866 26867 26868 26869 26870 26871 26872 26873 26874 26875 26876 26877 26878 26879 26880 26881 26882 26883 26884 26885 26886 26887 26888 26889 26890 26891 26892 26893 26894 26895 26896 26897 26898 26899 26900 26901 26902 26903 26904 26905 26906 26907 26908 26909 26910 26911 26912 26913 26914 26915 26916 26917 26918 26919 26920 26921 26922 26923 26924 26925 26926 26927 26928 26929 26930 26931 26932 26933 26934 26935 26936 26937 26938 26939 26940 26941 26942 26943 26944 26945 26946 26947 26948 26949 26950 26951 26952 26953 26954 26955 26956 26957 26958 26959 26960 26961 26962 26963 26964 26965 26966 26967 26968 26969 26970 26971 26972 26973 26974 26975 26976 26977 26978 26979 26980 26981 26982 26983 26984 26985 26986 26987 26988 26989 26990 26991 26992 26993 26994 26995 26996 26997 26998 26999 27000 27001 27002 27003 27004 27005 27006 27007 27008 27009 27010 27011 27012 27013 27014 27015 27016 27017 27018 27019 27020 27021 27022 27023 27024 27025 27026 27027 27028 27029 27030 27031 27032 27033 27034 27035 27036 27037 27038 27039 27040 27041 27042 27043 27044 27045 27046 27047 27048 27049 27050 27051 27052 27053 27054 27055 27056 27057 27058 27059 27060 27061 27062 27063 27064 27065 27066 27067 27068 27069 27070 27071 27072 27073 27074 27075 27076 27077 27078 27079 27080 27081 27082 27083 27084 27085 27086 27087 27088 27089 27090 27091 27092 27093 27094 27095 27096 27097 27098 27099 27100 27101 27102 27103 27104 27105 27106 27107 27108 27109 27110 27111 27112 27113 27114 27115 27116 27117 27118 27119 27120 27121 27122 27123 27124 27125 27126 27127 27128 27129 27130 27131 27132 27133 27134 27135 27136 27137 27138 27139 27140 27141 27142 27143 27144 27145 27146 27147 27148 27149 27150 27151 27152 27153 27154 27155 27156 27157 27158 27159 27160 27161 27162 27163 27164 27165 27166 27167 27168 27169 27170 27171 27172 27173 27174 27175 27176 27177 27178 27179 27180 27181 27182 27183 27184 27185 27186 27187 27188 27189 27190 27191 27192 27193 27194 27195 27196 27197 27198 27199 27200 27201 27202 27203 27204 27205 27206 27207 27208 27209 27210 27211 27212 27213 27214 27215 27216 27217 27218 27219 27220 27221 27222 27223 27224 27225 27226 27227 27228 27229 27230 27231 27232 27233 27234 27235 27236 27237 27238 27239 27240 27241 27242 27243 27244 27245 27246 27247 27248 27249 27250 27251 27252 27253 27254 27255 27256 27257 27258 27259 27260 27261 27262 27263 27264 27265 27266 27267 27268 27269 27270 27271 27272 27273 27274 27275 27276 27277 27278 27279 27280 27281 27282 27283 27284 27285 27286 27287 27288 27289 27290 27291 27292 27293 27294 27295 27296 27297 27298 27299 27300 27301 27302 27303 27304 27305 27306 27307 27308 27309 27310 27311 27312 27313 27314 27315 27316 27317 27318 27319 27320 27321 27322 27323 27324 27325 27326 27327 27328 27329 27330 27331 27332 27333 27334 27335 27336 27337 27338 27339 27340 27341 27342 27343 27344 27345 27346 27347 27348 27349 27350 27351 27352 27353 27354 27355 27356 27357 27358 27359 27360 27361 27362 27363 27364 27365 27366 27367 27368 27369 27370 27371 27372 27373 27374 27375 27376 27377 27378 27379 27380 27381 27382 27383 27384 27385 27386 27387 27388 27389 27390 27391 27392 27393 27394 27395 27396 27397 27398 27399 27400 27401 27402 27403 27404 27405 27406 27407 27408 27409 27410 27411 27412 27413 27414 27415 27416 27417 27418 27419 27420 27421 27422 27423 27424 27425 27426 27427 27428 27429 27430 27431 27432 27433 27434 27435 27436 27437 27438 27439 27440 27441 27442 27443 27444 27445 27446 27447 27448 27449 27450 27451 27452 27453 27454 27455 27456 27457 27458 27459 27460 27461 27462 27463 27464 27465 27466 27467 27468 27469 27470 27471 27472 27473 27474 27475 27476 27477 27478 27479 27480 27481 27482 27483 27484 27485 27486 27487 27488 27489 27490 27491 27492 27493 27494 27495 27496 27497 27498 27499 27500 27501 27502 27503 27504 27505 27506 27507 27508 27509 27510 27511 27512 27513 27514 27515 27516 27517 27518 27519 27520 27521 27522 27523 27524 27525 27526 27527 27528 27529 27530 27531 27532 27533 27534 27535 27536 27537 27538 27539 27540 27541 27542 27543 27544 27545 27546 27547 27548 27549 27550 27551 27552 27553 27554 27555 27556 27557 27558 27559 27560 27561 27562 27563 27564 27565 27566 27567 27568 27569 27570 27571 27572 27573 27574 27575 27576 27577 27578 27579 27580 27581 27582 27583 27584 27585 27586 27587 27588 27589 27590 27591 27592 27593 27594 27595 27596 27597 27598 27599 27600 27601 27602 27603 27604 27605 27606 27607 27608 27609 27610 27611 27612 27613 27614 27615 27616 27617 27618 27619 27620 27621 27622 27623 27624 27625 27626 27627 27628 27629 27630 27631 27632 27633 27634 27635 27636 27637 27638 27639 27640 27641 27642 27643 27644 27645 27646 27647 27648 27649 27650 27651 27652 27653 27654 27655 27656 27657 27658 27659 27660 27661 27662 27663 27664 27665 27666 27667 27668 27669 27670 27671 27672 27673 27674 27675 27676 27677 27678 27679 27680 27681 27682 27683 27684 27685 27686 27687 27688 27689 27690 27691 27692 27693 27694 27695 27696 27697 27698 27699 27700 27701 27702 27703 27704 27705 27706 27707 27708 27709 27710 27711 27712 27713 27714 27715 27716 27717 27718 27719 27720 27721 27722 27723 27724 27725 27726 27727 27728 27729 27730 27731 27732 27733 27734 27735 27736 27737 27738 27739 27740 27741 27742 27743 27744 27745 27746 27747 27748 27749 27750 27751 27752 27753 27754 27755 27756 27757 27758 27759 27760 27761 27762 27763 27764 27765 27766 27767 27768 27769 27770 27771 27772 27773 27774 27775 27776 27777 27778 27779 27780 27781 27782 27783 27784 27785 27786 27787 27788 27789 27790 27791 27792 27793 27794 27795 27796 27797 27798 27799 27800 27801 27802 27803 27804 27805 27806 27807 27808 27809 27810 27811 27812 27813 27814 27815 27816 27817 27818 27819 27820 27821 27822 27823 27824 27825 27826 27827 27828 27829 27830 27831 27832 27833 27834 27835 27836 27837 27838 27839 27840 27841 27842 27843 27844 27845 27846 27847 27848 27849 27850 27851 27852 27853 27854 27855 27856 27857 27858 27859 27860 27861 27862 27863 27864 27865 27866 27867 27868 27869 27870 27871 27872 27873 27874 27875 27876 27877 27878 27879 27880 27881 27882 27883 27884 27885 27886 27887 27888 27889 27890 27891 27892 27893 27894 27895 27896 27897 27898 27899 27900 27901 27902 27903 27904 27905 27906 27907 27908 27909 27910 27911 27912 27913 27914 27915 27916 27917 27918 27919 27920 27921 27922 27923 27924 27925 27926 27927 27928 27929 27930 27931 27932 27933 27934 27935 27936 27937 27938 27939 27940 27941 27942 27943 27944 27945 27946 27947 27948 27949 27950 27951 27952 27953 27954 27955 27956 27957 27958 27959 27960 27961 27962 27963 27964 27965 27966 27967 27968 27969 27970 27971 27972 27973 27974 27975 27976 27977 27978 27979 27980 27981 27982 27983 27984 27985 27986 27987 27988 27989 27990 27991 27992 27993 27994 27995 27996 27997 27998 27999 28000 28001 28002 28003 28004 28005 28006 28007 28008 28009 28010 28011 28012 28013 28014 28015 28016 28017 28018 28019 28020 28021 28022 28023 28024 28025 28026 28027 28028 28029 28030 28031 28032 28033 28034 28035 28036 28037 28038 28039 28040 28041 28042 28043 28044 28045 28046 28047 28048 28049 28050 28051 28052 28053 28054 28055 28056 28057 28058 28059 28060 28061 28062 28063 28064 28065 28066 28067 28068 28069 28070 28071 28072 28073 28074 28075 28076 28077 28078 28079 28080 28081 28082 28083 28084 28085 28086 28087 28088 28089 28090 28091 28092 28093 28094 28095 28096 28097 28098 28099 28100 28101 28102 28103 28104 28105 28106 28107 28108 28109 28110 28111 28112 28113 28114 28115 28116 28117 28118 28119 28120 28121 28122 28123 28124 28125 28126 28127 28128 28129 28130 28131 28132 28133 28134 28135 28136 28137 28138 28139 28140 28141 28142 28143 28144 28145 28146 28147 28148 28149 28150 28151 28152 28153 28154 28155 28156 28157 28158 28159 28160 28161 28162 28163 28164 28165 28166 28167 28168 28169 28170 28171 28172 28173 28174 28175 28176 28177 28178 28179 28180 28181 28182 28183 28184 28185 28186 28187 28188 28189 28190 28191 28192 28193 28194 28195 28196 28197 28198 28199 28200 28201 28202 28203 28204 28205 28206 28207 28208 28209 28210 28211 28212 28213 28214 28215 28216 28217 28218 28219 28220 28221 28222 28223 28224 28225 28226 28227 28228 28229 28230 28231 28232 28233 28234 28235 28236 28237 28238 28239 28240 28241 28242 28243 28244 28245 28246 28247 28248 28249 28250 28251 28252 28253 28254 28255 28256 28257 28258 28259 28260 28261 28262 28263 28264 28265 28266 28267 28268 28269 28270 28271 28272 28273 28274 28275 28276 28277 28278 28279 28280 28281 28282 28283 28284 28285 28286 28287 28288 28289 28290 28291 28292 28293 28294 28295 28296 28297 28298 28299 28300 28301 28302 28303 28304 28305 28306 28307 28308 28309 28310 28311 28312 28313 28314 28315 28316 28317 28318 28319 28320 28321 28322 28323 28324 28325 28326 28327 28328 28329 28330 28331 28332 28333 28334 28335 28336 28337 28338 28339 28340 28341 28342 28343 28344 28345 28346 28347 28348 28349 28350 28351 28352 28353 28354 28355 28356 28357 28358 28359 28360 28361 28362 28363 28364 28365 28366 28367 28368 28369 28370 28371 28372 28373 28374 28375 28376 28377 28378 28379 28380 28381 28382 28383 28384 28385 28386 28387 28388 28389 28390 28391 28392 28393 28394 28395 28396 28397 28398 28399 28400 28401 28402 28403 28404 28405 28406 28407 28408 28409 28410 28411 28412 28413 28414 28415 28416 28417 28418 28419 28420 28421 28422 28423 28424 28425 28426 28427 28428 28429 28430 28431 28432 28433 28434 28435 28436 28437 28438 28439 28440 28441 28442 28443 28444 28445 28446 28447 28448 28449 28450 28451 28452 28453 28454 28455 28456 28457 28458 28459 28460 28461 28462 28463 28464 28465 28466 28467 28468 28469 28470 28471 28472 28473 28474 28475 28476 28477 28478 28479 28480 28481 28482 28483 28484 28485 28486 28487 28488 28489 28490 28491 28492 28493 28494 28495 28496 28497 28498 28499 28500 28501 28502 28503 28504 28505 28506 28507 28508 28509 28510 28511 28512 28513 28514 28515 28516 28517 28518 28519 28520 28521 28522 28523 28524 28525 28526 28527 28528 28529 28530 28531 28532 28533 28534 28535 28536 28537 28538 28539 28540 28541 28542 28543 28544 28545 28546 28547 28548 28549 28550 28551 28552 28553 28554 28555 28556 28557 28558 28559 28560 28561 28562 28563 28564 28565 28566 28567 28568 28569 28570 28571 28572 28573 28574 28575 28576 28577 28578 28579 28580 28581 28582 28583 28584 28585 28586 28587 28588 28589 28590 28591 28592 28593 28594 28595 28596 28597 28598 28599 28600 28601 28602 28603 28604 28605 28606 28607 28608 28609 28610 28611 28612 28613 28614 28615 28616 28617 28618 28619 28620 28621 28622 28623 28624 28625 28626 28627 28628 28629 28630 28631 28632 28633 28634 28635 28636 28637 28638 28639 28640 28641 28642 28643 28644 28645 28646 28647 28648 28649 28650 28651 28652 28653 28654 28655 28656 28657 28658 28659 28660 28661 28662 28663 28664 28665 28666 28667 28668 28669 28670 28671 28672 28673 28674 28675 28676 28677 28678 28679 28680 28681 28682 28683 28684 28685 28686 28687 28688 28689 28690 28691 28692 28693 28694 28695 28696 28697 28698 28699 28700 28701 28702 28703 28704 28705 28706 28707 28708 28709 28710 28711 28712 28713 28714 28715 28716 28717 28718 28719 28720 28721 28722 28723 28724 28725 28726 28727 28728 28729 28730 28731 28732 28733 28734 28735 28736 28737 28738 28739 28740 28741 28742 28743 28744 28745 28746 28747 28748 28749 28750 28751 28752 28753 28754 28755 28756 28757 28758 28759 28760 28761 28762 28763 28764 28765 28766 28767 28768 28769 28770 28771 28772 28773 28774 28775 28776 28777 28778 28779 28780 28781 28782 28783 28784 28785 28786 28787 28788 28789 28790 28791 28792 28793 28794 28795 28796 28797 28798 28799 28800 28801 28802 28803 28804 28805 28806 28807 28808 28809 28810 28811 28812 28813 28814 28815 28816 28817 28818 28819 28820 28821 28822 28823 28824 28825 28826 28827 28828 28829 28830 28831 28832 28833 28834 28835 28836 28837 28838 28839 28840 28841 28842 28843 28844 28845 28846 28847 28848 28849 28850 28851 28852 28853 28854 28855 28856 28857 28858 28859 28860 28861 28862 28863 28864 28865 28866 28867 28868 28869 28870 28871 28872 28873 28874 28875 28876 28877 28878 28879 28880 28881 28882 28883 28884 28885 28886 28887 28888 28889 28890 28891 28892 28893 28894 28895 28896 28897 28898 28899 28900 28901 28902 28903 28904 28905 28906 28907 28908 28909 28910 28911 28912 28913 28914 28915 28916 28917 28918 28919 28920 28921 28922 28923 28924 28925 28926 28927 28928 28929 28930 28931 28932 28933 28934 28935 28936 28937 28938 28939 28940 28941 28942 28943 28944 28945 28946 28947 28948 28949 28950 28951 28952 28953 28954 28955 28956 28957 28958 28959 28960 28961 28962 28963 28964 28965 28966 28967 28968 28969 28970 28971 28972 28973 28974 28975 28976 28977 28978 28979 28980 28981 28982 28983 28984 28985 28986 28987 28988 28989 28990 28991 28992 28993 28994 28995 28996 28997 28998 28999 29000 29001 29002 29003 29004 29005 29006 29007 29008 29009 29010 29011 29012 29013 29014 29015 29016 29017 29018 29019 29020 29021 29022 29023 29024 29025 29026 29027 29028 29029 29030 29031 29032 29033 29034 29035 29036 29037 29038 29039 29040 29041 29042 29043 29044 29045 29046 29047 29048 29049 29050 29051 29052 29053 29054 29055 29056 29057 29058 29059 29060 29061 29062 29063 29064 29065 29066 29067 29068 29069 29070 29071 29072 29073 29074 29075 29076 29077 29078 29079 29080 29081 29082 29083 29084 29085 29086 29087 29088 29089 29090 29091 29092 29093 29094 29095 29096 29097 29098 29099 29100 29101 29102 29103 29104 29105 29106 29107 29108 29109 29110 29111 29112 29113 29114 29115 29116 29117 29118 29119 29120 29121 29122 29123 29124 29125 29126 29127 29128 29129 29130 29131 29132 29133 29134 29135 29136 29137 29138 29139 29140 29141 29142 29143 29144 29145 29146 29147 29148 29149 29150 29151 29152 29153 29154 29155 29156 29157 29158 29159 29160 29161 29162 29163 29164 29165 29166 29167 29168 29169 29170 29171 29172 29173 29174 29175 29176 29177 29178 29179 29180 29181 29182 29183 29184 29185 29186 29187 29188 29189 29190 29191 29192 29193 29194 29195 29196 29197 29198 29199 29200 29201 29202 29203 29204 29205 29206 29207 29208 29209 29210 29211 29212 29213 29214 29215 29216 29217 29218 29219 29220 29221 29222 29223 29224 29225 29226 29227 29228 29229 29230 29231 29232 29233 29234 29235 29236 29237 29238 29239 29240 29241 29242 29243 29244 29245 29246 29247 29248 29249 29250 29251 29252 29253 29254 29255 29256 29257 29258 29259 29260 29261 29262 29263 29264 29265 29266 29267 29268 29269 29270 29271 29272 29273 29274 29275 29276 29277 29278 29279 29280 29281 29282 29283 29284 29285 29286 29287 29288 29289 29290 29291 29292 29293 29294 29295 29296 29297 29298 29299 29300 29301 29302 29303 29304 29305 29306 29307 29308 29309 29310 29311 29312 29313 29314 29315 29316 29317 29318 29319 29320 29321 29322 29323 29324 29325 29326 29327 29328 29329 29330 29331 29332 29333 29334 29335 29336 29337 29338 29339 29340 29341 29342 29343 29344 29345 29346 29347 29348 29349 29350 29351 29352 29353 29354 29355 29356 29357 29358 29359 29360 29361 29362 29363 29364 29365 29366 29367 29368 29369 29370 29371 29372 29373 29374 29375 29376 29377 29378 29379 29380 29381 29382 29383 29384 29385 29386 29387 29388 29389 29390 29391 29392 29393 29394 29395 29396 29397 29398 29399 29400 29401 29402 29403 29404 29405 29406 29407 29408 29409 29410 29411 29412 29413 29414 29415 29416 29417 29418 29419 29420 29421 29422 29423 29424 29425 29426 29427 29428 29429 29430 29431 29432 29433 29434 29435 29436 29437 29438 29439 29440 29441 29442 29443 29444 29445 29446 29447 29448 29449 29450 29451 29452 29453 29454 29455 29456 29457 29458 29459 29460 29461 29462 29463 29464 29465 29466 29467 29468 29469 29470 29471 29472 29473 29474 29475 29476 29477 29478 29479 29480 29481 29482 29483 29484 29485 29486 29487 29488 29489 29490 29491 29492 29493 29494 29495 29496 29497 29498 29499 29500 29501 29502 29503 29504 29505 29506 29507 29508 29509 29510 29511 29512 29513 29514 29515 29516 29517 29518 29519 29520 29521 29522 29523 29524 29525 29526 29527 29528 29529 29530 29531 29532 29533 29534 29535 29536 29537 29538 29539 29540 29541 29542 29543 29544 29545 29546 29547 29548 29549 29550 29551 29552 29553 29554 29555 29556 29557 29558 29559 29560 29561 29562 29563 29564 29565 29566 29567 29568 29569 29570 29571 29572 29573 29574 29575 29576 29577 29578 29579 29580 29581 29582 29583 29584 29585 29586 29587 29588 29589 29590 29591 29592 29593 29594 29595 29596 29597 29598 29599 29600 29601 29602 29603 29604 29605 29606 29607 29608 29609 29610 29611 29612 29613 29614 29615 29616 29617 29618 29619 29620 29621 29622 29623 29624 29625 29626 29627 29628 29629 29630 29631 29632 29633 29634 29635 29636 29637 29638 29639 29640 29641 29642 29643 29644 29645 29646 29647 29648 29649 29650 29651 29652 29653 29654 29655 29656 29657 29658 29659 29660 29661 29662 29663 29664 29665 29666 29667 29668 29669 29670 29671 29672 29673 29674 29675 29676 29677 29678 29679 29680 29681 29682 29683 29684 29685 29686 29687 29688 29689 29690 29691 29692 29693 29694 29695 29696 29697 29698 29699 29700 29701 29702 29703 29704 29705 29706 29707 29708 29709 29710 29711 29712 29713 29714 29715 29716 29717 29718 29719 29720 29721 29722 29723 29724 29725 29726 29727 29728 29729 29730 29731 29732 29733 29734 29735 29736 29737 29738 29739 29740 29741 29742 29743 29744 29745 29746 29747 29748 29749 29750 29751 29752 29753 29754 29755 29756 29757 29758 29759 29760 29761 29762 29763 29764 29765 29766 29767 29768 29769 29770 29771 29772 29773 29774 29775 29776 29777 29778 29779 29780 29781 29782 29783 29784 29785 29786 29787 29788 29789 29790 29791 29792 29793 29794 29795 29796 29797 29798 29799 29800 29801 29802 29803 29804 29805 29806 29807 29808 29809 29810 29811 29812 29813 29814 29815 29816 29817 29818 29819 29820 29821 29822 29823 29824 29825 29826 29827 29828 29829 29830 29831 29832 29833 29834 29835 29836 29837 29838 29839 29840 29841 29842 29843 29844 29845 29846 29847 29848 29849 29850 29851 29852 29853 29854 29855 29856 29857 29858 29859 29860 29861 29862 29863 29864 29865 29866 29867 29868 29869 29870 29871 29872 29873 29874 29875 29876 29877 29878 29879 29880 29881 29882 29883 29884 29885 29886 29887 29888 29889 29890 29891 29892 29893 29894 29895 29896 29897 29898 29899 29900 29901 29902 29903 29904 29905 29906 29907 29908 29909 29910 29911 29912 29913 29914 29915 29916 29917 29918 29919 29920 29921 29922 29923 29924 29925 29926 29927 29928 29929 29930 29931 29932 29933 29934 29935 29936 29937 29938 29939 29940 29941 29942 29943 29944 29945 29946 29947 29948 29949 29950 29951 29952 29953 29954 29955 29956 29957 29958 29959 29960 29961 29962 29963 29964 29965 29966 29967 29968 29969 29970 29971 29972 29973 29974 29975 29976 29977 29978 29979 29980 29981 29982 29983 29984 29985 29986 29987 29988 29989 29990 29991 29992 29993 29994 29995 29996 29997 29998 29999 30000 30001 30002 30003 30004 30005 30006 30007 30008 30009 30010 30011 30012 30013 30014 30015 30016 30017 30018 30019 30020 30021 30022 30023 30024 30025 30026 30027 30028 30029 30030 30031 30032 30033 30034 30035 30036 30037 30038 30039 30040 30041 30042 30043 30044 30045 30046 30047 30048 30049 30050 30051 30052 30053 30054 30055 30056 30057 30058 30059 30060 30061 30062 30063 30064 30065 30066 30067 30068 30069 30070 30071 30072 30073 30074 30075 30076 30077 30078 30079 30080 30081 30082 30083 30084 30085 30086 30087 30088 30089 30090 30091 30092 30093 30094 30095 30096 30097 30098 30099 30100 30101 30102 30103 30104 30105 30106 30107 30108 30109 30110 30111 30112 30113 30114 30115 30116 30117 30118 30119 30120 30121 30122 30123 30124 30125 30126 30127 30128 30129 30130 30131 30132 30133 30134 30135 30136 30137 30138 30139 30140 30141 30142 30143 30144 30145 30146 30147 30148 30149 30150 30151 30152 30153 30154 30155 30156 30157 30158 30159 30160 30161 30162 30163 30164 30165 30166 30167 30168 30169 30170 30171 30172 30173 30174 30175 30176 30177 30178 30179 30180 30181 30182 30183 30184 30185 30186 30187 30188 30189 30190 30191 30192 30193 30194 30195 30196 30197 30198 30199 30200 30201 30202 30203 30204 30205 30206 30207 30208 30209 30210 30211 30212 30213 30214 30215 30216 30217 30218 30219 30220 30221 30222 30223 30224 30225 30226 30227 30228 30229 30230 30231 30232 30233 30234 30235 30236 30237 30238 30239 30240 30241 30242 30243 30244 30245 30246 30247 30248 30249 30250 30251 30252 30253 30254 30255 30256 30257 30258 30259 30260 30261 30262 30263 30264 30265 30266 30267 30268 30269 30270 30271 30272 30273 30274 30275 30276 30277 30278 30279 30280 30281 30282 30283 30284 30285 30286 30287 30288 30289 30290 30291 30292 30293 30294 30295 30296 30297 30298 30299 30300 30301 30302 30303 30304 30305 30306 30307 30308 30309 30310 30311 30312 30313 30314 30315 30316 30317 30318 30319 30320 30321 30322 30323 30324 30325 30326 30327 30328 30329 30330 30331 30332 30333 30334 30335 30336 30337 30338 30339 30340 30341 30342 30343 30344 30345 30346 30347 30348 30349 30350 30351 30352 30353 30354 30355 30356 30357 30358 30359 30360 30361 30362 30363 30364 30365 30366 30367 30368 30369 30370 30371 30372 30373 30374 30375 30376 30377 30378 30379 30380 30381 30382 30383 30384 30385 30386 30387 30388 30389 30390 30391 30392 30393 30394 30395 30396 30397 30398 30399 30400 30401 30402 30403 30404 30405 30406 30407 30408 30409 30410 30411 30412 30413 30414 30415 30416 30417 30418 30419 30420 30421 30422 30423 30424 30425 30426 30427 30428 30429 30430 30431 30432 30433 30434 30435 30436 30437 30438 30439 30440 30441 30442 30443 30444 30445 30446 30447 30448 30449 30450 30451 30452 30453 30454 30455 30456 30457 30458 30459 30460 30461 30462 30463 30464 30465 30466 30467 30468 30469 30470 30471 30472 30473 30474 30475 30476 30477 30478 30479 30480 30481 30482 30483 30484 30485 30486 30487 30488 30489 30490 30491 30492 30493 30494 30495 30496 30497 30498 30499 30500 30501 30502 30503 30504 30505 30506 30507 30508 30509 30510 30511 30512 30513 30514 30515 30516 30517 30518 30519 30520 30521 30522 30523 30524 30525 30526 30527 30528 30529 30530 30531 30532 30533 30534 30535 30536 30537 30538 30539 30540 30541 30542 30543 30544 30545 30546 30547 30548 30549 30550 30551 30552 30553 30554 30555 30556 30557 30558 30559 30560 30561 30562 30563 30564 30565 30566 30567 30568 30569 30570 30571 30572 30573 30574 30575 30576 30577 
</DataArray>
<DataArray type="UInt32" Name="offsets" format="ascii">
3 6 9 12 15 18 20 23 26 29 31 34 37 40 42 45 48 51 54 57 60 62 64 67 70 73 76 78 80 83 85 87 90 92 95 98 101 103 106 109 111 114 117 120 123 126 129 132 134 137 140 143 146 149 152 155 158 160 163 166 168 171 173 176 178 181 183 186 189 192 195 198 201 204 207 210 213 216 219 222 225 228 231 233 236 239 242 245 248 251 254 257 259 262 265 267 269 272 275 278 281 284 287 290 293 296 299 302 305 307 310 313 316 319 322 324 327 330 332 335 338 341 344 347 350 353 356 359 362 365 368 371 374 377 380 383 386 389 391 394 397 400 403 406 408 411 414 417 420 423 426 429 432 435 438 441 444 447 450 453 456 459 462 465 468 471 474 477 480 482 485 487 490 493 496 498 501 504 507 509 512 515 518 520 522 525 528 530 533 536 539 542 544 547 550 553 556 559 561 564 567 570 573 575 578 580 583 586 588 591 594 597 599 602 605 607 610 613 616 619 622 625 628 631 634 637 639 642 645 647 650 653 656 659 662 665 668 670 673 676 679 682 685 688 691 694 697 700 703 706 709 712 715 718 721 724 727 730 733 735 738 740 743 746 749 752 755 757 760 763 766 769 772 775 778 781 783 786 789 792 794 797 800 802 805 808 811 814 816 819 822 824 827 830 833 836 839 841 844 846 849 852 855 858 861 864 867 870 873 876 879 882 885 888 891 894 897 900 902 905 908 911 914 917 919 921 924 927 930 933 936 939 942 945 948 951 953 956 959 962 965 968 971 974 977 980 982 985 988 990 992 995 998 1001 1003 1006 1009 1011 1014 1017 1020 1023 1026 1029 1032 1035 1038 1041 1044 1047 1050 1053 1056 1058 1061 1064 1067 1070 1073 1076 1079 1082 1084 1087 1090 1092 1095 1098 1101 1104 1106 1109 1112 1115 1118 1121 1124 1127 1130 1133 1136 1139 1142 1145 1148 1150 1152 1155 1158 1160 1162 1165 1167 1170 1172 1175 1177 1180 1183 1185 1188 1191 1194 1197 1200 1203 1206 1209 1212 1214 1216 1219 1222 1224 1227 1230 1233 1236 1239 1241 1244 1247 1249 1252 1255 1258 1261 1263 1266 1269 1272 1274 1277 1280 1283 1285 1288 1290 1293 1296 1298 1301 1304 1307 1310 1313 1316 1319 1322 1325 1328 1331 1333 1336 1339 1342 1345 1348 1351 1353 1356 1359 1362 1364 1367 1370 1373 1376 1379 1382 1385 1387 1390 1393 1396 1399 1402 1404 1407 1409 1412 1415 1418 1421 1424 1426 1428 1431 1434 1437 1439 1441 1444 1446 1449 1452 1455 1458 1461 1464 1467 1469 1472 1475 1478 1481 1484 1487 1490 1493 1496 1499 1502 1505 1508 1511 1513 1516 1519 1521 1524 1526 1529 1532 1535 1538 1541 1544 1547 1550 1553 1556 1559 1562 1565 1568 1570 1573 1576 1579 1582 1585 1588 1591 1594 1597 1600 1603 1606 1609 1612 1615 1618 1620 1623 1626 1629 1632 1635 1638 1641 1644 1647 1650 1653 1655 1657 1660 1663 1666 1669 1672 1675 1678 1681 1684 1687 1690 1693 1696 1699 1702 1705 1707 1710 1713 1716 1719 1722 1725 1728 1730 1733 1736 1739 1742 1745 1748 1751 1754 1756 1759 1762 1765 1767 1770 1773 1776 1779 1782 1785 1788 1791 1794 1797 1800 1803 1806 1809 1812 1815 1818 1821 1824 1827 1830 1833 1836 1839 1842 1845 1848 1851 1853 1856 1858 1861 1864 1867 1870 1873 1876 1879 1882 1885 1888 1891 1894 1897 1899 1902 1905 1908 1910 1913 1916 1919 1922 1925 1928 1931 1934 1937 1940 1943 1946 1949 1951 1953 1956 1959 1962 1965 1968 1971 1974 1976 1979 1982 1985 1988 1991 1994 1997 2000 2003 2006 2009 2011 2014 2017 2020 2023 2026 2029 2032 2034 2037 2040 2043 2046 2049 2052 2055 2058 2061 2064 2067 2070 2073 2076 2079 2082 2085 2087 2090 2093 2096 2099 2102 2105 2108 2111 2114 2117 2119 2122 2125 2128 2131 2134 2136 2139 2142 2145 2147 2150 2153 2156 2159 2161 2164 2167 2170 2173 2176 2179 2182 2184 2187 2189 2192 2195 2197 2200 2202 2205 2208 2211 2214 2217 2220 2223 2226 2229 2232 2235 2238 2241 2244 2247 2250 2253 2256 2259 2262 2265 2268 2271 2274 2277 2280 2283 2286 2289 2292 2295 2298 2301 2304 2307 2309 2312 2314 2316 2319 2322 2325 2328 2331 2334 2337 2340 2343 2346 2349 2351 2354 2357 2360 2363 2366 2369 2372 2374 2377 2379 2382 2384 2387 2390 2393 2396 2399 2402 2404 2407 2409 2411 2414 2417 2420 2423 2426 2429 2432 2435 2438 2441 2444 2447 2450 2453 2456 2459 2462 2464 2467 2470 2473 2476 2479 2482 2485 2488 2491 2494 2497 2500 2503 2506 2508 2511 2514 2517 2520 2523 2526 2529 2532 2535 2538 2541 2544 2547 2549 2552 2555 2558 2561 2564 2567 2570 2573 2576 2578 2581 2584 2587 2590 2593 2595 2597 2600 2603 2606 2609 2611 2613 2616 2619 2622 2625 2628 2631 2634 2637 2640 2643 2646 2648 2651 2654 2657 2660 2662 2665 2668 2671 2674 2677 2680 2682 2685 2688 2690 2693 2695 2698 2701 2704 2706 2709 2712 2715 2718 2721 2724 2727 2729 2732 2735 2738 2741 2743 2745 2748 2751 2753 2756 2759 2762 2764 2766 2768 2770 2773 2776 2778 2781 2784 2787 2790 2793 2796 2799 2802 2804 2806 2809 2812 2815 2818 2821 2824 2826 2829 2831 2834 2837 2840 2842 2845 2848 2851 2854 2857 2860 2863 2866 2869 2872 2875 2878 2881 2884 2887 2890 2893 2896 2899 2902 2905 2908 2911 2914 2917 2920 2923 2926 2928 2931 2934 2937 2940 2943 2946 2949 2952 2955 2958 2961 2964 2967 2970 2973 2976 2979 2982 2985 2988 2991 2993 2996 2999 3002 3005 3008 3011 3014 3017 3020 3022 3025 3028 3031 3034 3037 3040 3042 3045 3048 3051 3054 3057 3059 3062 3065 3068 3071 3074 3076 3079 3082 3085 3088 3091 3094 3097 3100 3103 3106 3108 3111 3114 3117 3120 3122 3124 3127 3130 3132 3135 3138 3141 3144 3146 3149 3152 3154 3157 3160 3163 3166 3169 3171 3173 3176 3179 3182 3185 3188 3191 3193 3196 3199 3202 3205 3208 3211 3214 3216 3218 3221 3224 3227 3229 3232 3235 3238 3240 3243 3246 3248 3251 3253 3256 3259 3262 3264 3267 3270 3272 3274 3277 3280 3283 3286 3289 3292 3294 3297 3299 3302 3304 3307 3310 3313 3315 3317 3320 3322 3325 3328 3331 3334 3337 3340 3343 3346 3349 3352 3355 3358 3361 3364 3367 3370 3372 3375 3378 3381 3384 3387 3390 3393 3395 3398 3401 3404 3407 3410 3412 3415 3418 3421 3423 3426 3429 3432 3435 3437 3440 3442 3445 3447 3450 3453 3456 3459 3461 3464 3467 3469 3472 3475 3478 3481 3484 3487 3490 3493 3496 3499 3502 3504 3507 3510 3513 3516 3518 3521 3524 3527 3530 3532 3535 3538 3541 3544 3547 3550 3552 3555 3558 3561 3563 3566 3568 3570 3573 3576 3579 3582 3585 3588 3591 3594 3597 3600 3603 3606 3609 3612 3615 3618 3621 3624 3627 3630 3633 3636 3639 3642 3645 3648 3651 3654 3656 3659 3662 3664 3666 3669 3671 3674 3677 3680 3683 3685 3688 3691 3693 3696 3699 3702 3705 3708 3711 3714 3717 3720 3723 3726 3729 3732 3735 3738 3741 3744 3747 3750 3753 3756 3759 3762 3765 3768 3771 3774 3777 3779 3782 3785 3788 3791 3794 3797 3800 3803 3805 3808 3811 3814 3817 3820 3823 3826 3828 3831 3833 3836 3839 3842 3844 3847 3850 3853 3856 3859 3862 3865 3867 3870 3872 3875 3878 3881 3884 3887 3889 3892 3895 3898 3901 3904 3907 3910 3913 3916 3919 3922 3925 3928 3931 3934 3937 3940 3943 3946 3949 3952 3955 3958 3961 3964 3967 3970 3973 3976 3979 3982 3985 3988 3991 3994 3997 4000 4003 4006 4008 4010 4013 4016 4018 4021 4024 4027 4029 4032 4035 4038 4040 4042 4045 4048 4050 4053 4056 4059 4062 4065 4068 4071 4074 4077 4080 4083 4086 4089 4092 4095 4098 4101 4104 4107 4110 4113 4115 4118 4120 4123 4126 4129 4132 4135 4138 4141 4144 4147 4150 4153 4156 4159 4162 4165 4168 4171 4174 4177 4180 4183 4186 4189 4192 4195 4198 4201 4204 4207 4210 4213 4216 4219 4222 4225 4228 4231 4234 4237 4240 4243 4246 4249 4252 4255 4257 4260 4262 4265 4267 4270 4273 4275 4278 4281 4284 4287 4290 4293 4296 4299 4302 4305 4308 4311 4314 4317 4320 4323 4326 4329 4332 4335 4338 4341 4344 4347 4350 4353 4356 4358 4361 4364 4367 4370 4373 4376 4379 4382 4385 4388 4391 4394 4397 4400 4403 4406 4409 4412 4415 4418 4421 4424 4427 4430 4433 4436 4439 4442 4445 4448 4451 4454 4457 4460 4463 4466 4469 4472 4475 4478 4481 4484 4487 4490 4493 4496 4499 4502 4505 4507 4510 4513 4516 4519 4521 4524 4527 4530 4533 4536 4539 4542 4545 4547 4550 4553 4556 4559 4562 4564 4566 4568 4571 4574 4577 4580 4582 4584 4587 4590 4592 4595 4598 4601 4604 4607 4610 4613 4616 4619 4622 4625 4628 4631 4634 4636 4638 4641 4643 4646 4649 4652 4655 4658 4661 4664 4667 4670 4673 4676 4679 4682 4685 4688 4691 4694 4697 4699 4702 4705 4708 4711 4714 4717 4719 4722 4725 4728 4731 4734 4737 4740 4743 4746 4749 4752 4755 4758 4761 4764 4767 4770 4773 4775 4778 4781 4784 4787 4790 4793 4796 4799 4802 4804 4807 4810 4812 4815 4818 4821 4824 4827 4830 4833 4836 4839 4842 4845 4848 4851 4854 4857 4860 4862 4865 4867 4870 4873 4876 4879 4881 4884 4886 4889 4892 4894 4896 4899 4902 4904 4907 4910 4913 4915 4918 4921 4924 4927 4930 4933 4935 4938 4941 4944 4946 4949 4952 4955 4958 4960 4963 4966 4969 4972 4975 4978 4981 4983 4986 4989 4992 4995 4998 5000 5003 5006 5008 5011 5014 5017 5020 5023 5026 5029 5031 5034 5037 5040 5042 5044 5047 5050 5053 5055 5058 5061 5064 5067 5070 5072 5074 5076 5079 5082 5085 5088 5091 5094 5097 5100 5103 5105 5107 5110 5112 5115 5118 5121 5124 5127 5129 5132 5135 5137 5140 5142 5145 5148 5151 5153 5156 5159 5161 5164 5167 5170 5173 5176 5179 5182 5184 5187 5190 5192 5194 5197 5200 5202 5205 5207 5210 5213 5215 5218 5221 5223 5226 5228 5231 5234 5237 5239 5242 5245 5247 5250 5252 5255 5258 5260 5263 5265 5268 5271 5274 5277 5279 5281 5284 5287 5290 5293 5296 5299 5302 5305 5308 5310 5313 5316 5319 5322 5325 5328 5331 5334 5337 5340 5343 5346 5349 5352 5355 5358 5361 5364 5366 5368 5371 5374 5377 5379 5382 5385 5388 5391 5393 5396 5399 5401 5404 5407 5410 5412 5415 5418 5420 5423 5426 5429 5432 5434 5437 5440 5443 5446 5449 5451 5454 5457 5460 5462 5464 5467 5470 5472 5475 5478 5481 5484 5487 5489 5491 5494 5497 5500 5503 5505 5508 5511 5514 5517 5519 5522 5525 5528 5531 5534 5537 5540 5543 5546 5549 5552 5555 5558 5561 5564 5567 5570 5573 5576 5579 5582 5585 5588 5591 5594 5597 5600 5603 5605 5608 5611 5614 5617 5620 5623 5626 5629 5632 5635 5638 5640 5643 5646 5649 5652 5654 5657 5660 5663 5665 5668 5671 5673 5676 5679 5682 5685 5688 5690 5693 5696 5699 5702 5705 5708 5711 5714 5717 5720 5723 5726 5729 5732 5735 5738 5741 5744 5747 5750 5752 5755 5758 5761 5764 5767 5769 5772 5775 5778 5781 5784 5787 5790 5792 5795 5798 5801 5804 5807 5810 5813 5816 5819 5822 5825 5828 5831 5833 5836 5839 5842 5845 5848 5850 5852 5855 5858 5861 5864 5866 5869 5871 5874 5877 5880 5882 5884 5887 5890 5892 5895 5898 5901 5903 5906 5909 5912 5915 5917 5920 5923 5925 5927 5930 5933 5936 5939 5942 5945 5947 5950 5953 5955 5958 5961 5964 5967 5969 5972 5975 5978 5981 5984 5987 5990 5993 5996 5999 6002 6005 6008 6011 6014 6017 6020 6023 6026 6028 6031 6033 6036 6039 6042 6044 6047 6049 6052 6054 6057 6060 6062 6065 6068 6070 6072 6074 6077 6080 6083 6085 6088 6091 6094 6097 6100 6103 6105 6108 6111 6114 6117 6120 6123 6126 6128 6131 6133 6136 6139 6142 6145 6148 6151 6154 6156 6159 6162 6165 6168 6171 6174 6177 6180 6183 6186 6189 6191 6194 6197 6199 6202 6205 6208 6211 6214 6217 6220 6223 6226 6229 6232 6235 6238 6241 6244 6247 6249 6252 6255 6258 6261 6264 6267 6270 6273 6276 6279 6282 6285 6288 6291 6294 6297 6300 6303 6306 6309 6312 6314 6317 6320 6323 6325 6328 6331 6334 6337 6340 6343 6346 6349 6352 6355 6357 6360 6363 6366 6369 6372 6375 6378 6381 6384 6387 6389 6392 6395 6398 6401 6404 6407 6409 6412 6415 6418 6420 6423 6426 6429 6432 6435 6438 6441 6444 6447 6450 6453 6456 6459 6462 6465 6468 6471 6474 6477 6480 6483 6485 6488 6491 6494 6497 6500 6502 6505 6508 6510 6513 6516 6519 6522 6525 6528 6530 6533 6536 6539 6542 6544 6547 6550 6553 6556 6559 6562 6565 6568 6571 6574 6577 6580 6583 6586 6589 6592 6595 6598 6600 6603 6606 6609 6612 6615 6617 6620 6623 6626 6628 6631 6633 6636 6639 6642 6645 6648 6651 6654 6656 6659 6662 6665 6667 6669 6672 6675 6678 6681 6684 6686 6689 6692 6695 6697 6700 6703 6706 6709 6712 6715 6718 6721 6724 6727 6730 6733 6736 6739 6742 6744 6747 6750 6753 6756 6759 6762 6764 6767 6770 6773 6776 6779 6782 6785 6788 6791 6794 6797 6799 6802 6805 6808 6811 6814 6817 6820 6823 6826 6828 6831 6834 6837 6840 6842 6844 6847 6850 6853 6856 6859 6862 6865 6868 6870 6872 6875 6877 6880 6883 6886 6889 6892 6894 6897 6900 6903 6906 6909 6912 6914 6917 6919 6922 6925 6928 6931 6934 6937 6940 6943 6946 6949 6951 6954 6957 6960 6963 6966 6969 6971 6974 6977 6980 6983 6986 6989 6992 6995 6997 7000 7003 7006 7009 7012 7014 7017 7020 7022 7025 7028 7031 7034 7037 7040 7042 7045 7048 7051 7054 7057 7060 7063 7066 7068 7071 7074 7077 7080 7082 7085 7088 7091 7094 7097 7100 7103 7106 7109 7112 7114 7117 7120 7123 7126 7129 7132 7135 7138 7141 7143 7146 7149 7152 7155 7157 7160 7163 7166 7169 7172 7175 7178 7181 7183 7186 7188 7191 7194 7197 7199 7202 7205 7208 7211 7214 7217 7220 7223 7225 7228 7231 7234 7236 7239 7242 7245 7247 7250 7253 7255 7258 7261 7264 7267 7270 7273 7276 7279 7282 7285 7288 7291 7294 7297 7300 7303 7306 7309 7312 7315 7318 7321 7324 7327 7330 7333 7336 7339 7342 7345 7348 7351 7354 7357 7360 7363 7366 7369 7372 7375 7378 7381 7384 7387 7390 7393 7396 7399 7402 7405 7408 7411 7414 7416 7419 7422 7425 7427 7430 7433 7436 7439 7442 7445 7447 7450 7452 7455 7458 7461 7464 7466 7468 7471 7474 7477 7480 7483 7486 7489 7492 7495 7498 7501 7504 7507 7510 7513 7516 7519 7522 7525 7528 7531 7534 7536 7539 7542 7544 7547 7550 7553 7555 7558 7561 7564 7567 7570 7573 7576 7579 7582 7585 7588 7591 7594 7597 7599 7602 7604 7607 7609 7612 7615 7618 7621 7624 7627 7630 7633 7636 7639 7642 7645 7648 7651 7654 7657 7660 7662 7665 7668 7671 7674 7677 7680 7683 7686 7689 7692 7695 7698 7701 7704 7707 7710 7713 7716 7719 7722 7725 7728 7731 7734 7737 7740 7743 7746 7749 7752 7755 7758 7761 7763 7766 7769 7772 7775 7778 7781 7783 7786 7789 7791 7794 7796 7799 7802 7804 7807 7810 7813 7815 7818 7821 7824 7827 7830 7833 7836 7839 7842 7845 7848 7851 7854 7857 7860 7863 7866 7869 7872 7875 7878 7881 7884 7887 7890 7892 7895 7898 7901 7904 7906 7909 7912 7914 7917 7920 7923 7926 7929 7932 7935 7938 7941 7944 7947 7950 7953 7956 7959 7962 7965 7968 7971 7974 7977 7980 7983 7986 7989 7992 7995 7998 8001 8004 8006 8009 8012 8015 8017 8020 8023 8026 8029 8031 8034 8037 8040 8043 8046 8048 8051 8054 8057 8060 8062 8065 8068 8071 8074 8077 8080 8083 8086 8089 8092 8095 8098 8101 8104 8106 8108 8111 8113 8116 8118 8121 8124 8127 8130 8133 8136 8139 8142 8145 8148 8151 8154 8157 8160 8163 8166 8169 8172 8175 8178 8181 8184 8187 8190 8193 8195 8197 8200 8203 8205 8208 8211 8213 8216 8219 8222 8225 8228 8231 8234 8237 8240 8243 8246 8248 8251 8254 8256 8259 8262 8265 8268 8271 8274 8277 8280 8283 8286 8289 8292 8295 8298 8300 8302 8305 8307 8309 8312 8315 8318 8321 8323 8326 8329 8332 8334 8336 8339 8342 8345 8348 8351 8354 8357 8359 8362 8365 8368 8371 8374 8377 8380 8383 8386 8389 8392 8395 8398 8401 8404 8407 8409 8412 8415 8418 8421 8423 8426 8429 8432 8435 8438 8441 8444 8446 8449 8452 8455 8458 8461 8464 8467 8469 8472 8475 8477 8480 8483 8486 8489 8492 8495 8498 8501 8504 8507 8510 8513 8516 8519 8522 8524 8527 8530 8533 8536 8539 8542 8545 8548 8550 8553 8556 8559 8562 8565 8568 8571 8573 8576 8579 8582 8585 8588 8590 8593 8596 8599 8602 8604 8607 8610 8613 8616 8619 8622 8625 8628 8631 8634 8637 8640 8642 8645 8648 8651 8654 8657 8660 8663 8666 8669 8672 8675 8678 8681 8684 8686 8689 8692 8695 8698 8701 8704 8707 8710 8713 8716 8719 8722 8725 8727 8729 8732 8735 8737 8740 8743 8746 8749 8751 8754 8757 8760 8762 8765 8768 8770 8773 8776 8779 8782 8784 8787 8790 8793 8796 8799 8802 8805 8808 8811 8814 8817 8820 8823 8826 8829 8832 8835 8838 8841 8844 8847 8850 8853 8856 8859 8862 8865 8868 8871 8874 8877 8880 8883 8886 8888 8891 8894 8897 8899 8902 8904 8907 8910 8913 8916 8919 8922 8925 8928 8931 8934 8937 8940 8943 8946 8948 8951 8954 8957 8960 8963 8966 8969 8972 8974 8977 8980 8983 8985 8988 8991 8994 8997 9000 9003 9006 9008 9011 9013 9016 9019 9022 9025 9028 9031 9034 9037 9040 9043 9046 9049 9052 9055 9057 9060 9063 9065 9068 9071 9074 9077 9080 9083 9086 9088 9091 9094 9097 9100 9103 9106 9109 9112 9115 9118 9121 9124 9127 9130 9133 9136 9139 9142 9145 9148 9151 9154 9157 9160 9163 9166 9169 9171 9174 9177 9179 9182 9185 9188 9190 9193 9196 9198 9201 9204 9207 9210 9213 9216 9219 9222 9225 9228 9231 9234 9237 9240 9243 9246 9249 9252 9255 9257 9260 9263 9266 9269 9272 9275 9278 9281 9284 9287 9290 9293 9296 9298 9301 9304 9307 9310 9313 9316 9319 9322 9325 9328 9331 9334 9337 9340 9343 9346 9349 9352 9355 9357 9360 9363 9366 9369 9372 9375 9378 9381 9384 9387 9390 9393 9396 9399 9402 9405 9407 9410 9413 9415 9418 9421 9424 9426 9429 9432 9434 9437 9440 9443 9446 9449 9452 9455 9458 9461 9464 9467 9470 9473 9476 9478 9481 9484 9486 9489 9492 9495 9498 9501 9504 9507 9510 9513 9516 9519 9522 9525 9528 9531 9534 9537 9540 9543 9546 9549 9552 9555 9558 9561 9564 9567 9570 9573 9576 9579 9582 9585 9588 9591 9594 9596 9599 9602 9605 9608 9610 9613 9616 9619 9622 9625 9628 9631 9634 9637 9640 9643 9646 9649 9652 9655 9657 9660 9662 9664 9667 9670 9672 9675 9677 9680 9683 9686 9689 9692 9695 9698 9701 9703 9706 9709 9711 9714 9717 9720 9723 9725 9727 9730 9732 9735 9738 9741 9744 9747 9750 9753 9756 9759 9762 9765 9768 9771 9774 9777 9780 9783 9786 9789 9792 9795 9797 9800 9803 9806 9809 9812 9815 9818 9821 9824 9827 9830 9833 9836 9839 9842 9845 9848 9851 9854 9857 9860 9863 9866 9869 9872 9874 9877 9880 9883 9886 9889 9891 9894 9897 9900 9903 9906 9909 9912 9915 9918 9920 9923 9926 9929 9932 9935 9938 9941 9944 9947 9950 9953 9956 9959 9962 9965 9968 9971 9973 9975 9978 9981 9983 9986 9989 9992 9994 9997 10000 10003 10006 10009 10012 10015 10018 10021 10024 10026 10029 10032 10034 10037 10039 10042 10045 10048 10051 10053 10056 10059 10062 10064 10067 10070 10073 10076 10079 10082 10084 10087 10090 10093 10096 10099 10102 10104 10107 10110 10113 10116 10119 10122 10125 10128 10131 10134 10137 10140 10143 10146 10148 10151 10154 10156 10159 10162 10165 10167 10169 10172 10175 10178 10181 10184 10187 10190 10193 10196 10199 10201 10204 10207 10210 10212 10215 10218 10221 10224 10226 10229 10232 10235 10238 10241 10244 10247 10250 10252 10255 10258 10261 10264 10267 10269 10271 10274 10277 10280 10282 10285 10287 10289 10292 10295 10298 10301 10304 10306 10309 10312 10315 10318 10321 10324 10326 10329 10332 10335 10338 10341 10344 10347 10349 10352 10355 10357 10360 10363 10365 10368 10371 10374 10377 10380 10383 10386 10389 10392 10395 10398 10401 10404 10407 10409 10412 10415 10418 10420 10423 10426 10428 10431 10434 10437 10440 10442 10445 10448 10451 10454 10457 10460 10463 10466 10468 10471 10474 10477 10480 10482 10485 10488 10491 10494 10497 10500 10503 10506 10508 10511 10514 10517 10520 10523 10526 10529 10532 10535 10537 10540 10543 10546 10548 10551 10554 10556 10559 10562 10564 10567 10570 10573 10576 10579 10582 10585 10588 10591 10593 10596 10599 10602 10605 10608 10611 10614 10617 10620 10623 10626 10629 10632 10635 10638 10641 10643 10646 10649 10652 10655 10658 10661 10664 10667 10670 10673 10676 10679 10682 10685 10688 10691 10694 10697 10700 10703 10706 10709 10712 10715 10718 10721 10723 10726 10728 10731 10734 10737 10740 10743 10746 10749 10752 10755 10758 10760 10763 10766 10768 10771 10774 10777 10780 10783 10786 10789 10792 10795 10798 10801 10804 10807 10810 10813 10816 10819 10822 10825 10828 10831 10833 10836 10839 10842 10845 10848 10851 10854 10857 10860 10862 10865 10867 10870 10873 10876 10879 10882 10885 10888 10890 10893 10895 10898 10901 10904 10907 10910 10913 10916 10919 10922 10925 10928 10930 10933 10936 10939 10942 10944 10947 10949 10952 10955 10958 10961 10964 10967 10969 10972 10975 10977 10980 10983 10985 10988 10991 10994 10996 10998 11000 11003 11006 11009 11012 11015 11018 11021 11024 11027 11030 11033 11036 11039 11041 11044 11047 11050 11053 11056 11059 11062 11064 11067 11069 11072 11074 11077 11080 11082 11084 11087 11090 11093 11096 11099 11102 11104 11107 11110 11113 11116 11118 11121 11123 11126 11128 11131 11133 11136 11139 11142 11145 11147 11150 11153 11156 11159 11162 11164 11167 11170 11173 11176 11179 11182 11185 11188 11191 11194 11197 11200 11203 11206 11208 11211 11214 11217 11220 11223 11225 11228 11231 11234 11236 11239 11242 11245 11248 11251 11254 11257 11260 11263 11266 11269 11272 11275 11278 11281 11284 11287 11289 11292 11295 11298 11301 11303 11306 11309 11312 11315 11318 11321 11323 11326 11329 11332 11335 11338 11341 11344 11347 11350 11353 11355 11358 11361 11363 11366 11368 11371 11374 11377 11380 11383 11386 11389 11392 11395 11398 11401 11403 11406 11409 11412 11415 11418 11421 11423 11426 11428 11430 11433 11435 11438 11441 11444 11447 11450 11453 11456 11458 11461 11464 11467 11470 11473 11476 11479 11482 11485 11488 11491 11494 11497 11500 11503 11506 11508 11511 11514 11517 11520 11523 11526 11529 11532 11535 11538 11540 11543 11546 11549 11552 11555 11558 11561 11564 11567 11570 11572 11575 11578 11581 11584 11586 11589 11592 11595 11598 11601 11603 11606 11609 11612 11615 11617 11620 11623 11626 11629 11632 11635 11638 11641 11644 11647 11650 11653 11656 11659 11662 11665 11668 11671 11673 11676 11679 11682 11685 11688 11691 11694 11697 11699 11702 11704 11706 11709 11712 11715 11718 11721 11723 11726 11729 11732 11735 11738 11741 11744 11747 11750 11753 11756 11759 11762 11765 11767 11770 11773 11775 11778 11780 11782 11785 11788 11791 11794 11797 11800 11802 11805 11808 11811 11814 11816 11819 11821 11824 11827 11829 11832 11835 11838 11841 11844 11847 11849 11851 11854 11857 11860 11863 11866 11869 11872 11875 11878 11881 11884 11887 11890 11893 11896 11898 11901 11904 11907 11910 11913 11916 11919 11921 11924 11926 11929 11932 11935 11937 11940 11942 11945 11948 11951 11954 11957 11960 11963 11966 11968 11971 11974 11977 11980 11983 11985 11988 11990 11993 11996 11999 12002 12004 12007 12010 12013 12016 12019 12021 12024 12027 12030 12033 12036 12039 12042 12045 12048 12051 12054 12057 12060 12063 12066 12069 12072 12075 12078 12081 12084 12087 12090 12093 12095 12098 12101 12104 12106 12109 12111 12114 12117 12120 12122 12125 12128 12131 12134 12137 12140 12143 12146 12149 12152 12155 12158 12161 12164 12167 12170 12173 12175 12177 12179 12181 12184 12187 12190 12193 12196 12199 12201 12204 12207 12210 12212 12215 12218 12221 12224 12227 12230 12233 12236 12239 12242 12244 12246 12248 12251 12254 12256 12258 12261 12264 12267 12270 12273 12276 12279 12282 12285 12287 12290 12293 12296 12299 12302 12305 12308 12311 12313 12315 12318 12321 12324 12326 12329 12332 12335 12338 12341 12344 12347 12350 12353 12356 12359 12361 12364 12366 12369 12372 12375 12378 12381 12383 12385 12388 12391 12393 12395 12398 12401 12404 12407 12410 12413 12416 12419 12422 12425 12428 12431 12434 12437 12440 12443 12446 12449 12452 12455 12458 12461 12464 12467 12470 12473 12476 12479 12482 12485 12488 12491 12494 12497 12500 12503 12506 12509 12512 12515 12518 12521 12523 12525 12528 12531 12534 12537 12540 12543 12546 12549 12552 12555 12558 12561 12564 12567 12570 12573 12576 12579 12582 12585 12587 12590 12593 12596 12599 12602 12605 12608 12611 12614 12617 12620 12623 12626 12629 12632 12635 12637 12640 12642 12645 12648 12651 12654 12657 12660 12663 12666 12668 12671 12674 12677 12680 12683 12686 12689 12692 12695 12698 12701 12703 12706 12709 12711 12714 12717 12719 12722 12725 12728 12731 12733 12736 12739 12742 12745 12747 12750 12753 12755 12758 12760 12763 12766 12769 12772 12775 12777 12780 12783 12786 12789 12792 12795 12798 12800 12803 12806 12809 12812 12815 12818 12821 12824 12827 12830 12833 12836 12839 12842 12845 12848 12851 12854 12857 12860 12863 12866 12869 12872 12874 12877 12880 12883 12885 12888 12891 12893 12896 12899 12902 12904 12907 12910 12913 12916 12918 12921 12923 12926 12929 12932 12935 12938 12941 12944 12947 12949 12952 12955 12958 12961 12964 12967 12970 12973 12976 12979 12981 12984 12987 12989 12992 12995 12997 13000 13003 13005 13007 13010 13013 13016 13019 13022 13025 13028 13030 13032 13035 13038 13041 13043 13046 13049 13051 13053 13056 13059 13062 13064 13066 13069 13071 13074 13077 13079 13082 13085 13088 13091 13093 13096 13098 13100 13103 13106 13109 13111 13114 13116 13118 13121 13123 13125 13127 13129 13132 13134 13137 13139 13142 13144 13147 13150 13153 13155 13158 13161 13163 13166 13168 13170 13173 13176 13179 13182 13184 13187 13189 13191 13194 13197 13200 13202 13204 13207 13210 13212 13214 13217 13220 13223 13226 13228 13231 13234 13237 13240 13242 13245 13248 13251 13254 13256 13259 13261 13264 13266 13269 13271 13274 13276 13279 13281 13284 13287 13290 13293 13296 13298 13301 13304 13306 13308 13310 13313 13316 13318 13320 13323 13325 13328 13331 13333 13336 13339 13342 13345 13348 13351 13353 13356 13359 13361 13364 13366 13369 13372 13375 13378 13380 13383 13385 13388 13390 13393 13396 13399 13401 13404 13407 13409 13412 13414 13417 13419 13422 13425 13428 13431 13434 13436 13439 13442 13445 13448 13451 13454 13457 13460 13463 13466 13468 13471 13474 13477 13480 13482 13485 13488 13490 13493 13496 13499 13502 13505 13507 13510 13513 13515 13518 13521 13524 13526 13529 13531 13534 13537 13540 13542 13545 13548 13551 13554 13556 13559 13562 13565 13568 13570 13572 13575 13578 13581 13584 13587 13590 13592 13595 13598 13600 13603 13606 13609 13612 13615 13618 13621 13624 13627 13630 13633 13636 13639 13642 13645 13648 13651 13654 13657 13660 13663 13666 13669 13672 13675 13678 13681 13684 13687 13690 13693 13696 13699 13702 13705 13708 13711 13714 13717 13720 13723 13726 13729 13732 13735 13738 13741 13744 13747 13750 13753 13756 13759 13762 13765 13768 13771 13774 13776 13779 13782 13785 13788 13791 13794 13797 13800 13803 13806 13809 13812 13814 13817 13820 13822 13825 13828 13831 13833 13836 13839 13842 13845 13848 13851 13854 13857 13860 13863 13866 13869 13872 13875 13878 13880 13883 13886 13889 13892 13895 13898 13901 13904 13907 13910 13913 13916 13919 13922 13925 13928 13930 13933 13936 13939 13942 13945 13948 13951 13954 13957 13960 13963 13966 13969 13971 13974 13977 13979 13982 13985 13987 13990 13992 13995 13998 14001 14004 14007 14010 14013 14015 14018 14021 14024 14027 14030 14033 14036 14039 14042 14045 14048 14051 14053 14056 14059 14062 14064 14067 14070 14073 14076 14079 14082 14085 14088 14091 14093 14096 14099 14102 14105 14108 14111 14113 14116 14119 14122 14125 14128 14131 14133 14136 14139 14142 14144 14147 14150 14153 14156 14159 14162 14165 14167 14170 14173 14176 14179 14182 14185 14188 14191 14194 14197 14199 14202 14205 14208 14211 14214 14217 14220 14223 14226 14229 14232 14235 14238 14241 14244 14247 14249 14252 14254 14257 14260 14263 14266 14269 14272 14275 14278 14281 14284 14286 14289 14291 14294 14297 14300 14303 14306 14309 14312 14315 14318 14321 14324 14326 14329 14332 14335 14338 14341 14344 14347 14350 14353 14356 14359 14361 14364 14367 14370 14373 14376 14379 14382 14384 14387 14390 14393 14396 14399 14402 14405 14407 14410 14413 14416 14419 14422 14425 14428 14431 14434 14437 14440 14442 14445 14448 14451 14454 14457 14460 14463 14466 14468 14471 14473 14476 14479 14482 14485 14488 14491 14494 14497 14500 14503 14505 14508 14511 14514 14516 14519 14522 14525 14528 14531 14534 14537 14540 14543 14545 14548 14551 14554 14557 14560 14563 14566 14569 14572 14575 14578 14581 14584 14587 14590 14593 14595 14598 14601 14604 14607 14610 14613 14616 14619 14622 14625 14628 14631 14634 14637 14640 14643 14646 14649 14651 14654 14657 14659 14662 14665 14667 14670 14673 14676 14679 14682 14684 14687 14690 14693 14696 14699 14702 14705 14708 14711 14714 14717 14720 14723 14726 14729 14732 14735 14738 14741 14744 14747 14750 14753 14756 14759 14762 14765 14768 14771 14774 14777 14780 14783 14786 14789 14792 14795 14798 14801 14804 14807 14810 14813 14816 14819 14822 14825 14828 14831 14834 14837 14840 14843 14846 14849 14852 14855 14858 14861 14863 14866 14869 14871 14874 14877 14880 14883 14886 14889 14892 14895 14898 14901 14904 14907 14910 14913 14916 14919 14922 14925 14928 14931 14934 14937 14940 14943 14945 14947 14950 14953 14956 14959 14962 14965 14968 14971 14974 14977 14980 14983 14986 14989 14992 14995 14997 14999 15002 15005 15008 15011 15014 15017 15020 15022 15025 15027 15030 15033 15035 15037 15040 15043 15046 15049 15052 15055 15058 15061 15064 15067 15070 15072 15075 15077 15080 15083 15086 15088 15091 15094 15097 15099 15102 15104 15107 15110 15113 15116 15119 15121 15123 15126 15129 15132 15135 15138 15141 15144 15147 15150 15153 15156 15159 15162 15165 15168 15171 15174 15177 15180 15183 15186 15189 15192 15195 15198 15201 15204 15207 15210 15213 15216 15219 15222 15225 15228 15231 15234 15237 15240 15243 15246 15249 15252 15255 15258 15261 15264 15267 15270 15273 15276 15279 15282 15285 15288 15291 15294 15297 15300 15303 15306 15309 15312 15315 15318 15321 15324 15327 15330 15333 15336 15339 15342 15345 15348 15351 15354 15357 15360 15363 15366 15369 15372 15375 15378 15381 15384 15387 15390 15393 15396 15399 15402 15405 15408 15411 15414 15417 15420 15423 15426 15429 15432 15435 15437 15439 15442 15444 15447 15449 15452 15455 15457 15460 15463 15466 15469 15471 15474 15477 15480 15483 15486 15489 15492 15494 15496 15498 15501 15504 15507 15510 15513 15515 15517 15520 15523 15526 15529 15532 15535 15538 15541 15544 15547 15550 15553 15556 15559 15562 15565 15568 15571 15574 15577 15580 15583 15586 15589 15592 15595 15598 15601 15604 15607 15610 15613 15616 15619 15621 15624 15627 15629 15632 15635 15638 15641 15644 15647 15650 15653 15656 15659 15662 15664 15667 15670 15673 15676 15679 15682 15685 15687 15690 15693 15696 15699 15702 15705 15708 15711 15714 15717 15720 15723 15726 15729 15732 15735 15737 15740 15743 15745 15748 15751 15754 15757 15760 15763 15766 15769 15772 15775 15778 15781 15784 15787 15790 15793 15796 15799 15802 15805 15808 15811 15814 15816 15819 15822 15824 15827 15830 15832 15835 15838 15841 15844 15847 15850 15853 15855 15858 15861 15864 15867 15870 15873 15875 15878 15881 15883 15886 15889 15892 15895 15897 15900 15902 15905 15908 15910 15913 15916 15919 15922 15924 15927 15929 15932 15935 15937 15940 15943 15946 15949 15952 15955 15958 15961 15964 15967 15970 15973 15975 15978 15981 15984 15986 15989 15992 15994 15997 16000 16003 16006 16008 16011 16014 16017 16020 16023 16026 16029 16032 16035 16038 16040 16043 16046 16049 16052 16055 16058 16061 16064 16067 16070 16072 16075 16078 16081 16084 16087 16090 16093 16096 16099 16102 16105 16108 16110 16113 16116 16118 16121 16124 16127 16130 16133 16136 16139 16142 16145 16148 16150 16153 16156 16159 16162 16165 16167 16170 16172 16174 16177 16180 16182 16185 16188 16191 16194 16197 16200 16203 16206 16209 16211 16213 16216 16219 16222 16225 16228 16231 16233 16236 16239 16242 16245 16248 16251 16254 16257 16260 16263 16266 16269 16272 16275 16278 16281 16284 16287 16290 16293 16296 16299 16302 16305 16308 16310 16313 16316 16319 16322 16325 16328 16331 16334 16337 16340 16343 16346 16349 16352 16355 16358 16361 16364 16367 16370 16373 16376 16379 16382 16385 16388 16391 16394 16397 16400 16403 16406 16409 16412 16415 16418 16421 16424 16427 16430 16432 16435 16438 16441 16444 16447 16450 16453 16456 16459 16462 16464 16467 16470 16473 16475 16478 16480 16483 16486 16489 16491 16494 16497 16500 16502 16505 16507 16510 16512 16515 16517 16519 16522 16525 16527 16530 16533 16536 16538 16541 16544 16547 16550 16553 16555 16558 16561 16564 16567 16569 16572 16575 16578 16580 16583 16586 16589 16592 16594 16597 16599 16602 16605 16608 16611 16614 16617 16620 16623 16626 16629 16632 16635 16638 16641 16643 16646 16649 16652 16655 16657 16660 16663 16665 16668 16671 16673 16675 16678 16681 16683 16686 16688 16691 16694 16697 16699 16701 16703 16705 16708 16711 16713 16716 16719 16722 16725 16727 16730 16732 16735 16738 16740 16742 16744 16747 16749 16752 16755 16757 16759 16761 16764 16767 16770 16773 16776 16779 16782 16785 16788 16790 16792 16795 16798 16801 16804 16806 16808 16811 16814 16817 16819 16822 16824 16827 16830 16833 16836 16839 16842 16845 16848 16851 16854 16857 16859 16862 16865 16868 16871 16874 16877 16880 16883 16886 16889 16892 16895 16898 16901 16904 16907 16910 16913 16916 16919 16922 16925 16928 16930 16933 16936 16939 16942 16945 16948 16951 16954 16957 16960 16963 16966 16969 16972 16975 16978 16980 16983 16986 16988 16991 16994 16997 17000 17003 17006 17009 17012 17015 17017 17020 17023 17026 17028 17030 17033 17036 17038 17041 17044 17047 17050 17053 17055 17058 17060 17063 17066 17069 17071 17074 17077 17080 17083 17086 17089 17092 17094 17097 17100 17102 17105 17108 17111 17114 17116 17119 17122 17125 17127 17129 17132 17135 17137 17140 17143 17146 17148 17151 17154 17157 17160 17163 17166 17169 17171 17174 17177 17179 17182 17184 17186 17188 17191 17193 17196 17198 17200 17203 17206 17209 17212 17215 17218 17220 17223 17226 17228 17231 17234 17237 17240 17243 17246 17249 17252 17255 17258 17261 17264 17267 17270 17273 17276 17279 17282 17285 17288 17291 17294 17297 17300 17303 17306 17309 17312 17315 17318 17321 17324 17327 17330 17333 17335 17337 17340 17343 17346 17349 17352 17355 17358 17361 17363 17365 17367 17369 17372 17375 17377 17380 17383 17386 17389 17392 17395 17398 17401 17403 17406 17409 17411 17414 17417 17420 17422 17425 17428 17431 17434 17436 17439 17442 17445 17448 17451 17454 17457 17460 17463 17466 17469 17472 17475 17478 17480 17483 17486 17489 17492 17495 17497 17500 17503 17506 17509 17512 17515 17518 17521 17523 17526 17529 17532 17534 17536 17539 17542 17544 17546 17549 17552 17555 17558 17561 17563 17566 17569 17572 17575 17578 17581 17583 17586 17588 17591 17594 17597 17600 17603 17606 17609 17612 17614 17616 17619 17621 17623 17625 17628 17630 17633 17636 17639 17642 17645 17648 17650 17653 17656 17659 17662 17665 17668 17671 17673 17676 17679 17682 17685 17688 17691 17694 17697 17700 17703 17706 17709 17712 17715 17718 17721 17724 17727 17730 17733 17736 17739 17742 17745 17748 17751 17754 17757 17760 17763 17766 17769 17772 17775 17778 17781 17784 17787 17790 17793 17796 17799 17802 17805 17808 17811 17814 17817 17820 17823 17826 17829 17832 17835 17838 17841 17844 17846 17849 17852 17855 17858 17861 17864 17867 17869 17872 17875 17877 17880 17883 17886 17888 17891 17893 17896 17899 17901 17904 17907 17910 17913 17916 17919 17922 17924 17927 17930 17933 17935 17938 17941 17944 17947 17950 17953 17956 17958 17961 17963 17966 17969 17972 17975 17978 17981 17984 17987 17990 17993 17996 17999 18002 18005 18008 18011 18014 18017 18020 18023 18026 18029 18032 18035 18038 18040 18042 18045 18047 18050 18053 18056 18059 18062 18065 18068 18070 18073 18075 18078 18080 18082 18084 18087 18090 18092 18095 18098 18100 18103 18106 18109 18111 18114 18117 18120 18123 18126 18129 18132 18134 18136 18139 18142 18144 18147 18150 18153 18155 18158 18161 18164 18167 18169 18172 18174 18177 18180 18183 18186 18189 18192 18194 18197 18199 18202 18205 18208 18211 18214 18216 18219 18222 18224 18227 18230 18233 18236 18239 18242 18245 18248 18251 18254 18257 18260 18263 18266 18269 18272 18274 18277 18280 18282 18284 18287 18289 18292 18295 18298 18301 18304 18307 18310 18313 18315 18318 18321 18324 18327 18330 18333 18336 18339 18342 18345 18348 18351 18354 18357 18360 18363 18365 18368 18371 18374 18376 18379 18382 18384 18387 18390 18393 18396 18399 18402 18404 18407 18410 18413 18416 18419 18422 18425 18428 18431 18434 18437 18440 18443 18446 18449 18452 18455 18458 18461 18463 18465 18468 18471 18474 18477 18480 18483 18486 18488 18491 18494 18497 18499 18502 18505 18507 18510 18512 18515 18518 18520 18523 18525 18527 18530 18532 18535 18537 18540 18542 18545 18548 18551 18554 18557 18560 18563 18566 18569 18572 18575 18578 18581 18584 18587 18589 18591 18594 18597 18600 18603 18606 18609 18612 18614 18617 18620 18623 18626 18629 18632 18635 18638 18641 18644 18647 18650 18653 18656 18659 18661 18664 18666 18669 18672 18675 18678 18681 18684 18686 18689 18692 18695 18697 18700 18703 18706 18708 18711 18714 18717 18720 18723 18726 18729 18732 18735 18738 18741 18744 18747 18750 18753 18756 18759 18762 18765 18768 18771 18773 18776 18779 18782 18785 18787 18790 18793 18796 18799 18802 18804 18807 18810 18813 18815 18818 18821 18824 18827 18830 18833 18836 18839 18842 18845 18848 18851 18853 18856 18859 18862 18865 18867 18870 18873 18876 18879 18882 18885 18888 18891 18893 18896 18899 18902 18905 18908 18911 18914 18916 18919 18922 18925 18928 18930 18933 18936 18939 18942 18945 18948 18951 18954 18956 18959 18962 18965 18968 18971 18974 18977 18980 18983 18985 18988 18991 18994 18997 19000 19003 19006 19009 19012 19015 19018 19021 19024 19027 19030 19033 19036 19039 19042 19045 19048 19051 19054 19057 19060 19063 19066 19069 19071 19074 19077 19080 19083 19086 19089 19092 19094 19097 19100 19103 19106 19109 19112 19115 19118 19121 19124 19127 19130 19133 19136 19139 19142 19145 19148 19151 19154 19157 19160 19163 19166 19169 19172 19175 19178 19181 19183 19186 19189 19192 19195 19198 19201 19204 19207 19210 19213 19216 19219 19222 19225 19228 19231 19234 19237 19240 19243 19246 19249 19252 19255 19258 19261 19264 19267 19270 19273 19276 19279 19281 19284 19287 19289 19292 19295 19298 19301 19303 19306 19309 19311 19314 19317 19320 19323 19325 19328 19331 19334 19336 19339 19342 19345 19347 19350 19353 19356 19359 19362 19365 19368 19371 19374 19377 19379 19382 19385 19387 19390 19393 19396 19399 19402 19405 19407 19410 19413 19416 19419 19422 19424 19427 19430 19433 19436 19438 19441 19444 19447 19450 19453 19456 19459 19462 19465 19468 19470 19473 19476 19479 19482 19485 19488 19491 19494 19497 19499 19502 19505 19508 19511 19514 19517 19520 19523 19526 19529 19532 19535 19538 19540 19543 19546 19549 19552 19555 19558 19561 19563 19566 19569 19572 19575 19578 19580 19583 19586 19589 19592 19595 19598 19601 19604 19607 19610 19613 19616 19619 19622 19624 19627 19630 19633 19636 19639 19642 19645 19648 19650 19653 19656 19659 19662 19665 19668 19671 19674 19677 19680 19683 19686 19689 19692 19695 19698 19701 19704 19707 19710 19713 19716 19719 19722 19725 19728 19731 19734 19737 19740 19743 19746 19749 19751 19754 19757 19760 19763 19765 19767 19770 19773 19775 19778 19781 19783 19786 19789 19791 19794 19797 19800 19803 19806 19809 19812 19815 19818 19821 19824 19827 19830 19833 19836 19839 19842 19845 19848 19850 19853 19856 19859 19862 19864 19867 19870 19873 19876 19879 19882 19885 19888 19891 19894 19897 19900 19903 19906 19909 19912 19915 19918 19921 19924 19927 19930 19933 19936 19939 19942 19945 19948 19951 19954 19957 19960 19963 19966 19969 19972 19975 19978 19981 19984 19987 19990 19993 19996 19999 20002 20005 20008 20011 20014 20017 20020 20023 20026 20029 20032 20035 20038 20041 20044 20047 20050 20053 20056 20059 20062 20065 20068 20071 20074 20077 20079 20082 20085 20088 20091 20093 20096 20098 20101 20104 20106 20109 20112 20115 20118 20120 20123 20126 20128 20131 20134 20137 20140 20143 20146 20149 20152 20155 20158 20161 20164 20167 20170 20173 20176 20179 20182 20185 20188 20191 20194 20197 20200 20203 20206 20209 20212 20215 20218 20221 20224 20227 20230 20233 20236 20239 20242 20245 20248 20251 20254 20257 20260 20263 20266 20269 20272 20275 20278 20281 20284 20287 20290 20293 20296 20299 20302 20305 20308 20310 20313 20316 20319 20322 20325 20328 20331 20334 20337 20339 20342 20345 20348 20351 20354 20357 20360 20362 20365 20368 20371 20374 20377 20380 20383 20386 20389 20392 20395 20398 20401 20404 20407 20410 20413 20416 20419 20421 20423 20426 20429 20431 20434 20436 20439 20442 20445 20448 20451 20454 20457 20460 20463 20466 20469 20472 20475 20478 20481 20484 20487 20490 20493 20496 20499 20502 20505 20508 20511 20514 20517 20520 20523 20526 20529 20532 20535 20538 20541 20544 20547 20550 20553 20556 20559 20562 20565 20568 20571 20574 20577 20580 20583 20586 20589 20592 20595 20598 20601 20603 20605 20608 20611 20614 20617 20620 20623 20626 20629 20632 20635 20638 20641 20644 20647 20650 20653 20656 20659 20662 20665 20667 20670 20673 20676 20679 20682 20685 20688 20691 20694 20697 20699 20702 20705 20708 20710 20713 20716 20719 20722 20725 20728 20730 20733 20736 20739 20742 20745 20748 20751 20754 20757 20760 20763 20766 20769 20771 20774 20777 20780 20783 20786 20789 20791 20793 20796 20798 20801 20804 20806 20809 20812 20815 20817 20820 20823 20826 20828 20831 20834 20837 20840 20843 20845 20848 20850 20853 20856 20859 20862 20864 20867 20870 20873 20876 20878 20881 20883 20886 20889 20891 20893 20896 20899 20902 20905 20908 20910 20913 20916 20919 20922 20925 20927 20929 20931 20934 20936 20939 20941 20944 20947 20950 20953 20956 20958 20961 20964 20967 20970 20973 20976 20979 20982 20984 20986 20989 20992 20994 20997 21000 21003 21006 21008 21011 21014 21016 21019 21022 21024 21027 21030 21033 21036 21039 21042 21045 21048 21051 21053 21056 21059 21062 21065 21068 21071 21074 21077 21079 21082 21085 21088 21091 21094 21097 21100 21103 21106 21108 21110 21113 21116 21119 21122 21125 21128 21131 21134 21137 21140 21143 21146 21149 21152 21155 21158 21161 21164 21167 21170 21173 21176 21179 21182 21185 21188 21191 21194 21197 21200 21203 21206 21209 21212 21215 21217 21220 21223 21226 21229 21231 21234 21237 21240 21243 21246 21249 21252 21255 21258 21261 21264 21267 21270 21273 21276 21279 21281 21283 21286 21289 21292 21295 21298 21301 21304 21307 21310 21312 21315 21318 21321 21324 21326 21329 21332 21334 21337 21340 21343 21346 21349 21352 21355 21358 21361 21364 21367 21370 21373 21375 21378 21381 21384 21387 21390 21393 21396 21399 21402 21405 21408 21411 21414 21417 21420 21423 21426 21429 21432 21435 21438 21441 21444 21447 21450 21452 21455 21458 21461 21464 21467 21469 21472 21475 21478 21480 21483 21486 21489 21491 21493 21496 21499 21502 21505 21508 21511 21514 21517 21520 21523 21526 21529 21532 21535 21537 21540 21543 21546 21548 21551 21554 21557 21560 21562 21564 21567 21570 21573 21576 21579 21582 21585 21588 21591 21594 21597 21600 21603 21606 21609 21612 21615 21618 21621 21624 21627 21630 21633 21635 21638 21641 21644 21647 21650 21653 21656 21659 21662 21664 21667 21670 21673 21676 21678 21681 21683 21686 21689 21692 21695 21697 21700 21703 21706 21709 21712 21715 21718 21721 21724 21727 21730 21733 21736 21739 21742 21744 21747 21750 21752 21755 21758 21761 21764 21767 21770 21773 21776 21779 21782 21784 21786 21789 21792 21795 21798 21800 21803 21806 21809 21811 21814 21817 21820 21823 21825 21827 21830 21832 21835 21837 21840 21842 21845 21848 21850 21853 21856 21858 21861 21864 21866 21869 21872 21875 21877 21880 21883 21885 21888 21890 21893 21895 21898 21901 21903 21906 21909 21912 21915 21918 21921 21924 21927 21930 21933 21936 21939 21942 21944 21947 21950 21953 21956 21959 21962 21965 21968 21971 21974 21977 21980 21983 21986 21989 21992 21994 21996 21999 22002 22005 22008 22011 22013 22016 22019 22022 22025 22027 22030 22033 22035 22038 22041 22044 22047 22049 22052 22055 22058 22061 22064 22067 22070 22073 22076 22079 22082 22085 22088 22091 22094 22097 22100 22103 22106 22109 22112 22115 22118 22121 22124 22127 22130 22133 22136 22139 22142 22145 22148 22151 22154 22157 22160 22163 22165 22168 22171 22174 22177 22180 22183 22186 22189 22192 22195 22198 22201 22204 22206 22209 22211 22214 22217 22220 22223 22225 22228 22231 22234 22237 22240 22243 22246 22249 22252 22255 22258 22261 22264 22267 22270 22273 22276 22279 22281 22284 22286 22289 22292 22294 22297 22300 22303 22305 22308 22311 22314 22317 22320 22323 22326 22329 22332 22335 22338 22341 22344 22347 22350 22353 22356 22359 22362 22365 22368 22371 22374 22377 22380 22383 22386 22388 22391 22394 22396 22399 22402 22405 22408 22411 22414 22417 22420 22423 22426 22429 22432 22435 22438 22441 22444 22447 22450 22453 22456 22459 22462 22465 22468 22471 22474 22477 22480 22483 22486 22489 22492 22495 22498 22501 22503 22506 22508 22511 22514 22517 22520 22523 22526 22529 22532 22535 22538 22541 22544 22547 22550 22553 22556 22559 22561 22563 22566 22569 22572 22575 22578 22580 22583 22586 22589 22592 22594 22597 22600 22603 22606 22608 22611 22614 22617 22620 22623 22626 22629 22632 22635 22638 22641 22644 22647 22650 22653 22656 22659 22662 22664 22667 22670 22673 22676 22679 22682 22684 22687 22690 22692 22695 22698 22701 22704 22707 22710 22713 22716 22719 22722 22725 22728 22730 22733 22736 22738 22741 22744 22747 22750 22753 22756 22759 22762 22764 22767 22770 22773 22776 22779 22782 22784 22787 22790 22792 22795 22798 22801 22804 22807 22810 22813 22816 22819 22822 22825 22828 22831 22834 22837 22840 22843 22846 22849 22852 22855 22858 22861 22864 22867 22870 22873 22876 22879 22882 22885 22888 22891 22894 22897 22900 22902 22905 22908 22911 22913 22916 22919 22921 22924 22927 22930 22933 22936 22939 22941 22944 22947 22950 22953 22956 22958 22961 22964 22967 22970 22973 22976 22978 22981 22984 22987 22990 22992 22995 22997 23000 23003 23005 23008 23011 23014 23016 23019 23022 23025 23028 23031 23034 23037 23040 23043 23046 23049 23052 23055 23057 23060 23063 23066 23069 23072 23075 23078 23081 23084 23087 23090 23093 23096 23099 23102 23105 23108 23111 23114 23117 23120 23123 23126 23129 23131 23134 23136 23139 23141 23144 23146 23149 23152 23155 23158 23160 23163 23166 23169 23172 23174 23177 23180 23183 23186 23189 23192 23195 23198 23201 23204 23207 23210 23213 23216 23218 23221 23224 23227 23229 23232 23235 23238 23240 23243 23246 23248 23251 23254 23257 23259 23262 23265 23268 23271 23273 23276 23279 23282 23285 23287 23290 23293 23296 23299 23302 23305 23308 23311 23314 23317 23319 23322 23325 23328 23331 23334 23336 23339 23341 23344 23347 23350 23353 23356 23358 23360 23363 23366 23368 23371 23373 23376 23379 23381 23384 23387 23390 23393 23396 23399 23402 23405 23408 23411 23414 23417 23420 23422 23425 23428 23431 23434 23437 23439 23442 23445 23448 23451 23454 23457 23460 23463 23466 23469 23471 23474 23476 23479 23482 23484 23487 23490 23492 23495 23497 23500 23502 23505 23508 23511 23514 23517 23519 23521 23524 23527 23530 23533 23536 23539 23542 23545 23548 23551 23554 23556 23559 23562 23565 23568 23571 23573 23576 23579 23582 23584 23587 23589 23592 23595 23598 23601 23604 23607 23610 23613 23616 23619 23622 23625 23628 23631 23634 23636 23639 23642 23645 23648 23650 23653 23656 23659 23662 23665 23668 23671 23674 23677 23680 23683 23686 23689 23692 23695 23698 23701 23704 23707 23710 23713 23716 23719 23721 23724 23727 23729 23732 23735 23738 23741 23744 23747 23750 23752 23755 23758 23760 23763 23765 23768 23771 23774 23777 23780 23783 23786 23789 23792 23794 23797 23800 23802 23805 23808 23811 23813 23816 23819 23822 23825 23828 23831 23834 23836 23839 23842 23845 23848 23850 23852 23855 23858 23861 23864 23867 23870 23873 23876 23879 23881 23884 23887 23890 23893 23896 23899 23902 23905 23908 23911 23914 23917 23920 23923 23926 23929 23931 23934 23936 23939 23942 23945 23947 23950 23953 23956 23959 23962 23965 23968 23971 23974 23977 23980 23983 23986 23988 23991 23994 23997 24000 24003 24005 24008 24011 24014 24016 24018 24021 24024 24027 24029 24032 24035 24037 24040 24043 24046 24049 24051 24053 24056 24059 24062 24064 24067 24070 24072 24075 24078 24081 24084 24086 24089 24091 24094 24097 24100 24102 24105 24108 24111 24114 24117 24120 24123 24126 24129 24132 24135 24138 24141 24144 24147 24150 24153 24156 24159 24162 24165 24167 24170 24173 24176 24179 24182 24185 24188 24191 24194 24196 24199 24202 24205 24207 24210 24212 24215 24218 24221 24224 24227 24230 24233 24236 24239 24242 24245 24247 24250 24253 24256 24259 24262 24264 24267 24270 24273 24276 24279 24281 24284 24287 24290 24293 24296 24299 24302 24305 24308 24311 24314 24317 24320 24323 24326 24329 24331 24334 24337 24340 24343 24346 24349 24352 24355 24358 24360 24363 24366 24369 24372 24375 24378 24381 24384 24387 24390 24393 24396 24399 24402 24405 24407 24410 24413 24416 24419 24422 24425 24428 24431 24434 24437 24440 24443 24446 24449 24452 24455 24458 24461 24464 24467 24470 24473 24476 24479 24482 24485 24488 24491 24494 24496 24499 24502 24505 24508 24510 24513 24515 24517 24520 24523 24526 24529 24532 24535 24537 24540 24542 24545 24548 24551 24553 24556 24559 24561 24564 24567 24570 24573 24576 24579 24581 24584 24587 24590 24593 24596 24599 24602 24604 24607 24610 24613 24616 24618 24621 24624 24627 24630 24633 24636 24638 24641 24644 24647 24650 24653 24656 24659 24662 24665 24668 24671 24674 24676 24679 24681 24684 24687 24690 24693 24696 24699 24702 24704 24706 24709 24712 24715 24718 24721 24724 24727 24730 24732 24735 24738 24741 24743 24746 24749 24751 24754 24757 24760 24763 24766 24769 24772 24775 24778 24781 24784 24787 24790 24793 24796 24799 24802 24805 24808 24811 24814 24817 24820 24823 24826 24828 24831 24834 24836 24839 24842 24845 24848 24851 24853 24856 24859 24861 24864 24866 24869 24872 24875 24877 24880 24883 24886 24889 24891 24894 24897 24899 24901 24904 24907 24910 24913 24916 24918 24921 24924 24926 24929 24932 24935 24938 24941 24943 24946 24949 24952 24955 24958 24961 24964 24967 24970 24972 24975 24978 24981 24984 24986 24989 24992 24995 24998 25001 25004 25006 25009 25011 25014 25017 25020 25022 25025 25027 25030 25033 25035 25038 25040 25043 25046 25049 25051 25054 25057 25060 25063 25066 25069 25072 25075 25078 25081 25084 25087 25090 25092 25095 25098 25101 25104 25106 25109 25112 25115 25118 25121 25124 25126 25129 25132 25135 25138 25141 25144 25147 25149 25152 25155 25158 25161 25164 25167 25169 25172 25175 25178 25181 25184 25187 25190 25192 25195 25198 25200 25203 25206 25209 25212 25215 25218 25221 25224 25227 25229 25231 25234 25237 25240 25243 25246 25249 25252 25255 25258 25261 25264 25267 25269 25272 25275 25278 25281 25284 25287 25290 25292 25295 25298 25301 25303 25306 25308 25311 25314 25316 25319 25322 25325 25328 25331 25333 25336 25339 25342 25344 25347 25350 25353 25356 25358 25361 25364 25367 25369 25372 25375 25378 25381 25384 25387 25390 25392 25395 25398 25400 25403 25406 25409 25411 25414 25417 25420 25422 25425 25428 25431 25434 25436 25439 25442 25445 25447 25450 25453 25456 25459 25462 25465 25468 25471 25474 25476 25479 25482 25485 25488 25491 25494 25497 25500 25503 25505 25508 25511 25514 25517 25519 25522 25525 25527 25530 25533 25536 25539 25542 25545 25548 25551 25554 25557 25560 25563 25566 25569 25572 25575 25578 25581 25584 25587 25590 25593 25596 25599 25602 25605 25607 25610 25613 25616 25619 25622 25625 25628 25631 25634 25637 25640 25642 25645 25648 25651 25653 25656 25659 25662 25665 25668 25671 25673 25676 25679 25682 25685 25688 25691 25694 25697 25700 25703 25706 25709 25712 25715 25718 25721 25724 25727 25730 25733 25736 25739 25742 25745 25748 25751 25753 25756 25758 25761 25764 25766 25768 25771 25774 25777 25780 25783 25786 25789 25792 25795 25798 25801 25804 25807 25810 25813 25816 25819 25821 25824 25827 25830 25833 25836 25839 25842 25845 25848 25851 25854 25857 25860 25863 25866 25869 25872 25875 25878 25881 25884 25887 25890 25893 25896 25899 25902 25905 25908 25911 25914 25917 25920 25923 25926 25929 25932 25935 25938 25941 25944 25947 25950 25953 25956 25959 25962 25965 25968 25971 25974 25977 25980 25983 25986 25989 25992 25995 25998 26001 26004 26006 26009 26012 26014 26017 26020 26023 26026 26028 26031 26034 26037 26040 26043 26046 26049 26052 26055 26058 26060 26063 26065 26068 26071 26074 26076 26079 26082 26085 26087 26090 26092 26095 26098 26101 26103 26106 26108 26111 26113 26116 26119 26122 26124 26127 26130 26133 26136 26138 26141 26143 26146 26149 26152 26155 26158 26160 26163 26165 26167 26170 26173 26176 26179 26182 26185 26187 26190 26193 26196 26198 26201 26204 26207 26210 26213 26216 26219 26222 26225 26228 26231 26234 26237 26240 26243 26246 26249 26252 26255 26257 26260 26263 26266 26268 26270 26273 26276 26279 26282 26285 26287 26290 26293 26296 26299 26302 26305 26308 26311 26314 26317 26320 26323 26326 26329 26331 26334 26337 26339 26342 26344 26347 26350 26353 26355 26358 26360 26363 26366 26368 26371 26374 26377 26380 26383 26386 26389 26392 26395 26398 26401 26403 26406 26409 26412 26415 26418 26421 26424 26427 26430 26433 26435 26437 26440 26443 26446 26449 26452 26455 26458 26460 26463 26466 26469 26472 26475 26478 26481 26484 26487 26490 26493 26496 26499 26502 26504 26507 26510 26513 26516 26519 26522 26525 26528 26531 26534 26536 26539 26542 26545 26547 26550 26552 26554 26557 26560 26563 26566 26569 26572 26575 26578 26580 26583 26586 26589 26592 26595 26598 26601 26604 26607 26609 26612 26614 26617 26619 26622 26625 26628 26631 26634 26637 26640 26643 26645 26648 26650 26653 26656 26659 26662 26665 26668 26670 26673 26676 26678 26681 26683 26686 26689 26692 26695 26698 26701 26704 26707 26710 26713 26716 26719 26722 26725 26727 26730 26733 26736 26739 26742 26745 26748 26751 26754 26757 26759 26762 26765 26768 26771 26774 26777 26779 26782 26785 26788 26791 26794 26797 26800 26803 26806 26809 26812 26815 26818 26821 26824 26827 26830 26833 26836 26839 26842 26845 26848 26851 26854 26856 26859 26862 26865 26868 26871 26873 26876 26879 26882 26885 26888 26891 26894 26897 26900 26903 26906 26908 26911 26914 26917 26920 26922 26925 26928 26931 26934 26937 26939 26942 26945 26948 26951 26954 26956 26959 26962 26964 26967 26970 26973 26976 26979 26982 26985 26988 26991 26994 26997 27000 27003 27006 27009 27012 27015 27018 27021 27024 27027 27030 27033 27036 27039 27042 27044 27047 27050 27052 27055 27058 27061 27064 27067 27070 27073 27076 27079 27082 27085 27088 27091 27094 27097 27099 27102 27105 27108 27111 27114 27117 27120 27123 27126 27128 27131 27134 27137 27140 27143 27146 27149 27151 27154 27157 27160 27163 27166 27168 27171 27174 27177 27180 27183 27186 27188 27191 27194 27197 27200 27202 27205 27208 27211 27214 27217 27220 27223 27225 27228 27231 27233 27236 27239 27241 27244 27247 27250 27253 27255 27258 27261 27264 27267 27270 27273 27276 27279 27281 27284 27287 27289 27292 27295 27298 27301 27304 27307 27310 27313 27316 27318 27321 27324 27327 27330 27333 27335 27338 27341 27344 27347 27349 27352 27355 27358 27360 27363 27366 27369 27372 27375 27378 27381 27384 27387 27390 27393 27395 27397 27400 27403 27406 27409 27412 27415 27418 27421 27424 27427 27430 27432 27435 27438 27441 27444 27447 27449 27452 27454 27456 27459 27461 27463 27466 27469 27471 27474 27477 27480 27483 27486 27489 27491 27494 27496 27498 27501 27504 27507 27510 27513 27515 27518 27521 27524 27527 27530 27533 27536 27539 27541 27544 27547 27550 27553 27555 27558 27561 27564 27567 27570 27572 27575 27578 27580 27583 27586 27589 27592 27595 27598 27601 27603 27606 27608 27611 27614 27617 27620 27623 27626 27629 27631 27633 27636 27639 27642 27645 27648 27651 27654 27656 27659 27662 27665 27668 27671 27674 27676 27679 27682 27685 27688 27691 27694 27697 27700 27703 27706 27709 27712 27715 27718 27720 27723 27726 27728 27731 27734 27737 27740 27742 27745 27748 27751 27754 27756 27759 27762 27765 27768 27771 27774 27776 27779 27782 27785 27788 27791 27794 27797 27799 27802 27805 27808 27810 27813 27816 27819 27822 27824 27827 27830 27832 27835 27838 27841 27844 27847 27850 27853 27855 27858 27861 27864 27867 27869 27872 27874 27877 27880 27883 27886 27889 27892 27895 27898 27901 27904 27907 27910 27913 27916 27918 27921 27924 27927 27930 27933 27936 27939 27941 27944 27947 27949 27952 27955 27957 27960 27963 27966 27969 27972 27975 27978 27981 27984 27986 27989 27992 27995 27997 28000 28003 28006 28009 28012 28015 28018 28021 28024 28026 28029 28032 28035 28038 28041 28044 28047 28050 28053 28056 28059 28061 28064 28067 28070 28072 28075 28078 28081 28084 28087 28090 28093 28096 28099 28102 28105 28107 28110 28113 28116 28119 28122 28125 28128 28131 28134 28137 28139 28142 28145 28148 28151 28154 28156 28159 28162 28165 28168 28171 28174 28177 28180 28182 28185 28188 28190 28193 28196 28198 28201 28204 28207 28210 28212 28214 28217 28220 28223 28226 28228 28231 28234 28237 28240 28242 28245 28248 28250 28253 28256 28259 28262 28264 28267 28270 28272 28275 28278 28281 28284 28287 28289 28292 28295 28298 28301 28304 28307 28310 28313 28315 28318 28320 28323 28326 28329 28332 28335 28338 28341 28344 28347 28349 28351 28354 28357 28360 28363 28366 28369 28371 28374 28377 28379 28382 28385 28387 28390 28392 28395 28398 28401 28403 28406 28409 28411 28414 28417 28420 28423 28426 28429 28432 28435 28437 28439 28442 28445 28447 28449 28452 28455 28458 28461 28463 28466 28469 28472 28474 28477 28479 28482 28484 28486 28488 28491 28493 28496 28499 28502 28504 28507 28510 28513 28516 28519 28522 28525 28528 28531 28533 28536 28539 28541 28544 28547 28550 28553 28556 28559 28561 28564 28567 28570 28573 28576 28579 28581 28583 28585 28588 28591 28594 28597 28600 28603 28606 28609 28612 28615 28618 28620 28623 28626 28629 28632 28634 28637 28640 28643 28646 28649 28652 28655 28658 28660 28663 28666 28668 28671 28674 28677 28679 28682 28685 28688 28691 28694 28697 28700 28703 28706 28708 28711 28714 28717 28720 28723 28726 28729 28732 28734 28737 28740 28743 28745 28748 28751 28753 28756 28759 28762 28764 28767 28769 28772 28775 28777 28780 28782 28785 28788 28790 28793 28796 28799 28802 28805 28808 28810 28813 28816 28818 28821 28824 28827 28830 28833 28836 28839 28842 28845 28848 28851 28854 28857 28860 28863 28866 28869 28872 28875 28878 28881 28884 28887 28890 28893 28896 28899 28902 28905 28908 28911 28914 28917 28920 28923 28926 28929 28932 28935 28938 28941 28944 28947 28950 28953 28956 28959 28962 28965 28968 28971 28974 28977 28980 28983 28986 28989 28992 28995 28998 29001 29004 29007 29010 29013 29016 29019 29022 29025 29028 29031 29034 29037 29040 29043 29046 29049 29052 29055 29058 29061 29064 29067 29070 29073 29076 29079 29082 29085 29088 29091 29094 29097 29100 29103 29106 29108 29111 29114 29117 29120 29122 29125 29128 29131 29134 29137 29140 29143 29146 29149 29152 29155 29158 29160 29162 29165 29168 29171 29174 29177 29180 29183 29186 29189 29192 29195 29198 29201 29204 29207 29209 29212 29215 29218 29220 29223 29226 29229 29232 29235 29238 29241 29244 29247 29250 29252 29255 29257 29260 29263 29266 29269 29272 29275 29278 29281 29284 29287 29290 29293 29296 29299 29302 29305 29308 29311 29314 29317 29320 29323 29326 29329 29331 29334 29337 29340 29343 29345 29348 29351 29354 29357 29360 29363 29366 29369 29371 29374 29377 29380 29383 29386 29389 29392 29395 29398 29401 29404 29407 29410 29413 29416 29419 29422 29425 29428 29431 29434 29437 29440 29443 29446 29449 29452 29455 29458 29461 29464 29467 29470 29473 29476 29479 29482 29485 29488 29491 29494 29497 29500 29503 29506 29509 29512 29515 29518 29520 29523 29526 29529 29532 29535 29538 29541 29544 29547 29550 29553 29556 29559 29562 29565 29568 29571 29574 29577 29580 29583 29586 29589 29592 29595 29598 29601 29604 29607 29610 29613 29616 29618 29621 29624 29627 29630 29633 29636 29638 29641 29644 29647 29650 29653 29656 29658 29661 29664 29666 29669 29671 29674 29676 29679 29682 29685 29688 29690 29693 29696 29699 29702 29705 29707 29710 29713 29716 29718 29720 29723 29726 29729 29731 29734 29737 29740 29743 29745 29747 29750 29753 29756 29759 29762 29765 29768 29771 29774 29777 29780 29783 29786 29789 29791 29794 29797 29799 29802 29805 29807 29809 29812 29815 29818 29821 29824 29827 29830 29833 29836 29839 29841 29844 29846 29849 29852 29855 29858 29861 29864 29867 29870 29873 29876 29879 29881 29884 29887 29890 29893 29896 29899 29902 29904 29907 29910 29913 29916 29919 29922 29925 29928 29931 29934 29937 29940 29943 29946 29949 29952 29955 29958 29960 29962 29965 29968 29971 29974 29977 29980 29983 29986 29989 29992 29995 29998 30001 30004 30007 30010 30013 30015 30018 30021 30024 30027 30030 30033 30036 30039 30042 30044 30047 30050 30053 30056 30059 30062 30065 30068 30071 30074 30077 30080 30082 30085 30088 30091 30094 30096 30099 30101 30104 30107 30110 30113 30116 30119 30122 30125 30128 30130 30133 30136 30139 30142 30144 30147 30150 30153 30156 30158 30161 30163 30166 30169 30172 30175 30178 30181 30184 30187 30190 30193 30196 30199 30201 30204 30207 30210 30213 30216 30219 30222 30225 30228 30231 30234 30237 30240 30243 30246 30248 30251 30253 30256 30259 30261 30264 30267 30270 30272 30275 30277 30280 30283 30285 30288 30291 30293 30296 30298 30301 30304 30307 30310 30313 30316 30319 30321 30323 30326 30329 30332 30335 30337 30339 30342 30345 30347 30349 30352 30354 30357 30360 30362 30364 30367 30370 30372 30375 30378 30380 30383 30386 30389 30392 30395 30398 30401 30404 30406 30409 30412 30414 30417 30419 30422 30425 30428 30430 30433 30436 30439 30442 30445 30448 30451 30454 30456 30459 30462 30465 30468 30471 30474 30477 30480 30483 30486 30489 30492 30495 30498 30501 30504 30507 30510 30513 30516 30519 30522 30524 30527 30530 30533 30536 30539 30542 30545 30548 30551 30554 30557 30560 30563 30566 30569 30572 30575 30578 
</DataArray>
<DataArray type="UInt32" Name="types" format="ascii">
5 5 5 5 5 5 3 5 5 5 3 5 5 5 3 5 5 5 5 5 5 3 3 5 5 5 5 3 3 5 3 3 5 3 5 5 5 3 5 5 3 5 5 5 5 5 5 5 3 5 5 5 5 5 5 5 5 3 5 5 3 5 3 5 3 5 3 5 5 5 5 5 5 5 5 5 5 5 5 5 5 5 5 3 5 5 5 5 5 5 5 5 3 5 5 3 3 5 5 5 5 5 5 5 5 5 5 5 5 3 5 5 5 5 5 3 5 5 3 5 5 5 5 5 5 5 5 5 5 5 5 5 5 5 5 5 5 5 3 5 5 5 5 5 3 5 5 5 5 5 5 5 5 5 5 5 5 5 5 5 5 5 5 5 5 5 5 5 5 3 5 3 5 5 5 3 5 5 5 3 5 5 5 3 3 5 5 3 5 5 5 5 3 5 5 5 5 5 3 5 5 5 5 3 5 3 5 5 3 5 5 5 3 5 5 3 5 5 5 5 5 5 5 5 5 5 3 5 5 3 5 5 5 5 5 5 5 3 5 5 5 5 5 5 5 5 5 5 5 5 5 5 5 5 5 5 5 5 5 3 5 3 5 5 5 5 5 3 5 5 5 5 5 5 5 5 3 5 5 5 3 5 5 3 5 5 5 5 3 5 5 3 5 5 5 5 5 3 5 3 5 5 5 5 5 5 5 5 5 5 5 5 5 5 5 5 5 5 3 5 5 5 5 5 3 3 5 5 5 5 5 5 5 5 5 5 3 5 5 5 5 5 5 5 5 5 3 5 5 3 3 5 5 5 3 5 5 3 5 5 5 5 5 5 5 5 5 5 5 5 5 5 5 3 5 5 5 5 5 5 5 5 3 5 5 3 5 5 5 5 3 5 5 5 5 5 5 5 5 5 5 5 5 5 5 3 3 5 5 3 3 5 3 5 3 5 3 5 5 3 5 5 5 5 5 5 5 5 5 3 3 5 5 3 5 5 5 5 5 3 5 5 3 5 5 5 5 3 5 5 5 3 5 5 5 3 5 3 5 5 3 5 5 5 5 5 5 5 5 5 5 5 3 5 5 5 5 5 5 3 5 5 5 3 5 5 5 5 5 5 5 3 5 5 5 5 5 3 5 3 5 5 5 5 5 3 3 5 5 5 3 3 5 3 5 5 5 5 5 5 5 3 5 5 5 5 5 5 5 5 5 5 5 5 5 5 3 5 5 3 5 3 5 5 5 5 5 5 5 5 5 5 5 5 5 5 3 5 5 5 5 5 5 5 5 5 5 5 5 5 5 5 5 3 5 5 5 5 5 5 5 5 5 5 5 3 3 5 5 5 5 5 5 5 5 5 5 5 5 5 5 5 5 3 5 5 5 5 5 5 5 3 5 5 5 5 5 5 5 5 3 5 5 5 3 5 5 5 5 5 5 5 5 5 5 5 5 5 5 5 5 5 5 5 5 5 5 5 5 5 5 5 5 3 5 3 5 5 5 5 5 5 5 5 5 5 5 5 5 3 5 5 5 3 5 5 5 5 5 5 5 5 5 5 5 5 5 3 3 5 5 5 5 5 5 5 3 5 5 5 5 5 5 5 5 5 5 5 3 5 5 5 5 5 5 5 3 5 5 5 5 5 5 5 5 5 5 5 5 5 5 5 5 5 3 5 5 5 5 5 5 5 5 5 5 3 5 5 5 5 5 3 5 5 5 3 5 5 5 5 3 5 5 5 5 5 5 5 3 5 3 5 5 3 5 3 5 5 5 5 5 5 5 5 5 5 5 5 5 5 5 5 5 5 5 5 5 5 5 5 5 5 5 5 5 5 5 5 5 5 5 3 5 3 3 5 5 5 5 5 5 5 5 5 5 5 3 5 5 5 5 5 5 5 3 5 3 5 3 5 5 5 5 5 5 3 5 3 3 5 5 5 5 5 5 5 5 5 5 5 5 5 5 5 5 5 3 5 5 5 5 5 5 5 5 5 5 5 5 5 5 3 5 5 5 5 5 5 5 5 5 5 5 5 5 3 5 5 5 5 5 5 5 5 5 3 5 5 5 5 5 3 3 5 5 5 5 3 3 5 5 5 5 5 5 5 5 5 5 5 3 5 5 5 5 3 5 5 5 5 5 5 3 5 5 3 5 3 5 5 5 3 5 5 5 5 5 5 5 3 5 5 5 5 3 3 5 5 3 5 5 5 3 3 3 3 5 5 3 5 5 5 5 5 5 5 5 3 3 5 5 5 5 5 5 3 5 3 5 5 5 3 5 5 5 5 5 5 5 5 5 5 5 5 5 5 5 5 5 5 5 5 5 5 5 5 5 5 5 5 3 5 5 5 5 5 5 5 5 5 5 5 5 5 5 5 5 5 5 5 5 5 3 5 5 5 5 5 5 5 5 5 3 5 5 5 5 5 5 3 5 5 5 5 5 3 5 5 5 5 5 3 5 5 5 5 5 5 5 5 5 5 3 5 5 5 5 3 3 5 5 3 5 5 5 5 3 5 5 3 5 5 5 5 5 3 3 5 5 5 5 5 5 3 5 5 5 5 5 5 5 3 3 5 5 5 3 5 5 5 3 5 5 3 5 3 5 5 5 3 5 5 3 3 5 5 5 5 5 5 3 5 3 5 3 5 5 5 3 3 5 3 5 5 5 5 5 5 5 5 5 5 5 5 5 5 5 5 3 5 5 5 5 5 5 5 3 5 5 5 5 5 3 5 5 5 3 5 5 5 5 3 5 3 5 3 5 5 5 5 3 5 5 3 5 5 5 5 5 5 5 5 5 5 5 3 5 5 5 5 3 5 5 5 5 3 5 5 5 5 5 5 3 5 5 5 3 5 3 3 5 5 5 5 5 5 5 5 5 5 5 5 5 5 5 5 5 5 5 5 5 5 5 5 5 5 5 5 3 5 5 3 3 5 3 5 5 5 5 3 5 5 3 5 5 5 5 5 5 5 5 5 5 5 5 5 5 5 5 5 5 5 5 5 5 5 5 5 5 5 5 3 5 5 5 5 5 5 5 5 3 5 5 5 5 5 5 5 3 5 3 5 5 5 3 5 5 5 5 5 5 5 3 5 3 5 5 5 5 5 3 5 5 5 5 5 5 5 5 5 5 5 5 5 5 5 5 5 5 5 5 5 5 5 5 5 5 5 5 5 5 5 5 5 5 5 5 5 5 5 3 3 5 5 3 5 5 5 3 5 5 5 3 3 5 5 3 5 5 5 5 5 5 5 5 5 5 5 5 5 5 5 5 5 5 5 5 5 3 5 3 5 5 5 5 5 5 5 5 5 5 5 5 5 5 5 5 5 5 5 5 5 5 5 5 5 5 5 5 5 5 5 5 5 5 5 5 5 5 5 5 5 5 5 5 5 3 5 3 5 3 5 5 3 5 5 5 5 5 5 5 5 5 5 5 5 5 5 5 5 5 5 5 5 5 5 5 5 5 5 5 3 5 5 5 5 5 5 5 5 5 5 5 5 5 5 5 5 5 5 5 5 5 5 5 5 5 5 5 5 5 5 5 5 5 5 5 5 5 5 5 5 5 5 5 5 5 5 5 5 5 3 5 5 5 5 3 5 5 5 5 5 5 5 5 3 5 5 5 5 5 3 3 3 5 5 5 5 3 3 5 5 3 5 5 5 5 5 5 5 5 5 5 5 5 5 5 3 3 5 3 5 5 5 5 5 5 5 5 5 5 5 5 5 5 5 5 5 5 3 5 5 5 5 5 5 3 5 5 5 5 5 5 5 5 5 5 5 5 5 5 5 5 5 5 3 5 5 5 5 5 5 5 5 5 3 5 5 3 5 5 5 5 5 5 5 5 5 5 5 5 5 5 5 5 3 5 3 5 5 5 5 3 5 3 5 5 3 3 5 5 3 5 5 5 3 5 5 5 5 5 5 3 5 5 5 3 5 5 5 5 3 5 5 5 5 5 5 5 3 5 5 5 5 5 3 5 5 3 5 5 5 5 5 5 5 3 5 5 5 3 3 5 5 5 3 5 5 5 5 5 3 3 3 5 5 5 5 5 5 5 5 5 3 3 5 3 5 5 5 5 5 3 5 5 3 5 3 5 5 5 3 5 5 3 5 5 5 5 5 5 5 3 5 5 3 3 5 5 3 5 3 5 5 3 5 5 3 5 3 5 5 5 3 5 5 3 5 3 5 5 3 5 3 5 5 5 5 3 3 5 5 5 5 5 5 5 5 5 3 5 5 5 5 5 5 5 5 5 5 5 5 5 5 5 5 5 5 3 3 5 5 5 3 5 5 5 5 3 5 5 3 5 5 5 3 5 5 3 5 5 5 5 3 5 5 5 5 5 3 5 5 5 3 3 5 5 3 5 5 5 5 5 3 3 5 5 5 5 3 5 5 5 5 3 5 5 5 5 5 5 5 5 5 5 5 5 5 5 5 5 5 5 5 5 5 5 5 5 5 5 5 5 3 5 5 5 5 5 5 5 5 5 5 5 3 5 5 5 5 3 5 5 5 3 5 5 3 5 5 5 5 5 3 5 5 5 5 5 5 5 5 5 5 5 5 5 5 5 5 5 5 5 5 3 5 5 5 5 5 3 5 5 5 5 5 5 5 3 5 5 5 5 5 5 5 5 5 5 5 5 5 3 5 5 5 5 5 3 3 5 5 5 5 3 5 3 5 5 5 3 3 5 5 3 5 5 5 3 5 5 5 5 3 5 5 3 3 5 5 5 5 5 5 3 5 5 3 5 5 5 5 3 5 5 5 5 5 5 5 5 5 5 5 5 5 5 5 5 5 5 5 3 5 3 5 5 5 3 5 3 5 3 5 5 3 5 5 3 3 3 5 5 5 3 5 5 5 5 5 5 3 5 5 5 5 5 5 5 3 5 3 5 5 5 5 5 5 5 3 5 5 5 5 5 5 5 5 5 5 5 3 5 5 3 5 5 5 5 5 5 5 5 5 5 5 5 5 5 5 5 3 5 5 5 5 5 5 5 5 5 5 5 5 5 5 5 5 5 5 5 5 5 3 5 5 5 3 5 5 5 5 5 5 5 5 5 5 3 5 5 5 5 5 5 5 5 5 5 3 5 5 5 5 5 5 3 5 5 5 3 5 5 5 5 5 5 5 5 5 5 5 5 5 5 5 5 5 5 5 5 5 3 5 5 5 5 5 3 5 5 3 5 5 5 5 5 5 3 5 5 5 5 3 5 5 5 5 5 5 5 5 5 5 5 5 5 5 5 5 5 5 3 5 5 5 5 5 3 5 5 5 3 5 3 5 5 5 5 5 5 5 3 5 5 5 3 3 5 5 5 5 5 3 5 5 5 3 5 5 5 5 5 5 5 5 5 5 5 5 5 5 5 3 5 5 5 5 5 5 3 5 5 5 5 5 5 5 5 5 5 5 3 5 5 5 5 5 5 5 5 5 3 5 5 5 5 3 3 5 5 5 5 5 5 5 5 3 3 5 3 5 5 5 5 5 3 5 5 5 5 5 5 3 5 3 5 5 5 5 5 5 5 5 5 5 3 5 5 5 5 5 5 3 5 5 5 5 5 5 5 5 3 5 5 5 5 5 3 5 5 3 5 5 5 5 5 5 3 5 5 5 5 5 5 5 5 3 5 5 5 5 3 5 5 5 5 5 5 5 5 5 5 3 5 5 5 5 5 5 5 5 5 3 5 5 5 5 3 5 5 5 5 5 5 5 5 3 5 3 5 5 5 3 5 5 5 5 5 5 5 5 3 5 5 5 3 5 5 5 3 5 5 3 5 5 5 5 5 5 5 5 5 5 5 5 5 5 5 5 5 5 5 5 5 5 5 5 5 5 5 5 5 5 5 5 5 5 5 5 5 5 5 5 5 5 5 5 5 5 5 5 5 5 5 5 5 3 5 5 5 3 5 5 5 5 5 5 3 5 3 5 5 5 5 3 3 5 5 5 5 5 5 5 5 5 5 5 5 5 5 5 5 5 5 5 5 5 5 3 5 5 3 5 5 5 3 5 5 5 5 5 5 5 5 5 5 5 5 5 5 3 5 3 5 3 5 5 5 5 5 5 5 5 5 5 5 5 5 5 5 5 5 3 5 5 5 5 5 5 5 5 5 5 5 5 5 5 5 5 5 5 5 5 5 5 5 5 5 5 5 5 5 5 5 5 5 3 5 5 5 5 5 5 3 5 5 3 5 3 5 5 3 5 5 5 3 5 5 5 5 5 5 5 5 5 5 5 5 5 5 5 5 5 5 5 5 5 5 5 5 5 3 5 5 5 5 3 5 5 3 5 5 5 5 5 5 5 5 5 5 5 5 5 5 5 5 5 5 5 5 5 5 5 5 5 5 5 5 5 5 3 5 5 5 3 5 5 5 5 3 5 5 5 5 5 3 5 5 5 5 3 5 5 5 5 5 5 5 5 5 5 5 5 5 5 3 3 5 3 5 3 5 5 5 5 5 5 5 5 5 5 5 5 5 5 5 5 5 5 5 5 5 5 5 5 5 3 3 5 5 3 5 5 3 5 5 5 5 5 5 5 5 5 5 5 3 5 5 3 5 5 5 5 5 5 5 5 5 5 5 5 5 5 3 3 5 3 3 5 5 5 5 3 5 5 5 3 3 5 5 5 5 5 5 5 3 5 5 5 5 5 5 5 5 5 5 5 5 5 5 5 5 3 5 5 5 5 3 5 5 5 5 5 5 5 3 5 5 5 5 5 5 5 3 5 5 3 5 5 5 5 5 5 5 5 5 5 5 5 5 5 5 3 5 5 5 5 5 5 5 5 3 5 5 5 5 5 5 5 3 5 5 5 5 5 3 5 5 5 5 3 5 5 5 5 5 5 5 5 5 5 5 5 3 5 5 5 5 5 5 5 5 5 5 5 5 5 5 3 5 5 5 5 5 5 5 5 5 5 5 5 5 3 3 5 5 3 5 5 5 5 3 5 5 5 3 5 5 3 5 5 5 5 3 5 5 5 5 5 5 5 5 5 5 5 5 5 5 5 5 5 5 5 5 5 5 5 5 5 5 5 5 5 5 5 5 5 5 3 5 5 5 3 5 3 5 5 5 5 5 5 5 5 5 5 5 5 5 5 3 5 5 5 5 5 5 5 5 3 5 5 5 3 5 5 5 5 5 5 5 3 5 3 5 5 5 5 5 5 5 5 5 5 5 5 5 5 3 5 5 3 5 5 5 5 5 5 5 3 5 5 5 5 5 5 5 5 5 5 5 5 5 5 5 5 5 5 5 5 5 5 5 5 5 5 5 3 5 5 3 5 5 5 3 5 5 3 5 5 5 5 5 5 5 5 5 5 5 5 5 5 5 5 5 5 5 3 5 5 5 5 5 5 5 5 5 5 5 5 5 3 5 5 5 5 5 5 5 5 5 5 5 5 5 5 5 5 5 5 5 3 5 5 5 5 5 5 5 5 5 5 5 5 5 5 5 5 3 5 5 3 5 5 5 3 5 5 3 5 5 5 5 5 5 5 5 5 5 5 5 5 5 3 5 5 3 5 5 5 5 5 5 5 5 5 5 5 5 5 5 5 5 5 5 5 5 5 5 5 5 5 5 5 5 5 5 5 5 5 5 5 5 3 5 5 5 5 3 5 5 5 5 5 5 5 5 5 5 5 5 5 5 5 3 5 3 3 5 5 3 5 3 5 5 5 5 5 5 5 5 3 5 5 3 5 5 5 5 3 3 5 3 5 5 5 5 5 5 5 5 5 5 5 5 5 5 5 5 5 5 5 5 5 3 5 5 5 5 5 5 5 5 5 5 5 5 5 5 5 5 5 5 5 5 5 5 5 5 5 3 5 5 5 5 5 3 5 5 5 5 5 5 5 5 5 3 5 5 5 5 5 5 5 5 5 5 5 5 5 5 5 5 5 3 3 5 5 3 5 5 5 3 5 5 5 5 5 5 5 5 5 5 3 5 5 3 5 3 5 5 5 5 3 5 5 5 3 5 5 5 5 5 5 3 5 5 5 5 5 5 3 5 5 5 5 5 5 5 5 5 5 5 5 5 5 3 5 5 3 5 5 5 3 3 5 5 5 5 5 5 5 5 5 5 3 5 5 5 3 5 5 5 5 3 5 5 5 5 5 5 5 5 3 5 5 5 5 5 3 3 5 5 5 3 5 3 3 5 5 5 5 5 3 5 5 5 5 5 5 3 5 5 5 5 5 5 5 3 5 5 3 5 5 3 5 5 5 5 5 5 5 5 5 5 5 5 5 5 3 5 5 5 3 5 5 3 5 5 5 5 3 5 5 5 5 5 5 5 5 3 5 5 5 5 3 5 5 5 5 5 5 5 5 3 5 5 5 5 5 5 5 5 5 3 5 5 5 3 5 5 3 5 5 3 5 5 5 5 5 5 5 5 5 3 5 5 5 5 5 5 5 5 5 5 5 5 5 5 5 5 3 5 5 5 5 5 5 5 5 5 5 5 5 5 5 5 5 5 5 5 5 5 5 5 5 5 5 3 5 3 5 5 5 5 5 5 5 5 5 5 3 5 5 3 5 5 5 5 5 5 5 5 5 5 5 5 5 5 5 5 5 5 5 5 5 3 5 5 5 5 5 5 5 5 5 3 5 3 5 5 5 5 5 5 5 3 5 3 5 5 5 5 5 5 5 5 5 5 5 3 5 5 5 5 3 5 3 5 5 5 5 5 5 3 5 5 3 5 5 3 5 5 5 3 3 3 5 5 5 5 5 5 5 5 5 5 5 5 5 3 5 5 5 5 5 5 5 3 5 3 5 3 5 5 3 3 5 5 5 5 5 5 3 5 5 5 5 3 5 3 5 3 5 3 5 5 5 5 3 5 5 5 5 5 3 5 5 5 5 5 5 5 5 5 5 5 5 5 5 3 5 5 5 5 5 3 5 5 5 3 5 5 5 5 5 5 5 5 5 5 5 5 5 5 5 5 5 3 5 5 5 5 3 5 5 5 5 5 5 3 5 5 5 5 5 5 5 5 5 5 3 5 5 3 5 3 5 5 5 5 5 5 5 5 5 5 5 3 5 5 5 5 5 5 3 5 3 3 5 3 5 5 5 5 5 5 5 3 5 5 5 5 5 5 5 5 5 5 5 5 5 5 5 5 3 5 5 5 5 5 5 5 5 5 5 3 5 5 5 5 5 5 5 5 5 5 3 5 5 5 5 3 5 5 5 5 5 3 5 5 5 5 3 5 5 5 5 5 5 5 5 5 5 5 5 5 5 5 5 5 5 3 5 5 5 5 5 5 5 5 3 5 3 3 5 5 5 5 5 3 5 5 5 5 5 5 5 5 5 5 5 5 5 5 3 5 5 3 5 3 3 5 5 5 5 5 5 3 5 5 5 5 3 5 3 5 5 3 5 5 5 5 5 5 3 3 5 5 5 5 5 5 5 5 5 5 5 5 5 5 5 3 5 5 5 5 5 5 5 3 5 3 5 5 5 3 5 3 5 5 5 5 5 5 5 5 3 5 5 5 5 5 3 5 3 5 5 5 5 3 5 5 5 5 5 3 5 5 5 5 5 5 5 5 5 5 5 5 5 5 5 5 5 5 5 5 5 5 5 5 3 5 5 5 3 5 3 5 5 5 3 5 5 5 5 5 5 5 5 5 5 5 5 5 5 5 5 5 3 3 3 3 5 5 5 5 5 5 3 5 5 5 3 5 5 5 5 5 5 5 5 5 5 3 3 3 5 5 3 3 5 5 5 5 5 5 5 5 5 3 5 5 5 5 5 5 5 5 3 3 5 5 5 3 5 5 5 5 5 5 5 5 5 5 5 3 5 3 5 5 5 5 5 3 3 5 5 3 3 5 5 5 5 5 5 5 5 5 5 5 5 5 5 5 5 5 5 5 5 5 5 5 5 5 5 5 5 5 5 5 5 5 5 5 5 5 5 5 5 5 5 3 3 5 5 5 5 5 5 5 5 5 5 5 5 5 5 5 5 5 5 5 5 3 5 5 5 5 5 5 5 5 5 5 5 5 5 5 5 5 3 5 3 5 5 5 5 5 5 5 5 3 5 5 5 5 5 5 5 5 5 5 5 3 5 5 3 5 5 3 5 5 5 5 3 5 5 5 5 3 5 5 3 5 3 5 5 5 5 5 3 5 5 5 5 5 5 5 3 5 5 5 5 5 5 5 5 5 5 5 5 5 5 5 5 5 5 5 5 5 5 5 5 3 5 5 5 3 5 5 3 5 5 5 3 5 5 5 5 3 5 3 5 5 5 5 5 5 5 5 3 5 5 5 5 5 5 5 5 5 5 3 5 5 3 5 5 3 5 5 3 3 5 5 5 5 5 5 5 3 3 5 5 5 3 5 5 3 3 5 5 5 3 3 5 3 5 5 3 5 5 5 5 3 5 3 3 5 5 5 3 5 3 3 5 3 3 3 3 5 3 5 3 5 3 5 5 5 3 5 5 3 5 3 3 5 5 5 5 3 5 3 3 5 5 5 3 3 5 5 3 3 5 5 5 5 3 5 5 5 5 3 5 5 5 5 3 5 3 5 3 5 3 5 3 5 3 5 5 5 5 5 3 5 5 3 3 3 5 5 3 3 5 3 5 5 3 5 5 5 5 5 5 3 5 5 3 5 3 5 5 5 5 3 5 3 5 3 5 5 5 3 5 5 3 5 3 5 3 5 5 5 5 5 3 5 5 5 5 5 5 5 5 5 5 3 5 5 5 5 3 5 5 3 5 5 5 5 5 3 5 5 3 5 5 5 3 5 3 5 5 5 3 5 5 5 5 3 5 5 5 5 3 3 5 5 5 5 5 5 3 5 5 3 5 5 5 5 5 5 5 5 5 5 5 5 5 5 5 5 5 5 5 5 5 5 5 5 5 5 5 5 5 5 5 5 5 5 5 5 5 5 5 5 5 5 5 5 5 5 5 5 5 5 5 5 5 5 5 5 5 5 3 5 5 5 5 5 5 5 5 5 5 5 5 3 5 5 3 5 5 5 3 5 5 5 5 5 5 5 5 5 5 5 5 5 5 5 3 5 5 5 5 5 5 5 5 5 5 5 5 5 5 5 5 3 5 5 5 5 5 5 5 5 5 5 5 5 5 3 5 5 3 5 5 3 5 3 5 5 5 5 5 5 5 3 5 5 5 5 5 5 5 5 5 5 5 5 3 5 5 5 3 5 5 5 5 5 5 5 5 5 3 5 5 5 5 5 5 3 5 5 5 5 5 5 3 5 5 5 3 5 5 5 5 5 5 5 3 5 5 5 5 5 5 5 5 5 5 3 5 5 5 5 5 5 5 5 5 5 5 5 5 5 5 5 3 5 3 5 5 5 5 5 5 5 5 5 5 3 5 3 5 5 5 5 5 5 5 5 5 5 5 3 5 5 5 5 5 5 5 5 5 5 5 3 5 5 5 5 5 5 5 3 5 5 5 5 5 5 5 3 5 5 5 5 5 5 5 5 5 5 5 3 5 5 5 5 5 5 5 5 3 5 3 5 5 5 5 5 5 5 5 5 5 3 5 5 5 3 5 5 5 5 5 5 5 5 5 3 5 5 5 5 5 5 5 5 5 5 5 5 5 5 5 5 3 5 5 5 5 5 5 5 5 5 5 5 5 5 5 5 5 5 5 3 5 5 3 5 5 3 5 5 5 5 5 3 5 5 5 5 5 5 5 5 5 5 5 5 5 5 5 5 5 5 5 5 5 5 5 5 5 5 5 5 5 5 5 5 5 5 5 5 5 5 5 5 5 5 5 5 5 5 5 5 5 5 5 5 5 5 5 5 5 5 5 3 5 5 3 5 5 5 5 5 5 5 5 5 5 5 5 5 5 5 5 5 5 5 5 5 5 5 5 3 3 5 5 5 5 5 5 5 5 5 5 5 5 5 5 5 5 3 3 5 5 5 5 5 5 5 3 5 3 5 5 3 3 5 5 5 5 5 5 5 5 5 5 5 3 5 3 5 5 5 3 5 5 5 3 5 3 5 5 5 5 5 3 3 5 5 5 5 5 5 5 5 5 5 5 5 5 5 5 5 5 5 5 5 5 5 5 5 5 5 5 5 5 5 5 5 5 5 5 5 5 5 5 5 5 5 5 5 5 5 5 5 5 5 5 5 5 5 5 5 5 5 5 5 5 5 5 5 5 5 5 5 5 5 5 5 5 5 5 5 5 5 5 5 5 5 5 5 5 5 5 5 5 5 5 5 5 5 5 5 5 5 5 5 5 5 5 5 3 3 5 3 5 3 5 5 3 5 5 5 5 3 5 5 5 5 5 5 5 3 3 3 5 5 5 5 5 3 3 5 5 5 5 5 5 5 5 5 5 5 5 5 5 5 5 5 5 5 5 5 5 5 5 5 5 5 5 5 5 5 5 5 5 3 5 5 3 5 5 5 5 5 5 5 5 5 5 5 3 5 5 5 5 5 5 5 3 5 5 5 5 5 5 5 5 5 5 5 5 5 5 5 5 3 5 5 3 5 5 5 5 5 5 5 5 5 5 5 5 5 5 5 5 5 5 5 5 5 5 5 3 5 5 3 5 5 3 5 5 5 5 5 5 5 3 5 5 5 5 5 5 3 5 5 3 5 5 5 5 3 5 3 5 5 3 5 5 5 5 3 5 3 5 5 3 5 5 5 5 5 5 5 5 5 5 5 5 3 5 5 5 3 5 5 3 5 5 5 5 3 5 5 5 5 5 5 5 5 5 5 3 5 5 5 5 5 5 5 5 5 5 3 5 5 5 5 5 5 5 5 5 5 5 5 3 5 5 3 5 5 5 5 5 5 5 5 5 5 3 5 5 5 5 5 3 5 3 3 5 5 3 5 5 5 5 5 5 5 5 5 3 3 5 5 5 5 5 5 3 5 5 5 5 5 5 5 5 5 5 5 5 5 5 5 5 5 5 5 5 5 5 5 5 5 3 5 5 5 5 5 5 5 5 5 5 5 5 5 5 5 5 5 5 5 5 5 5 5 5 5 5 5 5 5 5 5 5 5 5 5 5 5 5 5 5 3 5 5 5 5 5 5 5 5 5 5 3 5 5 5 3 5 3 5 5 5 3 5 5 5 3 5 3 5 3 5 3 3 5 5 3 5 5 5 3 5 5 5 5 5 3 5 5 5 5 3 5 5 5 3 5 5 5 5 3 5 3 5 5 5 5 5 5 5 5 5 5 5 5 5 5 3 5 5 5 5 3 5 5 3 5 5 3 3 5 5 3 5 3 5 5 5 3 3 3 3 5 5 3 5 5 5 5 3 5 3 5 5 3 3 3 5 3 5 5 3 3 3 5 5 5 5 5 5 5 5 5 3 3 5 5 5 5 3 3 5 5 5 3 5 3 5 5 5 5 5 5 5 5 5 5 5 3 5 5 5 5 5 5 5 5 5 5 5 5 5 5 5 5 5 5 5 5 5 5 5 3 5 5 5 5 5 5 5 5 5 5 5 5 5 5 5 5 3 5 5 3 5 5 5 5 5 5 5 5 5 3 5 5 5 3 3 5 5 3 5 5 5 5 5 3 5 3 5 5 5 3 5 5 5 5 5 5 5 3 5 5 3 5 5 5 5 3 5 5 5 3 3 5 5 3 5 5 5 3 5 5 5 5 5 5 5 3 5 5 3 5 3 3 3 5 3 5 3 3 5 5 5 5 5 5 3 5 5 3 5 5 5 5 5 5 5 5 5 5 5 5 5 5 5 5 5 5 5 5 5 5 5 5 5 5 5 5 5 5 5 5 5 5 5 3 3 5 5 5 5 5 5 5 5 3 3 3 3 5 5 3 5 5 5 5 5 5 5 5 3 5 5 3 5 5 5 3 5 5 5 5 3 5 5 5 5 5 5 5 5 5 5 5 5 5 5 3 5 5 5 5 5 3 5 5 5 5 5 5 5 5 3 5 5 5 3 3 5 5 3 3 5 5 5 5 5 3 5 5 5 5 5 5 3 5 3 5 5 5 5 5 5 5 5 3 3 5 3 3 3 5 3 5 5 5 5 5 5 3 5 5 5 5 5 5 5 3 5 5 5 5 5 5 5 5 5 5 5 5 5 5 5 5 5 5 5 5 5 5 5 5 5 5 5 5 5 5 5 5 5 5 5 5 5 5 5 5 5 5 5 5 5 5 5 5 5 5 5 5 5 5 5 5 5 3 5 5 5 5 5 5 5 3 5 5 3 5 5 5 3 5 3 5 5 3 5 5 5 5 5 5 5 3 5 5 5 3 5 5 5 5 5 5 5 3 5 3 5 5 5 5 5 5 5 5 5 5 5 5 5 5 5 5 5 5 5 5 5 5 5 5 5 3 3 5 3 5 5 5 5 5 5 5 3 5 3 5 3 3 3 5 5 3 5 5 3 5 5 5 3 5 5 5 5 5 5 5 3 3 5 5 3 5 5 5 3 5 5 5 5 3 5 3 5 5 5 5 5 5 3 5 3 5 5 5 5 5 3 5 5 3 5 5 5 5 5 5 5 5 5 5 5 5 5 5 5 5 3 5 5 3 3 5 3 5 5 5 5 5 5 5 5 3 5 5 5 5 5 5 5 5 5 5 5 5 5 5 5 5 3 5 5 5 3 5 5 3 5 5 5 5 5 5 3 5 5 5 5 5 5 5 5 5 5 5 5 5 5 5 5 5 5 5 3 3 5 5 5 5 5 5 5 3 5 5 5 3 5 5 3 5 3 5 5 3 5 3 3 5 3 5 3 5 3 5 5 5 5 5 5 5 5 5 5 5 5 5 5 5 3 3 5 5 5 5 5 5 5 3 5 5 5 5 5 5 5 5 5 5 5 5 5 5 5 3 5 3 5 5 5 5 5 5 3 5 5 5 3 5 5 5 3 5 5 5 5 5 5 5 5 5 5 5 5 5 5 5 5 5 5 5 5 5 3 5 5 5 5 3 5 5 5 5 5 3 5 5 5 3 5 5 5 5 5 5 5 5 5 5 5 5 3 5 5 5 5 3 5 5 5 5 5 5 5 5 3 5 5 5 5 5 5 5 3 5 5 5 5 3 5 5 5 5 5 5 5 5 3 5 5 5 5 5 5 5 5 5 3 5 5 5 5 5 5 5 5 5 5 5 5 5 5 5 5 5 5 5 5 5 5 5 5 5 5 5 5 3 5 5 5 5 5 5 5 3 5 5 5 5 5 5 5 5 5 5 5 5 5 5 5 5 5 5 5 5 5 5 5 5 5 5 5 5 5 3 5 5 5 5 5 5 5 5 5 5 5 5 5 5 5 5 5 5 5 5 5 5 5 5 5 5 5 5 5 5 5 5 3 5 5 3 5 5 5 5 3 5 5 3 5 5 5 5 3 5 5 5 3 5 5 5 3 5 5 5 5 5 5 5 5 5 5 3 5 5 3 5 5 5 5 5 5 3 5 5 5 5 5 3 5 5 5 5 3 5 5 5 5 5 5 5 5 5 5 3 5 5 5 5 5 5 5 5 5 3 5 5 5 5 5 5 5 5 5 5 5 5 5 3 5 5 5 5 5 5 5 3 5 5 5 5 5 3 5 5 5 5 5 5 5 5 5 5 5 5 5 5 3 5 5 5 5 5 5 5 5 3 5 5 5 5 5 5 5 5 5 5 5 5 5 5 5 5 5 5 5 5 5 5 5 5 5 5 5 5 5 5 5 5 5 3 5 5 5 5 3 3 5 5 3 5 5 3 5 5 3 5 5 5 5 5 5 5 5 5 5 5 5 5 5 5 5 5 5 5 3 5 5 5 5 3 5 5 5 5 5 5 5 5 5 5 5 5 5 5 5 5 5 5 5 5 5 5 5 5 5 5 5 5 5 5 5 5 5 5 5 5 5 5 5 5 5 5 5 5 5 5 5 5 5 5 5 5 5 5 5 5 5 5 5 5 5 5 5 5 5 5 5 5 5 5 5 3 5 5 5 5 3 5 3 5 5 3 5 5 5 5 3 5 5 3 5 5 5 5 5 5 5 5 5 5 5 5 5 5 5 5 5 5 5 5 5 5 5 5 5 5 5 5 5 5 5 5 5 5 5 5 5 5 5 5 5 5 5 5 5 5 5 5 5 5 5 5 5 5 5 5 5 5 5 5 3 5 5 5 5 5 5 5 5 5 3 5 5 5 5 5 5 5 3 5 5 5 5 5 5 5 5 5 5 5 5 5 5 5 5 5 5 5 3 3 5 5 3 5 3 5 5 5 5 5 5 5 5 5 5 5 5 5 5 5 5 5 5 5 5 5 5 5 5 5 5 5 5 5 5 5 5 5 5 5 5 5 5 5 5 5 5 5 5 5 5 5 5 5 5 5 5 5 5 5 3 3 5 5 5 5 5 5 5 5 5 5 5 5 5 5 5 5 5 5 5 5 3 5 5 5 5 5 5 5 5 5 5 3 5 5 5 3 5 5 5 5 5 5 3 5 5 5 5 5 5 5 5 5 5 5 5 5 3 5 5 5 5 5 5 3 3 5 3 5 5 3 5 5 5 3 5 5 5 3 5 5 5 5 5 3 5 3 5 5 5 5 3 5 5 5 5 3 5 3 5 5 3 3 5 5 5 5 5 3 5 5 5 5 5 3 3 3 5 3 5 3 5 5 5 5 5 3 5 5 5 5 5 5 5 5 3 3 5 5 3 5 5 5 5 3 5 5 3 5 5 3 5 5 5 5 5 5 5 5 5 3 5 5 5 5 5 5 5 5 3 5 5 5 5 5 5 5 5 5 3 3 5 5 5 5 5 5 5 5 5 5 5 5 5 5 5 5 5 5 5 5 5 5 5 5 5 5 5 5 5 5 5 5 5 5 5 3 5 5 5 5 3 5 5 5 5 5 5 5 5 5 5 5 5 5 5 5 5 3 3 5 5 5 5 5 5 5 5 5 3 5 5 5 5 3 5 5 3 5 5 5 5 5 5 5 5 5 5 5 5 5 3 5 5 5 5 5 5 5 5 5 5 5 5 5 5 5 5 5 5 5 5 5 5 5 5 5 3 5 5 5 5 5 3 5 5 5 3 5 5 5 3 3 5 5 5 5 5 5 5 5 5 5 5 5 5 5 3 5 5 5 3 5 5 5 5 3 3 5 5 5 5 5 5 5 5 5 5 5 5 5 5 5 5 5 5 5 5 5 5 5 3 5 5 5 5 5 5 5 5 5 3 5 5 5 5 3 5 3 5 5 5 5 3 5 5 5 5 5 5 5 5 5 5 5 5 5 5 5 3 5 5 3 5 5 5 5 5 5 5 5 5 5 3 3 5 5 5 5 3 5 5 5 3 5 5 5 5 3 3 5 3 5 3 5 3 5 5 3 5 5 3 5 5 3 5 5 5 3 5 5 3 5 3 5 3 5 5 3 5 5 5 5 5 5 5 5 5 5 5 5 5 3 5 5 5 5 5 5 5 5 5 5 5 5 5 5 5 5 3 3 5 5 5 5 5 3 5 5 5 5 3 5 5 3 5 5 5 5 3 5 5 5 5 5 5 5 5 5 5 5 5 5 5 5 5 5 5 5 5 5 5 5 5 5 5 5 5 5 5 5 5 5 5 5 5 5 5 3 5 5 5 5 5 5 5 5 5 5 5 5 5 3 5 3 5 5 5 5 3 5 5 5 5 5 5 5 5 5 5 5 5 5 5 5 5 5 5 3 5 3 5 5 3 5 5 5 3 5 5 5 5 5 5 5 5 5 5 5 5 5 5 5 5 5 5 5 5 5 5 5 5 5 5 5 3 5 5 3 5 5 5 5 5 5 5 5 5 5 5 5 5 5 5 5 5 5 5 5 5 5 5 5 5 5 5 5 5 5 5 5 5 5 5 3 5 3 5 5 5 5 5 5 5 5 5 5 5 5 5 5 5 5 5 3 3 5 5 5 5 5 3 5 5 5 5 3 5 5 5 5 3 5 5 5 5 5 5 5 5 5 5 5 5 5 5 5 5 5 5 3 5 5 5 5 5 5 3 5 5 3 5 5 5 5 5 5 5 5 5 5 5 5 3 5 5 3 5 5 5 5 5 5 5 5 3 5 5 5 5 5 5 3 5 5 3 5 5 5 5 5 5 5 5 5 5 5 5 5 5 5 5 5 5 5 5 5 5 5 5 5 5 5 5 5 5 5 5 5 5 5 5 3 5 5 5 3 5 5 3 5 5 5 5 5 5 3 5 5 5 5 5 3 5 5 5 5 5 5 3 5 5 5 5 3 5 3 5 5 3 5 5 5 3 5 5 5 5 5 5 5 5 5 5 5 5 5 3 5 5 5 5 5 5 5 5 5 5 5 5 5 5 5 5 5 5 5 5 5 5 5 5 3 5 3 5 3 5 3 5 5 5 5 3 5 5 5 5 3 5 5 5 5 5 5 5 5 5 5 5 5 5 5 3 5 5 5 3 5 5 5 3 5 5 3 5 5 5 3 5 5 5 5 3 5 5 5 5 3 5 5 5 5 5 5 5 5 5 5 3 5 5 5 5 5 3 5 3 5 5 5 5 5 3 3 5 5 3 5 3 5 5 3 5 5 5 5 5 5 5 5 5 5 5 5 5 3 5 5 5 5 5 3 5 5 5 5 5 5 5 5 5 5 3 5 3 5 5 3 5 5 3 5 3 5 3 5 5 5 5 5 3 3 5 5 5 5 5 5 5 5 5 5 5 3 5 5 5 5 5 3 5 5 5 3 5 3 5 5 5 5 5 5 5 5 5 5 5 5 5 5 5 3 5 5 5 5 3 5 5 5 5 5 5 5 5 5 5 5 5 5 5 5 5 5 5 5 5 5 5 5 3 5 5 3 5 5 5 5 5 5 5 3 5 5 3 5 3 5 5 5 5 5 5 5 5 5 3 5 5 3 5 5 5 3 5 5 5 5 5 5 5 3 5 5 5 5 3 3 5 5 5 5 5 5 5 5 5 3 5 5 5 5 5 5 5 5 5 5 5 5 5 5 5 5 3 5 3 5 5 5 3 5 5 5 5 5 5 5 5 5 5 5 5 5 3 5 5 5 5 5 3 5 5 5 3 3 5 5 5 3 5 5 3 5 5 5 5 3 3 5 5 5 3 5 5 3 5 5 5 5 3 5 3 5 5 5 3 5 5 5 5 5 5 5 5 5 5 5 5 5 5 5 5 5 5 5 5 5 3 5 5 5 5 5 5 5 5 5 3 5 5 5 3 5 3 5 5 5 5 5 5 5 5 5 5 5 3 5 5 5 5 5 3 5 5 5 5 5 3 5 5 5 5 5 5 5 5 5 5 5 5 5 5 5 5 3 5 5 5 5 5 5 5 5 5 3 5 5 5 5 5 5 5 5 5 5 5 5 5 5 5 3 5 5 5 5 5 5 5 5 5 5 5 5 5 5 5 5 5 5 5 5 5 5 5 5 5 5 5 5 5 3 5 5 5 5 3 5 3 3 5 5 5 5 5 5 3 5 3 5 5 5 3 5 5 3 5 5 5 5 5 5 3 5 5 5 5 5 5 5 3 5 5 5 5 3 5 5 5 5 5 5 3 5 5 5 5 5 5 5 5 5 5 5 5 3 5 3 5 5 5 5 5 5 5 3 3 5 5 5 5 5 5 5 5 3 5 5 5 3 5 5 3 5 5 5 5 5 5 5 5 5 5 5 5 5 5 5 5 5 5 5 5 5 5 5 5 5 3 5 5 3 5 5 5 5 5 3 5 5 3 5 3 5 5 5 3 5 5 5 5 3 5 5 3 3 5 5 5 5 5 3 5 5 3 5 5 5 5 5 3 5 5 5 5 5 5 5 5 5 3 5 5 5 5 3 5 5 5 5 5 5 3 5 3 5 5 5 3 5 3 5 5 3 5 3 5 5 5 3 5 5 5 5 5 5 5 5 5 5 5 5 5 3 5 5 5 5 3 5 5 5 5 5 5 3 5 5 5 5 5 5 5 3 5 5 5 5 5 5 3 5 5 5 5 5 5 5 3 5 5 3 5 5 5 5 5 5 5 5 5 3 3 5 5 5 5 5 5 5 5 5 5 5 5 3 5 5 5 5 5 5 5 3 5 5 5 3 5 3 5 5 3 5 5 5 5 5 3 5 5 5 3 5 5 5 5 3 5 5 5 3 5 5 5 5 5 5 5 3 5 5 3 5 5 5 3 5 5 5 3 5 5 5 5 3 5 5 5 3 5 5 5 5 5 5 5 5 5 3 5 5 5 5 5 5 5 5 5 3 5 5 5 5 3 5 5 3 5 5 5 5 5 5 5 5 5 5 5 5 5 5 5 5 5 5 5 5 5 5 5 5 5 5 3 5 5 5 5 5 5 5 5 5 5 5 3 5 5 5 3 5 5 5 5 5 5 3 5 5 5 5 5 5 5 5 5 5 5 5 5 5 5 5 5 5 5 5 5 5 5 5 5 5 3 5 3 5 5 3 3 5 5 5 5 5 5 5 5 5 5 5 5 5 5 5 5 5 3 5 5 5 5 5 5 5 5 5 5 5 5 5 5 5 5 5 5 5 5 5 5 5 5 5 5 5 5 5 5 5 5 5 5 5 5 5 5 5 5 5 5 5 5 5 5 5 5 5 5 5 5 5 5 5 5 5 5 5 5 5 3 5 5 3 5 5 5 5 3 5 5 5 5 5 5 5 5 5 5 3 5 3 5 5 5 3 5 5 5 3 5 3 5 5 5 3 5 3 5 3 5 5 5 3 5 5 5 5 3 5 3 5 5 5 5 5 3 5 3 3 5 5 5 5 5 5 3 5 5 5 3 5 5 5 5 5 5 5 5 5 5 5 5 5 5 5 5 5 5 5 3 5 5 5 3 3 5 5 5 5 5 3 5 5 5 5 5 5 5 5 5 5 5 5 5 5 3 5 5 3 5 3 5 5 5 3 5 3 5 5 3 5 5 5 5 5 5 5 5 5 5 5 3 5 5 5 5 5 5 5 5 5 5 3 3 5 5 5 5 5 5 5 3 5 5 5 5 5 5 5 5 5 5 5 5 5 5 3 5 5 5 5 5 5 5 5 5 5 3 5 5 5 3 5 3 3 5 5 5 5 5 5 5 5 3 5 5 5 5 5 5 5 5 5 3 5 3 5 3 5 5 5 5 5 5 5 5 3 5 3 5 5 5 5 5 5 3 5 5 3 5 3 5 5 5 5 5 5 5 5 5 5 5 5 5 5 3 5 5 5 5 5 5 5 5 5 5 3 5 5 5 5 5 5 3 5 5 5 5 5 5 5 5 5 5 5 5 5 5 5 5 5 5 5 5 5 5 5 5 5 3 5 5 5 5 5 3 5 5 5 5 5 5 5 5 5 5 5 3 5 5 5 5 3 5 5 5 5 5 3 5 5 5 5 5 3 5 5 3 5 5 5 5 5 5 5 5 5 5 5 5 5 5 5 5 5 5 5 5 5 5 5 5 5 5 3 5 5 3 5 5 5 5 5 5 5 5 5 5 5 5 5 5 5 3 5 5 5 5 5 5 5 5 5 3 5 5 5 5 5 5 5 3 5 5 5 5 5 3 5 5 5 5 5 5 3 5 5 5 5 3 5 5 5 5 5 5 5 3 5 5 3 5 5 3 5 5 5 5 3 5 5 5 5 5 5 5 5 3 5 5 3 5 5 5 5 5 5 5 5 5 3 5 5 5 5 5 3 5 5 5 5 3 5 5 5 3 5 5 5 5 5 5 5 5 5 5 5 3 3 5 5 5 5 5 5 5 5 5 5 5 3 5 5 5 5 5 3 5 3 3 5 3 3 5 5 3 5 5 5 5 5 5 3 5 3 3 5 5 5 5 5 3 5 5 5 5 5 5 5 5 3 5 5 5 5 3 5 5 5 5 5 3 5 5 3 5 5 5 5 5 5 5 3 5 3 5 5 5 5 5 5 5 3 3 5 5 5 5 5 5 5 3 5 5 5 5 5 5 3 5 5 5 5 5 5 5 5 5 5 5 5 5 5 3 5 5 3 5 5 5 5 3 5 5 5 5 3 5 5 5 5 5 5 3 5 5 5 5 5 5 5 3 5 5 5 3 5 5 5 5 3 5 5 3 5 5 5 5 5 5 5 3 5 5 5 5 3 5 3 5 5 5 5 5 5 5 5 5 5 5 5 5 5 3 5 5 5 5 5 5 5 3 5 5 3 5 5 3 5 5 5 5 5 5 5 5 5 3 5 5 5 3 5 5 5 5 5 5 5 5 5 3 5 5 5 5 5 5 5 5 5 5 5 3 5 5 5 3 5 5 5 5 5 5 5 5 5 5 5 3 5 5 5 5 5 5 5 5 5 5 3 5 5 5 5 5 3 5 5 5 5 5 5 5 5 3 5 5 3 5 5 3 5 5 5 5 3 3 5 5 5 5 3 5 5 5 5 3 5 5 3 5 5 5 5 3 5 5 3 5 5 5 5 5 3 5 5 5 5 5 5 5 5 3 5 3 5 5 5 5 5 5 5 5 5 3 3 5 5 5 5 5 5 3 5 5 3 5 5 3 5 3 5 5 5 3 5 5 3 5 5 5 5 5 5 5 5 3 3 5 5 3 3 5 5 5 5 3 5 5 5 3 5 3 5 3 3 3 5 3 5 5 5 3 5 5 5 5 5 5 5 5 5 3 5 5 3 5 5 5 5 5 5 3 5 5 5 5 5 5 3 3 3 5 5 5 5 5 5 5 5 5 5 5 3 5 5 5 5 3 5 5 5 5 5 5 5 5 3 5 5 3 5 5 5 3 5 5 5 5 5 5 5 5 5 3 5 5 5 5 5 5 5 5 3 5 5 5 3 5 5 3 5 5 5 3 5 3 5 5 3 5 3 5 5 3 5 5 5 5 5 5 3 5 5 3 5 5 5 5 5 5 5 5 5 5 5 5 5 5 5 5 5 5 5 5 5 5 5 5 5 5 5 5 5 5 5 5 5 5 5 5 5 5 5 5 5 5 5 5 5 5 5 5 5 5 5 5 5 5 5 5 5 5 5 5 5 5 5 5 5 5 5 5 5 5 5 5 5 5 5 5 5 5 5 5 5 5 5 5 5 5 5 5 5 5 5 5 5 5 5 5 3 5 5 5 5 3 5 5 5 5 5 5 5 5 5 5 5 5 3 3 5 5 5 5 5 5 5 5 5 5 5 5 5 5 5 3 5 5 5 3 5 5 5 5 5 5 5 5 5 5 3 5 3 5 5 5 5 5 5 5 5 5 5 5 5 5 5 5 5 5 5 5 5 5 5 5 5 3 5 5 5 5 3 5 5 5 5 5 5 5 5 3 5 5 5 5 5 5 5 5 5 5 5 5 5 5 5 5 5 5 5 5 5 5 5 5 5 5 5 5 5 5 5 5 5 5 5 5 5 5 5 5 5 5 5 5 5 5 5 5 5 3 5 5 5 5 5 5 5 5 5 5 5 5 5 5 5 5 5 5 5 5 5 5 5 5 5 5 5 5 5 5 5 5 3 5 5 5 5 5 5 3 5 5 5 5 5 5 3 5 5 3 5 3 5 3 5 5 5 5 3 5 5 5 5 5 3 5 5 5 3 3 5 5 5 3 5 5 5 5 3 3 5 5 5 5 5 5 5 5 5 5 5 5 5 5 3 5 5 3 5 5 3 3 5 5 5 5 5 5 5 5 5 5 3 5 3 5 5 5 5 5 5 5 5 5 5 5 3 5 5 5 5 5 5 5 3 5 5 5 5 5 5 5 5 5 5 5 5 5 5 5 5 5 5 3 3 5 5 5 5 5 5 5 5 5 5 5 5 5 5 5 5 5 3 5 5 5 5 5 5 5 5 5 3 5 5 5 5 5 5 5 5 5 5 5 5 3 5 5 5 5 3 5 3 5 5 5 5 5 5 5 5 5 3 5 5 5 5 3 5 5 5 5 3 5 3 5 5 5 5 5 5 5 5 5 5 5 5 3 5 5 5 5 5 5 5 5 5 5 5 5 5 5 5 3 5 3 5 5 3 5 5 5 3 5 3 5 5 3 5 5 3 5 3 5 5 5 5 5 5 5 3 3 5 5 5 5 3 3 5 5 3 3 5 3 5 5 3 3 5 5 3 5 5 3 5 5 5 5 5 5 5 5 3 5 5 3 5 3 5 5 5 3 5 5 5 5 5 5 5 5 3 5 5 5 5 5 5 5 5 5 5 5 5 5 5 5 5 5 5 5 5 5 5 3 5 5 5 5 5 5 5 5 5 5 5 5 5 5 5 5 5 5 
</DataArray>
</Cells>
<PointData Scalars="" Vectors="displacement," Tensors="">
<DataArray type="Float64" Name="displacement" NumberOfComponents="3" format="ascii">
-0.0049996510927402234 -0.0049996516555961754 0 -0.0048963628429945826 -0.0048508447874025494 0 -0.0044772015339245939 -0.0049996843670106882 0 -0.0049996510927402234 -0.0049996516555961754 0 -0.0048963628429945826 -0.0048508447874025494 0 -0.0049996165020920304 -0.0043713469733283683 0 -0.0048963628429945826 -0.0048508447874025494 0 -0.0048961395946914583 -0.0047111449113700016 0 -0.0049996165020920304 -0.0043713469733283683 0 -0.0048963628429945826 -0.0048508447874025494 0 -0.0048961395946914583 -0.0047111449113700016 0 -0.004779340547926429 -0.0048025717375775479 0 -0.0048961395946914583 -0.0047111449113700016 0 -0.0048637473545894887 -0.0047261111881771916 0 -0.004779340547926429 -0.0048025717375775479 0 -0.0048961395946914583 -0.0047111449113700016 0 -0.0048637473545894887 -0.0047261111881771916 0 -0.0049996165020920304 -0.0043713469733283683 0 -0.0049936524842586986 -0.0045553219891747102 0 -0.0049999298798172626 -0.0043703008729185731 0 -0.0050851920606039694 -0.0044781941040878681 0 -0.0050960697356285537 -0.0044702568211799796 0 -0.0051155736054832686 -0.0044311872821142665 0 -0.0048637473545894887 -0.0047261111881771916 0 -0.0047927271930349302 -0.004751695763869474 0 -0.004779340547926429 -0.0048025717375775479 0 -0.0051513113197019537 -0.004409563372815767 0 -0.0050851920606039694 -0.0044781941040878681 0 -0.0051155736054832686 -0.0044311872821142665 0 -0.0049936524842586986 -0.0045553219891747102 0 -0.0049575655529313385 -0.0046171350062258745 0 -0.004779340547926429 -0.0048025717375775479 0 -0.0046582905888771725 -0.0049618623549558608 0 -0.00482014924313659 -0.0048288349643456178 0 -0.0047927271930349302 -0.004751695763869474 0 -0.004779340547926429 -0.0048025717375775479 0 -0.00482014924313659 -0.0048288349643456178 0 -0.0046582905888771725 -0.0049618623549558608 0 -0.0049217334940656471 -0.004967324465989003 0 -0.00482014924313659 -0.0048288349643456178 0 -0.0046270332546171347 -0.0049740317887028151 0 -0.0046685755056173218 -0.0050156025224099869 0 -0.0048963628429945826 -0.0048508447874025494 0 -0.0046582905888771725 -0.0049618623549558608 0 -0.0044772015339245939 -0.0049996843670106882 0 -0.0048963628429945826 -0.0048508447874025494 0 -0.004779340547926429 -0.0048025717375775479 0 -0.0046582905888771725 -0.0049618623549558608 0 -0.0046582905888771725 -0.0049618623549558608 0 -0.0044772015339245939 -0.0049996843670106882 0 -0.0043486014885250604 -0.0050739758016855345 0 -0.0044772015339245939 -0.0049996843670106882 0 -0.0042272768566353541 -0.0050236405697853537 0 -0.0043486014885250604 -0.0050739758016855345 0 -0.0044772015339245939 -0.0049996843670106882 0 -0.0042272768566353541 -0.0050236405697853537 0 -0.0037902879930158595 -0.0050000865031873069 0 -0.0042272768566353541 -0.0050236405697853537 0 -0.0042147045164789036 -0.0050738604550429776 0 -0.0043486014885250604 -0.0050739758016855345 0 -0.0041155508327551564 -0.0051116287440853324 0 -0.004521110675627057 -0.0050097956184841112 0 -0.004521110675627057 -0.0050097956184841112 0 -0.0046685755056173218 -0.0050156025224099869 0 -0.0051767211396767593 -0.0049768001801328392 0 -0.0049217334940656471 -0.004967324465989003 0 -0.005107141565582749 -0.0046674607617109599 0 -0.0042272768566353541 -0.0050236405697853537 0 -0.0040779626065206975 -0.0051828427643560724 0 -0.0037902879930158595 -0.0050000865031873069 0 -0.0037904340266921607 -0.0049999842503964604 0 -0.0038433949851762652 -0.0051457934245137298 0 -0.0036754423536843215 -0.0051176851343287767 0 -0.0040779626065206975 -0.0051828427643560724 0 -0.0037902879930158595 -0.0050000865031873069 0 -0.0038523263917852632 -0.0051524816717948242 0 -0.0039383127037844346 -0.005077026618449193 0 -0.0036634872410342238 -0.0051141642312811913 0 -0.0037904995000511556 -0.0050000674605608737 0 -0.0039383127037844346 -0.005077026618449193 0 -0.0044673767460098011 -0.0049671530372850407 0 -0.0043379220118678194 -0.0049480486364492432 0 -0.0043819259757532595 -0.0050557805147240118 0 -0.004521110675627057 -0.0050097956184841112 0 -0.0039383127037844346 -0.005077026618449193 0 -0.004521110675627057 -0.0050097956184841112 0 -0.0047327052243101801 -0.0048971070956433721 0 -0.0038184762269442419 -0.0051356097288694962 0 -0.0037718229622819535 -0.0052455028920508889 0 -0.0038846861618570998 -0.0052962692211570668 0 -0.0039383127037844346 -0.005077026618449193 0 -0.0047327052243101801 -0.0048971070956433721 0 -0.0038184762269442419 -0.0051356097288694962 0 -0.0037718229622819535 -0.0052455028920508889 0 -0.0036754423536843215 -0.0051176851343287767 0 -0.0051759020613204717 -0.0044206171463633372 0 -0.005169736886480104 -0.0045033057340938092 0 -0.0050906552875812552 -0.0044874537526148591 0 -0.0037718229622819535 -0.0052455028920508889 0 -0.0038846861618570998 -0.0052962692211570668 0 -0.0037556142241613024 -0.0054255970058357597 0 -0.0047327052243101801 -0.0048971070956433721 0 -0.0044052466595734426 -0.004973479638220802 0 -0.0051767211396767593 -0.0049768001801328392 0 -0.0053357535567911622 -0.0047739671497609541 0 -0.005107141565582749 -0.0046674607617109599 0 -0.0053357535567911622 -0.0047739671497609541 0 -0.0052114047140180905 -0.0045360423510008704 0 -0.005107141565582749 -0.0046674607617109599 0 -0.0047327052243101801 -0.0048971070956433721 0 -0.0053177158490556754 -0.0044601301022726197 0 -0.0051759020613204717 -0.0044206171463633372 0 -0.0052114047140180905 -0.0045360423510008704 0 -0.005169736886480104 -0.0045033057340938092 0 -0.0052114047140180905 -0.0045360423510008704 0 -0.0052120944425702717 -0.004537905545657429 0 -0.005169736886480104 -0.0045033057340938092 0 -0.0051288722383127936 -0.0045409008180713889 0 -0.0050906552875812552 -0.0044874537526148591 0 -0.0049837427244842853 -0.0045840188689191584 0 -0.005169736886480104 -0.0045033057340938092 0 -0.0051288722383127936 -0.0045409008180713889 0 -0.0050906552875812552 -0.0044874537526148591 0 -0.0052120944425702717 -0.004537905545657429 0 -0.0051288722383127936 -0.0045409008180713889 0 -0.0051598553008884874 -0.0046212027172552114 0 -0.0052120944425702717 -0.004537905545657429 0 -0.005169736886480104 -0.0045033057340938092 0 -0.0051288722383127936 -0.0045409008180713889 0 -0.0049217334940656471 -0.004967324465989003 0 -0.00482014924313659 -0.0048288349643456178 0 -0.005107141565582749 -0.0046674607617109599 0 -0.0049575655529313385 -0.0046171350062258745 0 -0.0051121539880975191 -0.0046673649064820225 0 -0.0047927271930349302 -0.004751695763869474 0 -0.00482014924313659 -0.0048288349643456178 0 -0.005107141565582749 -0.0046674607617109599 0 -0.0052114047140180905 -0.0045360423510008704 0 -0.005107141565582749 -0.0046674607617109599 0 -0.0051083324194553508 -0.0045231771664670526 0 -0.0050851920606039694 -0.0044781941040878681 0 -0.005107141565582749 -0.0046674607617109599 0 -0.0051083324194553508 -0.0045231771664670526 0 -0.0050851920606039694 -0.0044781941040878681 0 -0.0051083324194553508 -0.0045231771664670526 0 -0.0050960697356285537 -0.0044702568211799796 0 -0.0050960697356285537 -0.0044702568211799796 0 -0.0051409709680093098 -0.0044557495095354348 0 -0.0050962562077698677 -0.0044373050893716176 0 -0.0051083324194553508 -0.0045231771664670526 0 -0.0050960697356285537 -0.0044702568211799796 0 -0.0051409709680093098 -0.0044557495095354348 0 -0.0052114047140180905 -0.0045360423510008704 0 -0.0051083324194553508 -0.0045231771664670526 0 -0.0051409709680093098 -0.0044557495095354348 0 -0.0054949215330908959 -0.0037532126858435492 0 -0.0055621914433822651 -0.0037042514130376965 0 -0.005486925673488934 -0.0036641050756789674 0 -0.0053406003911133119 -0.004093540558027472 0 -0.0052472396500376599 -0.0040867910915913094 0 -0.0054949215330908959 -0.0037532126858435492 0 -0.005486925673488934 -0.0036641050756789674 0 -0.0054009716906518648 -0.0037273558522337917 0 -0.0051288722383127936 -0.0045409008180713889 0 -0.0051598553008884874 -0.0046212027172552114 0 -0.0049837427244842853 -0.0045840188689191584 0 -0.0053005962526923162 -0.004240448228432241 0 -0.0042033750619963122 -0.0049553735510268204 0 -0.0052120944425702717 -0.004537905545657429 0 -0.0051409709680093098 -0.0044557495095354348 0 -0.0052441859832267762 -0.0044923159636876308 0 -0.0053406003911133119 -0.004093540558027472 0 -0.0053005962526923162 -0.004240448228432241 0 -0.0052114047140180905 -0.0045360423510008704 0 -0.0052120944425702717 -0.004537905545657429 0 -0.0051409709680093098 -0.0044557495095354348 0 -0.0051524251662501165 -0.0045832808780661158 0 -0.0053005962526923162 -0.004240448228432241 0 -0.0054949215330908959 -0.0037532126858435492 0 -0.0055906200829204371 -0.0037833081997291377 0 -0.0055621914433822651 -0.0037042514130376965 0 -0.0053005962526923162 -0.004240448228432241 0 -0.0051630430103396727 -0.0041596891273255323 0 -0.0055906200829204371 -0.0037833081997291377 0 -0.0055621914433822651 -0.0037042514130376965 0 -0.0056519851571280606 -0.0036964279992319857 0 -0.0055621914433822651 -0.0037042514130376965 0 -0.0056259115913636429 -0.0036304892155100796 0 -0.0056519851571280606 -0.0036964279992319857 0 -0.0055621914433822651 -0.0037042514130376965 0 -0.0056259115913636429 -0.0036304892155100796 0 -0.0055592433767809313 -0.0036356128516831865 0 -0.0055621914433822651 -0.0037042514130376965 0 -0.0055592433767809313 -0.0036356128516831865 0 -0.005486925673488934 -0.0036641050756789674 0 -0.0055592433767809313 -0.0036356128516831865 0 -0.0055220842887478442 -0.0035832111911653481 0 -0.0055836563021218087 -0.0035040944720510022 0 -0.0056259115913636429 -0.0036304892155100796 0 -0.0056517725064929815 -0.003559229729831177 0 -0.0055836563021218087 -0.0035040944720510022 0 -0.0056259115913636429 -0.0036304892155100796 0 -0.0055592433767809313 -0.0036356128516831865 0 -0.0055836563021218087 -0.0035040944720510022 0 -0.005486925673488934 -0.0036641050756789674 0 -0.0054089604456835976 -0.0036428898803280685 0 -0.0054009716906518648 -0.0037273558522337917 0 -0.005486925673488934 -0.0036641050756789674 0 -0.0054671999113342692 -0.0035859301050194417 0 -0.0054089604456835976 -0.0036428898803280685 0 -0.0055592433767809313 -0.0036356128516831865 0 -0.005486925673488934 -0.0036641050756789674 0 -0.0055220842887478442 -0.0035832111911653481 0 -0.005486925673488934 -0.0036641050756789674 0 -0.0055220842887478442 -0.0035832111911653481 0 -0.0054671999113342692 -0.0035859301050194417 0 -0.0055220842887478442 -0.0035832111911653481 0 -0.0054671999113342692 -0.0035859301050194417 0 -0.0055143795703511507 -0.0035236387813841539 0 -0.0054671999113342692 -0.0035859301050194417 0 -0.0054089604456835976 -0.0036428898803280685 0 -0.0054088238579713824 -0.003562561730656453 0 -0.0054089604456835976 -0.0036428898803280685 0 -0.0053424637988292662 -0.003599640187792168 0 -0.0054088238579713824 -0.003562561730656453 0 -0.0053639542022053078 -0.0036684161067704318 0 -0.0054089604456835976 -0.0036428898803280685 0 -0.0053424637988292662 -0.003599640187792168 0 -0.0053639542022053078 -0.0036684161067704318 0 -0.0054089604456835976 -0.0036428898803280685 0 -0.0054009716906518648 -0.0037273558522337917 0 -0.005361311694538024 -0.0036590231109209174 0 -0.0052141538050986171 -0.0040490174012015592 0 -0.0053513247581914274 -0.0038010573805639428 0 -0.0052230574569083364 -0.0039136223670823414 0 -0.0052807717410136203 -0.004059670912616966 0 -0.0053639542022053078 -0.0036684161067704318 0 -0.0053424637988292662 -0.003599640187792168 0 -0.0053032823074266209 -0.0037043383441714029 0 -0.0053513247581914274 -0.0038010573805639428 0 -0.005229713958838555 -0.0038093155049481612 0 -0.0052230574569083364 -0.0039136223670823414 0 -0.005229713958838555 -0.0038093155049481612 0 -0.0051195284739379331 -0.0038741920739635786 0 -0.0051347932392415349 -0.0036625802733406569 0 -0.005229713958838555 -0.0038093155049481612 0 -0.0051195284739379331 -0.0038741920739635786 0 -0.0052230574569083364 -0.0039136223670823414 0 -0.0049999863628482034 -0.0037500535509311463 0 -0.0051195284739379331 -0.0038741920739635786 0 -0.004999984810784645 -0.0040139352971812828 0 -0.0049999863628482034 -0.0037500535509311463 0 -0.0051195284739379331 -0.0038741920739635786 0 -0.0051347932392415349 -0.0036625802733406569 0 -0.0051195284739379331 -0.0038741920739635786 0 -0.004999984810784645 -0.0040139352971812828 0 -0.0051377288051625072 -0.0040263276958205562 0 -0.0050000133172454419 -0.004014024144851195 0 -0.0051332590095557367 -0.0040615472069083607 0 -0.0051377288051625072 -0.0040263276958205562 0 -0.0052230574569083364 -0.0039136223670823414 0 -0.0052807717410136203 -0.004059670912616966 0 -0.0051195284739379331 -0.0038741920739635786 0 -0.0051377288051625072 -0.0040263276958205562 0 -0.0052230574569083364 -0.0039136223670823414 0 -0.0051332590095557367 -0.0040615472069083607 0 -0.0052141538050986171 -0.0040490174012015592 0 -0.0051463690286141523 -0.0044299272971916595 0 -0.0052141538050986171 -0.0040490174012015592 0 -0.0050922645721759091 -0.0042373755015288842 0 -0.0051640206750054266 -0.0043516694053618767 0 -0.0052515992420359425 -0.0041494581493270195 0 -0.0051153516428445985 -0.0040967868893148508 0 -0.0050922645721759091 -0.0042373755015288842 0 -0.0052515992420359425 -0.0041494581493270195 0 -0.0051153516428445985 -0.0040967868893148508 0 -0.0050922645721759091 -0.0042373755015288842 0 -0.0049999429965973015 -0.0041922040420539538 0 -0.0049999985432183126 -0.0040140605786463685 0 -0.0051153516428445985 -0.0040967868893148508 0 -0.0049999429965973015 -0.0041922040420539538 0 -0.0050922645721759091 -0.0042373755015288842 0 -0.0049999429965973015 -0.0041922040420539538 0 -0.0050000350943854993 -0.0043701835534311105 0 -0.0050922645721759091 -0.0042373755015288842 0 -0.0050000350943854993 -0.0043701835534311105 0 -0.0051640206750054266 -0.0043516694053618767 0 -0.0051513113197019537 -0.004409563372815767 0 -0.0050000350943854993 -0.0043701835534311105 0 -0.0051640206750054266 -0.0043516694053618767 0 -0.0051640206750054266 -0.0043516694053618767 0 -0.0051236796387616476 -0.0044166143243683127 0 -0.0051155736054832686 -0.0044311872821142665 0 -0.0051513113197019537 -0.004409563372815767 0 -0.0051640206750054266 -0.0043516694053618767 0 -0.0051155736054832686 -0.0044311872821142665 0 -0.0050960697356285537 -0.0044702568211799796 0 -0.0051155736054832686 -0.0044311872821142665 0 -0.0050962562077698677 -0.0044373050893716176 0 -0.0051236796387616476 -0.0044166143243683127 0 -0.0051155736054832686 -0.0044311872821142665 0 -0.0050962562077698677 -0.0044373050893716176 0 -0.0051236796387616476 -0.0044166143243683127 0 -0.0050962562077698677 -0.0044373050893716176 0 -0.0051444979763237897 -0.0044412879519983824 0 -0.0052472396500376599 -0.0040867910915913094 0 -0.0052141538050986171 -0.0040490174012015592 0 -0.0053639542022053078 -0.0036684161067704318 0 -0.0054009716906518648 -0.0037273558522337917 0 -0.0053032823074266209 -0.0037043383441714029 0 -0.0051640206750054266 -0.0043516694053618767 0 -0.0051236796387616476 -0.0044166143243683127 0 -0.0051444979763237897 -0.0044412879519983824 0 -0.002454625540486591 -0.0052283201329162022 0 -0.0024304353074083638 -0.0053115812328902246 0 -0.0023906008878413791 -0.0052359565578790112 0 -0.0025099290780238939 -0.0052970458197037018 0 -0.002454625540486591 -0.0052283201329162022 0 -0.0024304353074083638 -0.0053115812328902246 0 -0.0028235976615169573 -0.0054493437701056977 0 -0.0028248464968997156 -0.0053463872865279474 0 -0.0026599694141019549 -0.0053458009584166745 0 -0.002619667164900045 -0.0053582027898865132 0 -0.0025631931948016562 -0.0052886419193999175 0 -0.0028248464968997156 -0.0053463872865279474 0 -0.0027088788205515708 -0.0051845167755461639 0 -0.0029050544943936187 -0.0052441626619479783 0 -0.0028248464968997156 -0.0053463872865279474 0 -0.0026599694141019549 -0.0053458009584166745 0 -0.0027088788205515708 -0.0051845167755461639 0 -0.0025631931948016562 -0.0052886419193999175 0 -0.0024336813316298634 -0.0051662036116242611 0 -0.0026599694141019549 -0.0053458009584166745 0 -0.0027088788205515708 -0.0051845167755461639 0 -0.0024803875775574083 -0.0051986622280208675 0 -0.0025755670381850488 -0.005112595505033425 0 -0.0027088788205515708 -0.0051845167755461639 0 -0.0024803875775574083 -0.0051986622280208675 0 -0.0025755670381850488 -0.005112595505033425 0 -0.0025006598422908817 -0.004999973207824953 0 -0.0027586291076694531 -0.004999991611021052 0 -0.0025755670381850488 -0.005112595505033425 0 -0.0025006598422908817 -0.004999973207824953 0 -0.0024655800628406652 -0.005082612424458335 0 -0.0025755670381850488 -0.005112595505033425 0 -0.0027586291076694531 -0.004999991611021052 0 -0.0027088788205515708 -0.0051845167755461639 0 -0.0027586291076694531 -0.004999991611021052 0 -0.0027088788205515708 -0.0051845167755461639 0 -0.0028865605993743434 -0.005112749454030268 0 -0.0027088788205515708 -0.0051845167755461639 0 -0.0029050544943936187 -0.0052441626619479783 0 -0.0028865605993743434 -0.005112749454030268 0 -0.0029050544943936187 -0.0052441626619479783 0 -0.0028865605993743434 -0.005112749454030268 0 -0.0030394970594885087 -0.0051620423756535494 0 -0.0027586291076694531 -0.004999991611021052 0 -0.0028865605993743434 -0.005112749454030268 0 -0.0030165602747498797 -0.0049999875588799701 0 -0.0028865605993743434 -0.005112749454030268 0 -0.0030165602747498797 -0.0049999875588799701 0 -0.0030394970594885087 -0.0051620423756535494 0 -0.0030165602747498797 -0.0049999875588799701 0 -0.0030394970594885087 -0.0051620423756535494 0 -0.0032745138965522033 -0.0049999817112635963 0 -0.0029050544943936187 -0.0052441626619479783 0 -0.0030394970594885087 -0.0051620423756535494 0 -0.0030186002154394599 -0.0053321941787652588 0 -0.0030394970594885087 -0.0051620423756535494 0 -0.0030186002154394599 -0.0053321941787652588 0 -0.0032068092649696492 -0.0052107028829295049 0 -0.0028248464968997156 -0.0053463872865279474 0 -0.0029050544943936187 -0.0052441626619479783 0 -0.0030186002154394599 -0.0053321941787652588 0 -0.0028248464968997156 -0.0053463872865279474 0 -0.0030186002154394599 -0.0053321941787652588 0 -0.0029668640810030099 -0.0054298801976149762 0 -0.0028235976615169573 -0.0054493437701056977 0 -0.0028248464968997156 -0.0053463872865279474 0 -0.0029668640810030099 -0.0054298801976149762 0 -0.0030186002154394599 -0.0053321941787652588 0 -0.0029668640810030099 -0.0054298801976149762 0 -0.0030560989727382889 -0.0054217277737537142 0 -0.0030560989727382889 -0.0054217277737537142 0 -0.0031335387883647974 -0.0053733021676202943 0 -0.0030508206720394142 -0.0054479736216939733 0 -0.0030186002154394599 -0.0053321941787652588 0 -0.0030560989727382889 -0.0054217277737537142 0 -0.0031335387883647974 -0.0053733021676202943 0 -0.0031942606866617656 -0.0053829036541694231 0 -0.0031719102682655652 -0.0055539062363218414 0 -0.0032587186773935764 -0.0054259550890849838 0 -0.003389255512449041 -0.0055062713450532239 0 -0.00337847964949862 -0.0053470762008193898 0 -0.003389255512449041 -0.0055062713450532239 0 -0.00337847964949862 -0.0053470762008193898 0 -0.0034834880695591183 -0.0054305192829310197 0 -0.0032587186773935764 -0.0054259550890849838 0 -0.003389255512449041 -0.0055062713450532239 0 -0.0032880638141572602 -0.0056139354916961894 0 -0.0030186002154394599 -0.0053321941787652588 0 -0.0031335387883647974 -0.0053733021676202943 0 -0.0032068092649696492 -0.0052107028829295049 0 -0.0032587186773935764 -0.0054259550890849838 0 -0.00337847964949862 -0.0053470762008193898 0 -0.0032068092649696492 -0.0052107028829295049 0 -0.0031942606866617656 -0.0053829036541694231 0 -0.003203780565609206 -0.0052200841998495846 0 -0.0030394970594885087 -0.0051620423756535494 0 -0.0032068092649696492 -0.0052107028829295049 0 -0.0032745138965522033 -0.0049999817112635963 0 -0.0032068092649696492 -0.0052107028829295049 0 -0.0032745138965522033 -0.0049999817112635963 0 -0.0034102881028100513 -0.005169254992883357 0 -0.0032745138965522033 -0.0049999817112635963 0 -0.0034102881028100513 -0.005169254992883357 0 -0.0035325012691840578 -0.0049999920421082934 0 -0.00337847964949862 -0.0053470762008193898 0 -0.0034102881028100513 -0.005169254992883357 0 -0.0035111385100814302 -0.0053076363270887997 0 -0.00337847964949862 -0.0053470762008193898 0 -0.0032068092649696492 -0.0052107028829295049 0 -0.0034102881028100513 -0.005169254992883357 0 -0.0034102881028100513 -0.005169254992883357 0 -0.0035572738755850573 -0.0051772041473699178 0 -0.0035111385100814302 -0.0053076363270887997 0 -0.0035572738755850573 -0.0051772041473699178 0 -0.0036520425118310561 -0.0052859483659305137 0 -0.0035111385100814302 -0.0053076363270887997 0 -0.0035572738755850573 -0.0051772041473699178 0 -0.0035325012691840578 -0.0049999920421082934 0 -0.0036754423536843215 -0.0051176851343287767 0 -0.0034102881028100513 -0.005169254992883357 0 -0.0035572738755850573 -0.0051772041473699178 0 -0.0035325012691840578 -0.0049999920421082934 0 -0.0037904340266921607 -0.0049999842503964604 0 -0.0035325012691840578 -0.0049999920421082934 0 -0.0036754423536843215 -0.0051176851343287767 0 -0.0037718229622819535 -0.0052455028920508889 0 -0.0036754423536843215 -0.0051176851343287767 0 -0.0036520425118310561 -0.0052859483659305137 0 -0.0035572738755850573 -0.0051772041473699178 0 -0.0036754423536843215 -0.0051176851343287767 0 -0.0036520425118310561 -0.0052859483659305137 0 -0.0037556142241613024 -0.0054255970058357597 0 -0.0036520425118310561 -0.0052859483659305137 0 -0.0036101487992610511 -0.0054196358097581198 0 -0.0037718229622819535 -0.0052455028920508889 0 -0.0037556142241613024 -0.0054255970058357597 0 -0.0036520425118310561 -0.0052859483659305137 0 -0.0036520425118310561 -0.0052859483659305137 0 -0.0035111385100814302 -0.0053076363270887997 0 -0.0036101487992610511 -0.0054196358097581198 0 -0.00337847964949862 -0.0053470762008193898 0 -0.0035111385100814302 -0.0053076363270887997 0 -0.0034834880695591183 -0.0054305192829310197 0 -0.0035111385100814302 -0.0053076363270887997 0 -0.0034834880695591183 -0.0054305192829310197 0 -0.0036101487992610511 -0.0054196358097581198 0 -0.003546013189665818 -0.0054724052286712899 0 -0.0034834880695591183 -0.0054305192829310197 0 -0.0036101487992610511 -0.0054196358097581198 0 -0.003546013189665818 -0.0054724052286712899 0 -0.0034834880695591183 -0.0054305192829310197 0 -0.0034828040000214867 -0.0055033141324519535 0 -0.003389255512449041 -0.0055062713450532239 0 -0.0034828040000214867 -0.0055033141324519535 0 -0.0034564623696213622 -0.0055688988859230668 0 -0.0034828040000214867 -0.0055033141324519535 0 -0.0035541611119548856 -0.0055337884622745663 0 -0.0034564623696213622 -0.0055688988859230668 0 -0.003389255512449041 -0.0055062713450532239 0 -0.0034834880695591183 -0.0054305192829310197 0 -0.0034828040000214867 -0.0055033141324519535 0 -0.003546013189665818 -0.0054724052286712899 0 -0.0034828040000214867 -0.0055033141324519535 0 -0.0035541611119548856 -0.0055337884622745663 0 -0.003546013189665818 -0.0054724052286712899 0 -0.0035541611119548856 -0.0055337884622745663 0 -0.0036229372809404841 -0.0055516170159106296 0 -0.0037307678145887427 -0.0051350611737865284 0 -0.0042033750619963122 -0.0049553735510268204 0 -0.003546013189665818 -0.0054724052286712899 0 -0.0036101487992610511 -0.0054196358097581198 0 -0.0036229372809404841 -0.0055516170159106296 0 -0.0044052466595734426 -0.004973479638220802 0 -0.0042033750619963122 -0.0049553735510268204 0 -0.0037556142241613024 -0.0054255970058357597 0 -0.0036101487992610511 -0.0054196358097581198 0 -0.0036229372809404841 -0.0055516170159106296 0 -0.0048901979294286718 -0.0042879780628752974 0 -0.0044399393506965772 -0.0041761116335747705 0 -0.004596341632488986 -0.0046947347524346076 0 -0.0035541611119548856 -0.0055337884622745663 0 -0.0036143196222759065 -0.0055472164631195859 0 -0.0034643728982827276 -0.0056811122205115919 0 -0.0042033750619963122 -0.0049553735510268204 0 -0.0038119372315994588 -0.0050856822642854019 0 -0.0035541611119548856 -0.0055337884622745663 0 -0.0034564623696213622 -0.0055688988859230668 0 -0.0034643728982827276 -0.0056811122205115919 0 -0.0041247254408788257 -0.0044975140745404799 0 -0.004596341632488986 -0.0046947347524346076 0 -0.0042829586173009958 -0.0048118183554804695 0 -0.0044399393506965772 -0.0041761116335747705 0 -0.0041247254408788257 -0.0044975140745404799 0 -0.004596341632488986 -0.0046947347524346076 0 -0.0051630430103396727 -0.0041596891273255323 0 -0.0047366784222778111 -0.0042956196358402664 0 -0.004596341632488986 -0.0046947347524346076 0 -0.0043031554658225077 -0.0051012228596830911 0 -0.0042829586173009958 -0.0048118183554804695 0 -0.0056259115913636429 -0.0036304892155100796 0 -0.0056519851571280606 -0.0036964279992319857 0 -0.0057114121138196932 -0.0036086885568188116 0 -0.0056259115913636429 -0.0036304892155100796 0 -0.0056517725064929815 -0.003559229729831177 0 -0.0057114121138196932 -0.0036086885568188116 0 -0.0057098110778391453 -0.0035266351159945098 0 -0.0047366784222778111 -0.0042956196358402664 0 -0.0047366784222778111 -0.0042956196358402664 0 -0.0042742174336698772 -0.0043308039301567704 0 -0.0029890063151942637 -0.0050957018514017315 0 -0.0030166925502696472 -0.0051236026584677713 0 -0.0030360547627589145 -0.0050891951709956754 0 -0.0029890063151942637 -0.0050957018514017315 0 -0.0030360547627589145 -0.0050891951709956754 0 -0.0030103266348710349 -0.0050377158397160345 0 -0.0047366784222778111 -0.0042956196358402664 0 -0.0034898373241190931 -0.0049706488881631926 0 -0.0041247254408788257 -0.0044975140745404799 0 -0.0042829586173009958 -0.0048118183554804695 0 -0.0040548076982746028 -0.0049624561290715265 0 -0.0043031554658225077 -0.0051012228596830911 0 -0.0042829586173009958 -0.0048118183554804695 0 -0.0040548076982746028 -0.0049624561290715265 0 -0.0041247254408788257 -0.0044975140745404799 0 -0.003806124260231547 -0.0048214649019167801 0 -0.0040548076982746028 -0.0049624561290715265 0 -0.0030432933246678359 -0.0051427936843858749 0 -0.0030425149775329475 -0.0051255256892926045 0 -0.0030166925502696472 -0.0051236026584677713 0 -0.0032764761747014698 -0.0051995623600955988 0 -0.0034898373241190931 -0.0049706488881631926 0 -0.0030425149775329475 -0.0051255256892926045 0 -0.0030166925502696472 -0.0051236026584677713 0 -0.0030360547627589145 -0.0050891951709956754 0 -0.0030360547627589145 -0.0050891951709956754 0 -0.0030619529787694905 -0.0051406801230546697 0 -0.0030674108887659185 -0.0050562012401189314 0 -0.0030619529787694905 -0.0051406801230546697 0 -0.0031462668418138638 -0.0051211660116011271 0 -0.0030674108887659185 -0.0050562012401189314 0 -0.0030425149775329475 -0.0051255256892926045 0 -0.0030360547627589145 -0.0050891951709956754 0 -0.0030619529787694905 -0.0051406801230546697 0 -0.0030619529787694905 -0.0051406801230546697 0 -0.0030416858981993622 -0.0052562564181410122 0 -0.0031068970717246505 -0.005200468022647787 0 -0.0032764761747014698 -0.0051995623600955988 0 -0.0030105285006350293 -0.0051961027633088321 0 -0.0029316522835503081 -0.0052555606922831261 0 -0.0030619529787694905 -0.0051406801230546697 0 -0.002977960467132237 -0.0052396499823320966 0 -0.0030619529787694905 -0.0051406801230546697 0 -0.002977960467132237 -0.0052396499823320966 0 -0.0030416858981993622 -0.0052562564181410122 0 -0.0030432933246678359 -0.0051427936843858749 0 -0.0030425149775329475 -0.0051255256892926045 0 -0.0030619529787694905 -0.0051406801230546697 0 -0.0029316522835503081 -0.0052555606922831261 0 -0.002977960467132237 -0.0052396499823320966 0 -0.002980031664249426 -0.0052856624822901445 0 -0.0031162459838772905 -0.005327562951888706 0 -0.0031460307639001317 -0.0054040494166399987 0 -0.002977960467132237 -0.0052396499823320966 0 -0.0029773823113601393 -0.0052795550845710472 0 -0.0030416858981993622 -0.0052562564181410122 0 -0.0032764761747014698 -0.0051995623600955988 0 -0.0031460307639001317 -0.0054040494166399987 0 -0.0030416858981993622 -0.0052562564181410122 0 -0.0030487926487493709 -0.0053308478845729744 0 -0.0031052712717875809 -0.005286537195583715 0 -0.0029773823113601393 -0.0052795550845710472 0 -0.0030416858981993622 -0.0052562564181410122 0 -0.0030487926487493709 -0.0053308478845729744 0 -0.0031460307639001317 -0.0054040494166399987 0 -0.0031719102682655652 -0.0055539062363218414 0 -0.0030487926487493709 -0.0053308478845729744 0 -0.0030508206720394142 -0.0054479736216939733 0 -0.0030745476133001836 -0.0053738981944541301 0 -0.003003147045601872 -0.0053045233356805686 0 -0.0030487926487493709 -0.0053308478845729744 0 -0.0030508206720394142 -0.0054479736216939733 0 -0.0033011696050329943 -0.0057850204905635994 0 -0.0033541861027031861 -0.0056998951585327078 0 -0.0032880638141572602 -0.0056139354916961894 0 -0.0031460307639001317 -0.0054040494166399987 0 -0.0030185840243374435 -0.0053188484151946392 0 -0.0033322050734250755 -0.0058032716083882066 0 -0.0033011696050329943 -0.0057850204905635994 0 -0.0033541861027031861 -0.0056998951585327078 0 -0.0034643728982827276 -0.0056811122205115919 0 -0.0033322050734250755 -0.0058032716083882066 0 -0.0033541861027031861 -0.0056998951585327078 0 -0.0038119372315994588 -0.0050856822642854019 0 -0.0032764761747014698 -0.0051995623600955988 0 -0.0034643728982827276 -0.0056811122205115919 0 -0.0033541861027031861 -0.0056998951585327078 0 -0.0033920683859684901 -0.0056156562486279274 0 -0.0033541861027031861 -0.0056998951585327078 0 -0.0033920683859684901 -0.0056156562486279274 0 -0.0032880638141572602 -0.0056139354916961894 0 -0.0034564623696213622 -0.0055688988859230668 0 -0.0034643728982827276 -0.0056811122205115919 0 -0.0033920683859684901 -0.0056156562486279274 0 -0.003389255512449041 -0.0055062713450532239 0 -0.0034564623696213622 -0.0055688988859230668 0 -0.0033920683859684901 -0.0056156562486279274 0 -0.003389255512449041 -0.0055062713450532239 0 -0.0033920683859684901 -0.0056156562486279274 0 -0.0032880638141572602 -0.0056139354916961894 0 -0.0030560989727382889 -0.0054217277737537142 0 -0.0030508206720394142 -0.0054479736216939733 0 -0.0030696743680637901 -0.0054437356990793594 0 -0.0030508206720394142 -0.0054479736216939733 0 -0.0030696743680637901 -0.0054437356990793594 0 -0.0030745476133001836 -0.0053738981944541301 0 -0.0029668640810030099 -0.0054298801976149762 0 -0.0030696743680637901 -0.0054437356990793594 0 -0.0029437847541035462 -0.0055215218320378272 0 -0.0029668640810030099 -0.0054298801976149762 0 -0.0030560989727382889 -0.0054217277737537142 0 -0.0030696743680637901 -0.0054437356990793594 0 -0.0028235976615169573 -0.0054493437701056977 0 -0.0029668640810030099 -0.0054298801976149762 0 -0.0029437847541035462 -0.0055215218320378272 0 -0.002619667164900045 -0.0053582027898865132 0 -0.0030736717692195158 -0.0054160503349062732 0 -0.003214733519823845 -0.0053529312926102468 0 -0.0032250295965380684 -0.0053385643442783659 0 -0.0032150219333783375 -0.0053169828047360838 0 -0.0032211501851994923 -0.0053587346374213054 0 -0.003214733519823845 -0.0053529312926102468 0 -0.0032250295965380684 -0.0053385643442783659 0 -0.0030736717692195158 -0.0054160503349062732 0 -0.0030923020799312902 -0.0054175651466641175 0 -0.0032211501851994923 -0.0053587346374213054 0 -0.0032250295965380684 -0.0053385643442783659 0 -0.003248013201762141 -0.0053213978063344092 0 -0.003248013201762141 -0.0053213978063344092 0 -0.003234949301286952 -0.005278504167528719 0 -0.0032793180263349761 -0.0052619426197413818 0 -0.0032250295965380684 -0.0053385643442783659 0 -0.003248013201762141 -0.0053213978063344092 0 -0.0032150219333783375 -0.0053169828047360838 0 -0.003248013201762141 -0.0053213978063344092 0 -0.003234949301286952 -0.005278504167528719 0 -0.0032150219333783375 -0.0053169828047360838 0 -0.003214733519823845 -0.0053529312926102468 0 -0.0032150219333783375 -0.0053169828047360838 0 -0.00316452147484832 -0.005334962435626988 0 -0.003234949301286952 -0.005278504167528719 0 -0.0032150219333783375 -0.0053169828047360838 0 -0.0031981834617803725 -0.0052737383792767654 0 -0.0032150219333783375 -0.0053169828047360838 0 -0.00316452147484832 -0.005334962435626988 0 -0.0031981834617803725 -0.0052737383792767654 0 -0.0030677365360203346 -0.0054499110616930456 0 -0.0030736717692195158 -0.0054160503349062732 0 -0.0030696743680637901 -0.0054437356990793594 0 -0.003214733519823845 -0.0053529312926102468 0 -0.00316452147484832 -0.005334962435626988 0 -0.0030696743680637901 -0.0054437356990793594 0 -0.0032302051522704943 -0.0053728922424386609 0 -0.003214733519823845 -0.0053529312926102468 0 -0.0031534616141445345 -0.0052932685613137883 0 -0.00316452147484832 -0.005334962435626988 0 -0.0031981834617803725 -0.0052737383792767654 0 -0.0031534616141445345 -0.0052932685613137883 0 -0.00316452147484832 -0.005334962435626988 0 -0.0031171093745240483 -0.0053435474934191499 0 -0.0030696743680637901 -0.0054437356990793594 0 -0.00316452147484832 -0.005334962435626988 0 -0.0031171093745240483 -0.0053435474934191499 0 -0.0030696743680637901 -0.0054437356990793594 0 -0.0030745476133001836 -0.0053738981944541301 0 -0.0031171093745240483 -0.0053435474934191499 0 -0.0030487926487493709 -0.0053308478845729744 0 -0.0030745476133001836 -0.0053738981944541301 0 -0.0031052712717875809 -0.005286537195583715 0 -0.0030745476133001836 -0.0053738981944541301 0 -0.0031171093745240483 -0.0053435474934191499 0 -0.0031052712717875809 -0.005286537195583715 0 -0.0031534616141445345 -0.0052932685613137883 0 -0.0031171093745240483 -0.0053435474934191499 0 -0.0031052712717875809 -0.005286537195583715 0 -0.0030416858981993622 -0.0052562564181410122 0 -0.0031052712717875809 -0.005286537195583715 0 -0.0031068970717246505 -0.005200468022647787 0 -0.0031052712717875809 -0.005286537195583715 0 -0.0031618489021772661 -0.005221471808448749 0 -0.0031068970717246505 -0.005200468022647787 0 -0.0031534616141445345 -0.0052932685613137883 0 -0.0031052712717875809 -0.005286537195583715 0 -0.0031618489021772661 -0.005221471808448749 0 -0.0031534616141445345 -0.0052932685613137883 0 -0.0031618489021772661 -0.005221471808448749 0 -0.0031981834617803725 -0.0052737383792767654 0 -0.0031618489021772661 -0.005221471808448749 0 -0.0031068970717246505 -0.005200468022647787 0 -0.0031462668418138638 -0.0051211660116011271 0 -0.0030619529787694905 -0.0051406801230546697 0 -0.0031068970717246505 -0.005200468022647787 0 -0.0031462668418138638 -0.0051211660116011271 0 -0.0031462668418138638 -0.0051211660116011271 0 -0.0032285269552692732 -0.0052014835322424261 0 -0.0032586587730900349 -0.0050676027002796772 0 -0.0031618489021772661 -0.005221471808448749 0 -0.0031462668418138638 -0.0051211660116011271 0 -0.0032285269552692732 -0.0052014835322424261 0 -0.0031618489021772661 -0.005221471808448749 0 -0.0032285269552692732 -0.0052014835322424261 0 -0.0031981834617803725 -0.0052737383792767654 0 -0.003234949301286952 -0.005278504167528719 0 -0.0032285269552692732 -0.0052014835322424261 0 -0.0031981834617803725 -0.0052737383792767654 0 -0.003234949301286952 -0.005278504167528719 0 -0.0032285269552692732 -0.0052014835322424261 0 -0.0032793180263349761 -0.0052619426197413818 0 -0.0032793180263349761 -0.0052619426197413818 0 -0.0033138669816924304 -0.0051930087395080518 0 -0.0033552331381637708 -0.005308746188081144 0 -0.0020643560382617998 -0.004536689384569339 0 -0.0021099430434304211 -0.0048999170240797939 0 -0.0032285269552692732 -0.0052014835322424261 0 -0.0032793180263349761 -0.0052619426197413818 0 -0.0033138669816924304 -0.0051930087395080518 0 -0.0020643560382617998 -0.004536689384569339 0 -0.0023548054723413242 -0.0039272238360181753 0 -0.0032285269552692732 -0.0052014835322424261 0 -0.0033138669816924304 -0.0051930087395080518 0 -0.0032586587730900349 -0.0050676027002796772 0 -0.00084612536996694486 -0.0038412723197463697 0 -0.00086965574169271928 -0.0038632311236803433 0 -0.00088173205451993575 -0.0038660453399497487 0 -0.00084612536996694486 -0.0038412723197463697 0 -0.00083559189952624635 -0.0038653918420530511 0 -0.00081415318682252628 -0.0038555285072858778 0 -0.00084612536996694486 -0.0038412723197463697 0 -0.00083559189952624635 -0.0038653918420530511 0 -0.00086965574169271928 -0.0038632311236803433 0 -0.00083559189952624635 -0.0038653918420530511 0 -0.00086965574169271928 -0.0038632311236803433 0 -0.00085957544289031915 -0.0038702475657449529 0 -0.0016926555173636384 -0.0036952851776348348 0 -0.0023548054723413242 -0.0039272238360181753 0 -0.00081415318682252628 -0.0038555285072858778 0 -0.00079198976078503739 -0.0038708151633342425 0 -0.00077893061650661859 -0.0038599694686781666 0 -0.00083559189952624635 -0.0038653918420530511 0 -0.00081415318682252628 -0.0038555285072858778 0 -0.00079198976078503739 -0.0038708151633342425 0 -0.00081415318682252628 -0.0038555285072858778 0 -0.0008089174152558458 -0.0038416879154853419 0 -0.00077893061650661859 -0.0038599694686781666 0 -0.0008089174152558458 -0.0038416879154853419 0 -0.00077132573721992704 -0.0038486704063617904 0 -0.00077893061650661859 -0.0038599694686781666 0 -0.00084612536996694486 -0.0038412723197463697 0 -0.0008089174152558458 -0.0038416879154853419 0 -0.00082827789456560224 -0.0038117610720828994 0 -0.0008089174152558458 -0.0038416879154853419 0 -0.00082827789456560224 -0.0038117610720828994 0 -0.00077147254795583819 -0.0038225541487479794 0 -0.00084612536996694486 -0.0038412723197463697 0 -0.00081415318682252628 -0.0038555285072858778 0 -0.0008089174152558458 -0.0038416879154853419 0 -0.002120132285652802 -0.0052540834551569058 0 -0.0020781555927339205 -0.0051968019183113237 0 -0.0020239644539781685 -0.0052788599827672048 0 -0.0021099430434304211 -0.0048999170240797939 0 -0.0012879905474815286 -0.0045429221473942656 0 -0.0032211501851994923 -0.0053587346374213054 0 -0.003248013201762141 -0.0053213978063344092 0 -0.0033552331381637708 -0.005308746188081144 0 -0.003248013201762141 -0.0053213978063344092 0 -0.0032793180263349761 -0.0052619426197413818 0 -0.0033552331381637708 -0.005308746188081144 0 -0.0025697597831788564 -0.0053691946227722746 0 -0.0024659506927081757 -0.0053884331963758728 0 -0.0024983177346862206 -0.0053444716193712409 0 -0.0030736717692195158 -0.0054160503349062732 0 -0.0021099430434304211 -0.0048999170240797939 0 -0.0025099290780238939 -0.0052970458197037018 0 -0.0024983177346862206 -0.0053444716193712409 0 -0.0024304353074083638 -0.0053115812328902246 0 -0.0025099290780238939 -0.0052970458197037018 0 -0.0025697597831788564 -0.0053691946227722746 0 -0.0024983177346862206 -0.0053444716193712409 0 -0.0021099430434304211 -0.0048999170240797939 0 -0.0023002029163002795 -0.0053370089257950056 0 -0.0024659506927081757 -0.0053884331963758728 0 -0.0024983177346862206 -0.0053444716193712409 0 -0.0024304353074083638 -0.0053115812328902246 0 -0.002120132285652802 -0.0052540834551569058 0 -0.0020892612418770135 -0.0051845212158068525 0 -0.0020781555927339205 -0.0051968019183113237 0 -0.00084607766187173048 -0.0035082894520378481 0 -0.00087452627985641618 -0.0034933604355358739 0 -0.00085472791769919821 -0.0035408122783721725 0 -0.00084607766187173048 -0.0035082894520378481 0 -0.00087452627985641618 -0.0034933604355358739 0 -0.00082969262760133444 -0.0034866005181494108 0 -0.0010385750161674505 -0.0036497141814552576 0 -0.0010815456107210197 -0.0031193179477030674 0 -0.00084607766187173048 -0.0035082894520378481 0 -0.00082969262760133444 -0.0034866005181494108 0 -0.00081925249305493815 -0.0035121686060514143 0 -0.00084607766187173048 -0.0035082894520378481 0 -0.00085472791769919821 -0.0035408122783721725 0 -0.00081925249305493815 -0.0035121686060514143 0 -0.0010815456107210197 -0.0031193179477030674 0 -0.00052270877340418898 -0.0035124926883110192 0 -0.00027751178043600736 -0.0034402790044446865 0 -0.00010709996965249024 -0.0033979401937311539 0 -0.00028655778357192425 -0.0035818805693454366 0 -0.001508982270672633 -0.0031507669412668259 0 -0.0015287005551289021 -0.0032009512992981146 0 -0.0015545139937809085 -0.0031352987168704401 0 -0.001508982270672633 -0.0031507669412668259 0 -0.0015287005551289021 -0.0032009512992981146 0 -0.0014471310909064926 -0.0031869363185891815 0 -0.00084275506717616311 -0.0040031332671490909 0 -0.00081765965933572988 -0.0039707502872115292 0 -0.00086487933515011169 -0.0039523825958343167 0 -0.00088080298961389059 -0.0039939916521440234 0 -0.00090187214392757381 -0.0039422656986059044 0 -0.00092845401046889647 -0.0039816520628701887 0 -0.0010385750161674505 -0.0036497141814552576 0 -0.0008594719484607624 -0.0040076585478780579 0 -0.00090187214392757381 -0.0039422656986059044 0 -0.00093027469406353292 -0.003942857336492217 0 -0.00092845401046889647 -0.0039816520628701887 0 -0.0010385750161674505 -0.0036497141814552576 0 -0.00079778922663983356 -0.0037374844325713404 0 -0.00084275506717616311 -0.0040031332671490909 0 -0.00081765965933572988 -0.0039707502872115292 0 -0.00078230276337184677 -0.0039961715182588176 0 -0.00081765965933572988 -0.0039707502872115292 0 -0.00080715752359974751 -0.0039321891809615253 0 -0.00076178589437453479 -0.00394899608787518 0 -0.00081765965933572988 -0.0039707502872115292 0 -0.00078230276337184677 -0.0039961715182588176 0 -0.00076178589437453479 -0.00394899608787518 0 -0.00080715752359974751 -0.0039321891809615253 0 -0.00075950675022207865 -0.0039115473759187801 0 -0.00076178589437453479 -0.00394899608787518 0 -0.00080715752359974751 -0.0039321891809615253 0 -0.00079169232349304266 -0.0039044958309426741 0 -0.00083627894303013627 -0.0039099681970337571 0 -0.00080715752359974751 -0.0039321891809615253 0 -0.00079169232349304266 -0.0039044958309426741 0 -0.00075950675022207865 -0.0039115473759187801 0 -0.00079169232349304266 -0.0039044958309426741 0 -0.00076507751105380775 -0.0038871322296403828 0 -0.00075950675022207865 -0.0039115473759187801 0 -0.00079169232349304266 -0.0039044958309426741 0 -0.00081225979819699132 -0.0038865630729856405 0 -0.00076507751105380775 -0.0038871322296403828 0 -0.00079169232349304266 -0.0039044958309426741 0 -0.00081225979819699132 -0.0038865630729856405 0 -0.00083627894303013627 -0.0039099681970337571 0 -0.00083559189952624635 -0.0038653918420530511 0 -0.00081225979819699132 -0.0038865630729856405 0 -0.00079198976078503739 -0.0038708151633342425 0 -0.00081225979819699132 -0.0038865630729856405 0 -0.00079198976078503739 -0.0038708151633342425 0 -0.00076507751105380775 -0.0038871322296403828 0 -0.00085957544289031915 -0.0038702475657449529 0 -0.0008545200332708507 -0.0038841150894825408 0 -0.00088695910359679346 -0.0038635915197219269 0 -0.00086965574169271928 -0.0038632311236803433 0 -0.00085957544289031915 -0.0038702475657449529 0 -0.00088695910359679346 -0.0038635915197219269 0 -0.00083559189952624635 -0.0038653918420530511 0 -0.00085957544289031915 -0.0038702475657449529 0 -0.0008545200332708507 -0.0038841150894825408 0 -0.00083559189952624635 -0.0038653918420530511 0 -0.00081225979819699132 -0.0038865630729856405 0 -0.0008545200332708507 -0.0038841150894825408 0 -0.00081225979819699132 -0.0038865630729856405 0 -0.0008545200332708507 -0.0038841150894825408 0 -0.00083627894303013627 -0.0039099681970337571 0 -0.0008545200332708507 -0.0038841150894825408 0 -0.00083627894303013627 -0.0039099681970337571 0 -0.00089978295023541467 -0.0039009574091803849 0 -0.0008545200332708507 -0.0038841150894825408 0 -0.00089978295023541467 -0.0039009574091803849 0 -0.00088695910359679346 -0.0038635915197219269 0 -0.0008594719484607624 -0.0040076585478780579 0 -0.00090703629525918153 -0.0038841338940271333 0 -0.00083627894303013627 -0.0039099681970337571 0 -0.00086487933515011169 -0.0039523825958343167 0 -0.00089978295023541467 -0.0039009574091803849 0 -0.00090187214392757381 -0.0039422656986059044 0 -0.00093027469406353292 -0.003942857336492217 0 -0.00089978295023541467 -0.0039009574091803849 0 -0.00080715752359974751 -0.0039321891809615253 0 -0.00083627894303013627 -0.0039099681970337571 0 -0.00086487933515011169 -0.0039523825958343167 0 -0.00081765965933572988 -0.0039707502872115292 0 -0.00080715752359974751 -0.0039321891809615253 0 -0.00086487933515011169 -0.0039523825958343167 0 -0.00093027469406353292 -0.003942857336492217 0 -0.00095946964825898015 -0.0039271074131458448 0 -0.00089978295023541467 -0.0039009574091803849 0 -0.0023548054723413242 -0.0039272238360181753 0 -0.0033224787360135477 -0.0041340688129720467 0 -0.0019670108073407597 -0.003478861527275676 0 -0.0023548054723413242 -0.0039272238360181753 0 -0.00095946964825898015 -0.0039271074131458448 0 -0.00089978295023541467 -0.0039009574091803849 0 -0.00088695910359679346 -0.0038635915197219269 0 -0.0031462668418138638 -0.0051211660116011271 0 -0.0032586587730900349 -0.0050676027002796772 0 -0.0031358200587813059 -0.0050062515942127586 0 -0.0031884959337173105 -0.0032686163951637769 0 -0.0030309005699022959 -0.0029578113706769864 0 -0.0033566222153761458 -0.0031114944130531987 0 -0.0031462668418138638 -0.0051211660116011271 0 -0.0031358200587813059 -0.0050062515942127586 0 -0.0030674108887659185 -0.0050562012401189314 0 -0.0033566222153761458 -0.0031114944130531987 0 -0.0033441233380409733 -0.003257545177417491 0 -0.0034894662259161748 -0.0033033049082067706 0 -0.0031884959337173105 -0.0032686163951637769 0 -0.0033566222153761458 -0.0031114944130531987 0 -0.0033441233380409733 -0.003257545177417491 0 -0.0031884959337173105 -0.0032686163951637769 0 -0.0033441233380409733 -0.003257545177417491 0 -0.0033869759221080362 -0.0033908674166162438 0 -0.0033441233380409733 -0.003257545177417491 0 -0.0033869759221080362 -0.0033908674166162438 0 -0.0034894662259161748 -0.0033033049082067706 0 -0.0031884959337173105 -0.0032686163951637769 0 -0.0033869759221080362 -0.0033908674166162438 0 -0.0033420479894390905 -0.0036104363300456816 0 -0.0033869759221080362 -0.0033908674166162438 0 -0.0034390986898846935 -0.0035187264480016035 0 -0.0033420479894390905 -0.0036104363300456816 0 -0.0019670108073407597 -0.003478861527275676 0 -0.0024179890757736076 -0.0037990839307159643 0 -0.0033869759221080362 -0.0033908674166162438 0 -0.0034390986898846935 -0.0035187264480016035 0 -0.0035185688398486005 -0.0034243478003730897 0 -0.00095946964825898015 -0.0039271074131458448 0 -0.00096210870970953868 -0.0039711239076913509 0 -0.0010280217619310576 -0.0040144230856093508 0 -0.00088080298961389059 -0.0039939916521440234 0 -0.00092845401046889647 -0.0039816520628701887 0 -0.00097683798047574827 -0.0040111782393739276 0 -0.00093027469406353292 -0.003942857336492217 0 -0.00095946964825898015 -0.0039271074131458448 0 -0.00096210870970953868 -0.0039711239076913509 0 -0.00093027469406353292 -0.003942857336492217 0 -0.00096210870970953868 -0.0039711239076913509 0 -0.00092845401046889647 -0.0039816520628701887 0 -0.00092845401046889647 -0.0039816520628701887 0 -0.00095981904922454468 -0.0039900813416870228 0 -0.00097683798047574827 -0.0040111782393739276 0 -0.00096210870970953868 -0.0039711239076913509 0 -0.00092845401046889647 -0.0039816520628701887 0 -0.00095981904922454468 -0.0039900813416870228 0 -0.00096210870970953868 -0.0039711239076913509 0 -0.00098045803779408082 -0.004001949771990379 0 -0.0010280217619310576 -0.0040144230856093508 0 -0.00096210870970953868 -0.0039711239076913509 0 -0.00095981904922454468 -0.0039900813416870228 0 -0.00098045803779408082 -0.004001949771990379 0 -0.0015108334516693556 -0.0034724636418949394 0 -0.0020414916558752151 -0.0026099876046319494 0 -0.002361777407612173 -0.003091617290711625 0 -0.0024018371433341006 -0.0030972353926778723 0 -0.0023452099007392297 -0.0031695992593587046 0 -0.001508982270672633 -0.0031507669412668259 0 -0.0014471310909064926 -0.0031869363185891815 0 -0.0014669221253340509 -0.0031059964851163817 0 -0.0010385750161674505 -0.0036497141814552576 0 -0.0015108334516693556 -0.0034724636418949394 0 -0.0015108334516693556 -0.0034724636418949394 0 -0.0014612416698671848 -0.0035918815249549622 0 -0.00095981904922454468 -0.0039900813416870228 0 -0.00097683798047574827 -0.0040111782393739276 0 -0.00098045803779408082 -0.004001949771990379 0 -0.0033855341747988945 -0.0036181318869016391 0 -0.0033379745712373596 -0.0036108769150083788 0 -0.0034979313704457293 -0.0039607134702767345 0 -0.0034390986898846935 -0.0035187264480016035 0 -0.0033855341747988945 -0.0036181318869016391 0 -0.003506317269930205 -0.0036025816238881569 0 -0.0027060575959047782 -0.0038124491625657862 0 -0.0024179890757736076 -0.0037990839307159643 0 -0.0034390986898846935 -0.0035187264480016035 0 -0.0033855341747988945 -0.0036181318869016391 0 -0.0033420479894390905 -0.0036104363300456816 0 -0.00097920547176099065 -0.0040114412650278149 0 -0.00098045803779408082 -0.004001949771990379 0 -0.0010280217619310576 -0.0040144230856093508 0 -0.0015108334516693556 -0.0034724636418949394 0 -0.0024179890757736076 -0.0037990839307159643 0 -0.0033855341747988945 -0.0036181318869016391 0 -0.0035506481621650631 -0.0037151679806258103 0 -0.0034979313704457293 -0.0039607134702767345 0 -0.0036030495404214382 -0.0036260205861481571 0 -0.0037256371062705596 -0.0034989349234219769 0 -0.0035554212122156431 -0.0035376699914257833 0 -0.0036030495404214382 -0.0036260205861481571 0 -0.0037002597216648815 -0.0036811563033695301 0 -0.0037256371062705596 -0.0034989349234219769 0 -0.0036030495404214382 -0.0036260205861481571 0 -0.003506317269930205 -0.0036025816238881569 0 -0.0035554212122156431 -0.0035376699914257833 0 -0.0033855341747988945 -0.0036181318869016391 0 -0.003506317269930205 -0.0036025816238881569 0 -0.0035506481621650631 -0.0037151679806258103 0 -0.0034390986898846935 -0.0035187264480016035 0 -0.003506317269930205 -0.0036025816238881569 0 -0.0035554212122156431 -0.0035376699914257833 0 -0.0036030495404214382 -0.0036260205861481571 0 -0.003506317269930205 -0.0036025816238881569 0 -0.0035506481621650631 -0.0037151679806258103 0 -0.0036030495404214382 -0.0036260205861481571 0 -0.0035506481621650631 -0.0037151679806258103 0 -0.0037002597216648815 -0.0036811563033695301 0 -0.0035506481621650631 -0.0037151679806258103 0 -0.0037002597216648815 -0.0036811563033695301 0 -0.0036691448527922032 -0.0038229485283921604 0 -0.0037002597216648815 -0.0036811563033695301 0 -0.0038248444126566068 -0.0037841759471948532 0 -0.0036691448527922032 -0.0038229485283921604 0 -0.0037002597216648815 -0.0036811563033695301 0 -0.0038773636071491135 -0.003637520326725019 0 -0.0038248444126566068 -0.0037841759471948532 0 -0.0038773636071491135 -0.003637520326725019 0 -0.0040051613088085344 -0.0037826467877374276 0 -0.0038248444126566068 -0.0037841759471948532 0 -0.0037002597216648815 -0.0036811563033695301 0 -0.0038773636071491135 -0.003637520326725019 0 -0.0037256371062705596 -0.0034989349234219769 0 -0.0037256371062705596 -0.0034989349234219769 0 -0.0037167096053849656 -0.0032481431484823729 0 -0.0041168881694560967 -0.0034418804411824174 0 -0.0038773636071491135 -0.003637520326725019 0 -0.0037256371062705596 -0.0034989349234219769 0 -0.0041168881694560967 -0.0034418804411824174 0 -0.0038654675996989758 -0.0037700473828515203 0 -0.0049618165175077111 -0.0034155265226148953 0 -0.0037256371062705596 -0.0034989349234219769 0 -0.003629926948759092 -0.0033679840617692352 0 -0.0037167096053849656 -0.0032481431484823729 0 -0.003629926948759092 -0.0033679840617692352 0 -0.003606633716851828 -0.0034569354683945258 0 -0.0035185688398486005 -0.0034243478003730897 0 -0.0037256371062705596 -0.0034989349234219769 0 -0.003629926948759092 -0.0033679840617692352 0 -0.003606633716851828 -0.0034569354683945258 0 -0.0037256371062705596 -0.0034989349234219769 0 -0.003606633716851828 -0.0034569354683945258 0 -0.0035554212122156431 -0.0035376699914257833 0 -0.003606633716851828 -0.0034569354683945258 0 -0.0035554212122156431 -0.0035376699914257833 0 -0.0035185688398486005 -0.0034243478003730897 0 -0.0034390986898846935 -0.0035187264480016035 0 -0.0035554212122156431 -0.0035376699914257833 0 -0.0035185688398486005 -0.0034243478003730897 0 -0.0033869759221080362 -0.0033908674166162438 0 -0.0035185688398486005 -0.0034243478003730897 0 -0.0034894662259161748 -0.0033033049082067706 0 -0.003629926948759092 -0.0033679840617692352 0 -0.0035185688398486005 -0.0034243478003730897 0 -0.0034894662259161748 -0.0033033049082067706 0 -0.0033224787360135477 -0.0041340688129720467 0 -0.0038654675996989758 -0.0037700473828515203 0 -0.0033566222153761458 -0.0031114944130531987 0 -0.0034894662259161748 -0.0033033049082067706 0 -0.0036981427427444048 -0.0032737417371458194 0 -0.003629926948759092 -0.0033679840617692352 0 -0.0034894662259161748 -0.0033033049082067706 0 -0.0036981427427444048 -0.0032737417371458194 0 -0.0038214117664462956 -0.0034403053488630425 0 -0.0038654675996989758 -0.0037700473828515203 0 -0.0031358200587813059 -0.0050062515942127586 0 -0.0030674108887659185 -0.0050562012401189314 0 -0.0030507642229500296 -0.0049573249550806308 0 -0.0030360547627589145 -0.0050891951709956754 0 -0.0030674108887659185 -0.0050562012401189314 0 -0.0030103266348710349 -0.0050377158397160345 0 -0.0030674108887659185 -0.0050562012401189314 0 -0.0030103266348710349 -0.0050377158397160345 0 -0.0030507642229500296 -0.0049573249550806308 0 -0.0055752765906814236 -0.0034743435125584757 0 -0.0055892082881169895 -0.0034699877266433305 0 -0.0055977851806945289 -0.0034523205297322416 0 -0.0042742174336698772 -0.0043308039301567704 0 -0.0038654675996989758 -0.0037700473828515203 0 -0.0055865226304827719 -0.0034799319496481465 0 -0.0055752765906814236 -0.0034743435125584757 0 -0.0055892082881169895 -0.0034699877266433305 0 -0.0055865226304827719 -0.0034799319496481465 0 -0.0055892082881169895 -0.0034699877266433305 0 -0.0055922841737692615 -0.0034732262284879693 0 -0.0055892082881169895 -0.0034699877266433305 0 -0.0055922841737692615 -0.0034732262284879693 0 -0.0055977851806945289 -0.0034523205297322416 0 -0.0055850402489864429 -0.0034955538148564117 0 -0.0055865226304827719 -0.0034799319496481465 0 -0.0055922841737692615 -0.0034732262284879693 0 -0.0055881646800522355 -0.0034908765369158182 0 -0.0055850402489864429 -0.0034955538148564117 0 -0.0055922841737692615 -0.0034732262284879693 0 -0.0055881646800522355 -0.0034908765369158182 0 -0.0055922841737692615 -0.0034732262284879693 0 -0.0055917985050409867 -0.0034704063751421835 0 -0.0055922841737692615 -0.0034732262284879693 0 -0.0055959934731933895 -0.0034533283582862447 0 -0.0055917985050409867 -0.0034704063751421835 0 -0.0055922841737692615 -0.0034732262284879693 0 -0.0055959934731933895 -0.0034533283582862447 0 -0.0055977851806945289 -0.0034523205297322416 0 -0.0055959934731933895 -0.0034533283582862447 0 -0.0055977851806945289 -0.0034523205297322416 0 -0.0055930812617064826 -0.0034255363384944303 0 -0.0055977851806945289 -0.0034523205297322416 0 -0.0055930812617064826 -0.0034255363384944303 0 -0.0055958322801196048 -0.0033939675296587842 0 -0.0038773636071491135 -0.003637520326725019 0 -0.0041168881694560967 -0.0034418804411824174 0 -0.0040051613088085344 -0.0037826467877374276 0 -0.0041168881694560967 -0.0034418804411824174 0 -0.0042534907577401436 -0.0037129548127502361 0 -0.0040051613088085344 -0.0037826467877374276 0 -0.0042534907577401436 -0.0037129548127502361 0 -0.004364445899987488 -0.003983051921435634 0 -0.0045304522969902127 -0.0036507013977026001 0 -0.0041168881694560967 -0.0034418804411824174 0 -0.0042534907577401436 -0.0037129548127502361 0 -0.0045304522969902127 -0.0036507013977026001 0 -0.0049618165175077111 -0.0034155265226148953 0 -0.0052452775229983083 -0.0034553145764475253 0 -0.0046523152245715772 -0.0035951567482649374 0 -0.0052452775229983083 -0.0034553145764475253 0 -0.004330330047825637 -0.0039524646801123988 0 -0.0040051613088085344 -0.0037826467877374276 0 -0.0042931768356590221 -0.0040267903144409305 0 -0.0042534907577401436 -0.0037129548127502361 0 -0.004364445899987488 -0.003983051921435634 0 -0.0040051613088085344 -0.0037826467877374276 0 -0.0046523152245715772 -0.0035951567482649374 0 -0.0045364345785678193 -0.0029102397744218021 0 -0.0046523152245715772 -0.0035951567482649374 0 -0.0052791759596978816 -0.0031602639955286452 0 -0.0040051613088085344 -0.0037826467877374276 0 -0.0042931768356590221 -0.0040267903144409305 0 -0.0039000182600708757 -0.0040003583141902605 0 -0.0046523152245715772 -0.0035951567482649374 0 -0.0039488273232483554 -0.0038601228623045907 0 -0.0040608259810023901 -0.0024108237293375191 0 -0.0040053283226379049 -0.0025039559505290673 0 -0.0039537855475018794 -0.0024628546801038027 0 -0.0045364345785678193 -0.0029102397744218021 0 -0.0039565347664146325 -0.0032774588917975703 0 -0.0040608259810023901 -0.0024108237293375191 0 -0.0039537855475018794 -0.0024628546801038027 0 -0.0039537560652454316 -0.0023980735098500109 0 -0.0045364345785678193 -0.0029102397744218021 0 -0.0047777122773906737 -0.0024508295141364659 0 -0.0052739593978508668 -0.002695984466320263 0 -0.0052947349149973051 -0.0025857030436804707 0 -0.0053411269869725973 -0.0025129816980820861 0 -0.0052739593978508668 -0.002695984466320263 0 -0.005220939513355353 -0.002627853268170523 0 -0.0051546476631976583 -0.0027005455703467979 0 -0.0045364345785678193 -0.0029102397744218021 0 -0.0052791759596978816 -0.0031602639955286452 0 -0.0046820777254063632 -0.0029886171778082116 0 -0.0045788604128631375 -0.0031956162330904142 0 -0.0051461349973893197 -0.003247019658977618 0 -0.0052739593978508668 -0.002695984466320263 0 -0.005220939513355353 -0.002627853268170523 0 -0.0052947349149973051 -0.0025857030436804707 0 -0.005220939513355353 -0.002627853268170523 0 -0.0052947349149973051 -0.0025857030436804707 0 -0.005162942728866117 -0.0025239778484578844 0 -0.0052947349149973051 -0.0025857030436804707 0 -0.0052794785982100464 -0.0024428689160150038 0 -0.005162942728866117 -0.0025239778484578844 0 -0.0052947349149973051 -0.0025857030436804707 0 -0.0052794785982100464 -0.0024428689160150038 0 -0.0054270835446044588 -0.0023874432112599617 0 -0.0052794785982100464 -0.0024428689160150038 0 -0.0052050959285284831 -0.0023755545983098589 0 -0.005162942728866117 -0.0025239778484578844 0 -0.0052794785982100464 -0.0024428689160150038 0 -0.0052050959285284831 -0.0023755545983098589 0 -0.0053245633945215084 -0.002333072780428123 0 -0.0052794785982100464 -0.0024428689160150038 0 -0.0053245633945215084 -0.002333072780428123 0 -0.0054270835446044588 -0.0023874432112599617 0 -0.0052050959285284831 -0.0023755545983098589 0 -0.0053245633945215084 -0.002333072780428123 0 -0.0052370694439334278 -0.0022564432134033934 0 -0.0054572201385398554 -0.0023783391957403989 0 -0.0047628922951602638 -0.002295780401839643 0 -0.0047777122773906737 -0.0024508295141364659 0 -0.0041417845176888258 -0.0023070355889858525 0 -0.0053371874578128434 -0.0024591409420212677 0 -0.0053411269869725973 -0.0025129816980820861 0 -0.0053716350221184291 -0.002361053245463748 0 -0.0053245633945215084 -0.002333072780428123 0 -0.0054270835446044588 -0.0023874432112599617 0 -0.0054207304520481857 -0.0022628949115656967 0 -0.0052824304185021907 -0.0025942324034474709 0 -0.0054572201385398554 -0.0023783391957403989 0 -0.0052947349149973051 -0.0025857030436804707 0 -0.0053371874578128434 -0.0024591409420212677 0 -0.0053411269869725973 -0.0025129816980820861 0 -0.0039537855475018794 -0.0024628546801038027 0 -0.0039220003994219843 -0.0025275070622118798 0 -0.0038823013953969113 -0.0024602549467767848 0 -0.0040053283226379049 -0.0025039559505290673 0 -0.0039537855475018794 -0.0024628546801038027 0 -0.0039220003994219843 -0.0025275070622118798 0 -0.0028903122813149981 -0.002057683094982065 0 -0.0028911247553727627 -0.0022032375094572319 0 -0.0027932097565514487 -0.0022211606458614535 0 -0.0028903122813149981 -0.002057683094982065 0 -0.002966473513171094 -0.0022202178747340756 0 -0.0028911247553727627 -0.0022032375094572319 0 -0.0033647905308053254 -0.002295757335411072 0 -0.0041417845176888258 -0.0023070355889858525 0 -0.0040053283226379049 -0.0025039559505290673 0 -0.0039220003994219843 -0.0025275070622118798 0 -0.0039560490204496633 -0.0025914889053409275 0 -0.0028903122813149981 -0.002057683094982065 0 -0.0027246270269111017 -0.0020831168968074567 0 -0.0027932097565514487 -0.0022211606458614535 0 -0.0033647905308053254 -0.002295757335411072 0 -0.0033179532354232991 -0.0020544581292406151 0 -0.0027246270269111017 -0.0020831168968074567 0 -0.0028087424407656132 -0.0018865832092307326 0 -0.0026080449927706677 -0.0019740109028105017 0 -0.0028903122813149981 -0.002057683094982065 0 -0.0027246270269111017 -0.0020831168968074567 0 -0.0028087424407656132 -0.0018865832092307326 0 -0.0028087424407656132 -0.0018865832092307326 0 -0.0027260549044986131 -0.0017186896362018195 0 -0.0026639552798754674 -0.0018538996618989545 0 -0.0038823013953969113 -0.0024602549467767848 0 -0.0039537560652454316 -0.0023980735098500109 0 -0.0038416022901925076 -0.002388075812735846 0 -0.0033179532354232991 -0.0020544581292406151 0 -0.0031952785739752681 -0.0027994623951418628 0 -0.0039537855475018794 -0.0024628546801038027 0 -0.0038823013953969113 -0.0024602549467767848 0 -0.0039537560652454316 -0.0023980735098500109 0 -0.0040051613088085344 -0.0037826467877374276 0 -0.0039000182600708757 -0.0040003583141902605 0 -0.0038248444126566068 -0.0037841759471948532 0 -0.0039000182600708757 -0.0040003583141902605 0 -0.0038248444126566068 -0.0037841759471948532 0 -0.0036691448527922032 -0.0038229485283921604 0 -0.0039565347664146325 -0.0032774588917975703 0 -0.0031952785739752681 -0.0027994623951418628 0 -0.0039000182600708757 -0.0040003583141902605 0 -0.0036691448527922032 -0.0038229485283921604 0 -0.0034979313704457293 -0.0039607134702767345 0 -0.0035506481621650631 -0.0037151679806258103 0 -0.0036691448527922032 -0.0038229485283921604 0 -0.0034979313704457293 -0.0039607134702767345 0 -0.0024018371433341006 -0.0030972353926778723 0 -0.0024477243760201357 -0.003178869404298242 0 -0.0023452099007392297 -0.0031695992593587046 0 -0.0031952785739752681 -0.0027994623951418628 0 -0.0020414916558752151 -0.0026099876046319494 0 -0.0027260549044986131 -0.0017186896362018195 0 -0.0024816365259459198 -0.0016975625092907501 0 -0.0025959644185376256 -0.0017841868090994449 0 -0.0024179890757736076 -0.0037990839307159643 0 -0.0031952785739752681 -0.0027994623951418628 0 -0.0024816365259459198 -0.0016975625092907501 0 -0.0025078535871569572 -0.0018038192668352908 0 -0.0025959644185376256 -0.0017841868090994449 0 -0.0024816365259459198 -0.0016975625092907501 0 -0.0025078535871569572 -0.0018038192668352908 0 -0.0024503383264862918 -0.0018261481456530336 0 -0.0020414916558752151 -0.0026099876046319494 0 -0.0022397291484918171 -0.0019150004981619837 0 -0.0025078535871569572 -0.0018038192668352908 0 -0.0024503383264862918 -0.0018261481456530336 0 -0.0025529247109305213 -0.0018773911807818627 0 -0.0025078535871569572 -0.0018038192668352908 0 -0.0025529247109305213 -0.0018773911807818627 0 -0.0025959644185376256 -0.0017841868090994449 0 -0.0025529247109305213 -0.0018773911807818627 0 -0.0025959644185376256 -0.0017841868090994449 0 -0.0026639552798754674 -0.0018538996618989545 0 -0.0027260549044986131 -0.0017186896362018195 0 -0.0025959644185376256 -0.0017841868090994449 0 -0.0026639552798754674 -0.0018538996618989545 0 -0.0028087424407656132 -0.0018865832092307326 0 -0.0026639552798754674 -0.0018538996618989545 0 -0.0026080449927706677 -0.0019740109028105017 0 -0.0025529247109305213 -0.0018773911807818627 0 -0.0026639552798754674 -0.0018538996618989545 0 -0.0026080449927706677 -0.0019740109028105017 0 -0.0027246270269111017 -0.0020831168968074567 0 -0.0025613430427128686 -0.0021034198459286011 0 -0.0026811111044681736 -0.0022392085119019444 0 -0.0027246270269111017 -0.0020831168968074567 0 -0.0026080449927706677 -0.0019740109028105017 0 -0.0025613430427128686 -0.0021034198459286011 0 -0.0025613430427128686 -0.0021034198459286011 0 -0.0024692792141421246 -0.0021720744566111959 0 -0.0023933097195949944 -0.0019947100676905596 0 -0.0024692792141421246 -0.0021720744566111959 0 -0.0023933097195949944 -0.0019947100676905596 0 -0.0023042712218633737 -0.0022154284766894724 0 -0.0026080449927706677 -0.0019740109028105017 0 -0.0025613430427128686 -0.0021034198459286011 0 -0.0023933097195949944 -0.0019947100676905596 0 -0.0022397291484918171 -0.0019150004981619837 0 -0.0023510465765221871 -0.0020142461909148997 0 -0.0025529247109305213 -0.0018773911807818627 0 -0.0026080449927706677 -0.0019740109028105017 0 -0.0023933097195949944 -0.0019947100676905596 0 -0.0024503383264862918 -0.0018261481456530336 0 -0.0025529247109305213 -0.0018773911807818627 0 -0.0023933097195949944 -0.0019947100676905596 0 -0.0022926015860030269 -0.0020457159231797159 0 -0.0022338737566664803 -0.0019540408164571842 0 -0.0021494217649018566 -0.0019892867373990427 0 -0.0023103316715469935 -0.0018945152986953966 0 -0.0022926015860030269 -0.0020457159231797159 0 -0.0022338737566664803 -0.0019540408164571842 0 -0.0022926015860030269 -0.0020457159231797159 0 -0.0021889999407507161 -0.0020974563063484806 0 -0.0021494217649018566 -0.0019892867373990427 0 -0.0022338737566664803 -0.0019540408164571842 0 -0.0021494217649018566 -0.0019892867373990427 0 -0.0021821811058636543 -0.0018899736426333906 0 -0.0023510465765221871 -0.0020142461909148997 0 -0.0023039372294247967 -0.0022083891040547091 0 -0.0022926015860030269 -0.0020457159231797159 0 -0.0021889999407507161 -0.0020974563063484806 0 -0.0023042712218633737 -0.0022154284766894724 0 -0.0021889999407507161 -0.0020974563063484806 0 -0.0021347230459918209 -0.0021803146790131374 0 -0.0023042712218633737 -0.0022154284766894724 0 -0.0020298732620549938 -0.0021451652160153732 0 -0.0020918484491532015 -0.0020680772467162262 0 -0.0019962711988843864 -0.0020003864403594683 0 -0.0020500123092972726 -0.0020968430320818304 0 -0.0010541475428352905 -0.0023554543649521179 0 -0.0020298732620549938 -0.0021451652160153732 0 -0.0021347230459918209 -0.0021803146790131374 0 -0.0020959339709915748 -0.0023048348790881178 0 -0.0020298732620549938 -0.0021451652160153732 0 -0.0021347230459918209 -0.0021803146790131374 0 -0.0020918484491532015 -0.0020680772467162262 0 -0.0021889999407507161 -0.0020974563063484806 0 -0.0021347230459918209 -0.0021803146790131374 0 -0.0020918484491532015 -0.0020680772467162262 0 -0.0021494217649018566 -0.0019892867373990427 0 -0.0020507408947292097 -0.001881955056947135 0 -0.0019962711988843864 -0.0020003864403594683 0 -0.0020918484491532015 -0.0020680772467162262 0 -0.0021494217649018566 -0.0019892867373990427 0 -0.0019962711988843864 -0.0020003864403594683 0 -0.0021889999407507161 -0.0020974563063484806 0 -0.0020918484491532015 -0.0020680772467162262 0 -0.0021494217649018566 -0.0019892867373990427 0 -0.0020507408947292097 -0.001881955056947135 0 -0.002126919977159491 -0.0018352147166175838 0 -0.0021821811058636543 -0.0018899736426333906 0 -0.0011489216021861562 -0.0024446136977632595 0 -0.0010541475428352905 -0.0023554543649521179 0 -0.0021494217649018566 -0.0019892867373990427 0 -0.0020507408947292097 -0.001881955056947135 0 -0.0021821811058636543 -0.0018899736426333906 0 -0.0020507408947292097 -0.001881955056947135 0 -0.002126919977159491 -0.0018352147166175838 0 -0.0020982809608372935 -0.0017679957229535972 0 -0.002126919977159491 -0.0018352147166175838 0 -0.0021821811058636543 -0.0018899736426333906 0 -0.0021645863550599628 -0.0017717060427434842 0 -0.0023103316715469935 -0.0018945152986953966 0 -0.0022338737566664803 -0.0019540408164571842 0 -0.0021821811058636543 -0.0018899736426333906 0 -0.0023103316715469935 -0.0018945152986953966 0 -0.0021821811058636543 -0.0018899736426333906 0 -0.0021645863550599628 -0.0017717060427434842 0 -0.0022397291484918171 -0.0019150004981619837 0 -0.0016838590607175911 -0.0026169923810256093 0 -0.001508982270672633 -0.0031507669412668259 0 -0.0014669221253340509 -0.0031059964851163817 0 -0.0015345804757211153 -0.003113785856775957 0 -0.0020414916558752151 -0.0026099876046319494 0 -0.0016838590607175911 -0.0026169923810256093 0 -0.0019731220020433558 -0.0023735155120960015 0 -0.001975124110053128 -0.002366309350915355 0 -0.0019778353332313104 -0.0023755005364282976 0 -0.001508982270672633 -0.0031507669412668259 0 -0.0015345804757211153 -0.003113785856775957 0 -0.0015545139937809085 -0.0031352987168704401 0 -0.0014000902719071967 -0.0028108637907484375 0 -0.0012591936832770801 -0.0026784772091318527 0 -0.0012134524998751936 -0.0027944532433758179 0 -0.00022736923295693705 -0.0030560346427516436 0 -0.00019640485082441977 -0.0033222143693011157 0 -0.00031105531348324627 -0.0032265723847803361 0 -0.00022736923295693705 -0.0030560346427516436 0 -0.00013303001245119542 -0.0033151814538927588 0 -0.00019640485082441977 -0.0033222143693011157 0 -0.0016838590607175911 -0.0026169923810256093 0 -0.0010815456107210197 -0.0031193179477030674 0 -0.0010815456107210197 -0.0031193179477030674 0 -0.0011530517856180459 -0.0027237800220163617 0 -0.00010709996965249024 -0.0033979401937311539 0 -0.00013860233314812507 -0.0033168168535158121 0 -0.00019640485082441977 -0.0033222143693011157 0 -0.00027751178043600736 -0.0034402790044446865 0 -0.00010709996965249024 -0.0033979401937311539 0 -0.00019640485082441977 -0.0033222143693011157 0 -0.00027751178043600736 -0.0034402790044446865 0 -0.00019640485082441977 -0.0033222143693011157 0 -0.00029358003401033767 -0.003336416744434874 0 -0.0011530517856180459 -0.0027237800220163617 0 -0.00073446603632230001 -0.0027845293791838614 0 -0.0011489216021861562 -0.0024446136977632595 0 -0.0011530517856180459 -0.0027237800220163617 0 -0.00019640485082441977 -0.0033222143693011157 0 -0.00031105531348324627 -0.0032265723847803361 0 -0.00029358003401033767 -0.003336416744434874 0 -0.0016838590607175911 -0.0026169923810256093 0 -0.0011530517856180459 -0.0027237800220163617 0 -0.002126919977159491 -0.0018352147166175838 0 -0.0021645863550599628 -0.0017717060427434842 0 -0.0020982809608372935 -0.0017679957229535972 0 -0.0053200015257699228 -0.0033598052532253266 0 -0.0052311622328384787 -0.0033591586574676442 0 -0.0053055642619387333 -0.0034375852583515935 0 -0.0053806668873405405 -0.0034240407163827211 0 -0.0054043282059416066 -0.0033223452594663039 0 -0.0054628139401434773 -0.0034102748513773909 0 -0.0053200015257699228 -0.0033598052532253266 0 -0.0053806668873405405 -0.0034240407163827211 0 -0.0054043282059416066 -0.0033223452594663039 0 -0.0053200015257699228 -0.0033598052532253266 0 -0.0053055642619387333 -0.0034375852583515935 0 -0.0053806668873405405 -0.0034240407163827211 0 -0.0053200015257699228 -0.0033598052532253266 0 -0.0054043282059416066 -0.0033223452594663039 0 -0.0053043132043634313 -0.0032720832974532273 0 -0.0054043282059416066 -0.0033223452594663039 0 -0.0053043132043634313 -0.0032720832974532273 0 -0.0053690323921756532 -0.0032027600534516583 0 -0.0052569929202071469 -0.0033335791541005879 0 -0.0052422612742315192 -0.0031665775194448403 0 -0.0052311622328384787 -0.0033591586574676442 0 -0.0053043132043634313 -0.0032720832974532273 0 -0.0052340308654533286 -0.0031522507686786235 0 -0.0052911530508488328 -0.0033093602878679139 0 -0.0052556414759940637 -0.0032393574148972988 0 -0.0052340308654533286 -0.0031522507686786235 0 -0.0053200015257699228 -0.0033598052532253266 0 -0.0052311622328384787 -0.0033591586574676442 0 -0.0053043132043634313 -0.0032720832974532273 0 -0.0052911530508488328 -0.0033093602878679139 0 -0.0052556414759940637 -0.0032393574148972988 0 -0.0051461849009417308 -0.0032983614731532398 0 -0.0052556414759940637 -0.0032393574148972988 0 -0.0051461849009417308 -0.0032983614731532398 0 -0.0051343481826352094 -0.0031345106885447014 0 -0.0049999903027905367 -0.003222136794436661 0 -0.0051461849009417308 -0.0032983614731532398 0 -0.0051343481826352094 -0.0031345106885447014 0 -0.0049999903027905367 -0.003222136794436661 0 -0.0051461849009417308 -0.0032983614731532398 0 -0.0049999852993962753 -0.0034860751464375946 0 -0.0051461849009417308 -0.0032983614731532398 0 -0.0051731233034458509 -0.0034676624023099963 0 -0.0049999852993962753 -0.0034860751464375946 0 -0.0052911530508488328 -0.0033093602878679139 0 -0.0051461849009417308 -0.0032983614731532398 0 -0.0051731233034458509 -0.0034676624023099963 0 -0.0052911530508488328 -0.0033093602878679139 0 -0.0052784368508045892 -0.0035687557992166935 0 -0.0051731233034458509 -0.0034676624023099963 0 -0.0052784368508045892 -0.0035687557992166935 0 -0.0051731233034458509 -0.0034676624023099963 0 -0.0051347932392415349 -0.0036625802733406569 0 -0.0051731233034458509 -0.0034676624023099963 0 -0.0049999852993962753 -0.0034860751464375946 0 -0.0051347932392415349 -0.0036625802733406569 0 -0.0049999863628482034 -0.0037500535509311463 0 -0.0049999852993962753 -0.0034860751464375946 0 -0.0051347932392415349 -0.0036625802733406569 0 -0.005229713958838555 -0.0038093155049481612 0 -0.0052784368508045892 -0.0035687557992166935 0 -0.0051347932392415349 -0.0036625802733406569 0 -0.0052300719519864638 -0.0037902655073053398 0 -0.0052496650109571698 -0.0035590390933677571 0 -0.0053513247581914274 -0.0038010573805639428 0 -0.005229713958838555 -0.0038093155049481612 0 -0.005221152129762833 -0.0035432385035078346 0 -0.0053513247581914274 -0.0038010573805639428 0 -0.005221152129762833 -0.0035432385035078346 0 -0.0053795067305450299 -0.0035139218146328817 0 -0.005361311694538024 -0.0036590231109209174 0 -0.0053734433675052245 -0.0035453577200464277 0 -0.0053055642619387333 -0.0034375852583515935 0 -0.005221152129762833 -0.0035432385035078346 0 -0.0053795067305450299 -0.0035139218146328817 0 -0.0052569929202071469 -0.0033335791541005879 0 -0.0052496650109571698 -0.0035590390933677571 0 -0.0052311622328384787 -0.0033591586574676442 0 -0.0053055642619387333 -0.0034375852583515935 0 -0.005221152129762833 -0.0035432385035078346 0 -0.0053806668873405405 -0.0034240407163827211 0 -0.0053795067305450299 -0.0035139218146328817 0 -0.0054339509007119103 -0.0034920057976002578 0 -0.0053055642619387333 -0.0034375852583515935 0 -0.0053806668873405405 -0.0034240407163827211 0 -0.0053795067305450299 -0.0035139218146328817 0 -0.0053795067305450299 -0.0035139218146328817 0 -0.0054088238579713824 -0.003562561730656453 0 -0.0054339509007119103 -0.0034920057976002578 0 -0.0053424637988292662 -0.003599640187792168 0 -0.0053795067305450299 -0.0035139218146328817 0 -0.0054088238579713824 -0.003562561730656453 0 -0.0054671999113342692 -0.0035859301050194417 0 -0.0054088238579713824 -0.003562561730656453 0 -0.0054644490319845501 -0.0035257512560857187 0 -0.0054088238579713824 -0.003562561730656453 0 -0.0054644490319845501 -0.0035257512560857187 0 -0.0054339509007119103 -0.0034920057976002578 0 -0.0054671999113342692 -0.0035859301050194417 0 -0.0054644490319845501 -0.0035257512560857187 0 -0.0055143795703511507 -0.0035236387813841539 0 -0.0054644490319845501 -0.0035257512560857187 0 -0.0055143795703511507 -0.0035236387813841539 0 -0.0054976008678032122 -0.003472005401308838 0 -0.0055143795703511507 -0.0035236387813841539 0 -0.0054976008678032122 -0.003472005401308838 0 -0.0055532765176019147 -0.0034658034735762879 0 -0.0054976008678032122 -0.003472005401308838 0 -0.0055532765176019147 -0.0034658034735762879 0 -0.0055480399541937104 -0.0034069435899833139 0 -0.0054976008678032122 -0.003472005401308838 0 -0.0054339509007119103 -0.0034920057976002578 0 -0.0054628139401434773 -0.0034102748513773909 0 -0.0053806668873405405 -0.0034240407163827211 0 -0.0054339509007119103 -0.0034920057976002578 0 -0.0054628139401434773 -0.0034102748513773909 0 -0.0054644490319845501 -0.0035257512560857187 0 -0.0054976008678032122 -0.003472005401308838 0 -0.0054339509007119103 -0.0034920057976002578 0 -0.0057098110778391453 -0.0035266351159945098 0 -0.0055583084157377876 -0.0034932021421715106 0 -0.0055881646800522355 -0.0034908765369158182 0 -0.0055836563021218087 -0.0035040944720510022 0 -0.0055917985050409867 -0.0034704063751421835 0 -0.0055143795703511507 -0.0035236387813841539 0 -0.0055836563021218087 -0.0035040944720510022 0 -0.0055532765176019147 -0.0034658034735762879 0 -0.0055220842887478442 -0.0035832111911653481 0 -0.0055143795703511507 -0.0035236387813841539 0 -0.0055836563021218087 -0.0035040944720510022 0 -0.0055532765176019147 -0.0034658034735762879 0 -0.0055917985050409867 -0.0034704063751421835 0 -0.0055730730973940195 -0.003430515227061929 0 -0.0055836563021218087 -0.0035040944720510022 0 -0.0055532765176019147 -0.0034658034735762879 0 -0.0055917985050409867 -0.0034704063751421835 0 -0.0055959934731933895 -0.0034533283582862447 0 -0.0055917985050409867 -0.0034704063751421835 0 -0.0055930812617064826 -0.0034255363384944303 0 -0.0055917985050409867 -0.0034704063751421835 0 -0.0055930812617064826 -0.0034255363384944303 0 -0.0055730730973940195 -0.003430515227061929 0 -0.0055930812617064826 -0.0034255363384944303 0 -0.0055810854741331966 -0.0033917952384401248 0 -0.0055871633089892179 -0.003394391162136847 0 -0.0055930812617064826 -0.0034255363384944303 0 -0.0055730730973940195 -0.003430515227061929 0 -0.0055810854741331966 -0.0033917952384401248 0 -0.0055730730973940195 -0.003430515227061929 0 -0.0055810854741331966 -0.0033917952384401248 0 -0.0055480399541937104 -0.0034069435899833139 0 -0.0055810854741331966 -0.0033917952384401248 0 -0.0055480399541937104 -0.0034069435899833139 0 -0.0055774953658056436 -0.0033408046098983082 0 -0.0055532765176019147 -0.0034658034735762879 0 -0.0055730730973940195 -0.003430515227061929 0 -0.0055480399541937104 -0.0034069435899833139 0 -0.0055810854741331966 -0.0033917952384401248 0 -0.0055766804133181103 -0.0033617474369398875 0 -0.0055774953658056436 -0.0033408046098983082 0 -0.0055810854741331966 -0.0033917952384401248 0 -0.0055871633089892179 -0.003394391162136847 0 -0.0055766804133181103 -0.0033617474369398875 0 -0.0055766804133181103 -0.0033617474369398875 0 -0.0055714931259567887 -0.0033590274288758351 0 -0.0055728434677722411 -0.0033588238059546333 0 -0.0055871633089892179 -0.003394391162136847 0 -0.0055766804133181103 -0.0033617474369398875 0 -0.0055958322801196048 -0.0033939675296587842 0 -0.0055976868971625848 -0.0034388871009326644 0 -0.0052452775229983083 -0.0034553145764475253 0 -0.0055930812617064826 -0.0034255363384944303 0 -0.0055871633089892179 -0.003394391162136847 0 -0.0055958322801196048 -0.0033939675296587842 0 -0.0054043282059416066 -0.0033223452594663039 0 -0.0054628139401434773 -0.0034102748513773909 0 -0.005508404744881009 -0.0033508923725956439 0 -0.0054976008678032122 -0.003472005401308838 0 -0.0054628139401434773 -0.0034102748513773909 0 -0.0055480399541937104 -0.0034069435899833139 0 -0.0054628139401434773 -0.0034102748513773909 0 -0.0055480399541937104 -0.0034069435899833139 0 -0.005508404744881009 -0.0033508923725956439 0 -0.0055480399541937104 -0.0034069435899833139 0 -0.0055774953658056436 -0.0033408046098983082 0 -0.005508404744881009 -0.0033508923725956439 0 -0.0055774953658056436 -0.0033408046098983082 0 -0.0055046440166609204 -0.0032503852725156344 0 -0.005508404744881009 -0.0033508923725956439 0 -0.0054043282059416066 -0.0033223452594663039 0 -0.0055046440166609204 -0.0032503852725156344 0 -0.0053690323921756532 -0.0032027600534516583 0 -0.0054043282059416066 -0.0033223452594663039 0 -0.0055046440166609204 -0.0032503852725156344 0 -0.005508404744881009 -0.0033508923725956439 0 -0.0055046440166609204 -0.0032503852725156344 0 -0.0054581680653372636 -0.0031130967035862675 0 -0.0056513943469027883 -0.0031160889414313421 0 -0.0055046440166609204 -0.0032503852725156344 0 -0.0054581680653372636 -0.0031130967035862675 0 -0.0053690323921756532 -0.0032027600534516583 0 -0.0055774953658056436 -0.0033408046098983082 0 -0.0055046440166609204 -0.0032503852725156344 0 -0.0056513943469027883 -0.0031160889414313421 0 -0.0055834463610954232 -0.0033056516845560249 0 -0.0056237209300696762 -0.0032857360829804468 0 -0.0056237209300696762 -0.0032857360829804468 0 -0.0054255235029157002 -0.0028637327096412103 0 -0.0055710511211284263 -0.0033522440293839457 0 -0.0055713391451188187 -0.0033470454361394586 0 -0.0055646506627080204 -0.0033383350944030097 0 -0.0056513943469027883 -0.0031160889414313421 0 -0.0055453781872009632 -0.0029800903044832922 0 -0.0056781069293721752 -0.0028907957586158583 0 -0.0054581680653372636 -0.0031130967035862675 0 -0.0056513943469027883 -0.0031160889414313421 0 -0.0055453781872009632 -0.0029800903044832922 0 -0.0055453781872009632 -0.0029800903044832922 0 -0.0054496160029348468 -0.0029058751388479575 0 -0.0054120606427042663 -0.0030126178672782939 0 -0.0054581680653372636 -0.0031130967035862675 0 -0.0055453781872009632 -0.0029800903044832922 0 -0.0054120606427042663 -0.0030126178672782939 0 -0.0055678100414708279 -0.0033590558314077383 0 -0.0055714931259567887 -0.0033590274288758351 0 -0.0055728434677722411 -0.0033588238059546333 0 -0.0055678100414708279 -0.0033590558314077383 0 -0.0055715913592032217 -0.0033566456134562573 0 -0.0055728434677722411 -0.0033588238059546333 0 -0.0055678100414708279 -0.0033590558314077383 0 -0.0055715913592032217 -0.0033566456134562573 0 -0.0055715969751786061 -0.0033554245356317318 0 -0.0055766804133181103 -0.0033617474369398875 0 -0.0055728434677722411 -0.0033588238059546333 0 -0.0055720602030508229 -0.0033551824042755613 0 -0.0055715913592032217 -0.0033566456134562573 0 -0.0055728434677722411 -0.0033588238059546333 0 -0.0055720288295193765 -0.0033544438114861972 0 -0.0055728434677722411 -0.0033588238059546333 0 -0.0055720602030508229 -0.0033551824042755613 0 -0.0055720288295193765 -0.0033544438114861972 0 -0.0055766804133181103 -0.0033617474369398875 0 -0.0055774953658056436 -0.0033408046098983082 0 -0.0055720602030508229 -0.0033551824042755613 0 -0.0055774953658056436 -0.0033408046098983082 0 -0.0055710511211284263 -0.0033522440293839457 0 -0.0055720602030508229 -0.0033551824042755613 0 -0.0055720602030508229 -0.0033551824042755613 0 -0.0055713391451188187 -0.0033470454361394586 0 -0.0055720288295193765 -0.0033544438114861972 0 -0.0055710511211284263 -0.0033522440293839457 0 -0.0055720602030508229 -0.0033551824042755613 0 -0.0055713391451188187 -0.0033470454361394586 0 -0.0050074139227844214 -0.0026265083930480477 0 -0.00513698734700151 -0.002619916622048911 0 -0.0051546476631976583 -0.0027005455703467979 0 -0.0052667379887008526 -0.0029742207229039325 0 -0.0052791759596978816 -0.0031602639955286452 0 -0.0055713391451188187 -0.0033470454361394586 0 -0.0055720288295193765 -0.0033544438114861972 0 -0.0055715969751786061 -0.0033554245356317318 0 -0.0050074139227844214 -0.0026265083930480477 0 -0.00513698734700151 -0.002619916622048911 0 -0.005162942728866117 -0.0025239778484578844 0 -0.005220939513355353 -0.002627853268170523 0 -0.00513698734700151 -0.002619916622048911 0 -0.005162942728866117 -0.0025239778484578844 0 -0.005220939513355353 -0.002627853268170523 0 -0.00513698734700151 -0.002619916622048911 0 -0.0051546476631976583 -0.0027005455703467979 0 -0.0055715913592032217 -0.0033566456134562573 0 -0.0055720288295193765 -0.0033544438114861972 0 -0.0055715969751786061 -0.0033554245356317318 0 -0.0050074139227844214 -0.0026265083930480477 0 -0.005162942728866117 -0.0025239778484578844 0 -0.0050055211121131475 -0.0024576071214558216 0 -0.005162942728866117 -0.0025239778484578844 0 -0.0050055211121131475 -0.0024576071214558216 0 -0.0051061127327248863 -0.0024110842732111113 0 -0.0052667379887008526 -0.0029742207229039325 0 -0.0054255235029157002 -0.0028637327096412103 0 -0.0050074139227844214 -0.0026265083930480477 0 -0.0050055211121131475 -0.0024576071214558216 0 -0.0048544533959642986 -0.0025444519274588559 0 -0.0050055211121131475 -0.0024576071214558216 0 -0.0050502519914794423 -0.002285542397892686 0 -0.0048409086353956958 -0.0023316410785525796 0 -0.0050055211121131475 -0.0024576071214558216 0 -0.0050502519914794423 -0.002285542397892686 0 -0.0051061127327248863 -0.0024110842732111113 0 -0.0052050959285284831 -0.0023755545983098589 0 -0.0050502519914794423 -0.002285542397892686 0 -0.0051061127327248863 -0.0024110842732111113 0 -0.0052050959285284831 -0.0023755545983098589 0 -0.0050502519914794423 -0.002285542397892686 0 -0.0052370694439334278 -0.0022564432134033934 0 -0.0052050959285284831 -0.0023755545983098589 0 -0.005162942728866117 -0.0025239778484578844 0 -0.0051061127327248863 -0.0024110842732111113 0 -0.0055726094999028301 -0.0028082410350649505 0 -0.0054496160029348468 -0.0029058751388479575 0 -0.0054009262965052799 -0.0027789377526870212 0 -0.0055453781872009632 -0.0029800903044832922 0 -0.0055726094999028301 -0.0028082410350649505 0 -0.0054496160029348468 -0.0029058751388479575 0 -0.0054255235029157002 -0.0028637327096412103 0 -0.005270631407784325 -0.0024545842783480422 0 -0.0055453781872009632 -0.0029800903044832922 0 -0.0055726094999028301 -0.0028082410350649505 0 -0.0056781069293721752 -0.0028907957586158583 0 -0.0055726094999028301 -0.0028082410350649505 0 -0.0057222964132571949 -0.0028924235772483874 0 -0.0057181037976685037 -0.0026407504772975074 0 -0.0050055211121131475 -0.0024576071214558216 0 -0.0048544533959642986 -0.0025444519274588559 0 -0.0048409086353956958 -0.0023316410785525796 0 -0.0056445299712718708 -0.0028668058058980306 0 -0.0054255235029157002 -0.0028637327096412103 0 -0.0055726094999028301 -0.0028082410350649505 0 -0.0055203585932272793 -0.0026920380364434597 0 -0.0054009262965052799 -0.0027789377526870212 0 -0.0057181037976685037 -0.0026407504772975074 0 -0.0055203585932272793 -0.0026920380364434597 0 -0.0055321614665742097 -0.002552031676961484 0 -0.0055726094999028301 -0.0028082410350649505 0 -0.0057181037976685037 -0.0026407504772975074 0 -0.0055203585932272793 -0.0026920380364434597 0 -0.0055203585932272793 -0.0026920380364434597 0 -0.0054243406149541177 -0.0026417581729160002 0 -0.0055321614665742097 -0.002552031676961484 0 -0.0054243406149541177 -0.0026417581729160002 0 -0.0052923813166674003 -0.0026380731283868731 0 -0.0053914839468189504 -0.0025294751488209857 0 -0.0054243406149541177 -0.0026417581729160002 0 -0.0052923813166674003 -0.0026380731283868731 0 -0.0054009262965052799 -0.0027789377526870212 0 -0.0052923813166674003 -0.0026380731283868731 0 -0.0052648521960691561 -0.002793002983962469 0 -0.0054009262965052799 -0.0027789377526870212 0 -0.0055203585932272793 -0.0026920380364434597 0 -0.0054243406149541177 -0.0026417581729160002 0 -0.0054009262965052799 -0.0027789377526870212 0 -0.0051857442234984853 -0.0025958218222117651 0 -0.0052923813166674003 -0.0026380731283868731 0 -0.0051318594195482892 -0.0027066109259878085 0 -0.0052923813166674003 -0.0026380731283868731 0 -0.0052648521960691561 -0.002793002983962469 0 -0.0051318594195482892 -0.0027066109259878085 0 -0.0051687928619006066 -0.0028961455162360024 0 -0.0052648521960691561 -0.002793002983962469 0 -0.0051318594195482892 -0.0027066109259878085 0 -0.0051687928619006066 -0.0028961455162360024 0 -0.0052648521960691561 -0.002793002983962469 0 -0.0053262207927604202 -0.0029363283092474365 0 -0.0052648521960691561 -0.002793002983962469 0 -0.0054009262965052799 -0.0027789377526870212 0 -0.0053262207927604202 -0.0029363283092474365 0 -0.0054496160029348468 -0.0029058751388479575 0 -0.0054009262965052799 -0.0027789377526870212 0 -0.0053262207927604202 -0.0029363283092474365 0 -0.0054581680653372636 -0.0031130967035862675 0 -0.0054120606427042663 -0.0030126178672782939 0 -0.0053322145919073591 -0.0030862401836954513 0 -0.0054496160029348468 -0.0029058751388479575 0 -0.0054120606427042663 -0.0030126178672782939 0 -0.0053262207927604202 -0.0029363283092474365 0 -0.0054120606427042663 -0.0030126178672782939 0 -0.0053262207927604202 -0.0029363283092474365 0 -0.0053322145919073591 -0.0030862401836954513 0 -0.0051687928619006066 -0.0028961455162360024 0 -0.0052327919288047055 -0.0030325056960082801 0 -0.0050969695294494737 -0.0030699467983441421 0 -0.0051687928619006066 -0.0028961455162360024 0 -0.0053262207927604202 -0.0029363283092474365 0 -0.0052327919288047055 -0.0030325056960082801 0 -0.0053262207927604202 -0.0029363283092474365 0 -0.0052327919288047055 -0.0030325056960082801 0 -0.0053322145919073591 -0.0030862401836954513 0 -0.0052327919288047055 -0.0030325056960082801 0 -0.0052340308654533286 -0.0031522507686786235 0 -0.0053322145919073591 -0.0030862401836954513 0 -0.0053043132043634313 -0.0032720832974532273 0 -0.0052340308654533286 -0.0031522507686786235 0 -0.0053690323921756532 -0.0032027600534516583 0 -0.0052327919288047055 -0.0030325056960082801 0 -0.0052340308654533286 -0.0031522507686786235 0 -0.0050969695294494737 -0.0030699467983441421 0 -0.0054581680653372636 -0.0031130967035862675 0 -0.0053690323921756532 -0.0032027600534516583 0 -0.0053322145919073591 -0.0030862401836954513 0 -0.0052340308654533286 -0.0031522507686786235 0 -0.0053690323921756532 -0.0032027600534516583 0 -0.0053322145919073591 -0.0030862401836954513 0 -0.0051343481826352094 -0.0031345106885447014 0 -0.0052242512740261413 -0.0029597416167774213 0 -0.0049999857215787848 -0.0029581784008106586 0 -0.0049999903027905367 -0.003222136794436661 0 -0.0051343481826352094 -0.0031345106885447014 0 -0.0049999857215787848 -0.0029581784008106586 0 -0.0052556414759940637 -0.0032393574148972988 0 -0.0052340308654533286 -0.0031522507686786235 0 -0.0050969695294494737 -0.0030699467983441421 0 -0.0052449220047140624 -0.003221248234171701 0 -0.005162083510110895 -0.0030110529368811883 0 -0.0052556414759940637 -0.0032393574148972988 0 -0.0051343481826352094 -0.0031345106885447014 0 -0.0052242512740261413 -0.0029597416167774213 0 -0.005162083510110895 -0.0030110529368811883 0 -0.0050574649434940904 -0.0027450247017740564 0 -0.0052242512740261413 -0.0029597416167774213 0 -0.0051093833250457849 -0.0028483543215953454 0 -0.0051559569902271864 -0.0026903255205227121 0 -0.0052242512740261413 -0.0029597416167774213 0 -0.0051093833250457849 -0.0028483543215953454 0 -0.0049999857215787848 -0.0029581784008106586 0 -0.0051093833250457849 -0.0028483543215953454 0 -0.0049999857215787848 -0.0029581784008106586 0 -0.0049999985043893197 -0.0026941957554579591 0 -0.0051093833250457849 -0.0028483543215953454 0 -0.0049999985043893197 -0.0026941957554579591 0 -0.0051559569902271864 -0.0026903255205227121 0 -0.0051687928619006066 -0.0028961455162360024 0 -0.0050969695294494737 -0.0030699467983441421 0 -0.0049729460500183799 -0.0027982080260226419 0 -0.0051687928619006066 -0.0028961455162360024 0 -0.0049729460500183799 -0.0027982080260226419 0 -0.0051318594195482892 -0.0027066109259878085 0 -0.0049729460500183799 -0.0027982080260226419 0 -0.0051318594195482892 -0.0027066109259878085 0 -0.0049875181031494072 -0.0026252100625873288 0 -0.0051318594195482892 -0.0027066109259878085 0 -0.0049875181031494072 -0.0026252100625873288 0 -0.0050787229589234571 -0.0025917535393562147 0 -0.0051857442234984853 -0.0025958218222117651 0 -0.0051318594195482892 -0.0027066109259878085 0 -0.0050787229589234571 -0.0025917535393562147 0 -0.0049999985043893197 -0.0026941957554579591 0 -0.0051559569902271864 -0.0026903255205227121 0 -0.0050581222316419591 -0.0025444852111874733 0 -0.0049999985043893197 -0.0026941957554579591 0 -0.0050581222316419591 -0.0025444852111874733 0 -0.0049999991929622423 -0.0024302309900481175 0 -0.0051559569902271864 -0.0026903255205227121 0 -0.0050581222316419591 -0.0025444852111874733 0 -0.0050788433508285541 -0.002428962757884292 0 -0.0049729460500183799 -0.0027982080260226419 0 -0.0049875181031494072 -0.0026252100625873288 0 -0.0048627868014970779 -0.0024988146570607897 0 -0.0050574649434940904 -0.0027450247017740564 0 -0.0050245853848101046 -0.0024445440544180342 0 -0.0050581222316419591 -0.0025444852111874733 0 -0.0049999991929622423 -0.0024302309900481175 0 -0.0050559831007989621 -0.0024785457284177146 0 -0.0050581222316419591 -0.0025444852111874733 0 -0.0050559831007989621 -0.0024785457284177146 0 -0.0050788433508285541 -0.002428962757884292 0 -0.0049999991929622423 -0.0024302309900481175 0 -0.0050559831007989621 -0.0024785457284177146 0 -0.0050788781099734125 -0.0024289368339484672 0 -0.0050343530023856378 -0.0024486904774143124 0 -0.0050245853848101046 -0.0024445440544180342 0 -0.0048627868014970779 -0.0024988146570607897 0 -0.0049825693735441922 -0.0025141598013615754 0 -0.0050188838174524443 -0.002394566418016011 0 -0.0049875181031494072 -0.0026252100625873288 0 -0.0048627868014970779 -0.0024988146570607897 0 -0.0049825693735441922 -0.0025141598013615754 0 -0.0049875181031494072 -0.0026252100625873288 0 -0.0050787229589234571 -0.0025917535393562147 0 -0.0049825693735441922 -0.0025141598013615754 0 -0.0049825693735441922 -0.0025141598013615754 0 -0.0051007695925995543 -0.0025152223781280173 0 -0.0050535724287343545 -0.0024564791775768032 0 -0.0051857442234984853 -0.0025958218222117651 0 -0.0050787229589234571 -0.0025917535393562147 0 -0.0051007695925995543 -0.0025152223781280173 0 -0.0050787229589234571 -0.0025917535393562147 0 -0.0049825693735441922 -0.0025141598013615754 0 -0.0051007695925995543 -0.0025152223781280173 0 -0.0051007695925995543 -0.0025152223781280173 0 -0.0050535724287343545 -0.0024564791775768032 0 -0.0051119347084254913 -0.002401436434341838 0 -0.0050535724287343545 -0.0024564791775768032 0 -0.0051119347084254913 -0.002401436434341838 0 -0.0050188838174524443 -0.002394566418016011 0 -0.0049825693735441922 -0.0025141598013615754 0 -0.0050535724287343545 -0.0024564791775768032 0 -0.0050188838174524443 -0.002394566418016011 0 -0.0050188838174524443 -0.002394566418016011 0 -0.0051306479445723851 -0.002275589843601585 0 -0.0049829299702110006 -0.0022120037052925923 0 -0.0048627868014970779 -0.0024988146570607897 0 -0.0050188838174524443 -0.002394566418016011 0 -0.0049829299702110006 -0.0022120037052925923 0 -0.0051119347084254913 -0.002401436434341838 0 -0.0050188838174524443 -0.002394566418016011 0 -0.0051306479445723851 -0.002275589843601585 0 -0.0049999991929622423 -0.0024302309900481175 0 -0.0050788781099734125 -0.0024289368339484672 0 -0.0049999998571599747 -0.0021662667863686269 0 -0.0050245853848101046 -0.0024445440544180342 0 -0.005000037795992225 -0.0021662839361152675 0 -0.0050245853848101046 -0.0024445440544180342 0 -0.0050687319897400676 -0.0022081376225228408 0 -0.0050722338740102667 -0.0024041729955637243 0 -0.0051681151899197779 -0.0021961296202865628 0 -0.0049999826205353037 -0.0021662267033102545 0 -0.0053914839468189504 -0.0025294751488209857 0 -0.0052691269529804748 -0.0024338045960890491 0 -0.0054969849185154103 -0.0023967033404869182 0 -0.0052923813166674003 -0.0026380731283868731 0 -0.0053914839468189504 -0.0025294751488209857 0 -0.0052691269529804748 -0.0024338045960890491 0 -0.0054243406149541177 -0.0026417581729160002 0 -0.0053914839468189504 -0.0025294751488209857 0 -0.0055321614665742097 -0.002552031676961484 0 -0.0051857442234984853 -0.0025958218222117651 0 -0.0052923813166674003 -0.0026380731283868731 0 -0.0052691269529804748 -0.0024338045960890491 0 -0.0051857442234984853 -0.0025958218222117651 0 -0.0051007695925995543 -0.0025152223781280173 0 -0.0052691269529804748 -0.0024338045960890491 0 -0.0051007695925995543 -0.0025152223781280173 0 -0.0051119347084254913 -0.002401436434341838 0 -0.0052691269529804748 -0.0024338045960890491 0 -0.0051200065019112104 -0.0022695663720214126 0 -0.0054759142335229719 -0.002202602786377893 0 -0.0051306479445723851 -0.002275589843601585 0 -0.0052691269529804748 -0.0024338045960890491 0 -0.0054147441287239629 -0.0022434904442565746 0 -0.0051119347084254913 -0.002401436434341838 0 -0.0051306479445723851 -0.002275589843601585 0 -0.0052691269529804748 -0.0024338045960890491 0 -0.0052691269529804748 -0.0024338045960890491 0 -0.0054147441287239629 -0.0022434904442565746 0 -0.0054969849185154103 -0.0023967033404869182 0 -0.0054523943801569053 -0.0021352316912335717 0 -0.005240712069295321 -0.0020676195049941738 0 -0.0054480525491667929 -0.0018319520156438148 0 -0.0051306479445723851 -0.002275589843601585 0 -0.0054523943801569053 -0.0021352316912335717 0 -0.005240712069295321 -0.0020676195049941738 0 -0.005240712069295321 -0.0020676195049941738 0 -0.0054480525491667929 -0.0018319520156438148 0 -0.0051404724966932916 -0.0019197355240802739 0 -0.0054480525491667929 -0.0018319520156438148 0 -0.0051404724966932916 -0.0019197355240802739 0 -0.0052974602385702984 -0.0017016527424516647 0 -0.005106914001085365 -0.0020292020364374272 0 -0.0049999826205353037 -0.0021662267033102545 0 -0.0049999800226373107 -0.0019118277220244923 0 -0.0051681151899197779 -0.0021961296202865628 0 -0.005106914001085365 -0.0020292020364374272 0 -0.0049999826205353037 -0.0021662267033102545 0 -0.0051306479445723851 -0.002275589843601585 0 -0.0049829299702110006 -0.0022120037052925923 0 -0.005240712069295321 -0.0020676195049941738 0 -0.0051681151899197779 -0.0021961296202865628 0 -0.005106914001085365 -0.0020292020364374272 0 -0.0052552376436130763 -0.0019554854195885161 0 -0.0050687319897400676 -0.0022081376225228408 0 -0.0051970944678764704 -0.0019380719540685425 0 -0.0049829299702110006 -0.0022120037052925923 0 -0.005240712069295321 -0.0020676195049941738 0 -0.0051404724966932916 -0.0019197355240802739 0 -0.005106914001085365 -0.0020292020364374272 0 -0.0052552376436130763 -0.0019554854195885161 0 -0.0051441811350076425 -0.0017944230234754211 0 -0.005106914001085365 -0.0020292020364374272 0 -0.0049999800226373107 -0.0019118277220244923 0 -0.0051441811350076425 -0.0017944230234754211 0 -0.0049999800226373107 -0.0019118277220244923 0 -0.0049999817139603922 -0.0016574108026026798 0 -0.0051441811350076425 -0.0017944230234754211 0 -0.0049999817139603922 -0.0016574108026026798 0 -0.0051441811350076425 -0.0017944230234754211 0 -0.0051911077770951169 -0.0015458722178319487 0 -0.0051441811350076425 -0.0017944230234754211 0 -0.0052974602385702984 -0.0017016527424516647 0 -0.0051911077770951169 -0.0015458722178319487 0 -0.0052552376436130763 -0.0019554854195885161 0 -0.0051441811350076425 -0.0017944230234754211 0 -0.0052974602385702984 -0.0017016527424516647 0 -0.0051970944678764704 -0.0019380719540685425 0 -0.0052894272817060328 -0.001723264317108732 0 -0.0054480525491667929 -0.0018319520156438148 0 -0.0052974602385702984 -0.0017016527424516647 0 -0.0054856650556321333 -0.0015746476292282027 0 -0.0052974602385702984 -0.0017016527424516647 0 -0.0053581590842617091 -0.0015463424585146451 0 -0.0054856650556321333 -0.0015746476292282027 0 -0.0052974602385702984 -0.0017016527424516647 0 -0.0053581590842617091 -0.0015463424585146451 0 -0.0051911077770951169 -0.0015458722178319487 0 -0.0053581590842617091 -0.0015463424585146451 0 -0.0053098906832105127 -0.001425842838277384 0 -0.0051911077770951169 -0.0015458722178319487 0 -0.0053581590842617091 -0.0015463424585146451 0 -0.0053098906832105127 -0.001425842838277384 0 -0.0054638748369068473 -0.0014274685928019827 0 -0.0053581590842617091 -0.0015463424585146451 0 -0.0054638748369068473 -0.0014274685928019827 0 -0.0054856650556321333 -0.0015746476292282027 0 -0.0053098906832105127 -0.001425842838277384 0 -0.0053850850340346973 -0.0013345424195953946 0 -0.0054638748369068473 -0.0014274685928019827 0 -0.0053850850340346973 -0.0013345424195953946 0 -0.0054638748369068473 -0.0014274685928019827 0 -0.0054549137581750692 -0.0012907123702530839 0 -0.0053098906832105127 -0.001425842838277384 0 -0.0053850850340346973 -0.0013345424195953946 0 -0.0052977504846525511 -0.0012980124185389835 0 -0.0053098906832105127 -0.001425842838277384 0 -0.0052977504846525511 -0.0012980124185389835 0 -0.0051674672717887142 -0.0013137025847776962 0 -0.0051674672717887142 -0.0013137025847776962 0 -0.004999986163432087 -0.0014030420245496585 0 -0.0049999859634562716 -0.0011486252604775132 0 -0.0049999817139603922 -0.0016574108026026798 0 -0.004999986163432087 -0.0014030420245496585 0 -0.0051911077770951169 -0.0015458722178319487 0 -0.0051674672717887142 -0.0013137025847776962 0 -0.004999986163432087 -0.0014030420245496585 0 -0.0051911077770951169 -0.0015458722178319487 0 -0.0053098906832105127 -0.001425842838277384 0 -0.0051674672717887142 -0.0013137025847776962 0 -0.0051911077770951169 -0.0015458722178319487 0 -0.0056635561243756514 -0.0014216534696525546 0 -0.0055982319036610483 -0.0013988999183554669 0 -0.0055984742579513313 -0.001489989689237697 0 -0.0055982319036610483 -0.0013988999183554669 0 -0.0055496681195885064 -0.0014320511336075778 0 -0.0055984742579513313 -0.001489989689237697 0 -0.0056635561243756514 -0.0014216534696525546 0 -0.0055984742579513313 -0.001489989689237697 0 -0.0056488926564124365 -0.0015271440428363734 0 -0.0056255627634351517 -0.0013733897583897532 0 -0.00558196514690921 -0.0012874588223186179 0 -0.0056635561243756514 -0.0014216534696525546 0 -0.0055982319036610483 -0.0013988999183554669 0 -0.0055834044717881053 -0.0012798083241906736 0 -0.0055982319036610483 -0.0013988999183554669 0 -0.0055300531723481185 -0.0013191012996570124 0 -0.0055496681195885064 -0.0014320511336075778 0 -0.0055982319036610483 -0.0013988999183554669 0 -0.0055300531723481185 -0.0013191012996570124 0 -0.0055834044717881053 -0.0012798083241906736 0 -0.0055300531723481185 -0.0013191012996570124 0 -0.0054638748369068473 -0.0014274685928019827 0 -0.0054549137581750692 -0.0012907123702530839 0 -0.0055300531723481185 -0.0013191012996570124 0 -0.0054638748369068473 -0.0014274685928019827 0 -0.0055496681195885064 -0.0014320511336075778 0 -0.0054638748369068473 -0.0014274685928019827 0 -0.0054856650556321333 -0.0015746476292282027 0 -0.0055345963423261736 -0.001509141264138158 0 -0.0054638748369068473 -0.0014274685928019827 0 -0.0055496681195885064 -0.0014320511336075778 0 -0.0055345963423261736 -0.001509141264138158 0 -0.0055496681195885064 -0.0014320511336075778 0 -0.0055345963423261736 -0.001509141264138158 0 -0.0055984742579513313 -0.001489989689237697 0 -0.005557854330845163 -0.0015461593480520298 0 -0.0055345963423261736 -0.001509141264138158 0 -0.0055984742579513313 -0.001489989689237697 0 -0.005557854330845163 -0.0015461593480520298 0 -0.0054856650556321333 -0.0015746476292282027 0 -0.0055345963423261736 -0.001509141264138158 0 -0.005612816024719869 -0.0016101535407334888 0 -0.0054926785993055748 -0.0015747657140731824 0 -0.0054480525491667929 -0.0018319520156438148 0 -0.0054856650556321333 -0.0015746476292282027 0 -0.0055797742607272124 -0.0017241606600455544 0 -0.0056870009958583743 -0.001674633716893215 0 -0.0054856650556321333 -0.0015746476292282027 0 -0.0055797742607272124 -0.0017241606600455544 0 -0.0056870009958583743 -0.001674633716893215 0 -0.0056964539547330745 -0.0017501951133467271 0 -0.0057032866098730584 -0.0017166416578122798 0 -0.0056870009958583743 -0.001674633716893215 0 -0.0055797742607272124 -0.0017241606600455544 0 -0.0056964539547330745 -0.0017501951133467271 0 -0.0056964539547330745 -0.0017501951133467271 0 -0.0057032866098730584 -0.0017166416578122798 0 -0.0056948619332688926 -0.0017220150908473821 0 -0.005612816024719869 -0.0016101535407334888 0 -0.0056588441583067042 -0.0016336430087410887 0 -0.005557854330845163 -0.0015461593480520298 0 -0.0056152498919651347 -0.0015558937644734525 0 -0.0055984742579513313 -0.001489989689237697 0 -0.0056152498919651347 -0.0015558937644734525 0 -0.0055984742579513313 -0.001489989689237697 0 -0.0056488926564124365 -0.0015271440428363734 0 -0.0056152498919651347 -0.0015558937644734525 0 -0.0056488926564124365 -0.0015271440428363734 0 -0.0056469838405026783 -0.0015729583128534965 0 -0.0056588441583067042 -0.0016336430087410887 0 -0.0056649570901707641 -0.0016327014143377942 0 -0.0057032866098730584 -0.0017166416578122798 0 -0.0056847816785171989 -0.001698776588420464 0 -0.0056746692898279457 -0.0016890747642310216 0 -0.0057032866098730584 -0.0017166416578122798 0 -0.0056948619332688926 -0.0017220150908473821 0 -0.0056847816785171989 -0.001698776588420464 0 -0.0050963997344622008 -0.0018221012312321756 0 -0.0048251213134321144 -0.0018952206141784453 0 -0.0050164579402787847 -0.0020578455867454547 0 -0.0056948619332688926 -0.0017220150908473821 0 -0.0056847816785171989 -0.001698776588420464 0 -0.0057041086237507267 -0.0017103146496717477 0 -0.005339939020129302 -0.0017360980248091286 0 -0.0055002790224029808 -0.0019974579275031808 0 -0.0050963997344622008 -0.0018221012312321756 0 -0.0052108390060907643 -0.0019900530747297045 0 -0.0052903745500587612 -0.0018783228791738901 0 -0.0050963997344622008 -0.0018221012312321756 0 -0.0050164579402787847 -0.0020578455867454547 0 -0.0052108390060907643 -0.0019900530747297045 0 -0.0055797742607272124 -0.0017241606600455544 0 -0.0056964539547330745 -0.0017501951133467271 0 -0.0055945639045534177 -0.0019036787608692498 0 -0.0054480525491667929 -0.0018319520156438148 0 -0.0055797742607272124 -0.0017241606600455544 0 -0.0055945639045534177 -0.0019036787608692498 0 -0.0054523943801569053 -0.0021352316912335717 0 -0.0054480525491667929 -0.0018319520156438148 0 -0.0055945639045534177 -0.0019036787608692498 0 -0.0056964539547330745 -0.0017501951133467271 0 -0.0056948619332688926 -0.0017220150908473821 0 -0.0057041086237507267 -0.0017103146496717477 0 -0.0056964539547330745 -0.0017501951133467271 0 -0.0055945639045534177 -0.0019036787608692498 0 -0.0057329019461095365 -0.0020430394716717927 0 -0.0057452696798326614 -0.0017098862464300052 0 -0.0055002790224029808 -0.0019974579275031808 0 -0.0054523943801569053 -0.0021352316912335717 0 -0.0055945639045534177 -0.0019036787608692498 0 -0.0057329019461095365 -0.0020430394716717927 0 -0.0054759142335229719 -0.002202602786377893 0 -0.0055002790224029808 -0.0019974579275031808 0 -0.0054147441287239629 -0.0022434904442565746 0 -0.0057025723426582242 -0.0021752203887498412 0 -0.0054969849185154103 -0.0023967033404869182 0 -0.0048251213134321144 -0.0018952206141784453 0 -0.0048304249920783872 -0.0021125322823025349 0 -0.0050164579402787847 -0.0020578455867454547 0 -0.0055002790224029808 -0.0019974579275031808 0 -0.0052563073167681586 -0.0022703765870474113 0 -0.0057025723426582242 -0.0021752203887498412 0 -0.0054969849185154103 -0.0023967033404869182 0 -0.0057116778493438618 -0.0024030966070379494 0 -0.005270631407784325 -0.0024545842783480422 0 -0.0052563073167681586 -0.0022703765870474113 0 -0.0048409086353956958 -0.0023316410785525796 0 -0.0048304249920783872 -0.0021125322823025349 0 -0.0049343309788621821 -0.0021972057316742392 0 -0.0057181037976685037 -0.0026407504772975074 0 -0.0057116778493438618 -0.0024030966070379494 0 -0.0055321614665742097 -0.002552031676961484 0 -0.0054969849185154103 -0.0023967033404869182 0 -0.0057116778493438618 -0.0024030966070379494 0 -0.0055321614665742097 -0.002552031676961484 0 -0.0053914839468189504 -0.0025294751488209857 0 -0.0054969849185154103 -0.0023967033404869182 0 -0.0055321614665742097 -0.002552031676961484 0 -0.0050164579402787847 -0.0020578455867454547 0 -0.0051868797829266993 -0.0021369527206004956 0 -0.0052108390060907643 -0.0019900530747297045 0 -0.0050502519914794423 -0.002285542397892686 0 -0.0050164579402787847 -0.0020578455867454547 0 -0.0049343309788621821 -0.0021972057316742392 0 -0.0050502519914794423 -0.002285542397892686 0 -0.0048409086353956958 -0.0023316410785525796 0 -0.0049343309788621821 -0.0021972057316742392 0 -0.0048304249920783872 -0.0021125322823025349 0 -0.0050164579402787847 -0.0020578455867454547 0 -0.0049343309788621821 -0.0021972057316742392 0 -0.0050502519914794423 -0.002285542397892686 0 -0.0051868797829266993 -0.0021369527206004956 0 -0.0052370694439334278 -0.0022564432134033934 0 -0.0050502519914794423 -0.002285542397892686 0 -0.0050164579402787847 -0.0020578455867454547 0 -0.0051868797829266993 -0.0021369527206004956 0 -0.0053245633945215084 -0.002333072780428123 0 -0.0052370694439334278 -0.0022564432134033934 0 -0.0053609506322789564 -0.0022329208569394224 0 -0.0052370694439334278 -0.0022564432134033934 0 -0.0053609506322789564 -0.0022329208569394224 0 -0.0053006673305115116 -0.0021724475979450239 0 -0.0053006673305115116 -0.0021724475979450239 0 -0.0053200954550152385 -0.0020763309468749829 0 -0.0053733602084056788 -0.0021538782063409362 0 -0.0053609506322789564 -0.0022329208569394224 0 -0.0053006673305115116 -0.0021724475979450239 0 -0.0053733602084056788 -0.0021538782063409362 0 -0.0051868797829266993 -0.0021369527206004956 0 -0.0053006673305115116 -0.0021724475979450239 0 -0.0053200954550152385 -0.0020763309468749829 0 -0.0051868797829266993 -0.0021369527206004956 0 -0.0052370694439334278 -0.0022564432134033934 0 -0.0053006673305115116 -0.0021724475979450239 0 -0.0051868797829266993 -0.0021369527206004956 0 -0.0053200954550152385 -0.0020763309468749829 0 -0.0052108390060907643 -0.0019900530747297045 0 -0.0053200954550152385 -0.0020763309468749829 0 -0.005358070098867327 -0.0019807888972448689 0 -0.0054172361544733028 -0.0020849718165641116 0 -0.0053200954550152385 -0.0020763309468749829 0 -0.005358070098867327 -0.0019807888972448689 0 -0.0052108390060907643 -0.0019900530747297045 0 -0.005358070098867327 -0.0019807888972448689 0 -0.005516417608229217 -0.0019997589020122747 0 -0.0054172361544733028 -0.0020849718165641116 0 -0.0053200954550152385 -0.0020763309468749829 0 -0.0054172361544733028 -0.0020849718165641116 0 -0.0053733602084056788 -0.0021538782063409362 0 -0.005516417608229217 -0.0019997589020122747 0 -0.0054727193800447041 -0.0021133279706389246 0 -0.0055280392746265205 -0.0021505621231654986 0 -0.005516417608229217 -0.0019997589020122747 0 -0.0054172361544733028 -0.0020849718165641116 0 -0.0054727193800447041 -0.0021133279706389246 0 -0.0054270835446044588 -0.0023874432112599617 0 -0.0054207304520481857 -0.0022628949115656967 0 -0.0055422418689549807 -0.0021847389264032621 0 -0.0054172361544733028 -0.0020849718165641116 0 -0.0054727193800447041 -0.0021133279706389246 0 -0.0054485813022507219 -0.0021762367323074272 0 -0.0053371874578128434 -0.0024591409420212677 0 -0.0053716350221184291 -0.002361053245463748 0 -0.0053630724844197066 -0.0023458618018278301 0 -0.0054485813022507219 -0.0021762367323074272 0 -0.0055280392746265205 -0.0021505621231654986 0 -0.0055422418689549807 -0.0021847389264032621 0 -0.0054727193800447041 -0.0021133279706389246 0 -0.0054485813022507219 -0.0021762367323074272 0 -0.0055280392746265205 -0.0021505621231654986 0 -0.0054172361544733028 -0.0020849718165641116 0 -0.0054485813022507219 -0.0021762367323074272 0 -0.0053733602084056788 -0.0021538782063409362 0 -0.0053609506322789564 -0.0022329208569394224 0 -0.0054485813022507219 -0.0021762367323074272 0 -0.0053733602084056788 -0.0021538782063409362 0 -0.0053609506322789564 -0.0022329208569394224 0 -0.0054485813022507219 -0.0021762367323074272 0 -0.0054207304520481857 -0.0022628949115656967 0 -0.0053245633945215084 -0.002333072780428123 0 -0.0053609506322789564 -0.0022329208569394224 0 -0.0054207304520481857 -0.0022628949115656967 0 -0.0054485813022507219 -0.0021762367323074272 0 -0.0054207304520481857 -0.0022628949115656967 0 -0.0055422418689549807 -0.0021847389264032621 0 -0.002966473513171094 -0.0022202178747340756 0 -0.0028911247553727627 -0.0022032375094572319 0 -0.0029492540089161618 -0.0022513341153615482 0 -0.0028911247553727627 -0.0022032375094572319 0 -0.0028617987739605966 -0.0022832960407029416 0 -0.0029492540089161618 -0.0022513341153615482 0 -0.0048795561148847451 -0.0023281640375994806 0 -0.0047628922951602638 -0.002295780401839643 0 -0.0029683502737563199 -0.0022209906869323911 0 -0.0029779615907604773 -0.0022458088492708144 0 -0.0029492540089161618 -0.0022513341153615482 0 -0.0041417845176888258 -0.0023070355889858525 0 -0.0047628922951602638 -0.002295780401839643 0 -0.0041417845176888258 -0.0023070355889858525 0 -0.0038982333963107022 -0.0024282953621869762 0 -0.0027246270269111017 -0.0020831168968074567 0 -0.0027932097565514487 -0.0022211606458614535 0 -0.0026811111044681736 -0.0022392085119019444 0 -0.0028911247553727627 -0.0022032375094572319 0 -0.0028617987739605966 -0.0022832960407029416 0 -0.0027932097565514487 -0.0022211606458614535 0 -0.0028617987739605966 -0.0022832960407029416 0 -0.0027932097565514487 -0.0022211606458614535 0 -0.0028032477626584022 -0.0023346558996713228 0 -0.0027932097565514487 -0.0022211606458614535 0 -0.0028032477626584022 -0.0023346558996713228 0 -0.0027273953603263925 -0.0023171301879140651 0 -0.0027932097565514487 -0.0022211606458614535 0 -0.0026811111044681736 -0.0022392085119019444 0 -0.0027273953603263925 -0.0023171301879140651 0 -0.0028032477626584022 -0.0023346558996713228 0 -0.0027273953603263925 -0.0023171301879140651 0 -0.0027519518471322453 -0.0024042381964442835 0 -0.0028617987739605966 -0.0022832960407029416 0 -0.0028032477626584022 -0.0023346558996713228 0 -0.0028656198220146185 -0.0023860835730476946 0 -0.0028032477626584022 -0.0023346558996713228 0 -0.0028656198220146185 -0.0023860835730476946 0 -0.0027723616818082046 -0.0023960156942280622 0 -0.0028032477626584022 -0.0023346558996713228 0 -0.0027723616818082046 -0.0023960156942280622 0 -0.0027519518471322453 -0.0024042381964442835 0 -0.005516417608229217 -0.0019997589020122747 0 -0.0055280392746265205 -0.0021505621231654986 0 -0.0056673760146100319 -0.0019698944804168983 0 -0.0028617987739605966 -0.0022832960407029416 0 -0.0029492540089161618 -0.0022513341153615482 0 -0.0028656198220146185 -0.0023860835730476946 0 -0.0047628922951602638 -0.002295780401839643 0 -0.0042105677802186459 -0.0021941946917927338 0 -0.0029779615907604773 -0.0022458088492708144 0 -0.0029492540089161618 -0.0022513341153615482 0 -0.0028656198220146185 -0.0023860835730476946 0 -0.0055280392746265205 -0.0021505621231654986 0 -0.0055432951212916609 -0.0021879616152175041 0 -0.0056673760146100319 -0.0019698944804168983 0 -0.005516417608229217 -0.0019997589020122747 0 -0.0056673760146100319 -0.0019698944804168983 0 -0.0055693782491359079 -0.0018239965356762352 0 -0.0056673760146100319 -0.0019698944804168983 0 -0.0056754465347924497 -0.0017662127848339807 0 -0.0055693782491359079 -0.0018239965356762352 0 -0.0027723616818082046 -0.0023960156942280622 0 -0.0028140675353957251 -0.0024257193418144615 0 -0.002806864748580331 -0.0024307840854412119 0 -0.0028656198220146185 -0.0023860835730476946 0 -0.0027723616818082046 -0.0023960156942280622 0 -0.002806864748580331 -0.0024307840854412119 0 -0.0056673760146100319 -0.0019698944804168983 0 -0.0056754465347924497 -0.0017662127848339807 0 -0.0057752848621759169 -0.0017289688999081539 0 -0.0042105677802186459 -0.0021941946917927338 0 -0.0043650777834807761 -0.0020510669412451112 0 -0.0027723616818082046 -0.0023960156942280622 0 -0.0027573541864904486 -0.0022149669466598417 0 -0.0028069460854888372 -0.0023105410734855299 0 -0.002779369609535592 -0.0023582512585831779 0 -0.0027596988891604398 -0.0023819254241161849 0 -0.0028140675353957251 -0.0024257193418144615 0 -0.002806864748580331 -0.0024307840854412119 0 -0.0028315099406928048 -0.0023711959873684661 0 -0.0043650777834807761 -0.0020510669412451112 0 -0.0036414013716550659 -0.0019108079934089975 0 -0.0057752848621759169 -0.0017289688999081539 0 -0.0057030268120268823 -0.0016383608216924189 0 -0.0058179097267571913 -0.0015772767040714477 0 -0.0056754465347924497 -0.0017662127848339807 0 -0.0057752848621759169 -0.0017289688999081539 0 -0.0057030268120268823 -0.0016383608216924189 0 -0.0056754465347924497 -0.0017662127848339807 0 -0.0055693782491359079 -0.0018239965356762352 0 -0.0057030268120268823 -0.0016383608216924189 0 -0.0055693782491359079 -0.0018239965356762352 0 -0.0057030268120268823 -0.0016383608216924189 0 -0.0055177200482261169 -0.0017652620450457296 0 -0.0057030268120268823 -0.0016383608216924189 0 -0.0056733518908283053 -0.00163136307234269 0 -0.0056881977210338436 -0.0016048409495772098 0 -0.0057030268120268823 -0.0016383608216924189 0 -0.0056733518908283053 -0.00163136307234269 0 -0.0056650707953609814 -0.0016538663410045544 0 -0.0056900123366146905 -0.0016414049331229799 0 -0.0055344355288857927 -0.0016965416123311283 0 -0.0057030268120268823 -0.0016383608216924189 0 -0.0055177200482261169 -0.0017652620450457296 0 -0.0053754674238691621 -0.0017322789451469059 0 -0.0056781487596325383 -0.0016336106241884609 0 -0.0056649570901707641 -0.0016327014143377942 0 -0.005339939020129302 -0.0017360980248091286 0 -0.0055344355288857927 -0.0016965416123311283 0 -0.0056847816785171989 -0.001698776588420464 0 -0.0056650707953609814 -0.0016538663410045544 0 -0.0056746692898279457 -0.0016890747642310216 0 -0.0056733518908283053 -0.00163136307234269 0 -0.0056650707953609814 -0.0016538663410045544 0 -0.0056746692898279457 -0.0016890747642310216 0 -0.0050963997344622008 -0.0018221012312321756 0 -0.0053754674238691621 -0.0017322789451469059 0 -0.0052903745500587612 -0.0018783228791738901 0 -0.0053754674238691621 -0.0017322789451469059 0 -0.0052903745500587612 -0.0018783228791738901 0 -0.0054269876370937184 -0.0018617438248467314 0 -0.005358070098867327 -0.0019807888972448689 0 -0.0052108390060907643 -0.0019900530747297045 0 -0.0052903745500587612 -0.0018783228791738901 0 -0.005358070098867327 -0.0019807888972448689 0 -0.0052903745500587612 -0.0018783228791738901 0 -0.0054269876370937184 -0.0018617438248467314 0 -0.005358070098867327 -0.0019807888972448689 0 -0.005516417608229217 -0.0019997589020122747 0 -0.0054269876370937184 -0.0018617438248467314 0 -0.005516417608229217 -0.0019997589020122747 0 -0.0055693782491359079 -0.0018239965356762352 0 -0.0054269876370937184 -0.0018617438248467314 0 -0.0055693782491359079 -0.0018239965356762352 0 -0.0055177200482261169 -0.0017652620450457296 0 -0.0054269876370937184 -0.0018617438248467314 0 -0.0055177200482261169 -0.0017652620450457296 0 -0.0053754674238691621 -0.0017322789451469059 0 -0.0054269876370937184 -0.0018617438248467314 0 -0.0019569318057095116 -0.002329764630941126 0 -0.001998992299171496 -0.0025008730552478391 0 -0.0017541090779844438 -0.0024628053045980137 0 -0.0019569318057095116 -0.002329764630941126 0 -0.0021474894227259279 -0.0024042999756056448 0 -0.001998992299171496 -0.0025008730552478391 0 -0.0019569318057095116 -0.002329764630941126 0 -0.0017457940091370643 -0.0022344951253126665 0 -0.0017541090779844438 -0.0024628053045980137 0 -0.0019569318057095116 -0.002329764630941126 0 -0.0019597430656638063 -0.0021084997762736311 0 -0.0017457940091370643 -0.0022344951253126665 0 -0.0020298732620549938 -0.0021451652160153732 0 -0.0020959339709915748 -0.0023048348790881178 0 -0.0019526294632472478 -0.0022199179351507087 0 -0.0019569318057095116 -0.002329764630941126 0 -0.0019597430656638063 -0.0021084997762736311 0 -0.002146088654100996 -0.0022605012755532207 0 -0.0019597430656638063 -0.0021084997762736311 0 -0.002146088654100996 -0.0022605012755532207 0 -0.0023523355090749572 -0.0021487842780241189 0 -0.0021893798532754906 -0.0022088420513332483 0 -0.0023343183420263575 -0.0022203886596777632 0 -0.0020959339709915748 -0.0023048348790881178 0 -0.0023042712218633737 -0.0022154284766894724 0 -0.0023932044595936269 -0.0022926812135001854 0 -0.0021347230459918209 -0.0021803146790131374 0 -0.0020959339709915748 -0.0023048348790881178 0 -0.0023042712218633737 -0.0022154284766894724 0 -0.002146088654100996 -0.0022605012755532207 0 -0.0023147412258680408 -0.0023168584791620869 0 -0.0023523355090749572 -0.0021487842780241189 0 -0.002146088654100996 -0.0022605012755532207 0 -0.0021474894227259279 -0.0024042999756056448 0 -0.0023147412258680408 -0.0023168584791620869 0 -0.0019569318057095116 -0.002329764630941126 0 -0.002146088654100996 -0.0022605012755532207 0 -0.0021474894227259279 -0.0024042999756056448 0 -0.0021474894227259279 -0.0024042999756056448 0 -0.0023092895900549545 -0.0024720773432947585 0 -0.0023147412258680408 -0.0023168584791620869 0 -0.0023092895900549545 -0.0024720773432947585 0 -0.0024476836775142075 -0.002381444390825336 0 -0.0023147412258680408 -0.0023168584791620869 0 -0.0023092895900549545 -0.0024720773432947585 0 -0.0024476836775142075 -0.002381444390825336 0 -0.0024761375195934032 -0.0025210790818385857 0 -0.0024476836775142075 -0.002381444390825336 0 -0.0025608726519280893 -0.002395842196455303 0 -0.0024761375195934032 -0.0025210790818385857 0 -0.0024476836775142075 -0.002381444390825336 0 -0.0024378476137910418 -0.0022635819689954474 0 -0.0025564900946669971 -0.0023148369733357308 0 -0.0024476836775142075 -0.002381444390825336 0 -0.0025564900946669971 -0.0023148369733357308 0 -0.0025608726519280893 -0.002395842196455303 0 -0.0024476836775142075 -0.002381444390825336 0 -0.0024378476137910418 -0.0022635819689954474 0 -0.0023147412258680408 -0.0023168584791620869 0 -0.0024692792141421246 -0.0021720744566111959 0 -0.0023932044595936269 -0.0022926812135001854 0 -0.0026811111044681736 -0.0022392085119019444 0 -0.0024378476137910418 -0.0022635819689954474 0 -0.0023523355090749572 -0.0021487842780241189 0 -0.0026811111044681736 -0.0022392085119019444 0 -0.0023343183420263575 -0.0022203886596777632 0 -0.0026680069986757364 -0.0022371403938242461 0 -0.0024378476137910418 -0.0022635819689954474 0 -0.0023147412258680408 -0.0023168584791620869 0 -0.0023523355090749572 -0.0021487842780241189 0 -0.0024692792141421246 -0.0021720744566111959 0 -0.0023042712218633737 -0.0022154284766894724 0 -0.0023932044595936269 -0.0022926812135001854 0 -0.0025613430427128686 -0.0021034198459286011 0 -0.0024692792141421246 -0.0021720744566111959 0 -0.0026811111044681736 -0.0022392085119019444 0 -0.0024378476137910418 -0.0022635819689954474 0 -0.0026811111044681736 -0.0022392085119019444 0 -0.0025564900946669971 -0.0023148369733357308 0 -0.0026811111044681736 -0.0022392085119019444 0 -0.0027273953603263925 -0.0023171301879140651 0 -0.0026374152796572853 -0.0023266151215996299 0 -0.0027273953603263925 -0.0023171301879140651 0 -0.0026374152796572853 -0.0023266151215996299 0 -0.0026615784494633302 -0.0023838084660443419 0 -0.0026811111044681736 -0.0022392085119019444 0 -0.0025564900946669971 -0.0023148369733357308 0 -0.0026374152796572853 -0.0023266151215996299 0 -0.0025564900946669971 -0.0023148369733357308 0 -0.0026374152796572853 -0.0023266151215996299 0 -0.0025608726519280893 -0.002395842196455303 0 -0.0026374152796572853 -0.0023266151215996299 0 -0.0025608726519280893 -0.002395842196455303 0 -0.0026615784494633302 -0.0023838084660443419 0 -0.0025608726519280893 -0.002395842196455303 0 -0.0026615784494633302 -0.0023838084660443419 0 -0.002603062358778861 -0.0024749564218921275 0 -0.0025608726519280893 -0.002395842196455303 0 -0.002603062358778861 -0.0024749564218921275 0 -0.0024761375195934032 -0.0025210790818385857 0 -0.0027519518471322453 -0.0024042381964442835 0 -0.0026615784494633302 -0.0023838084660443419 0 -0.002603062358778861 -0.0024749564218921275 0 -0.0027273953603263925 -0.0023171301879140651 0 -0.0027519518471322453 -0.0024042381964442835 0 -0.0026615784494633302 -0.0023838084660443419 0 -0.0027666041600084715 -0.0024057587286023916 0 -0.0027291998759458986 -0.0024911803081789541 0 -0.0027723616818082046 -0.0023960156942280622 0 -0.0028017800508726978 -0.0023553784330265877 0 -0.0028069460854888372 -0.0023105410734855299 0 -0.0027519518471322453 -0.0024042381964442835 0 -0.0028017800508726978 -0.0023553784330265877 0 -0.0029104126892362976 -0.002309586464716286 0 -0.0027723616818082046 -0.0023960156942280622 0 -0.0027519518471322453 -0.0024042381964442835 0 -0.0028017800508726978 -0.0023553784330265877 0 -0.002603062358778861 -0.0024749564218921275 0 -0.002584907348509529 -0.0026384025996303915 0 -0.0024761375195934032 -0.0025210790818385857 0 -0.0027519518471322453 -0.0024042381964442835 0 -0.002603062358778861 -0.0024749564218921275 0 -0.002584907348509529 -0.0026384025996303915 0 -0.0029104126892362976 -0.002309586464716286 0 -0.002835612390188356 -0.0022480750653952942 0 -0.0029104132755346404 -0.002218535255844244 0 -0.0027573541864904486 -0.0022149669466598417 0 -0.0028069460854888372 -0.0023105410734855299 0 -0.002835612390188356 -0.0022480750653952942 0 -0.0028017800508726978 -0.0023553784330265877 0 -0.0029104126892362976 -0.002309586464716286 0 -0.0028069460854888372 -0.0023105410734855299 0 -0.0029104126892362976 -0.002309586464716286 0 -0.0028069460854888372 -0.0023105410734855299 0 -0.002835612390188356 -0.0022480750653952942 0 -0.0027596988891604398 -0.0023819254241161849 0 -0.0036414013716550659 -0.0019108079934089975 0 -0.0027573541864904486 -0.0022149669466598417 0 -0.002835612390188356 -0.0022480750653952942 0 -0.0028589917926969636 -0.0021227654894547484 0 -0.0027573541864904486 -0.0022149669466598417 0 -0.0028589917926969636 -0.0021227654894547484 0 -0.0027928458275126859 -0.0019633489929021313 0 -0.0028589917926969636 -0.0021227654894547484 0 -0.0029520870101714396 -0.0020779471154654785 0 -0.0029015866892522428 -0.0019661886917668389 0 -0.0028589917926969636 -0.0021227654894547484 0 -0.0029520870101714396 -0.0020779471154654785 0 -0.0029104132755346404 -0.002218535255844244 0 -0.002835612390188356 -0.0022480750653952942 0 -0.0028589917926969636 -0.0021227654894547484 0 -0.0029104132755346404 -0.002218535255844244 0 -0.0027291998759458986 -0.0024911803081789541 0 -0.0026916708735621794 -0.0022685137549073265 0 -0.0030121602502088543 -0.0021502475301544491 0 -0.0026916708735621794 -0.0022685137549073265 0 -0.0029104126892362976 -0.002309586464716286 0 -0.0029104132755346404 -0.002218535255844244 0 -0.0030408405206461173 -0.0021467108758032741 0 -0.002584907348509529 -0.0026384025996303915 0 -0.0024131122529322925 -0.0028514161279506313 0 -0.0024235301449204386 -0.0026870954976268178 0 -0.0029520870101714396 -0.0020779471154654785 0 -0.0030774392358224089 -0.0021295058095563354 0 -0.0030106309949824027 -0.001950546389623686 0 -0.0029520870101714396 -0.0020779471154654785 0 -0.0029104132755346404 -0.002218535255844244 0 -0.0030774392358224089 -0.0021295058095563354 0 -0.0026916708735621794 -0.0022685137549073265 0 -0.0016365815730899833 -0.0020612675999938227 0 -0.0026916708735621794 -0.0022685137549073265 0 -0.0024135761985797401 -0.0016358572174780682 0 -0.0024131122529322925 -0.0028514161279506313 0 -0.0024235301449204386 -0.0026870954976268178 0 -0.0022481385641834732 -0.0027376117226416644 0 -0.0023272986148749329 -0.0026133001090468209 0 -0.0024235301449204386 -0.0026870954976268178 0 -0.0022481385641834732 -0.0027376117226416644 0 -0.0023272986148749329 -0.0026133001090468209 0 -0.0024235301449204386 -0.0026870954976268178 0 -0.0024761375195934032 -0.0025210790818385857 0 -0.002584907348509529 -0.0026384025996303915 0 -0.0024235301449204386 -0.0026870954976268178 0 -0.0024761375195934032 -0.0025210790818385857 0 -0.0023092895900549545 -0.0024720773432947585 0 -0.0023272986148749329 -0.0026133001090468209 0 -0.0024761375195934032 -0.0025210790818385857 0 -0.0021462330390223301 -0.0025882869571803055 0 -0.0022481385641834732 -0.0027376117226416644 0 -0.001986126184901012 -0.002714925050866894 0 -0.0021474894227259279 -0.0024042999756056448 0 -0.0023092895900549545 -0.0024720773432947585 0 -0.0021462330390223301 -0.0025882869571803055 0 -0.0023092895900549545 -0.0024720773432947585 0 -0.0023272986148749329 -0.0026133001090468209 0 -0.0021462330390223301 -0.0025882869571803055 0 -0.0021474894227259279 -0.0024042999756056448 0 -0.0021462330390223301 -0.0025882869571803055 0 -0.001998992299171496 -0.0025008730552478391 0 -0.0023272986148749329 -0.0026133001090468209 0 -0.0021462330390223301 -0.0025882869571803055 0 -0.0022481385641834732 -0.0027376117226416644 0 -0.0022481385641834732 -0.0027376117226416644 0 -0.001986126184901012 -0.002714925050866894 0 -0.0022028349793150243 -0.0029613107952105103 0 -0.0010974306171832931 -0.0023764045061095036 0 -0.0016365815730899833 -0.0020612675999938227 0 -0.0002673936555281 -0.001968717886904987 0 -0.00026760010157763817 -0.0019738249305247535 0 -0.00027768236964166495 -0.0019700586785226263 0 -0.0024131122529322925 -0.0028514161279506313 0 -0.0022481385641834732 -0.0027376117226416644 0 -0.0022028349793150243 -0.0029613107952105103 0 -0.0002673936555281 -0.001968717886904987 0 -0.00026760010157763817 -0.0019738249305247535 0 -0.00026360754603322077 -0.0019727268800907942 0 -0.001986126184901012 -0.002714925050866894 0 -0.001998992299171496 -0.0025008730552478391 0 -0.0017541090779844438 -0.0024628053045980137 0 -0.0010974306171832931 -0.0023764045061095036 0 -0.0010457946999407725 -0.0022271308795313465 0 -0.00026760010157763817 -0.0019738249305247535 0 -0.00026360754603322077 -0.0019727268800907942 0 -0.00026704250339066834 -0.0019840282846079874 0 -0.0021462330390223301 -0.0025882869571803055 0 -0.001986126184901012 -0.002714925050866894 0 -0.001998992299171496 -0.0025008730552478391 0 -0.0012727611560163371 -0.0016279278775387734 0 -0.0011846854576769692 -0.0013868018767431137 0 -0.001536469677417594 -0.0013044427280016575 0 -0.0012727611560163371 -0.0016279278775387734 0 -0.0011846854576769692 -0.0013868018767431137 0 -0.0010354546134021198 -0.0016629092583734986 0 -0.0002673936555281 -0.001968717886904987 0 -0.00026248777615083983 -0.0019602232147024243 0 -0.00026360754603322077 -0.0019727268800907942 0 -0.0002673936555281 -0.001968717886904987 0 -0.00026248777615083983 -0.0019602232147024243 0 -0.00027768236964166495 -0.0019700586785226263 0 -0.00061090741506088307 -0.0016599887760257554 0 -0.0016365815730899833 -0.0020612675999938227 0 -0.0011846854576769692 -0.0013868018767431137 0 -0.0014781631494682329 -0.001236459562321794 0 -0.001536469677417594 -0.0013044427280016575 0 -0.0024144877342907154 -0.0020022427677456075 0 -0.0022692837860132111 -0.002077025838627474 0 -0.0023120577996663567 -0.0021268946072753444 0 -0.0016365815730899833 -0.0020612675999938227 0 -0.0024135761985797401 -0.0016358572174780682 0 -0.0023746934934867248 -0.0014220111237005803 0 -0.0026758298645408996 -0.0010440931657601116 0 -0.0026383904403316245 -0.0013846245787609433 0 -0.0017409571874116736 -0.0015078544682095986 0 -0.0024135761985797401 -0.0016358572174780682 0 -0.0026383904403316245 -0.0013846245787609433 0 -0.0028853443953122259 -0.001284613577431145 0 -0.0027542158026008135 -0.0016221948808520733 0 -0.0026758298645408996 -0.0010440931657601116 0 -0.0026383904403316245 -0.0013846245787609433 0 -0.0028853443953122259 -0.001284613577431145 0 -0.0030438997276923839 -0.0017641367286169109 0 -0.0030106309949824027 -0.001950546389623686 0 -0.0029268386122316284 -0.0017828789037980326 0 -0.0024135761985797401 -0.0016358572174780682 0 -0.0029422249182023694 -0.0015185349626592331 0 -0.0032024099915595513 -0.0019619942030579306 0 -0.0030438997276923839 -0.0017641367286169109 0 -0.0030106309949824027 -0.001950546389623686 0 -0.0030774392358224089 -0.0021295058095563354 0 -0.0032024099915595513 -0.0019619942030579306 0 -0.0030106309949824027 -0.001950546389623686 0 -0.0030106309949824027 -0.001950546389623686 0 -0.0029015866892522428 -0.0019661886917668389 0 -0.0029268386122316284 -0.0017828789037980326 0 -0.0029015866892522428 -0.0019661886917668389 0 -0.0028427199807450395 -0.0018791634238134905 0 -0.0029268386122316284 -0.0017828789037980326 0 -0.0029520870101714396 -0.0020779471154654785 0 -0.0030106309949824027 -0.001950546389623686 0 -0.0029015866892522428 -0.0019661886917668389 0 -0.0028589917926969636 -0.0021227654894547484 0 -0.0029015866892522428 -0.0019661886917668389 0 -0.0027928458275126859 -0.0019633489929021313 0 -0.0029015866892522428 -0.0019661886917668389 0 -0.0027928458275126859 -0.0019633489929021313 0 -0.0028427199807450395 -0.0018791634238134905 0 -0.0036414013716550659 -0.0019108079934089975 0 -0.0032624488689797816 -0.0020695815588475798 0 -0.0027993492605028567 -0.0019588679251862332 0 -0.0028427199807450395 -0.0018791634238134905 0 -0.0028692384979416602 -0.001573404911983445 0 -0.0030438997276923839 -0.0017641367286169109 0 -0.0029268386122316284 -0.0017828789037980326 0 -0.002892784197462181 -0.001567004886492717 0 -0.0028427199807450395 -0.0018791634238134905 0 -0.0029268386122316284 -0.0017828789037980326 0 -0.0028692384979416602 -0.001573404911983445 0 -0.0029268386122316284 -0.0017828789037980326 0 -0.0028692384979416602 -0.001573404911983445 0 -0.002892784197462181 -0.001567004886492717 0 -0.0036414013716550659 -0.0019108079934089975 0 -0.0045603464184522336 -0.0013470403350892366 0 -0.0029422249182023694 -0.0015185349626592331 0 -0.0038695085142977444 -0.0012614193188329307 0 -0.0057966246393454778 -0.0014028006227877238 0 -0.0057903025989569342 -0.0013938492420552584 0 -0.0058014620393601933 -0.0013355080281636329 0 -0.0036910228998125504 -0.00039130852587197318 0 -0.0036293625917196669 -0.00079359076514320416 0 -0.0034693820500951871 -0.00056201057447288836 0 -0.0045603464184522336 -0.0013470403350892366 0 -0.0059760434665189913 -0.0012687338147532939 0 -0.0057959709445794165 -0.0014102979342506374 0 -0.0057903025989569342 -0.0013938492420552584 0 -0.0057718564179018664 -0.0013995429839569629 0 -0.0057959709445794165 -0.0014102979342506374 0 -0.0057966887829974841 -0.0014025737722622588 0 -0.0057903025989569342 -0.0013938492420552584 0 -0.0043590457110633416 -0.0017419899888781298 0 -0.0044608925211897816 -0.0010698820571958105 0 -0.0048979293675209439 -0.00159422562265208 0 -0.0045603464184522336 -0.0013470403350892366 0 -0.0044871060236951399 -0.001244753756315444 0 -0.0045603464184522336 -0.0013470403350892366 0 -0.0038695085142977444 -0.0012614193188329307 0 -0.0044871060236951399 -0.001244753756315444 0 -0.0038695085142977444 -0.0012614193188329307 0 -0.0044871060236951399 -0.001244753756315444 0 -0.0047784097665577643 -0.0014417041996931538 0 -0.0036910228998125504 -0.00039130852587197318 0 -0.0036582155188417315 -0.00035216297443610857 0 -0.0034693820500951871 -0.00056201057447288836 0 -0.0057903025989569342 -0.0013938492420552584 0 -0.0057769814226786781 -0.0013554991702696569 0 -0.0057718564179018664 -0.0013995429839569629 0 -0.0044871060236951399 -0.001244753756315444 0 -0.0047316752123716475 -0.00099132114161056212 0 -0.0057903025989569342 -0.0013938492420552584 0 -0.0057769814226786781 -0.0013554991702696569 0 -0.0058014620393601933 -0.0013355080281636329 0 -0.0036293625917196669 -0.00079359076514320416 0 -0.0034693820500951871 -0.00056201057447288836 0 -0.0033901785528856225 -0.00096470129459808984 0 -0.0057769814226786781 -0.0013554991702696569 0 -0.0058014620393601933 -0.0013355080281636329 0 -0.0057795418906374492 -0.0013039658953339021 0 -0.0031986855203902063 -0.00046802937579586428 0 -0.0034693820500951871 -0.00056201057447288836 0 -0.0031153356808496244 -0.00075082487640228178 0 -0.0034693820500951871 -0.00056201057447288836 0 -0.0031153356808496244 -0.00075082487640228178 0 -0.0033901785528856225 -0.00096470129459808984 0 -0.0031153356808496244 -0.00075082487640228178 0 -0.0030779852087242437 -0.0010152260785895645 0 -0.0033901785528856225 -0.00096470129459808984 0 -0.0028853443953122259 -0.001284613577431145 0 -0.0030999679848475168 -0.0015299595783652045 0 -0.0027542158026008135 -0.0016221948808520733 0 -0.0036582155188417315 -0.00035216297443610857 0 -0.0031986855203902063 -0.00046802937579586428 0 -0.0034693820500951871 -0.00056201057447288836 0 -0.0038695085142977444 -0.0012614193188329307 0 -0.0028759990750367352 -0.0010451305973345354 0 -0.0028759990750367352 -0.0010451305973345354 0 -0.002679685060201832 -0.0011076481070519328 0 -0.0026383904403316245 -0.0013846245787609433 0 -0.0027542158026008135 -0.0016221948808520733 0 -0.0024124443597720179 -0.0017125513641882482 0 -0.0023746934934867248 -0.0014220111237005803 0 -0.0026383904403316245 -0.0013846245787609433 0 -0.0024124443597720179 -0.0017125513641882482 0 -0.0031153356808496244 -0.00075082487640228178 0 -0.0028174854871173527 -0.00090809020948555874 0 -0.0027359068086912994 -0.00058786117271588799 0 -0.0031986855203902063 -0.00046802937579586428 0 -0.0031153356808496244 -0.00075082487640228178 0 -0.0027359068086912994 -0.00058786117271588799 0 -0.0031153356808496244 -0.00075082487640228178 0 -0.0028174854871173527 -0.00090809020948555874 0 -0.0030779852087242437 -0.0010152260785895645 0 -0.0027359068086912994 -0.00058786117271588799 0 -0.0024696013182541037 -0.00085327284386816293 0 -0.0022771692105092237 -0.0007106496868184767 0 -0.002679685060201832 -0.0011076481070519328 0 -0.0017630679281475596 -0.0016174818252609824 0 -0.0028174854871173527 -0.00090809020948555874 0 -0.0027359068086912994 -0.00058786117271588799 0 -0.0024696013182541037 -0.00085327284386816293 0 -0.0017409571874116736 -0.0015078544682095986 0 -0.0017630679281475596 -0.0016174818252609824 0 -0.0023746934934867248 -0.0014220111237005803 0 -0.0024124443597720179 -0.0017125513641882482 0 -0.0020690887479226671 -0.0018023551564570306 0 -0.0056693590919111494 -0.001559891993691438 0 -0.00569266698550225 -0.0015494201846069954 0 -0.0056808036557729159 -0.0015065943086664067 0 -0.00569266698550225 -0.0015494201846069954 0 -0.0056937803132841294 -0.0014188932977951612 0 -0.005621072757416472 -0.001417187860649972 0 -0.0056942201675232772 -0.0015429716645973162 0 -0.0056526212257883299 -0.0014633709793580036 0 -0.0056488926564124365 -0.0015271440428363734 0 -0.0056693590919111494 -0.001559891993691438 0 -0.0056808036557729159 -0.0015065943086664067 0 -0.0056488926564124365 -0.0015271440428363734 0 -0.0056469838405026783 -0.0015729583128534965 0 -0.0056693590919111494 -0.001559891993691438 0 -0.0056733518908283053 -0.00163136307234269 0 -0.0056469838405026783 -0.0015729583128534965 0 -0.0056693590919111494 -0.001559891993691438 0 -0.0056693590919111494 -0.001559891993691438 0 -0.00569266698550225 -0.0015494201846069954 0 -0.0056881977210338436 -0.0016048409495772098 0 -0.0056733518908283053 -0.00163136307234269 0 -0.0056693590919111494 -0.001559891993691438 0 -0.0056881977210338436 -0.0016048409495772098 0 -0.0057030268120268823 -0.0016383608216924189 0 -0.00569266698550225 -0.0015494201846069954 0 -0.0056881977210338436 -0.0016048409495772098 0 -0.0057030268120268823 -0.0016383608216924189 0 -0.00569266698550225 -0.0015494201846069954 0 -0.005755194786265648 -0.0015178156316982129 0 -0.0057030268120268823 -0.0016383608216924189 0 -0.0058179097267571913 -0.0015772767040714477 0 -0.005755194786265648 -0.0015178156316982129 0 -0.0058179097267571913 -0.0015772767040714477 0 -0.0058237059669486333 -0.0014167402977741368 0 -0.005755194786265648 -0.0015178156316982129 0 -0.0058237059669486333 -0.0014167402977741368 0 -0.005755194786265648 -0.0015178156316982129 0 -0.0057694854830129885 -0.0014326898343747824 0 -0.005755194786265648 -0.0015178156316982129 0 -0.0057694854830129885 -0.0014326898343747824 0 -0.0057342105566796581 -0.0014084220219840926 0 -0.00569266698550225 -0.0015494201846069954 0 -0.005755194786265648 -0.0015178156316982129 0 -0.0056937803132841294 -0.0014188932977951612 0 -0.005755194786265648 -0.0015178156316982129 0 -0.0056937803132841294 -0.0014188932977951612 0 -0.0057342105566796581 -0.0014084220219840926 0 -0.0056937803132841294 -0.0014188932977951612 0 -0.0057342105566796581 -0.0014084220219840926 0 -0.005718519041655378 -0.0013425259888726929 0 -0.0057342105566796581 -0.0014084220219840926 0 -0.0057520034470422395 -0.0013681474898777019 0 -0.005718519041655378 -0.0013425259888726929 0 -0.0057694854830129885 -0.0014326898343747824 0 -0.0057342105566796581 -0.0014084220219840926 0 -0.0057718564179018664 -0.0013995429839569629 0 -0.0057959709445794165 -0.0014102979342506374 0 -0.0057694854830129885 -0.0014326898343747824 0 -0.0057718564179018664 -0.0013995429839569629 0 -0.0057342105566796581 -0.0014084220219840926 0 -0.0057718564179018664 -0.0013995429839569629 0 -0.0057520034470422395 -0.0013681474898777019 0 -0.0057769814226786781 -0.0013554991702696569 0 -0.0057718564179018664 -0.0013995429839569629 0 -0.0057520034470422395 -0.0013681474898777019 0 -0.0057769814226786781 -0.0013554991702696569 0 -0.0057520034470422395 -0.0013681474898777019 0 -0.0057500663796172065 -0.0013247511502342759 0 -0.0057520034470422395 -0.0013681474898777019 0 -0.0057500663796172065 -0.0013247511502342759 0 -0.005718519041655378 -0.0013425259888726929 0 -0.0057500663796172065 -0.0013247511502342759 0 -0.005718519041655378 -0.0013425259888726929 0 -0.005728160610288708 -0.0013055507470810764 0 -0.0057769814226786781 -0.0013554991702696569 0 -0.0057500663796172065 -0.0013247511502342759 0 -0.0057795418906374492 -0.0013039658953339021 0 -0.005718519041655378 -0.0013425259888726929 0 -0.005654058764096615 -0.0013312962573712678 0 -0.0057000986877245047 -0.0012817158317427245 0 -0.0056937803132841294 -0.0014188932977951612 0 -0.005718519041655378 -0.0013425259888726929 0 -0.005654058764096615 -0.0013312962573712678 0 -0.0056937803132841294 -0.0014188932977951612 0 -0.005654058764096615 -0.0013312962573712678 0 -0.005621072757416472 -0.001417187860649972 0 -0.0055910492980240567 -0.0013292878146448452 0 -0.005654058764096615 -0.0013312962573712678 0 -0.005621072757416472 -0.001417187860649972 0 -0.0056635561243756514 -0.0014216534696525546 0 -0.0056488926564124365 -0.0015271440428363734 0 -0.0056808036557729159 -0.0015065943086664067 0 -0.0056255627634351517 -0.0013733897583897532 0 -0.0056526212257883299 -0.0014633709793580036 0 -0.0055910492980240567 -0.0013292878146448452 0 -0.005654058764096615 -0.0013312962573712678 0 -0.0056289537128399085 -0.0012845642819952661 0 -0.0056289537128399085 -0.0012845642819952661 0 -0.0056334214076623895 -0.0012357168052873518 0 -0.0056070118161389813 -0.0012620669720564302 0 -0.0056289537128399085 -0.0012845642819952661 0 -0.0056334214076623895 -0.0012357168052873518 0 -0.0056609041810628874 -0.0012602777514594647 0 -0.0056334214076623895 -0.0012357168052873518 0 -0.0056290488356529585 -0.0012098317492011787 0 -0.005639242079642017 -0.0012151759595216136 0 -0.0056334214076623895 -0.0012357168052873518 0 -0.0056600397678869931 -0.0012191981364319104 0 -0.005639242079642017 -0.0012151759595216136 0 -0.0056334214076623895 -0.0012357168052873518 0 -0.0056290488356529585 -0.0012098317492011787 0 -0.0056118282462015567 -0.0012088823490717612 0 -0.0056600397678869931 -0.0012191981364319104 0 -0.0056609041810628874 -0.0012602777514594647 0 -0.0056910266769209768 -0.0012223530952117174 0 -0.0056334214076623895 -0.0012357168052873518 0 -0.0056600397678869931 -0.0012191981364319104 0 -0.0056609041810628874 -0.0012602777514594647 0 -0.005654058764096615 -0.0013312962573712678 0 -0.0056609041810628874 -0.0012602777514594647 0 -0.0057000986877245047 -0.0012817158317427245 0 -0.005654058764096615 -0.0013312962573712678 0 -0.0056289537128399085 -0.0012845642819952661 0 -0.0056609041810628874 -0.0012602777514594647 0 -0.005718519041655378 -0.0013425259888726929 0 -0.0057000986877245047 -0.0012817158317427245 0 -0.005728160610288708 -0.0013055507470810764 0 -0.0057000986877245047 -0.0012817158317427245 0 -0.0057464939015106778 -0.0012807445759945931 0 -0.0057189769654553387 -0.0012269315457195385 0 -0.0057000986877245047 -0.0012817158317427245 0 -0.005728160610288708 -0.0013055507470810764 0 -0.0057464939015106778 -0.0012807445759945931 0 -0.0057500663796172065 -0.0013247511502342759 0 -0.0057464939015106778 -0.0012807445759945931 0 -0.0057795418906374492 -0.0013039658953339021 0 -0.0057500663796172065 -0.0013247511502342759 0 -0.005728160610288708 -0.0013055507470810764 0 -0.0057464939015106778 -0.0012807445759945931 0 -0.0057464939015106778 -0.0012807445759945931 0 -0.0057798882533588768 -0.0012774279311179681 0 -0.0057719170838753222 -0.0012590436320609423 0 -0.0057464939015106778 -0.0012807445759945931 0 -0.0057795418906374492 -0.0013039658953339021 0 -0.0057798882533588768 -0.0012774279311179681 0 -0.0057464939015106778 -0.0012807445759945931 0 -0.0057189769654553387 -0.0012269315457195385 0 -0.0057719170838753222 -0.0012590436320609423 0 -0.0057000986877245047 -0.0012817158317427245 0 -0.0057189769654553387 -0.0012269315457195385 0 -0.0056910266769209768 -0.0012223530952117174 0 -0.0056609041810628874 -0.0012602777514594647 0 -0.0057000986877245047 -0.0012817158317427245 0 -0.0056910266769209768 -0.0012223530952117174 0 -0.0050820703246084314 0.00016384640844770173 0 -0.0050765125406125764 0.00016404850362241317 0 -0.0050698596074559192 0.00016102148178251361 0 -0.0054424427364755086 -0.00048198682310518465 0 -0.0053597593934226482 -0.00050650500051990647 0 -0.0056910266769209768 -0.0012223530952117174 0 -0.0057193617194566879 -0.0012018521184944354 0 -0.0056788114774129345 -0.0011946744895318826 0 -0.0057189769654553387 -0.0012269315457195385 0 -0.0056910266769209768 -0.0012223530952117174 0 -0.0057193617194566879 -0.0012018521184944354 0 -0.0057189769654553387 -0.0012269315457195385 0 -0.0057193617194566879 -0.0012018521184944354 0 -0.0057220233766438703 -0.0012093835383739332 0 -0.0050820703246084314 0.00016384640844770173 0 -0.005081004440172775 0.00016882317075020444 0 -0.0050765125406125764 0.00016404850362241317 0 -0.0050820703246084314 0.00016384640844770173 0 -0.005081004440172775 0.00016882317075020444 0 -0.0050662591644614636 0.00016021892272084586 0 -0.005081004440172775 0.00016882317075020444 0 -0.0050765125406125764 0.00016404850362241317 0 -0.00507570699696784 0.00016774610789829341 0 -0.0050765125406125764 0.00016404850362241317 0 -0.0050786791006447512 0.00015738540709239502 0 -0.0050698596074559192 0.00016102148178251361 0 -0.0050765125406125764 0.00016404850362241317 0 -0.00507570699696784 0.00016774610789829341 0 -0.0050786791006447512 0.00015738540709239502 0 -0.00507570699696784 0.00016774610789829341 0 -0.0050786791006447512 0.00015738540709239502 0 -0.0050638178025923459 0.00016890190463700875 0 -0.005105015684427448 0.00014651156406384117 0 -0.0050976799600238364 9.7718514680600807e-05 0 -0.005158329185989686 9.2804006976382702e-05 0 -0.0051094314832348517 0.0001516421170285973 0 -0.0051285343794158951 7.3922794530322366e-06 0 -0.0050786791006447512 0.00015738540709239502 0 -0.0051094314832348517 0.0001516421170285973 0 -0.0050638178025923459 0.00016890190463700875 0 -0.0052129735289813649 5.3954637229081559e-05 0 -0.005158329185989686 9.2804006976382702e-05 0 -0.0051285343794158951 7.3922794530322366e-06 0 -0.0052129735289813649 5.3954637229081559e-05 0 -0.005158329185989686 9.2804006976382702e-05 0 -0.0051794574740221273 0.00015300815434029363 0 -0.005158329185989686 9.2804006976382702e-05 0 -0.0051794574740221273 0.00015300815434029363 0 -0.0051094314832348517 0.0001516421170285973 0 -0.0056348500700743563 -0.0011974631222463577 0 -0.0056262618867852394 -0.0011923313795317338 0 -0.0056788114774129345 -0.0011946744895318826 0 -0.0055891751428069148 -0.00080890420681585128 0 -0.0054369824292101448 -0.00066706348068746452 0 -0.0056288807518577828 -0.0011941591560978397 0 -0.0056290488356529585 -0.0012098317492011787 0 -0.0056118282462015567 -0.0012088823490717612 0 -0.0056348500700743563 -0.0011974631222463577 0 -0.0056288807518577828 -0.0011941591560978397 0 -0.0056290488356529585 -0.0012098317492011787 0 -0.0056600397678869931 -0.0012191981364319104 0 -0.0056348500700743563 -0.0011974631222463577 0 -0.005639242079642017 -0.0012151759595216136 0 -0.0056348500700743563 -0.0011974631222463577 0 -0.0056290488356529585 -0.0012098317492011787 0 -0.005639242079642017 -0.0012151759595216136 0 -0.0056600397678869931 -0.0012191981364319104 0 -0.0056348500700743563 -0.0011974631222463577 0 -0.0056788114774129345 -0.0011946744895318826 0 -0.0054369824292101448 -0.00066706348068746452 0 -0.0053597593934226482 -0.00050650500051990647 0 -0.0051794574740221273 0.00015300815434029363 0 -0.0050698596074559192 0.00016102148178251361 0 -0.0051094314832348517 0.0001516421170285973 0 -0.0056600397678869931 -0.0012191981364319104 0 -0.0056910266769209768 -0.0012223530952117174 0 -0.0056788114774129345 -0.0011946744895318826 0 -0.0050786791006447512 0.00015738540709239502 0 -0.0050698596074559192 0.00016102148178251361 0 -0.0051094314832348517 0.0001516421170285973 0 -0.0030372412968582871 -0.0013002889984070477 0 -0.0026376514069268251 -0.0015153098450680555 0 -0.0024031048086579901 -0.0013008192265476842 0 -0.0025941524735970901 -0.001262406188828189 0 -0.002845922288839934 -0.0014536322305567456 0 -0.0022977387634176677 -0.0014115762788738159 0 -0.0028539115050959436 -0.0013754000937736697 0 -0.002368771374258857 -0.0013574204118676956 0 -0.0030372412968582871 -0.0013002889984070477 0 -0.0029170536655458239 -0.0015345938100489692 0 -0.0026376514069268251 -0.0015153098450680555 0 -0.0025941524735970901 -0.001262406188828189 0 -0.0028496003269259389 -0.0011688402698063717 0 -0.002845922288839934 -0.0014536322305567456 0 -0.0025941524735970901 -0.001262406188828189 0 -0.0025790001770587194 -0.0010720818376518317 0 -0.0024014513038802315 -0.0012057956015680193 0 -0.0024696013182541037 -0.00085327284386816293 0 -0.0025790001770587194 -0.0010720818376518317 0 -0.0022791477604555623 -0.0010359789356637996 0 -0.0028174854871173527 -0.00090809020948555874 0 -0.0025790001770587194 -0.0010720818376518317 0 -0.0028496003269259389 -0.0011688402698063717 0 -0.0028174854871173527 -0.00090809020948555874 0 -0.0024696013182541037 -0.00085327284386816293 0 -0.0025790001770587194 -0.0010720818376518317 0 -0.0025941524735970901 -0.001262406188828189 0 -0.0025790001770587194 -0.0010720818376518317 0 -0.0028496003269259389 -0.0011688402698063717 0 -0.0028174854871173527 -0.00090809020948555874 0 -0.0028496003269259389 -0.0011688402698063717 0 -0.0030779852087242437 -0.0010152260785895645 0 -0.0028496003269259389 -0.0011688402698063717 0 -0.0030779852087242437 -0.0010152260785895645 0 -0.0031887089064648686 -0.0012135633662415377 0 -0.0030372412968582871 -0.0013002889984070477 0 -0.0036682565540730508 -0.0013235780553624635 0 -0.0031171035877736904 -0.0015989463090022944 0 -0.0028539115050959436 -0.0013754000937736697 0 -0.00395139470708361 -0.0014007794323961061 0 -0.0028496003269259389 -0.0011688402698063717 0 -0.002845922288839934 -0.0014536322305567456 0 -0.0031887089064648686 -0.0012135633662415377 0 -0.0030372412968582871 -0.0013002889984070477 0 -0.0031171035877736904 -0.0015989463090022944 0 -0.0029170536655458239 -0.0015345938100489692 0 -0.0033957002349455871 -0.0014805374018420654 0 -0.0031887089064648686 -0.0012135633662415377 0 -0.0035700474368069012 -0.0012008134918335134 0 -0.002845922288839934 -0.0014536322305567456 0 -0.0033957002349455871 -0.0014805374018420654 0 -0.0031887089064648686 -0.0012135633662415377 0 -0.00395139470708361 -0.0014007794323961061 0 -0.0052168900560863873 -0.0012807820687565465 0 -0.00395139470708361 -0.0014007794323961061 0 -0.0046796831974264732 -0.0012816590907158618 0 -0.0031887089064648686 -0.0012135633662415377 0 -0.0033901785528856225 -0.00096470129459808984 0 -0.0035700474368069012 -0.0012008134918335134 0 -0.0030779852087242437 -0.0010152260785895645 0 -0.0031887089064648686 -0.0012135633662415377 0 -0.0033901785528856225 -0.00096470129459808984 0 -0.0047316752123716475 -0.00099132114161056212 0 -0.0046796831974264732 -0.0012816590907158618 0 -0.0058014620393601933 -0.0013355080281636329 0 -0.0058035946166054625 -0.0012740192237062924 0 -0.0057795418906374492 -0.0013039658953339021 0 -0.0036293625917196669 -0.00079359076514320416 0 -0.0033901785528856225 -0.00096470129459808984 0 -0.0035700474368069012 -0.0012008134918335134 0 -0.0058035946166054625 -0.0012740192237062924 0 -0.0057798882533588768 -0.0012774279311179681 0 -0.0057719170838753222 -0.0012590436320609423 0 -0.0058035946166054625 -0.0012740192237062924 0 -0.0057795418906374492 -0.0013039658953339021 0 -0.0057798882533588768 -0.0012774279311179681 0 -0.0059560758562844434 -0.0012151338714805168 0 -0.0052168900560863873 -0.0012807820687565465 0 -0.0057189769654553387 -0.0012269315457195385 0 -0.0057219788492241606 -0.0012118914484879535 0 -0.0057220233766438703 -0.0012093835383739332 0 -0.0057189769654553387 -0.0012269315457195385 0 -0.0057719170838753222 -0.0012590436320609423 0 -0.0058088812014593996 -0.0012337085355886275 0 -0.0046796831974264732 -0.0012816590907158618 0 -0.0052168900560863873 -0.0012807820687565465 0 -0.0046274387571764346 -0.0012496070526764444 0 -0.0046263780282530947 -0.0012560697116812914 0 -0.0046262301117323988 -0.0012494978212009738 0 -0.0058035946166054625 -0.0012740192237062924 0 -0.0057719170838753222 -0.0012590436320609423 0 -0.0058088812014593996 -0.0012337085355886275 0 -0.0050820703246084314 0.00016384640844770173 0 -0.0050513868557827838 0.00016365205782232565 0 -0.0050356779224664172 0.00017521791077400748 0 -0.0057193617194566879 -0.0012018521184944354 0 -0.0057220233766438703 -0.0012093835383739332 0 -0.0057212226824205886 -0.0012066323483031223 0 -0.0057219788492241606 -0.0012118914484879535 0 -0.0057220233766438703 -0.0012093835383739332 0 -0.0057212226824205886 -0.0012066323483031223 0 -0.0054424427364755086 -0.00048198682310518465 0 -0.0051878220930638395 -0.00086634973063574416 0 -0.0050302281538258161 0.00017575132973620045 0 -0.0051852514248636825 0.00016484167444106009 0 -0.005081004440172775 0.00016882317075020444 0 -0.005099621684271559 0.00020115265501963544 0 -0.0050910790887959845 0.00018746573284891116 0 -0.0050820703246084314 0.00016384640844770173 0 -0.0050662591644614636 0.00016021892272084586 0 -0.0050513868557827838 0.00016365205782232565 0 -0.005081004440172775 0.00016882317075020444 0 -0.0050662591644614636 0.00016021892272084586 0 -0.0050435408876038116 0.00013860956486272104 0 -0.0050435408876038116 0.00013860956486272104 0 -0.0050513868557827838 0.00016365205782232565 0 -0.0050377512877276247 0.00015969119278522463 0 -0.0050662591644614636 0.00016021892272084586 0 -0.0050435408876038116 0.00013860956486272104 0 -0.0050513868557827838 0.00016365205782232565 0 -0.0050513868557827838 0.00016365205782232565 0 -0.0050377512877276247 0.00015969119278522463 0 -0.0050356779224664172 0.00017521791077400748 0 -0.0051852514248636825 0.00016484167444106009 0 -0.0043975862360182303 0.00014293873788709789 0 -0.0050377512877276247 0.00015969119278522463 0 -0.0050180551420045067 0.00016190136284801866 0 -0.0050356779224664172 0.00017521791077400748 0 -0.005099621684271559 0.00020115265501963544 0 -0.0050695505186531481 0.0002047838690068 0 -0.0050186441762653435 0.00027627238549879813 0 -0.0050435408876038116 0.00013860956486272104 0 -0.0049950979492459011 0.00015773972342703239 0 -0.0049337027454029025 0.0001387949625325355 0 -0.0050180551420045067 0.00016190136284801866 0 -0.0049950979492459011 0.00015773972342703239 0 -0.0050356779224664172 0.00017521791077400748 0 -0.0050435408876038116 0.00013860956486272104 0 -0.0050180551420045067 0.00016190136284801866 0 -0.0049950979492459011 0.00015773972342703239 0 -0.0050435408876038116 0.00013860956486272104 0 -0.0050377512877276247 0.00015969119278522463 0 -0.0050180551420045067 0.00016190136284801866 0 -0.005099621684271559 0.00020115265501963544 0 -0.0050695505186531481 0.0002047838690068 0 -0.0050888687627313389 0.00018889569469485236 0 -0.00395139470708361 -0.0014007794323961061 0 -0.0041380153978216845 -0.00093127562767063548 0 -0.0052168900560863873 -0.0012807820687565465 0 -0.0051878220930638395 -0.00086634973063574416 0 -0.0049950979492459011 0.00015773972342703239 0 -0.0050356779224664172 0.00017521791077400748 0 -0.0049537052126340242 0.00017405306344947993 0 -0.0045531855739354768 -0.0011648247637599236 0 -0.0045479478240672486 -0.0011137619546937206 0 -0.0045817673326822772 -0.0011112424297810136 0 -0.0045531855739354768 -0.0011648247637599236 0 -0.0045406505008075094 -0.0011643260014364367 0 -0.0045479478240672486 -0.0011137619546937206 0 -0.0051878220930638395 -0.00086634973063574416 0 -0.0041380153978216845 -0.00093127562767063548 0 -0.0036682565540730508 -0.0013235780553624635 0 -0.0031171035877736904 -0.0015989463090022944 0 -0.0033237106316658235 -0.0018676448454571918 0 -0.0031171035877736904 -0.0015989463090022944 0 -0.0028773104774347173 -0.0017202205388133162 0 -0.0029170536655458239 -0.0015345938100489692 0 -0.0031171035877736904 -0.0015989463090022944 0 -0.0029197388954478351 -0.0018857224774831256 0 -0.0028773104774347173 -0.0017202205388133162 0 -0.0041380153978216845 -0.00093127562767063548 0 -0.0031382722476553434 -0.0011722887073390472 0 -0.0031171035877736904 -0.0015989463090022944 0 -0.0033237106316658235 -0.0018676448454571918 0 -0.0029197388954478351 -0.0018857224774831256 0 -0.0049950979492459011 0.00015773972342703239 0 -0.0049537052126340242 0.00017405306344947993 0 -0.0049337027454029025 0.0001387949625325355 0 -0.0043975862360182303 0.00014293873788709789 0 -0.0041924312940481399 -2.4975294164501897e-05 0 -0.0050186441762653435 0.00027627238549879813 0 -0.0049896557525710974 0.00021236238612074756 0 -0.0048408114430189232 7.5933460979681977e-05 0 -0.0041380153978216845 -0.00093127562767063548 0 -0.0043975862360182303 0.00014293873788709789 0 -0.0050186441762653435 0.00027627238549879813 0 -0.0049896557525710974 0.00021236238612074756 0 -0.0050430912967217353 0.00019942779088723077 0 -0.0050695505186531481 0.0002047838690068 0 -0.0050186441762653435 0.00027627238549879813 0 -0.0050430912967217353 0.00019942779088723077 0 -0.0042456351732942255 -0.00048314657411740959 0 -0.0040402149716028393 -0.00080977534223006936 0 -0.0034966573040467446 -0.00051883775581824043 0 -0.0043975862360182303 0.00014293873788709789 0 -0.0026968799600765995 -0.00056785150230900805 0 -0.0040402149716028393 -0.00080977534223006936 0 -0.0034966573040467446 -0.00051883775581824043 0 -0.0027471681472630077 -0.00055582537315361925 0 -0.0038087212863050549 0.00045215974474503479 0 -0.003437208135164559 -0.00013076183832949989 0 -0.0030012781005066065 0.00060994505560363072 0 -0.0031382722476553434 -0.0011722887073390472 0 -0.0026968799600765995 -0.00056785150230900805 0 -0.0028298276170237082 -0.0017127986271907301 0 -0.0023416558016451641 -0.0016359145778401562 0 -0.0028773104774347173 -0.0017202205388133162 0 -0.0026376514069268251 -0.0015153098450680555 0 -0.0023433966486921753 -0.0016698642712817883 0 -0.0028773104774347173 -0.0017202205388133162 0 -0.0023463961584554533 -0.0016054526303736628 0 -0.0025171968336225974 -0.0018905368478727088 0 -0.0029197388954478351 -0.0018857224774831256 0 -0.0028773104774347173 -0.0017202205388133162 0 -0.0025171968336225974 -0.0018905368478727088 0 -0.0028773104774347173 -0.0017202205388133162 0 -0.0029170536655458239 -0.0015345938100489692 0 -0.0026376514069268251 -0.0015153098450680555 0 -0.0030683744724041323 -0.00071305870441920409 0 -0.003437208135164559 -0.00013076183832949989 0 -0.0028631083460361555 -0.00018183743783883139 0 -0.0046572727825758987 -0.0001821299579541038 0 -0.0048408114430189232 7.5933460979681977e-05 0 -0.0047485325168107658 -0.00021081185020240065 0 -0.0033775043027760069 -0.00010737922298146996 0 -0.0041924312940481399 -2.4975294164501897e-05 0 -0.0048408114430189232 7.5933460979681977e-05 0 -0.00502033571833666 2.5805767718509527e-05 0 -0.0047485325168107658 -0.00021081185020240065 0 -0.0033775043027760069 -0.00010737922298146996 0 -0.0040354322203157876 0.00030632221499759784 0 -0.003437208135164559 -0.00013076183832949989 0 -0.0028631083460361555 -0.00018183743783883139 0 -0.0030012781005066065 0.00060994505560363072 0 -0.0050031725395533865 0.00016759122762802833 0 -0.0049358207299667542 0.0001762189215792076 0 -0.0049896557525710974 0.00021236238612074756 0 -0.0048408114430189232 7.5933460979681977e-05 0 -0.00502033571833666 2.5805767718509527e-05 0 -0.0049896557525710974 0.00021236238612074756 0 -0.0050430912967217353 0.00019942779088723077 0 -0.0050405969801302977 0.00014421233372400726 0 -0.0050430912967217353 0.00019942779088723077 0 -0.0050405969801302977 0.00014421233372400726 0 -0.0050735155281836459 0.00017591121866095577 0 -0.0049358207299667542 0.0001762189215792076 0 -0.0050380802939868369 0.00020814822472452898 0 -0.0049358207299667542 0.0001762189215792076 0 -0.0040354322203157876 0.00030632221499759784 0 -0.0045646677056479946 0.00041534857200237288 0 -0.0046067701274478722 0.00020413668381103663 0 -0.0043998037083080631 0.00027055061891183247 0 -0.0049358207299667542 0.0001762189215792076 0 -0.0046556971638298692 0.00041850137571497231 0 -0.0050985831044638727 0.00018587206573565058 0 -0.0050927477740358535 0.00020113577639398119 0 -0.0051226561209445224 0.00024429363916261408 0 -0.0050927477740358535 0.00020113577639398119 0 -0.0050883523212440175 0.00020752886172503587 0 -0.0051003584475148881 0.00022656941555918971 0 -0.0050927477740358535 0.00020113577639398119 0 -0.0050843951890951668 0.0001861393415627352 0 -0.0050880133615221418 0.0001924884891671361 0 -0.0050985831044638727 0.00018587206573565058 0 -0.0050927477740358535 0.00020113577639398119 0 -0.0050843951890951668 0.0001861393415627352 0 -0.0050985831044638727 0.00018587206573565058 0 -0.0050843951890951668 0.0001861393415627352 0 -0.0050735155281836459 0.00017591121866095577 0 -0.0050843951890951668 0.0001861393415627352 0 -0.0050735155281836459 0.00017591121866095577 0 -0.0050888687627313389 0.00018889569469485236 0 -0.0050695505186531481 0.0002047838690068 0 -0.0050735155281836459 0.00017591121866095577 0 -0.0050888687627313389 0.00018889569469485236 0 -0.0050695505186531481 0.0002047838690068 0 -0.0050430912967217353 0.00019942779088723077 0 -0.0050735155281836459 0.00017591121866095577 0 -0.0050843951890951668 0.0001861393415627352 0 -0.0050888687627313389 0.00018889569469485236 0 -0.0050880133615221418 0.0001924884891671361 0 -0.0050888687627313389 0.00018889569469485236 0 -0.0050880133615221418 0.0001924884891671361 0 -0.0050910790887959845 0.00018746573284891116 0 -0.005099621684271559 0.00020115265501963544 0 -0.0050888687627313389 0.00018889569469485236 0 -0.0050910790887959845 0.00018746573284891116 0 -0.0050880133615221418 0.0001924884891671361 0 -0.0050910790887959845 0.00018746573284891116 0 -0.0050823724694302698 0.00018841799545121139 0 -0.0050880133615221418 0.0001924884891671361 0 -0.0050823724694302698 0.00018841799545121139 0 -0.0050793009411677957 0.00020340155613767717 0 -0.0050880133615221418 0.0001924884891671361 0 -0.0050883523212440175 0.00020752886172503587 0 -0.0050793009411677957 0.00020340155613767717 0 -0.0050927477740358535 0.00020113577639398119 0 -0.0050880133615221418 0.0001924884891671361 0 -0.0050883523212440175 0.00020752886172503587 0 -0.0050883523212440175 0.00020752886172503587 0 -0.0050846075754549368 0.00023141205541382542 0 -0.0050793009411677957 0.00020340155613767717 0 -0.005083956150532587 0.00023284379208521179 0 -0.005054459707390521 0.00024339828808988892 0 -0.0050846075754549368 0.00023141205541382542 0 -0.0050793009411677957 0.00020340155613767717 0 -0.0050763416814141125 0.00020923668126060212 0 -0.0050846075754549368 0.00023141205541382542 0 -0.0050748340171403346 0.00028339058181075095 0 -0.0050197423172654203 0.00028220371912184385 0 -0.0050883523212440175 0.00020752886172503587 0 -0.0050846075754549368 0.00023141205541382542 0 -0.0051003584475148881 0.00022656941555918971 0 -0.0050846075754549368 0.00023141205541382542 0 -0.0050748340171403346 0.00028339058181075095 0 -0.0051122547669601474 0.00026187221573309856 0 -0.0050548515749990032 0.00032747642644982537 0 -0.0051046644606259567 0.00031700771132652563 0 -0.0050647677293038347 0.00039762439172422837 0 -0.0050748340171403346 0.00028339058181075095 0 -0.0050548515749990032 0.00032747642644982537 0 -0.0050197423172654203 0.00028220371912184385 0 -0.0050748340171403346 0.00028339058181075095 0 -0.0050548515749990032 0.00032747642644982537 0 -0.0051046644606259567 0.00031700771132652563 0 -0.0046556971638298692 0.00041850137571497231 0 -0.0047787630660320367 0.00065922034416065426 0 -0.0042038280138464845 0.00064069271827680945 0 -0.0042119914939209042 0.00085409681254207859 0 -0.0043085815464243612 0.0003959768704688239 0 -0.0051046644606259567 0.00031700771132652563 0 -0.0051477427699234994 0.00025241759268932048 0 -0.0051321139995756182 0.00035784582881135432 0 -0.0050748340171403346 0.00028339058181075095 0 -0.0051046644606259567 0.00031700771132652563 0 -0.0051122547669601474 0.00026187221573309856 0 -0.0042038280138464845 0.00064069271827680945 0 -0.0041406750285840873 0.00047920035400188021 0 -0.0043085815464243612 0.0003959768704688239 0 -0.0050927477740358535 0.00020113577639398119 0 -0.0051226561209445224 0.00024429363916261408 0 -0.0051003584475148881 0.00022656941555918971 0 -0.0046556971638298692 0.00041850137571497231 0 -0.0051409686375580828 0.00025424407120182486 0 -0.0051046644606259567 0.00031700771132652563 0 -0.0051477427699234994 0.00025241759268932048 0 -0.0051122547669601474 0.00026187221573309856 0 -0.0050846075754549368 0.00023141205541382542 0 -0.0051122547669601474 0.00026187221573309856 0 -0.0051003584475148881 0.00022656941555918971 0 -0.0051226561209445224 0.00024429363916261408 0 -0.0051122547669601474 0.00026187221573309856 0 -0.0051003584475148881 0.00022656941555918971 0 -0.0046556971638298692 0.00041850137571497231 0 -0.0040354322203157876 0.00030632221499759784 0 -0.0042119914939209042 0.00085409681254207859 0 -0.0040184615210217788 0.00072067496287548576 0 -0.0037328359042395737 0.0010108643207648947 0 -0.0042038280138464845 0.00064069271827680945 0 -0.0042119914939209042 0.00085409681254207859 0 -0.0040184615210217788 0.00072067496287548576 0 -0.0033264249895790642 0.0014661510250419721 0 -0.0029700151008861912 0.0016385764705882497 0 -0.0029990503515342514 0.0013169826836280333 0 -0.0041351819560351919 0.00047227174661500834 0 -0.0040184615210217788 0.00072067496287548576 0 -0.0038064260966673086 0.0006268254959554911 0 -0.0041027401200388319 0.0010316756890004675 0 -0.0033421926172365001 0.001174639453865681 0 -0.0042038280138464845 0.00064069271827680945 0 -0.0041351819560351919 0.00047227174661500834 0 -0.0040184615210217788 0.00072067496287548576 0 -0.0040782292633601593 0.00059741760597587781 0 -0.0041027401200388319 0.0010316756890004675 0 -0.0029700151008861912 0.0016385764705882497 0 -0.0029990503515342514 0.0013169826836280333 0 -0.0027384604739055553 0.0013824573079262794 0 -0.0033421926172365001 0.001174639453865681 0 -0.0027395700916079645 0.00062417711711612611 0 -0.0029700151008861912 0.0016385764705882497 0 -0.0026139777329283365 0.0018070720246189376 0 -0.0027384604739055553 0.0013824573079262794 0 -0.0038064260966673086 0.0006268254959554911 0 -0.0037328359042395737 0.0010108643207648947 0 -0.0034741341221317498 0.00078347337002523747 0 -0.0040184615210217788 0.00072067496287548576 0 -0.0038064260966673086 0.0006268254959554911 0 -0.0037328359042395737 0.0010108643207648947 0 -0.0031575962494811778 0.0002744357892660373 0 -0.0034026535619673609 0.00019411743505976046 0 -0.0030134314412819832 4.750675067648777e-05 0 -0.0040354322203157876 0.00030632221499759784 0 -0.0027395700916079645 0.00062417711711612611 0 -0.005056680919475972 0.00019245842279892486 0 -0.0050638178025923459 0.00016890190463700875 0 -0.0050738015488480219 0.00018765203922221715 0 -0.005056680919475972 0.00019245842279892486 0 -0.0050738015488480219 0.00018765203922221715 0 -0.0050669002050241843 0.00019793462671455791 0 -0.0051197435371835498 1.6384267144620838e-05 0 -0.0050976799600238364 9.7718514680600807e-05 0 -0.0051619003828597783 -0.00010697317604527515 0 -0.0052257899867730259 -0.00011577668213931815 0 -0.0052389551179809349 -5.5656145282617686e-05 0 -0.0051619003828597783 -0.00010697317604527515 0 -0.0051285343794158951 7.3922794530322366e-06 0 -0.0052389551179809349 -5.5656145282617686e-05 0 -0.0052129735289813649 5.3954637229081559e-05 0 -0.0051285343794158951 7.3922794530322366e-06 0 -0.0052389551179809349 -5.5656145282617686e-05 0 -0.00507570699696784 0.00016774610789829341 0 -0.0050638178025923459 0.00016890190463700875 0 -0.0050738015488480219 0.00018765203922221715 0 -0.005081004440172775 0.00016882317075020444 0 -0.00507570699696784 0.00016774610789829341 0 -0.0050738015488480219 0.00018765203922221715 0 -0.005081004440172775 0.00016882317075020444 0 -0.0050823724694302698 0.00018841799545121139 0 -0.0050738015488480219 0.00018765203922221715 0 -0.005081004440172775 0.00016882317075020444 0 -0.0050910790887959845 0.00018746573284891116 0 -0.0050823724694302698 0.00018841799545121139 0 -0.0050823724694302698 0.00018841799545121139 0 -0.0050793009411677957 0.00020340155613767717 0 -0.0050738015488480219 0.00018765203922221715 0 -0.0050793009411677957 0.00020340155613767717 0 -0.0050738015488480219 0.00018765203922221715 0 -0.0050763416814141125 0.00020923668126060212 0 -0.0050738015488480219 0.00018765203922221715 0 -0.0050763416814141125 0.00020923668126060212 0 -0.0050669002050241843 0.00019793462671455791 0 -0.00506687495808075 0.00020583425674576127 0 -0.0050763416814141125 0.00020923668126060212 0 -0.0050669002050241843 0.00019793462671455791 0 -0.0050015516805012351 0.00027179346292391214 0 -0.005054459707390521 0.00024339828808988892 0 -0.0050548515749990032 0.00032747642644982537 0 -0.0050197423172654203 0.00028220371912184385 0 -0.005008139082519447 0.00035871788488247685 0 -0.0049650149906703255 0.00031285196976135531 0 -0.0049463237157674339 0.0003666317658489309 0 -0.005008139082519447 0.00035871788488247685 0 -0.0049650149906703255 0.00031285196976135531 0 -0.0050197423172654203 0.00028220371912184385 0 -0.005008139082519447 0.00035871788488247685 0 -0.0049650149906703255 0.00031285196976135531 0 -0.0049463237157674339 0.0003666317658489309 0 -0.0049026426448651045 0.00033386676687718084 0 -0.0050015516805012351 0.00027179346292391214 0 -0.0050304170735191618 0.00013275903326988065 0 -0.00506687495808075 0.00020583425674576127 0 -0.0050612123298034353 0.00020086535488022397 0 -0.0050669002050241843 0.00019793462671455791 0 -0.00506687495808075 0.00020583425674576127 0 -0.0050612123298034353 0.00020086535488022397 0 -0.0050541440331498457 0.00020805631442692021 0 -0.005056680919475972 0.00019245842279892486 0 -0.0050612123298034353 0.00020086535488022397 0 -0.0050669002050241843 0.00019793462671455791 0 -0.0051619003828597783 -0.00010697317604527515 0 -0.0052077454400089405 -0.00014868206326617349 0 -0.0051885200994011256 -0.00018827786430396229 0 -0.0051197435371835498 1.6384267144620838e-05 0 -0.0050304170735191618 0.00013275903326988065 0 -0.005056680919475972 0.00019245842279892486 0 -0.0050612123298034353 0.00020086535488022397 0 -0.0050541440331498457 0.00020805631442692021 0 -0.0051619003828597783 -0.00010697317604527515 0 -0.0052077454400089405 -0.00014868206326617349 0 -0.0052257899867730259 -0.00011577668213931815 0 -0.0052077454400089405 -0.00014868206326617349 0 -0.0052217694268448384 -0.00016626729400184595 0 -0.0052117553326914536 -0.00017537459905581464 0 -0.0052117553326914536 -0.00017537459905581464 0 -0.0052230720017065486 -0.00019004319056336797 0 -0.0052317717023765628 -0.0001770158516956065 0 -0.0052267738929647834 -0.0001956776901791078 0 -0.0052230720017065486 -0.00019004319056336797 0 -0.0051885200994011256 -0.00018827786430396229 0 -0.0052077454400089405 -0.00014868206326617349 0 -0.0052117553326914536 -0.00017537459905581464 0 -0.0051885200994011256 -0.00018827786430396229 0 -0.0050304170735191618 0.00013275903326988065 0 -0.0049129291936456368 0.00038854451768007117 0 -0.0052217694268448384 -0.00016626729400184595 0 -0.0052117553326914536 -0.00017537459905581464 0 -0.0052317717023765628 -0.0001770158516956065 0 -0.0049463237157674339 0.0003666317658489309 0 -0.0049026426448651045 0.00033386676687718084 0 -0.0048969478192974732 0.00039091493125952318 0 -0.0048781689736675073 0.00023128973803620707 0 -0.0049521630206165127 0.0002118499860947667 0 -0.0049331575023119087 0.00033338170348586364 0 -0.00515170662012269 -2.8268750431443499e-05 0 -0.0050304170735191618 0.00013275903326988065 0 -0.0052117553326914536 -0.00017537459905581464 0 -0.0052230720017065486 -0.00019004319056336797 0 -0.0051885200994011256 -0.00018827786430396229 0 -0.00515170662012269 -2.8268750431443499e-05 0 -0.0051628185926138603 -4.7940230240252751e-05 0 -0.00515170662012269 -2.8268750431443499e-05 0 -0.0053542798421479217 -0.0002112628749914259 0 -0.0052298386558598565 -0.00019532353987982849 0 -0.0052518751641956246 -0.00018000479515024593 0 -0.0052952890398620086 -0.00017341329525499938 0 -0.0052518751641956246 -0.00018000479515024593 0 -0.0052952890398620086 -0.00017341329525499938 0 -0.0052682542708693183 -0.00017124610206489978 0 -0.0052518751641956246 -0.00018000479515024593 0 -0.0052438692471972123 -0.00016850310517767754 0 -0.0052682542708693183 -0.00017124610206489978 0 -0.0052317717023765628 -0.0001770158516956065 0 -0.0052518751641956246 -0.00018000479515024593 0 -0.0052438692471972123 -0.00016850310517767754 0 -0.0052217694268448384 -0.00016626729400184595 0 -0.0052317717023765628 -0.0001770158516956065 0 -0.0052438692471972123 -0.00016850310517767754 0 -0.0052317717023765628 -0.0001770158516956065 0 -0.0052345967254685821 -0.00018563294545042094 0 -0.0052518751641956246 -0.00018000479515024593 0 -0.0052298386558598565 -0.00019532353987982849 0 -0.0052345967254685821 -0.00018563294545042094 0 -0.0052518751641956246 -0.00018000479515024593 0 -0.0052230720017065486 -0.00019004319056336797 0 -0.0052317717023765628 -0.0001770158516956065 0 -0.0052345967254685821 -0.00018563294545042094 0 -0.0052298386558598565 -0.00019532353987982849 0 -0.0052230720017065486 -0.00019004319056336797 0 -0.0052345967254685821 -0.00018563294545042094 0 -0.0052952890398620086 -0.00017341329525499938 0 -0.0052937426095256025 -0.00017812219816224482 0 -0.0052682542708693183 -0.00017124610206489978 0 -0.0052952890398620086 -0.00017341329525499938 0 -0.0052937426095256025 -0.00017812219816224482 0 -0.0052688645100247532 -0.00017639563758760777 0 -0.0052937426095256025 -0.00017812219816224482 0 -0.0052757903571644159 -0.00014969121589989911 0 -0.0053094594422438551 -0.00012912202817087052 0 -0.0052937426095256025 -0.00017812219816224482 0 -0.0052757903571644159 -0.00014969121589989911 0 -0.0052682542708693183 -0.00017124610206489978 0 -0.0052757903571644159 -0.00014969121589989911 0 -0.0053094594422438551 -0.00012912202817087052 0 -0.0052713974080497239 -0.00011644872541758579 0 -0.0052077454400089405 -0.00014868206326617349 0 -0.0052217694268448384 -0.00016626729400184595 0 -0.0052433812024987765 -0.00014555643349582292 0 -0.0052217694268448384 -0.00016626729400184595 0 -0.0052438692471972123 -0.00016850310517767754 0 -0.0052433812024987765 -0.00014555643349582292 0 -0.0052438692471972123 -0.00016850310517767754 0 -0.0052682542708693183 -0.00017124610206489978 0 -0.0052433812024987765 -0.00014555643349582292 0 -0.0052757903571644159 -0.00014969121589989911 0 -0.0052682542708693183 -0.00017124610206489978 0 -0.0052433812024987765 -0.00014555643349582292 0 -0.0052757903571644159 -0.00014969121589989911 0 -0.0052433812024987765 -0.00014555643349582292 0 -0.0052713974080497239 -0.00011644872541758579 0 -0.0052433812024987765 -0.00014555643349582292 0 -0.0052257899867730259 -0.00011577668213931815 0 -0.0052713974080497239 -0.00011644872541758579 0 -0.0052077454400089405 -0.00014868206326617349 0 -0.0052433812024987765 -0.00014555643349582292 0 -0.0052257899867730259 -0.00011577668213931815 0 -0.0052257899867730259 -0.00011577668213931815 0 -0.0052389551179809349 -5.5656145282617686e-05 0 -0.0052713974080497239 -0.00011644872541758579 0 -0.0052389551179809349 -5.5656145282617686e-05 0 -0.0052713974080497239 -0.00011644872541758579 0 -0.0052809944775623237 -7.0715676357552406e-05 0 -0.0052713974080497239 -0.00011644872541758579 0 -0.0053278246681958113 -8.4996369973900959e-05 0 -0.0052809944775623237 -7.0715676357552406e-05 0 -0.0053094594422438551 -0.00012912202817087052 0 -0.0052713974080497239 -0.00011644872541758579 0 -0.0053278246681958113 -8.4996369973900959e-05 0 -0.0052921759104023539 -3.1795111826725908e-05 0 -0.0053571657899503956 -5.0672058461515833e-05 0 -0.0053465335024768532 -1.9600871547956742e-06 0 -0.0053278246681958113 -8.4996369973900959e-05 0 -0.0052921759104023539 -3.1795111826725908e-05 0 -0.0053571657899503956 -5.0672058461515833e-05 0 -0.0053278246681958113 -8.4996369973900959e-05 0 -0.0052809944775623237 -7.0715676357552406e-05 0 -0.0052921759104023539 -3.1795111826725908e-05 0 -0.0053190030034898266 -6.7122385395058574e-06 0 -0.0055038042569087019 -0.00033969223366515737 0 -0.0052129735289813649 5.3954637229081559e-05 0 -0.0052389551179809349 -5.5656145282617686e-05 0 -0.0053262138429800206 -3.9473770478729894e-06 0 -0.0052389551179809349 -5.5656145282617686e-05 0 -0.0052809944775623237 -7.0715676357552406e-05 0 -0.0052921759104023539 -3.1795111826725908e-05 0 -0.0052424333925919159 -5.5613055842045205e-05 0 -0.0053190030034898266 -6.7122385395058574e-06 0 -0.0055868335854988363 -0.00032640414380488627 0 -0.0054046208794248764 -0.00032946722565209874 0 -0.00540899136180659 -3.1554994933566127e-05 0 -0.0053571657899503956 -5.0672058461515833e-05 0 -0.0053465335024768532 -1.9600871547956742e-06 0 -0.0055868335854988363 -0.00032640414380488627 0 -0.0055038042569087019 -0.00033969223366515737 0 -0.00540899136180659 -3.1554994933566127e-05 0 -0.0053571657899503956 -5.0672058461515833e-05 0 -0.0053879591835802659 -0.00011501321698611384 0 -0.0053094594422438551 -0.00012912202817087052 0 -0.0053278246681958113 -8.4996369973900959e-05 0 -0.0053879591835802659 -0.00011501321698611384 0 -0.0053278246681958113 -8.4996369973900959e-05 0 -0.0053571657899503956 -5.0672058461515833e-05 0 -0.0053879591835802659 -0.00011501321698611384 0 -0.0052514324472207625 -0.00023939637487740831 0 -0.0052204528883603284 -0.00022359412114987816 0 -0.0051998979994432497 -0.00028924790268579809 0 -0.0053107072006911343 -0.00015376302531755541 0 -0.0054046208794248764 -0.00032946722565209874 0 -0.00540899136180659 -3.1554994933566127e-05 0 -0.0053879591835802659 -0.00011501321698611384 0 -0.0054694380939156123 -6.1297278226311828e-05 0 -0.0052514324472207625 -0.00023939637487740831 0 -0.0052204528883603284 -0.00022359412114987816 0 -0.0052375095164471407 -0.00018675009897075334 0 -0.0052960765972773476 -0.00018714468622816434 0 -0.0053107072006911343 -0.00015376302531755541 0 -0.0052514324472207625 -0.00023939637487740831 0 -0.0052688645100247532 -0.00017639563758760777 0 -0.0052375095164471407 -0.00018675009897075334 0 -0.0052937426095256025 -0.00017812219816224482 0 -0.0053094594422438551 -0.00012912202817087052 0 -0.0053879591835802659 -0.00011501321698611384 0 -0.0052937426095256025 -0.00017812219816224482 0 -0.0052514324472207625 -0.00023939637487740831 0 -0.0052688645100247532 -0.00017639563758760777 0 -0.0052688645100247532 -0.00017639563758760777 0 -0.0052375095164471407 -0.00018675009897075334 0 -0.0052462733982517502 -0.00015268322446782413 0 -0.0052204528883603284 -0.00022359412114987816 0 -0.0052375095164471407 -0.00018675009897075334 0 -0.0051975597225543176 -0.00019083073681440109 0 -0.0052375095164471407 -0.00018675009897075334 0 -0.0051975597225543176 -0.00019083073681440109 0 -0.0052213158450588352 -0.00015032252422411452 0 -0.0052375095164471407 -0.00018675009897075334 0 -0.0052462733982517502 -0.00015268322446782413 0 -0.0052213158450588352 -0.00015032252422411452 0 -0.0051975597225543176 -0.00019083073681440109 0 -0.005158248426132603 -0.0001991725585735709 0 -0.0051679930512763608 -0.000155546666982866 0 -0.0051975597225543176 -0.00019083073681440109 0 -0.005158248426132603 -0.0001991725585735709 0 -0.0051678368292529713 -0.00023319232055608806 0 -0.005158248426132603 -0.0001991725585735709 0 -0.0051325568908552072 -0.0001677728914468907 0 -0.0051679930512763608 -0.000155546666982866 0 -0.0051678368292529713 -0.00023319232055608806 0 -0.0051892262144014349 -0.00024315915459383159 0 -0.0051548247182320213 -0.00027743025983234185 0 -0.0051678368292529713 -0.00023319232055608806 0 -0.0051393256991643533 -0.00024741568625758463 0 -0.0051548247182320213 -0.00027743025983234185 0 -0.005158248426132603 -0.0001991725585735709 0 -0.0051678368292529713 -0.00023319232055608806 0 -0.0051393256991643533 -0.00024741568625758463 0 -0.0052204528883603284 -0.00022359412114987816 0 -0.0051975597225543176 -0.00019083073681440109 0 -0.0051892262144014349 -0.00024315915459383159 0 -0.0051975597225543176 -0.00019083073681440109 0 -0.0051678368292529713 -0.00023319232055608806 0 -0.0051892262144014349 -0.00024315915459383159 0 -0.0050000023808645933 -2.3315544370768111e-05 0 -0.0050827905491078271 -4.4017840169512015e-05 0 -0.0050138354323605175 -0.00028225693409212493 0 -0.0050692772394877739 -0.00017226511728047429 0 -0.005105303555603324 -0.00017714976640542397 0 -0.005102273609587496 -0.00014651415620404681 0 -0.0050692772394877739 -0.00017226511728047429 0 -0.0050960016932461117 -0.00019968465777582379 0 -0.005105303555603324 -0.00017714976640542397 0 -0.0050692772394877739 -0.00017226511728047429 0 -0.0050960016932461117 -0.00019968465777582379 0 -0.0050748745352246858 -0.00023177607599593429 0 -0.0050960016932461117 -0.00019968465777582379 0 -0.0051237768257708823 -0.00020154035390142168 0 -0.0051054537842156293 -0.00023915200745312678 0 -0.0050960016932461117 -0.00019968465777582379 0 -0.005105303555603324 -0.00017714976640542397 0 -0.0051237768257708823 -0.00020154035390142168 0 -0.005158248426132603 -0.0001991725585735709 0 -0.0051325568908552072 -0.0001677728914468907 0 -0.0051237768257708823 -0.00020154035390142168 0 -0.005105303555603324 -0.00017714976640542397 0 -0.0051325568908552072 -0.0001677728914468907 0 -0.0051237768257708823 -0.00020154035390142168 0 -0.005158248426132603 -0.0001991725585735709 0 -0.0051237768257708823 -0.00020154035390142168 0 -0.0051393256991643533 -0.00024741568625758463 0 -0.0051393256991643533 -0.00024741568625758463 0 -0.0051054537842156293 -0.00023915200745312678 0 -0.0051128877901108587 -0.00030022977759910555 0 -0.0051237768257708823 -0.00020154035390142168 0 -0.0051393256991643533 -0.00024741568625758463 0 -0.0051054537842156293 -0.00023915200745312678 0 -0.0050000023808645933 -2.3315544370768111e-05 0 -0.0050138354323605175 -0.00028225693409212493 0 -0.0049999892314137274 -0.00031359359015627414 0 -0.0050692772394877739 -0.00017226511728047429 0 -0.0050748745352246858 -0.00023177607599593429 0 -0.0050138354323605175 -0.00028225693409212493 0 -0.0050731221479392678 -0.00010496403272832712 0 -0.0050189122719448273 -0.00027531383131894821 0 -0.0050960016932461117 -0.00019968465777582379 0 -0.0051054537842156293 -0.00023915200745312678 0 -0.0050748745352246858 -0.00023177607599593429 0 -0.0051054537842156293 -0.00023915200745312678 0 -0.0050748745352246858 -0.00023177607599593429 0 -0.0050674263324323827 -0.00026809272819335587 0 -0.0051054537842156293 -0.00023915200745312678 0 -0.0051128877901108587 -0.00030022977759910555 0 -0.0050674263324323827 -0.00026809272819335587 0 -0.0050674263324323827 -0.00026809272819335587 0 -0.0050138354323605175 -0.00028225693409212493 0 -0.0049999892314137274 -0.00031359359015627414 0 -0.0051128877901108587 -0.00030022977759910555 0 -0.0050674263324323827 -0.00026809272819335587 0 -0.0049999892314137274 -0.00031359359015627414 0 -0.0050748745352246858 -0.00023177607599593429 0 -0.0050674263324323827 -0.00026809272819335587 0 -0.0050138354323605175 -0.00028225693409212493 0 -0.0049999892314137274 -0.00031359359015627414 0 -0.005159800935088635 -0.00048375689850433252 0 -0.0049999827455759968 -0.00060391517417205786 0 -0.0051128877901108587 -0.00030022977759910555 0 -0.0049999892314137274 -0.00031359359015627414 0 -0.005159800935088635 -0.00048375689850433252 0 -0.0051218263619297079 -0.00029898301499183656 0 -0.0052329578391042929 -0.00034548829462995089 0 -0.0051128877901108587 -0.00030022977759910555 0 -0.005159800935088635 -0.00048375689850433252 0 -0.0053255047420195691 -0.0004035733106155372 0 -0.0051393256991643533 -0.00024741568625758463 0 -0.0051128877901108587 -0.00030022977759910555 0 -0.0051548247182320213 -0.00027743025983234185 0 -0.005159800935088635 -0.00048375689850433252 0 -0.0053255047420195691 -0.0004035733106155372 0 -0.0053457067681236198 -0.00063421930590758192 0 -0.005159800935088635 -0.00048375689850433252 0 -0.0053457067681236198 -0.00063421930590758192 0 -0.0051536833692394351 -0.00067956976944252314 0 -0.005159800935088635 -0.00048375689850433252 0 -0.0049999827455759968 -0.00060391517417205786 0 -0.0051536833692394351 -0.00067956976944252314 0 -0.0052204528883603284 -0.00022359412114987816 0 -0.0051892262144014349 -0.00024315915459383159 0 -0.0051998979994432497 -0.00028924790268579809 0 -0.0051892262144014349 -0.00024315915459383159 0 -0.0051548247182320213 -0.00027743025983234185 0 -0.0051998979994432497 -0.00028924790268579809 0 -0.0052329578391042929 -0.00034548829462995089 0 -0.0054046208794248764 -0.00032946722565209874 0 -0.0053255047420195691 -0.0004035733106155372 0 -0.0053457067681236198 -0.00063421930590758192 0 -0.0055370635564289464 -0.00050132649701996974 0 -0.005374269100556316 -0.00065060138057809692 0 -0.0054046208794248764 -0.00032946722565209874 0 -0.0057037498433066321 -0.00060232467827476058 0 -0.0055112578493332716 -0.00052077196845241424 0 -0.0055166678855463102 -0.00070968733534578052 0 -0.0053457067681236198 -0.00063421930590758192 0 -0.0055112578493332716 -0.00052077196845241424 0 -0.0055166678855463102 -0.00070968733534578052 0 -0.0055166678855463102 -0.00070968733534578052 0 -0.005520579841237677 -0.00095822316551751649 0 -0.0057142931880182751 -0.00081414786771587646 0 -0.0055078793667950121 -0.00071507455532906529 0 -0.0052372342755118498 -0.00082441651697226091 0 -0.0055166678855463102 -0.00070968733534578052 0 -0.0053976952868387993 -0.00087830628221888067 0 -0.005209311281304742 -0.00087117434950950679 0 -0.0053457067681236198 -0.00063421930590758192 0 -0.0055166678855463102 -0.00070968733534578052 0 -0.0052604970026947197 -0.00078488599663402664 0 -0.0053569039615141683 -0.00098209655931269209 0 -0.005209311281304742 -0.00087117434950950679 0 -0.0052597329510200288 -0.0010256448845133233 0 -0.0053976952868387993 -0.00087830628221888067 0 -0.0053569039615141683 -0.00098209655931269209 0 -0.005209311281304742 -0.00087117434950950679 0 -0.0053569039615141683 -0.00098209655931269209 0 -0.0054006404050741981 -0.0010494737334468308 0 -0.0053425092300276537 -0.0010641942819679044 0 -0.0053569039615141683 -0.00098209655931269209 0 -0.0053425092300276537 -0.0010641942819679044 0 -0.0052597329510200288 -0.0010256448845133233 0 -0.0055166678855463102 -0.00070968733534578052 0 -0.0053976952868387993 -0.00087830628221888067 0 -0.005520579841237677 -0.00095822316551751649 0 -0.0053835599655042404 -0.00096763429956213236 0 -0.0054537943774661379 -0.00090224301871612723 0 -0.0053569039615141683 -0.00098209655931269209 0 -0.0054006404050741981 -0.0010494737334468308 0 -0.0054690222891656034 -0.0010132270411700439 0 -0.0053870486865675946 -0.0010027129240518192 0 -0.0054537943774661379 -0.00090224301871612723 0 -0.0053976952868387993 -0.00087830628221888067 0 -0.0053569039615141683 -0.00098209655931269209 0 -0.005520579841237677 -0.00095822316551751649 0 -0.0049999827455759968 -0.00060391517417205786 0 -0.0051536833692394351 -0.00067956976944252314 0 -0.004999999335084904 -0.00089418678758845761 0 -0.0053457067681236198 -0.00063421930590758192 0 -0.0051536833692394351 -0.00067956976944252314 0 -0.0052604970026947197 -0.00078488599663402664 0 -0.005209311281304742 -0.00087117434950950679 0 -0.005138523700137879 -0.0010181116281648985 0 -0.0052597329510200288 -0.0010256448845133233 0 -0.0051536833692394351 -0.00067956976944252314 0 -0.0052604970026947197 -0.00078488599663402664 0 -0.004999999335084904 -0.00089418678758845761 0 -0.0052372342755118498 -0.00082441651697226091 0 -0.0050000209012157201 -0.0008942062035263745 0 -0.005209311281304742 -0.00087117434950950679 0 -0.0049999771253664135 -0.00089436376499820033 0 -0.005138523700137879 -0.0010181116281648985 0 -0.005138523700137879 -0.0010181116281648985 0 -0.0051556010674274344 -0.001154447017006497 0 -0.0049999859634562716 -0.0011486252604775132 0 -0.0049999771253664135 -0.00089436376499820033 0 -0.005138523700137879 -0.0010181116281648985 0 -0.0049999859634562716 -0.0011486252604775132 0 -0.005138523700137879 -0.0010181116281648985 0 -0.005222021356976355 -0.0011037630648769662 0 -0.0051556010674274344 -0.001154447017006497 0 -0.005138523700137879 -0.0010181116281648985 0 -0.005222021356976355 -0.0011037630648769662 0 -0.0052597329510200288 -0.0010256448845133233 0 -0.0052977504846525511 -0.0012980124185389835 0 -0.0051674672717887142 -0.0013137025847776962 0 -0.0052464928234659206 -0.0011982041654014326 0 -0.0051674672717887142 -0.0013137025847776962 0 -0.0052464928234659206 -0.0011982041654014326 0 -0.0051556010674274344 -0.001154447017006497 0 -0.005222021356976355 -0.0011037630648769662 0 -0.0052464928234659206 -0.0011982041654014326 0 -0.0051556010674274344 -0.001154447017006497 0 -0.0051674672717887142 -0.0013137025847776962 0 -0.0051556010674274344 -0.001154447017006497 0 -0.0049999859634562716 -0.0011486252604775132 0 -0.0053804047625370648 -0.0011269270991910647 0 -0.0054500650584043218 -0.0011520565561744048 0 -0.0053673574477355315 -0.00121977011515728 0 -0.0054006404050741981 -0.0010494737334468308 0 -0.0054279174854102137 -0.0010671843048089681 0 -0.0054500650584043218 -0.0011520565561744048 0 -0.0054006404050741981 -0.0010494737334468308 0 -0.0053804047625370648 -0.0011269270991910647 0 -0.0054500650584043218 -0.0011520565561744048 0 -0.0053804047625370648 -0.0011269270991910647 0 -0.0053425092300276537 -0.0010641942819679044 0 -0.0053050681696694421 -0.0011212840624550407 0 -0.0054006404050741981 -0.0010494737334468308 0 -0.0053804047625370648 -0.0011269270991910647 0 -0.0053425092300276537 -0.0010641942819679044 0 -0.005222021356976355 -0.0011037630648769662 0 -0.0052597329510200288 -0.0010256448845133233 0 -0.0053050681696694421 -0.0011212840624550407 0 -0.0053425092300276537 -0.0010641942819679044 0 -0.0052597329510200288 -0.0010256448845133233 0 -0.0053050681696694421 -0.0011212840624550407 0 -0.005222021356976355 -0.0011037630648769662 0 -0.0052464928234659206 -0.0011982041654014326 0 -0.0053050681696694421 -0.0011212840624550407 0 -0.0053804047625370648 -0.0011269270991910647 0 -0.0053050681696694421 -0.0011212840624550407 0 -0.0053673574477355315 -0.00121977011515728 0 -0.0052977504846525511 -0.0012980124185389835 0 -0.0052464928234659206 -0.0011982041654014326 0 -0.0053673574477355315 -0.00121977011515728 0 -0.0052464928234659206 -0.0011982041654014326 0 -0.0053050681696694421 -0.0011212840624550407 0 -0.0053673574477355315 -0.00121977011515728 0 -0.0053850850340346973 -0.0013345424195953946 0 -0.0052977504846525511 -0.0012980124185389835 0 -0.0053673574477355315 -0.00121977011515728 0 -0.0053850850340346973 -0.0013345424195953946 0 -0.0053673574477355315 -0.00121977011515728 0 -0.0054549137581750692 -0.0012907123702530839 0 -0.0054500650584043218 -0.0011520565561744048 0 -0.0053673574477355315 -0.00121977011515728 0 -0.0054549137581750692 -0.0012907123702530839 0 -0.0054500650584043218 -0.0011520565561744048 0 -0.0054549137581750692 -0.0012907123702530839 0 -0.0055325770304142374 -0.001215609095782373 0 -0.0055300531723481185 -0.0013191012996570124 0 -0.0054549137581750692 -0.0012907123702530839 0 -0.0055325770304142374 -0.001215609095782373 0 -0.0054500650584043218 -0.0011520565561744048 0 -0.0055325770304142374 -0.001215609095782373 0 -0.0055294019314386595 -0.0011310934532138934 0 -0.0055325770304142374 -0.001215609095782373 0 -0.0055830979162308702 -0.0012135829193074706 0 -0.0055294019314386595 -0.0011310934532138934 0 -0.0055325770304142374 -0.001215609095782373 0 -0.0055834044717881053 -0.0012798083241906736 0 -0.0055830979162308702 -0.0012135829193074706 0 -0.0055300531723481185 -0.0013191012996570124 0 -0.0055325770304142374 -0.001215609095782373 0 -0.0055834044717881053 -0.0012798083241906736 0 -0.0055834044717881053 -0.0012798083241906736 0 -0.0056070118161389813 -0.0012620669720564302 0 -0.0055830979162308702 -0.0012135829193074706 0 -0.0055910492980240567 -0.0013292878146448452 0 -0.0056289537128399085 -0.0012845642819952661 0 -0.0056070118161389813 -0.0012620669720564302 0 -0.0055910492980240567 -0.0013292878146448452 0 -0.0055834044717881053 -0.0012798083241906736 0 -0.0056070118161389813 -0.0012620669720564302 0 -0.0056070118161389813 -0.0012620669720564302 0 -0.0056118282462015567 -0.0012088823490717612 0 -0.0055830979162308702 -0.0012135829193074706 0 -0.0056334214076623895 -0.0012357168052873518 0 -0.0056070118161389813 -0.0012620669720564302 0 -0.0056118282462015567 -0.0012088823490717612 0 -0.0056118282462015567 -0.0012088823490717612 0 -0.0055830979162308702 -0.0012135829193074706 0 -0.0055914895414584899 -0.001177578232901652 0 -0.0054649747334727669 -0.00066993363247283002 0 -0.0054649785176699751 -0.00066770267955990027 0 -0.0054630757695669887 -0.00066950097381650558 0 -0.0055830979162308702 -0.0012135829193074706 0 -0.0055914895414584899 -0.001177578232901652 0 -0.0055294019314386595 -0.0011310934532138934 0 -0.0056288807518577828 -0.0011941591560978397 0 -0.0056118282462015567 -0.0012088823490717612 0 -0.0055914895414584899 -0.001177578232901652 0 -0.0054656699476193244 -0.00066859357185680549 0 -0.0054649747334727669 -0.00066993363247283002 0 -0.0054649785176699751 -0.00066770267955990027 0 -0.0054369824292101448 -0.00066706348068746452 0 -0.005549065150970884 -0.00094985217464957838 0 -0.0054369824292101448 -0.00066706348068746452 0 -0.0053301130642013075 -0.0002350892737469577 0 -0.0052129735289813649 5.3954637229081559e-05 0 -0.0051794574740221273 0.00015300815434029363 0 -0.0053000164906524981 0.0001001016094811127 0 -0.0052129735289813649 5.3954637229081559e-05 0 -0.0053262138429800206 -3.9473770478729894e-06 0 -0.0053000164906524981 0.0001001016094811127 0 -0.0053301130642013075 -0.0002350892737469577 0 -0.0055038042569087019 -0.00033969223366515737 0 -0.0053262138429800206 -3.9473770478729894e-06 0 -0.0053000164906524981 0.0001001016094811127 0 -0.0054123168516248717 4.657259243425797e-05 0 -0.0054649785176699751 -0.00066770267955990027 0 -0.0054630757695669887 -0.00066950097381650558 0 -0.0054628298898392273 -0.00066563705557108979 0 -0.0057037498433066321 -0.00060232467827476058 0 -0.0058971490829264122 -0.00068993069588015347 0 -0.0057142931880182751 -0.00081414786771587646 0 -0.0055038042569087019 -0.00033969223366515737 0 -0.0056014993532608253 -0.00075412928816061741 0 -0.0054630757695669887 -0.00066950097381650558 0 -0.0054628298898392273 -0.00066563705557108979 0 -0.0054588689470107983 -0.00067086163930712734 0 -0.0057037498433066321 -0.00060232467827476058 0 -0.0055166678855463102 -0.00070968733534578052 0 -0.0057142931880182751 -0.00081414786771587646 0 -0.0054279174854102137 -0.0010671843048089681 0 -0.0054500650584043218 -0.0011520565561744048 0 -0.0055294019314386595 -0.0011310934532138934 0 -0.0054537943774661379 -0.00090224301871612723 0 -0.0056014993532608253 -0.00075412928816061741 0 -0.0054537943774661379 -0.00090224301871612723 0 -0.0054832667156929282 -0.00089619477152789453 0 -0.0054524613144360723 -0.00067876041562342775 0 -0.0054588689470107983 -0.00067086163930712734 0 -0.0054611299380482974 -0.00067366623431733188 0 -0.0054630757695669887 -0.00066950097381650558 0 -0.0054588689470107983 -0.00067086163930712734 0 -0.0054611299380482974 -0.00067366623431733188 0 -0.005549065150970884 -0.00094985217464957838 0 -0.0054832667156929282 -0.00089619477152789453 0 -0.0054649747334727669 -0.00066993363247283002 0 -0.0054630757695669887 -0.00066950097381650558 0 -0.0054611299380482974 -0.00067366623431733188 0 0.0019453277297479625 -0.00051300038364639319 0 0.0019798952693988623 -0.00036969237910824639 0 0.0020247058394307744 -0.00059823058034303735 0 0.0019453277297479625 -0.00051300038364639319 0 0.0018421540433045866 -0.0003828786781957351 0 0.0019798952693988623 -0.00036969237910824639 0 0.0018421540433045866 -0.0003828786781957351 0 0.0019131239336292218 -0.00066346569337764536 0 0.00152487367158689 -0.00042605666821785205 0 0.0019453277297479625 -0.00051300038364639319 0 0.0018421540433045866 -0.0003828786781957351 0 0.0019131239336292218 -0.00066346569337764536 0 0.0018421540433045866 -0.0003828786781957351 0 0.0017071967173435398 -0.00022691402055464587 0 0.0018381391718110911 -0.00019943556137937344 0 0.0017071967173435398 -0.00022691402055464587 0 0.0018381391718110911 -0.00019943556137937344 0 0.0017225362924922333 -6.0052708975706695e-05 0 0.0018381391718110911 -0.00019943556137937344 0 0.0019147539919619359 -0.00023783623530916306 0 0.001910110512853877 -0.00030750905542553138 0 0.0018421540433045866 -0.0003828786781957351 0 0.0018381391718110911 -0.00019943556137937344 0 0.001910110512853877 -0.00030750905542553138 0 0.0018421540433045866 -0.0003828786781957351 0 0.001910110512853877 -0.00030750905542553138 0 0.0019798952693988623 -0.00036969237910824639 0 0.0019798952693988623 -0.00036969237910824639 0 0.0019767721997161238 -0.00032599420089457829 0 0.0019209035513471288 -0.00033457006788445594 0 0.001910110512853877 -0.00030750905542553138 0 0.0019798952693988623 -0.00036969237910824639 0 0.0019767721997161238 -0.00032599420089457829 0 0.0019147539919619359 -0.00023783623530916306 0 0.0019767721997161238 -0.00032599420089457829 0 0.0019426682377903114 -0.00010027118729924593 0 0.0019147539919619359 -0.00023783623530916306 0 0.001910110512853877 -0.00030750905542553138 0 0.0019767721997161238 -0.00032599420089457829 0 0.0019209035513471288 -0.00033457006788445594 0 0.001857335600158451 -0.00037928446599063824 0 0.0018632265494765879 -0.00026614856204442935 0 0.0019798952693988623 -0.00036969237910824639 0 0.0019209035513471288 -0.00033457006788445594 0 0.0018632265494765879 -0.00026614856204442935 0 0.0019767721997161238 -0.00032599420089457829 0 0.0019309150341154805 -0.00037257121712669096 0 0.0019209035513471288 -0.00033457006788445594 0 0.0019309150341154805 -0.00037257121712669096 0 0.0019209035513471288 -0.00033457006788445594 0 0.001857335600158451 -0.00037928446599063824 0 0.001857335600158451 -0.00037928446599063824 0 0.0018632265494765879 -0.00026614856204442935 0 0.0017549207939859055 -0.00032839512513589203 0 0.001857335600158451 -0.00037928446599063824 0 0.0017741002731779787 -0.00040355301798362578 0 0.0017549207939859055 -0.00032839512513589203 0 0.0018632265494765879 -0.00026614856204442935 0 0.0017004242291723661 -0.0002201401534007401 0 0.0017549207939859055 -0.00032839512513589203 0 0.0020422980538338481 -0.00035352658652890173 0 0.0016767508724059386 -0.00067815789696734792 0 0.002127481690082738 -0.00048487300224678932 0 0.0021166117129636261 -0.00059778407965604887 0 0.0022408519833047808 -0.00053381742310313902 0 0.001953414446172857 -0.00036926349464822374 0 0.0020422980538338481 -0.00035352658652890173 0 0.0019798952693988623 -0.00036969237910824639 0 0.002127481690082738 -0.00048487300224678932 0 0.0020247058394307744 -0.00059823058034303735 0 0.002127481690082738 -0.00048487300224678932 0 0.0020247058394307744 -0.00059823058034303735 0 0.0021166117129636261 -0.00059778407965604887 0 0.0020247058394307744 -0.00059823058034303735 0 0.0021166117129636261 -0.00059778407965604887 0 0.0020463236317413312 -0.00068547846536024643 0 0.0021166117129636261 -0.00059778407965604887 0 0.0021442010091240232 -0.00067562792316727823 0 0.0022408519833047808 -0.00053381742310313902 0 0.0021442010091240232 -0.00067562792316727823 0 0.0020463236317413312 -0.00068547846536024643 0 0.0020077377806735639 -0.00076078101130352678 0 0.0021166117129636261 -0.00059778407965604887 0 0.0021442010091240232 -0.00067562792316727823 0 0.0020463236317413312 -0.00068547846536024643 0 0.0020247058394307744 -0.00059823058034303735 0 0.0020463236317413312 -0.00068547846536024643 0 0.0020019992946849912 -0.00071495694457676337 0 0.0020247058394307744 -0.00059823058034303735 0 0.0020019992946849912 -0.00071495694457676337 0 0.0019131239336292218 -0.00066346569337764536 0 0.0019453277297479625 -0.00051300038364639319 0 0.0020247058394307744 -0.00059823058034303735 0 0.0019131239336292218 -0.00066346569337764536 0 0.0020019992946849912 -0.00071495694457676337 0 0.0019131239336292218 -0.00066346569337764536 0 0.0020166310353375624 -0.00071096533557247674 0 0.0019131239336292218 -0.00066346569337764536 0 0.0020166310353375624 -0.00071096533557247674 0 0.0020674813556935882 -0.00072262803244213308 0 0.0020166310353375624 -0.00071096533557247674 0 0.0020674813556935882 -0.00072262803244213308 0 0.0021296105870641526 -0.00071281952640690402 0 0.0021460378982079468 -0.00073417892914086 0 0.0022074428380599522 -0.00073069113652028867 0 0.0021296105870641526 -0.00071281952640690402 0 0.0020674813556935882 -0.00072262803244213308 0 0.0021460378982079468 -0.00073417892914086 0 0.0021296105870641526 -0.00071281952640690402 0 0.0021460378982079468 -0.00073417892914086 0 0.0021481652534783499 -0.00077956460606272025 0 0.0021933345884684089 -0.00075947718824235155 0 0.0020674813556935882 -0.00072262803244213308 0 0.0021460378982079468 -0.00073417892914086 0 0.0021481652534783499 -0.00077956460606272025 0 0.0020674813556935882 -0.00072262803244213308 0 0.0021481652534783499 -0.00077956460606272025 0 0.0020936222826873911 -0.00084090227433118541 0 0.0021481652534783499 -0.00077956460606272025 0 0.0021860366122764207 -0.00083370388458334373 0 0.0020936222826873911 -0.00084090227433118541 0 0.0019131239336292218 -0.00066346569337764536 0 0.0020674813556935882 -0.00072262803244213308 0 0.0020936222826873911 -0.00084090227433118541 0 0.0023015999230680821 -0.00075793107262194653 0 0.0022718279779083872 -0.00072676269355609845 0 0.0023323705008663747 -0.00072701871965450348 0 0.0023015999230680821 -0.00075793107262194653 0 0.0022458399616758105 -0.00076188787567303413 0 0.0022718279779083872 -0.00072676269355609845 0 0.0023015999230680821 -0.00075793107262194653 0 0.0022458399616758105 -0.00076188787567303413 0 0.0022822081283129991 -0.00080267344230823133 0 0.0022458399616758105 -0.00076188787567303413 0 0.0022074428380599522 -0.00073069113652028867 0 0.0022718279779083872 -0.00072676269355609845 0 0.0021460378982079468 -0.00073417892914086 0 0.0022074428380599522 -0.00073069113652028867 0 0.0021933345884684089 -0.00075947718824235155 0 0.0022458399616758105 -0.00076188787567303413 0 0.0022074428380599522 -0.00073069113652028867 0 0.0021933345884684089 -0.00075947718824235155 0 0.0021481652534783499 -0.00077956460606272025 0 0.0021933345884684089 -0.00075947718824235155 0 0.002218742804171444 -0.00080040884600003669 0 0.0021481652534783499 -0.00077956460606272025 0 0.002218742804171444 -0.00080040884600003669 0 0.0021860366122764207 -0.00083370388458334373 0 0.002218742804171444 -0.00080040884600003669 0 0.0022472300752687758 -0.00084872856937890815 0 0.0021860366122764207 -0.00083370388458334373 0 0.0022458399616758105 -0.00076188787567303413 0 0.002218742804171444 -0.00080040884600003669 0 0.0022822081283129991 -0.00080267344230823133 0 0.0022458399616758105 -0.00076188787567303413 0 0.0021933345884684089 -0.00075947718824235155 0 0.002218742804171444 -0.00080040884600003669 0 0.002218742804171444 -0.00080040884600003669 0 0.0022822081283129991 -0.00080267344230823133 0 0.0022472300752687758 -0.00084872856937890815 0 0.0022822081283129991 -0.00080267344230823133 0 0.0022991175043752779 -0.00085115143167883924 0 0.0023374251369613309 -0.00081667884283984386 0 0.0022822081283129991 -0.00080267344230823133 0 0.0023374251369613309 -0.00081667884283984386 0 0.0023228646949331805 -0.00078691365256657595 0 0.0023015999230680821 -0.00075793107262194653 0 0.0022822081283129991 -0.00080267344230823133 0 0.0023228646949331805 -0.00078691365256657595 0 0.0023103273627014171 -0.00089207223015732586 0 0.0022991175043752779 -0.00085115143167883924 0 0.0022712536243336572 -0.00088940481395100599 0 0.0022991175043752779 -0.00085115143167883924 0 0.0022472300752687758 -0.00084872856937890815 0 0.0022712536243336572 -0.00088940481395100599 0 0.0022822081283129991 -0.00080267344230823133 0 0.0022991175043752779 -0.00085115143167883924 0 0.0022472300752687758 -0.00084872856937890815 0 0.0022472300752687758 -0.00084872856937890815 0 0.0022712536243336572 -0.00088940481395100599 0 0.0022256451209668217 -0.00090475900822929636 0 0.0022472300752687758 -0.00084872856937890815 0 0.0021860366122764207 -0.00083370388458334373 0 0.0022256451209668217 -0.00090475900822929636 0 0.0014031854308661322 -0.00017952293863677217 0 0.001334249590549124 -0.00023268819418087791 0 0.0014549886309088776 -0.00024794940937696811 0 0.0014031854308661322 -0.00017952293863677217 0 0.0013450398175791282 -0.00021010399205358555 0 0.0014022328433608046 -6.7802465713477411e-05 0 0.0014031854308661322 -0.00017952293863677217 0 0.0013450398175791282 -0.00021010399205358555 0 0.001334249590549124 -0.00023268819418087791 0 0.0022712536243336572 -0.00088940481395100599 0 0.0022256451209668217 -0.00090475900822929636 0 0.0023446174391995181 -0.00095401122309143481 0 0.0023103273627014171 -0.00089207223015732586 0 0.0022712536243336572 -0.00088940481395100599 0 0.0023446174391995181 -0.00095401122309143481 0 0.001334249590549124 -0.00023268819418087791 0 0.0013732503789791264 -0.00023511035703782575 0 0.0014117226146047304 -0.00021496885462998324 0 0.0013372172864839845 -0.00020528124577962617 0 0.0012764793698612829 -0.00017498439683166745 0 0.0013450398175791282 -0.00021010399205358555 0 0.001334249590549124 -0.00023268819418087791 0 0.0013732503789791264 -0.00023511035703782575 0 0.0017808145361978994 -0.00057069523728515439 0 0.0018948044356180526 -0.00060130164368474412 0 0.0018421540433045866 -0.0003828786781957351 0 0.0017071967173435398 -0.00022691402055464587 0 0.00152487367158689 -0.00042605666821785205 0 0.001913619887490139 -0.00066709394360988305 0 0.0018199708761585031 -0.00063215071946760837 0 0.001334249590549124 -0.00023268819418087791 0 0.00152487367158689 -0.00042605666821785205 0 0.0014549886309088776 -0.00024794940937696811 0 0.0021860366122764207 -0.00083370388458334373 0 0.0022256451209668217 -0.00090475900822929636 0 0.0020936222826873911 -0.00084090227433118541 0 0.0017808145361978994 -0.00057069523728515439 0 0.0018199708761585031 -0.00063215071946760837 0 0.0014549886309088776 -0.00024794940937696811 0 0.0015927415282778899 -0.00013882307055123415 0 0.001498198840953914 -7.7801086675791513e-05 0 0.00152487367158689 -0.00042605666821785205 0 0.0014549886309088776 -0.00024794940937696811 0 0.0015927415282778899 -0.00013882307055123415 0 0.0014031854308661322 -0.00017952293863677217 0 0.0014549886309088776 -0.00024794940937696811 0 0.001498198840953914 -7.7801086675791513e-05 0 0.0017071967173435398 -0.00022691402055464587 0 0.00152487367158689 -0.00042605666821785205 0 0.0015927415282778899 -0.00013882307055123415 0 0.001606508610098779 -2.0663276975149269e-05 0 0.0015927415282778899 -0.00013882307055123415 0 0.0017225362924922333 -6.0052708975706695e-05 0 0.0017071967173435398 -0.00022691402055464587 0 0.0015927415282778899 -0.00013882307055123415 0 0.0017225362924922333 -6.0052708975706695e-05 0 0.001606508610098779 -2.0663276975149269e-05 0 0.0016331775016401272 7.2155339399922761e-05 0 0.0017225362924922333 -6.0052708975706695e-05 0 0.001606508610098779 -2.0663276975149269e-05 0 0.001498198840953914 -7.7801086675791513e-05 0 0.0015413395641462131 5.4130335937831994e-05 0 0.001606508610098779 -2.0663276975149269e-05 0 0.0015927415282778899 -0.00013882307055123415 0 0.001498198840953914 -7.7801086675791513e-05 0 0.0014031854308661322 -0.00017952293863677217 0 0.001498198840953914 -7.7801086675791513e-05 0 0.0014022328433608046 -6.7802465713477411e-05 0 0.001498198840953914 -7.7801086675791513e-05 0 0.0014569087818848343 1.7385078663969846e-05 0 0.0014022328433608046 -6.7802465713477411e-05 0 0.001498198840953914 -7.7801086675791513e-05 0 0.0014569087818848343 1.7385078663969846e-05 0 0.0015413395641462131 5.4130335937831994e-05 0 0.0014731969227659159 0.00012731739890820841 0 0.0015741982129278622 0.00014346700175584207 0 0.0015413395641462131 5.4130335937831994e-05 0 0.0014569087818848343 1.7385078663969846e-05 0 0.0014731969227659159 0.00012731739890820841 0 0.0015413395641462131 5.4130335937831994e-05 0 0.0015741982129278622 0.00014346700175584207 0 0.0016331775016401272 7.2155339399922761e-05 0 0.0016580526083414999 0.00017956724848115861 0 0.0015741982129278622 0.00014346700175584207 0 0.0016331775016401272 7.2155339399922761e-05 0 0.0015413395641462131 5.4130335937831994e-05 0 0.001606508610098779 -2.0663276975149269e-05 0 0.0016331775016401272 7.2155339399922761e-05 0 0.0015413395641462131 5.4130335937831994e-05 0 0.0013450398175791282 -0.00021010399205358555 0 0.0011715416832821554 -0.00010195445253019906 0 0.0013013523618275915 -8.1381347996680123e-05 0 0.0011654425256535205 3.6242140128039336e-05 0 0.0011715416832821554 -0.00010195445253019906 0 0.0013013523618275915 -8.1381347996680123e-05 0 0.0011654425256535205 3.6242140128039336e-05 0 0.0013013523618275915 -8.1381347996680123e-05 0 0.0013598296765860512 8.116142423748602e-05 0 0.0013013523618275915 -8.1381347996680123e-05 0 0.0014022328433608046 -6.7802465713477411e-05 0 0.0013598296765860512 8.116142423748602e-05 0 0.0013450398175791282 -0.00021010399205358555 0 0.0013013523618275915 -8.1381347996680123e-05 0 0.0014022328433608046 -6.7802465713477411e-05 0 0.0014569087818848343 1.7385078663969846e-05 0 0.0014022328433608046 -6.7802465713477411e-05 0 0.0013598296765860512 8.116142423748602e-05 0 0.0014569087818848343 1.7385078663969846e-05 0 0.0014731969227659159 0.00012731739890820841 0 0.0013598296765860512 8.116142423748602e-05 0 0.0014731969227659159 0.00012731739890820841 0 0.0013598296765860512 8.116142423748602e-05 0 0.0013982097283546451 0.00017149254573382608 0 0.0013598296765860512 8.116142423748602e-05 0 0.0013579699087912383 0.00014088661992750552 0 0.0013982097283546451 0.00017149254573382608 0 0.0013518878955678876 0.00013437961821658592 0 0.0013598296765860512 8.116142423748602e-05 0 0.0013579699087912383 0.00014088661992750552 0 0.0012489296141871551 7.6464661026389244e-05 0 0.001354562544362072 8.9120803049875852e-05 0 0.0013579699087912383 0.00014088661992750552 0 0.0013640582919198906 0.00019468894063336573 0 0.0013435198957679963 0.00016433155460067464 0 0.0013518878955678876 0.00013437961821658592 0 0.0013579699087912383 0.00014088661992750552 0 0.0013435198957679963 0.00016433155460067464 0 0.0013640582919198906 0.00019468894063336573 0 0.0013982097283546451 0.00017149254573382608 0 0.0013972464830581518 0.00025379502618473181 0 0.0013640582919198906 0.00019468894063336573 0 0.0013972464830581518 0.00025379502618473181 0 0.0013615747736072318 0.00026031244235237376 0 0.0013579699087912383 0.00014088661992750552 0 0.0013640582919198906 0.00019468894063336573 0 0.0013982097283546451 0.00017149254573382608 0 0.0014731969227659159 0.00012731739890820841 0 0.0013982097283546451 0.00017149254573382608 0 0.0014544184916489391 0.00023798321331615986 0 0.0013982097283546451 0.00017149254573382608 0 0.0014544184916489391 0.00023798321331615986 0 0.0013972464830581518 0.00025379502618473181 0 0.0014544184916489391 0.00023798321331615986 0 0.0014324473172089083 0.00031974069024585179 0 0.0014808143493609312 0.00031876954819554923 0 0.0014544184916489391 0.00023798321331615986 0 0.0013972464830581518 0.00025379502618473181 0 0.0014324473172089083 0.00031974069024585179 0 0.0013972464830581518 0.00025379502618473181 0 0.0013819811531897643 0.00032085456305307208 0 0.0014324473172089083 0.00031974069024585179 0 0.0013972464830581518 0.00025379502618473181 0 0.0013615747736072318 0.00026031244235237376 0 0.0013819811531897643 0.00032085456305307208 0 0.0015741982129278622 0.00014346700175584207 0 0.0015879942541710652 0.00024594915422302273 0 0.0015210928261035176 0.00020985801390105185 0 0.0015741982129278622 0.00014346700175584207 0 0.0015879942541710652 0.00024594915422302273 0 0.0016580526083414999 0.00017956724848115861 0 0.0014731969227659159 0.00012731739890820841 0 0.0014544184916489391 0.00023798321331615986 0 0.0015210928261035176 0.00020985801390105185 0 0.0014731969227659159 0.00012731739890820841 0 0.0015741982129278622 0.00014346700175584207 0 0.0015210928261035176 0.00020985801390105185 0 0.0014544184916489391 0.00023798321331615986 0 0.0015190253909500009 0.00027461944605848689 0 0.0014808143493609312 0.00031876954819554923 0 0.0015190253909500009 0.00027461944605848689 0 0.0014808143493609312 0.00031876954819554923 0 0.001554892447809637 0.00033774630174474181 0 0.0014544184916489391 0.00023798321331615986 0 0.0015210928261035176 0.00020985801390105185 0 0.0015190253909500009 0.00027461944605848689 0 0.0015879942541710652 0.00024594915422302273 0 0.0015190253909500009 0.00027461944605848689 0 0.001554892447809637 0.00033774630174474181 0 0.0015879942541710652 0.00024594915422302273 0 0.0016195343639263432 0.00029219833536231872 0 0.001554892447809637 0.00033774630174474181 0 0.0015879942541710652 0.00024594915422302273 0 0.0015210928261035176 0.00020985801390105185 0 0.0015190253909500009 0.00027461944605848689 0 0.0016195343639263432 0.00029219833536231872 0 0.0016629721194583555 0.0003048950792424163 0 0.001616812023092174 0.00035331092981066452 0 0.0016195343639263432 0.00029219833536231872 0 0.0016344873430095626 0.00024225359792917186 0 0.0016704428538834193 0.00024836373546856548 0 0.0016195343639263432 0.00029219833536231872 0 0.0016629721194583555 0.0003048950792424163 0 0.0016704428538834193 0.00024836373546856548 0 0.0015879942541710652 0.00024594915422302273 0 0.0016195343639263432 0.00029219833536231872 0 0.0016344873430095626 0.00024225359792917186 0 0.0016995957985250425 0.00029889640504985357 0 0.0016629721194583555 0.0003048950792424163 0 0.0016593562715641664 0.00037058845498562685 0 0.0016629721194583555 0.0003048950792424163 0 0.001707673530497588 0.00025320481748380877 0 0.0016704428538834193 0.00024836373546856548 0 0.0016995957985250425 0.00029889640504985357 0 0.0016629721194583555 0.0003048950792424163 0 0.001707673530497588 0.00025320481748380877 0 0.0016995957985250425 0.00029889640504985357 0 0.001707673530497588 0.00025320481748380877 0 0.001735925425954923 0.00025626409976481628 0 0.001707673530497588 0.00025320481748380877 0 0.0017131625021151529 0.0002082367595082071 0 0.001746688755430729 0.00020168978306172331 0 0.001707673530497588 0.00025320481748380877 0 0.001746688755430729 0.00020168978306172331 0 0.001735925425954923 0.00025626409976481628 0 0.001707673530497588 0.00025320481748380877 0 0.0017131625021151529 0.0002082367595082071 0 0.0016704428538834193 0.00024836373546856548 0 0.0017131625021151529 0.0002082367595082071 0 0.001746688755430729 0.00020168978306172331 0 0.0017339518204537337 0.00015390616666473075 0 0.001746688755430729 0.00020168978306172331 0 0.0017339518204537337 0.00015390616666473075 0 0.0017753360531023922 0.00014745069533206141 0 0.0015879942541710652 0.00024594915422302273 0 0.0016344873430095626 0.00024225359792917186 0 0.0016580526083414999 0.00017956724848115861 0 0.0016344873430095626 0.00024225359792917186 0 0.0016704428538834193 0.00024836373546856548 0 0.0016580526083414999 0.00017956724848115861 0 0.0017131625021151529 0.0002082367595082071 0 0.0016704428538834193 0.00024836373546856548 0 0.0016580526083414999 0.00017956724848115861 0 0.0017131625021151529 0.0002082367595082071 0 0.0016580526083414999 0.00017956724848115861 0 0.0017339518204537337 0.00015390616666473075 0 0.0016331775016401272 7.2155339399922761e-05 0 0.0016580526083414999 0.00017956724848115861 0 0.0017033005088999506 8.335948407380979e-05 0 0.0016331775016401272 7.2155339399922761e-05 0 0.0017033005088999506 8.335948407380979e-05 0 0.0017225362924922333 -6.0052708975706695e-05 0 0.0017033005088999506 8.335948407380979e-05 0 0.0017726029921111318 6.9204215042845046e-05 0 0.0017225362924922333 -6.0052708975706695e-05 0 0.0016580526083414999 0.00017956724848115861 0 0.0017033005088999506 8.335948407380979e-05 0 0.0017339518204537337 0.00015390616666473075 0 0.0017033005088999506 8.335948407380979e-05 0 0.0017339518204537337 0.00015390616666473075 0 0.0017726029921111318 6.9204215042845046e-05 0 0.0017339518204537337 0.00015390616666473075 0 0.0017804420169405728 0.00011619241069562981 0 0.0017726029921111318 6.9204215042845046e-05 0 0.0017339518204537337 0.00015390616666473075 0 0.0017753360531023922 0.00014745069533206141 0 0.0017804420169405728 0.00011619241069562981 0 0.0017753360531023922 0.00014745069533206141 0 0.0017804420169405728 0.00011619241069562981 0 0.0017944695791101068 0.000114291229337405 0 0.0018182807735060234 8.06639928983466e-05 0 0.0018519142371605354 -2.4802602724700255e-05 0 0.0018586976834975139 8.2197364587302757e-05 0 0.0017944695791101068 0.000114291229337405 0 0.0018182807735060234 8.06639928983466e-05 0 0.0017986187987428879 0.00010775299961213472 0 0.0017804420169405728 0.00011619241069562981 0 0.0017944695791101068 0.000114291229337405 0 0.0018182807735060234 8.06639928983466e-05 0 0.0018216269022558699 0.0001062467867307821 0 0.0018299503835978632 0.00011629334423046678 0 0.0017804420169405728 0.00011619241069562981 0 0.0018182807735060234 8.06639928983466e-05 0 0.0017726029921111318 6.9204215042845046e-05 0 0.0018182807735060234 8.06639928983466e-05 0 0.0017726029921111318 6.9204215042845046e-05 0 0.0018519142371605354 -2.4802602724700255e-05 0 0.0017726029921111318 6.9204215042845046e-05 0 0.0018519142371605354 -2.4802602724700255e-05 0 0.0017225362924922333 -6.0052708975706695e-05 0 0.0019767721997161238 -0.00032599420089457829 0 0.0019426682377903114 -0.00010027118729924593 0 0.0021243514546466446 0.00011539527215114797 0 0.0018621850113683554 2.3895037217889212e-05 0 0.0018299503835978632 0.00011629334423046678 0 0.0018519142371605354 -2.4802602724700255e-05 0 0.0019426682377903114 -0.00010027118729924593 0 0.0020429887432881766 0.0001229555148729253 0 0.0018381391718110911 -0.00019943556137937344 0 0.0019147539919619359 -0.00023783623530916306 0 0.0019426682377903114 -0.00010027118729924593 0 0.0018381391718110911 -0.00019943556137937344 0 0.0018519142371605354 -2.4802602724700255e-05 0 0.0019426682377903114 -0.00010027118729924593 0 0.0018381391718110911 -0.00019943556137937344 0 0.0018519142371605354 -2.4802602724700255e-05 0 0.0017225362924922333 -6.0052708975706695e-05 0 0.001857335600158451 -0.00037928446599063824 0 0.0018848137216089141 -0.00043604640351815942 0 0.0017863908153288495 -0.00049353214008541091 0 0.001857335600158451 -0.00037928446599063824 0 0.0017741002731779787 -0.00040355301798362578 0 0.0017863908153288495 -0.00049353214008541091 0 0.0019309150341154805 -0.00037257121712669096 0 0.0018848137216089141 -0.00043604640351815942 0 0.0019263497681918768 -0.00050124258528508108 0 0.0018848137216089141 -0.00043604640351815942 0 0.0019263497681918768 -0.00050124258528508108 0 0.0017863908153288495 -0.00049353214008541091 0 0.0020428260602445569 -0.00040669973888039047 0 0.0017296791713697277 6.139947795398951e-05 0 0.0019767721997161238 -0.00032599420089457829 0 0.0019309150341154805 -0.00037257121712669096 0 0.0019263497681918768 -0.00050124258528508108 0 0.0019309150341154805 -0.00037257121712669096 0 0.001857335600158451 -0.00037928446599063824 0 0.0018848137216089141 -0.00043604640351815942 0 0.0019426682377903114 -0.00010027118729924593 0 0.0020429887432881766 0.0001229555148729253 0 0.0021243514546466446 0.00011539527215114797 0 0.0014862457380498176 0.00051207738523769959 0 0.0014479462631190017 0.00041802955599238103 0 0.0011613213427497243 0.00054239487015251772 0 0.0017944695791101068 0.000114291229337405 0 0.0017986187987428879 0.00010775299961213472 0 0.0018044982017307453 0.00013039962859503871 0 0.0018299503835978632 0.00011629334423046678 0 0.0017296791713697277 6.139947795398951e-05 0 0.0018299503835978632 0.00011629334423046678 0 0.0016372869018959817 0.00027432798089416509 0 0.0017296791713697277 6.139947795398951e-05 0 0.0016372869018959817 0.00027432798089416509 0 0.001715603989307669 0.00017086073943227927 0 0.0017096317324554525 0.00017154290583239486 0 0.0017063831695015635 0.00016469909301490256 0 0.0017753360531023922 0.00014745069533206141 0 0.0017944695791101068 0.000114291229337405 0 0.0018044982017307453 0.00013039962859503871 0 0.0017753360531023922 0.00014745069533206141 0 0.0018044982017307453 0.00013039962859503871 0 0.0017754404197502993 0.00017126416272495568 0 0.0014479462631190017 0.00041802955599238103 0 0.0011613213427497243 0.00054239487015251772 0 0.0010269561565699294 0.00034402766630805599 0 0.0017296791713697277 6.139947795398951e-05 0 0.0015059656488248514 1.3589000554206151e-05 0 0.0016372869018959817 0.00027432798089416509 0 0.0010969849801492338 0.00018316604459496806 0 0.0014479462631190017 0.00041802955599238103 0 0.0011085462324404499 0.00015370222165432304 0 0.0010269561565699294 0.00034402766630805599 0 0.0015255999862539933 0.00047672679848028316 0 0.0011364141141996195 0.00017411932651678746 0 0.0013528204259552958 4.4716125779987307e-05 0 0.0016372869018959817 0.00027432798089416509 0 0.001550419489859558 0.00019517023760720826 0 0.0018044982017307453 0.00013039962859503871 0 0.0017721313292996779 0.00021017877429208609 0 0.0017797887245626855 0.0002770796331446487 0 0.0018044982017307453 0.00013039962859503871 0 0.0017754404197502993 0.00017126416272495568 0 0.0017721313292996779 0.00021017877429208609 0 0.001746688755430729 0.00020168978306172331 0 0.0017754404197502993 0.00017126416272495568 0 0.0017721313292996779 0.00021017877429208609 0 0.001746688755430729 0.00020168978306172331 0 0.0017753360531023922 0.00014745069533206141 0 0.0017754404197502993 0.00017126416272495568 0 0.0017721313292996779 0.00021017877429208609 0 0.0017669815003590712 0.00026181186776408241 0 0.0017797887245626855 0.0002770796331446487 0 0.0017721313292996779 0.00021017877429208609 0 0.0017669815003590712 0.00026181186776408241 0 0.001735925425954923 0.00025626409976481628 0 0.001746688755430729 0.00020168978306172331 0 0.0017721313292996779 0.00021017877429208609 0 0.001735925425954923 0.00025626409976481628 0 0.0017243739523722849 0.00030809615319387691 0 0.0017641959235577464 0.00028266239092993359 0 0.0016969411392625138 0.00036682632264782231 0 0.0016995957985250425 0.00029889640504985357 0 0.001735925425954923 0.00025626409976481628 0 0.0017243739523722849 0.00030809615319387691 0 0.0017669815003590712 0.00026181186776408241 0 0.001735925425954923 0.00025626409976481628 0 0.0017243739523722849 0.00030809615319387691 0 0.0017669815003590712 0.00026181186776408241 0 0.0017243739523722849 0.00030809615319387691 0 0.0017641959235577464 0.00028266239092993359 0 0.0016995957985250425 0.00029889640504985357 0 0.0017243739523722849 0.00030809615319387691 0 0.0016593562715641664 0.00037058845498562685 0 0.0011364141141996195 0.00017411932651678746 0 0.0013528204259552958 4.4716125779987307e-05 0 0.0010239277412173269 -0.00014782899135402607 0 0.0014447509214578558 0.00020353517197493003 0 0.001549946002242946 0.00026710181996857237 0 0.0015063759900424615 0.00036110191856741333 0 0.001550419489859558 0.00019517023760720826 0 0.0012631578268427583 4.9036739042461671e-05 0 0.0016781224438435593 0.00025757427896874963 0 0.001550419489859558 0.00019517023760720826 0 0.0011085462324404499 0.00015370222165432304 0 0.0007665168277953973 3.4735404521565535e-05 0 0.00074934078467713547 -0.00013226696874409744 0 0.0010969849801492338 0.00018316604459496806 0 0.0007736835601737269 -0.00012326833980177623 0 0.0011364141141996195 0.00017411932651678746 0 0.0010239277412173269 -0.00014782899135402607 0 0.00074934078467713547 -0.00013226696874409744 0 0.0011085462324404499 0.00015370222165432304 0 0.00096193050110639808 0.00024525611530424831 0 0.0008524568877392954 0.00016167837075473581 0 0.0011085462324404499 0.00015370222165432304 0 0.0008524568877392954 0.00016167837075473581 0 0.0007665168277953973 3.4735404521565535e-05 0 0.00096193050110639808 0.00024525611530424831 0 0.0010269561565699294 0.00034402766630805599 0 0.00085608605848007467 0.00032439543010766151 0 0.00096193050110639808 0.00024525611530424831 0 0.0008524568877392954 0.00016167837075473581 0 0.00085608605848007467 0.00032439543010766151 0 0.0011085462324404499 0.00015370222165432304 0 0.00096193050110639808 0.00024525611530424831 0 0.0010269561565699294 0.00034402766630805599 0 0.00072105561949383661 0.00025648596731213933 0 0.00058413604469031467 0.00020077485446252195 0 0.00060939012447793763 0.0003366844393309854 0 0.00072105561949383661 0.00025648596731213933 0 0.00071230129315906867 0.00037908984623569511 0 0.00060939012447793763 0.0003366844393309854 0 0.00072105561949383661 0.00025648596731213933 0 0.0008524568877392954 0.00016167837075473581 0 0.00085608605848007467 0.00032439543010766151 0 0.00072105561949383661 0.00025648596731213933 0 0.00085608605848007467 0.00032439543010766151 0 0.00071230129315906867 0.00037908984623569511 0 0.0008524568877392954 0.00016167837075473581 0 0.00069931416748478009 0.00013333275047593623 0 0.0007665168277953973 3.4735404521565535e-05 0 0.00072105561949383661 0.00025648596731213933 0 0.0008524568877392954 0.00016167837075473581 0 0.00069931416748478009 0.00013333275047593623 0 0.00069931416748478009 0.00013333275047593623 0 0.00061388407939539063 4.5499472633635401e-05 0 0.0007665168277953973 3.4735404521565535e-05 0 0.00072105561949383661 0.00025648596731213933 0 0.00069931416748478009 0.00013333275047593623 0 0.00058413604469031467 0.00020077485446252195 0 0.00069931416748478009 0.00013333275047593623 0 0.00058413604469031467 0.00020077485446252195 0 0.00061388407939539063 4.5499472633635401e-05 0 0.0007665168277953973 3.4735404521565535e-05 0 0.00074934078467713547 -0.00013226696874409744 0 0.00062810089862721467 -7.3043041165006461e-05 0 0.00061388407939539063 4.5499472633635401e-05 0 0.0007665168277953973 3.4735404521565535e-05 0 0.00062810089862721467 -7.3043041165006461e-05 0 0.00074934078467713547 -0.00013226696874409744 0 0.00062810089862721467 -7.3043041165006461e-05 0 0.00052410251295192175 -0.00014122982881823945 0 0.00056475766726632297 2.6087036002749619e-05 0 0.00020934406032748236 -0.00013739356876453824 0 0.00061388407939539063 4.5499472633635401e-05 0 0.00052410251295192175 -0.00014122982881823945 0 0.00032645472113577967 -4.9623546367054859e-05 0 0.00061388407939539063 4.5499472633635401e-05 0 2.6088320438847001e-05 -0.00020493349714844697 0 0.00032932314796619178 0.00011614592285101309 0 0.00052410251295192175 -0.00014122982881823945 0 0.00032645472113577967 -4.9623546367054859e-05 0 0.00042233340214437514 -0.00028243615984119763 0 2.6088320438847001e-05 -0.00020493349714844697 0 8.4971856949433584e-05 0.00013958320373667603 0 0.00032932314796619178 0.00011614592285101309 0 0.00061388407939539063 4.5499472633635401e-05 0 0.00062810089862721467 -7.3043041165006461e-05 0 0.00052410251295192175 -0.00014122982881823945 0 2.6088320438847001e-05 -0.00020493349714844697 0 -0.00059235965216463586 -0.00043436850262296124 0 -0.0004318009322623322 -1.4172126047927674e-05 0 0.00020934406032748236 -0.00013739356876453824 0 -0.00053754772482431557 7.82681838840027e-05 0 0.00032645472113577967 -4.9623546367054859e-05 0 2.1618876249468742e-05 -0.00015172486929801516 0 0.0002209322292201206 -0.00031931741211555474 0 2.6088320438847001e-05 -0.00020493349714844697 0 -0.00014201691534207215 0.0001510698662317021 0 -0.0004318009322623322 -1.4172126047927674e-05 0 -0.00014201691534207215 0.0001510698662317021 0 -0.0004318009322623322 -1.4172126047927674e-05 0 -0.00043238843235303946 0.00030514494953894409 0 2.6088320438847001e-05 -0.00020493349714844697 0 -0.00014201691534207215 0.0001510698662317021 0 8.4971856949433584e-05 0.00013958320373667603 0 -0.00014201691534207215 0.0001510698662317021 0 8.4971856949433584e-05 0.00013958320373667603 0 -1.9511409337867039e-06 0.00033834072550483434 0 -0.00014201691534207215 0.0001510698662317021 0 -1.9511409337867039e-06 0.00033834072550483434 0 -0.00021255299239849196 0.00043077396273460429 0 -1.9511409337867039e-06 0.00033834072550483434 0 0.0001426959844928495 0.00053337552677880623 0 -5.6461709639507537e-05 0.00054327386593711426 0 -1.9511409337867039e-06 0.00033834072550483434 0 -0.00021255299239849196 0.00043077396273460429 0 -5.6461709639507537e-05 0.00054327386593711426 0 -0.00021255299239849196 0.00043077396273460429 0 -0.00038358565663031412 0.00056124945041762864 0 -0.00043238843235303946 0.00030514494953894409 0 -0.00014201691534207215 0.0001510698662317021 0 -0.00021255299239849196 0.00043077396273460429 0 -0.00043238843235303946 0.00030514494953894409 0 0.00058413604469031467 0.00020077485446252195 0 0.0003665551324684125 0.00025228777530058525 0 0.00032932314796619178 0.00011614592285101309 0 0.00058413604469031467 0.00020077485446252195 0 0.00061388407939539063 4.5499472633635401e-05 0 0.00032932314796619178 0.00011614592285101309 0 8.4971856949433584e-05 0.00013958320373667603 0 0.00032932314796619178 0.00011614592285101309 0 0.00020991172832755573 0.00029130689286496633 0 8.4971856949433584e-05 0.00013958320373667603 0 -1.9511409337867039e-06 0.00033834072550483434 0 0.00020991172832755573 0.00029130689286496633 0 0.0003665551324684125 0.00025228777530058525 0 0.00032932314796619178 0.00011614592285101309 0 0.00020991172832755573 0.00029130689286496633 0 0.0003665551324684125 0.00025228777530058525 0 0.00020991172832755573 0.00029130689286496633 0 0.00034327787114119766 0.00040261241527617174 0 -1.9511409337867039e-06 0.00033834072550483434 0 0.00020991172832755573 0.00029130689286496633 0 0.0001426959844928495 0.00053337552677880623 0 0.00020991172832755573 0.00029130689286496633 0 0.00034327787114119766 0.00040261241527617174 0 0.0001426959844928495 0.00053337552677880623 0 0.00057254947914922865 0.00022831736761556089 0 0.00038906761629408851 0.00058605524581525242 0 0.00058413604469031467 0.00020077485446252195 0 0.00034327787114119766 0.00040261241527617174 0 0.00036567063170869248 0.00066974352624734669 0 0.00058413604469031467 0.00020077485446252195 0 0.00049006706228665257 0.00041381701543157342 0 0.00060939012447793763 0.0003366844393309854 0 0.00058413604469031467 0.00020077485446252195 0 0.0003665551324684125 0.00025228777530058525 0 0.00034327787114119766 0.00040261241527617174 0 0.00049006706228665257 0.00041381701543157342 0 0.00060939012447793763 0.0003366844393309854 0 0.0005954654169691892 0.00042784446334433629 0 0.00049006706228665257 0.00041381701543157342 0 0.00052412178338777263 0.00050358783494837932 0 0.0005954654169691892 0.00042784446334433629 0 0.00036567063170869248 0.00066974352624734669 0 0.0001426959844928495 0.00053337552677880623 0 0.00012426038254676109 0.00080475070635406261 0 0.00034327787114119766 0.00040261241527617174 0 0.00036567063170869248 0.00066974352624734669 0 0.0001426959844928495 0.00053337552677880623 0 0.00036567063170869248 0.00066974352624734669 0 0.00012426038254676109 0.00080475070635406261 0 0.0001469177818179324 0.0011164532834513896 0 0.00049006706228665257 0.00041381701543157342 0 0.00052412178338777263 0.00050358783494837932 0 0.00038652840437507875 0.00062312086670983217 0 0.00038906761629408851 0.00058605524581525242 0 -5.5572036700334275e-05 0.0002712670777654699 0 0.00052412178338777263 0.00050358783494837932 0 0.0005954654169691892 0.00042784446334433629 0 0.00065010930574035074 0.00050638751513855309 0 0.00052412178338777263 0.00050358783494837932 0 0.00058767953239614455 0.0006207560183181316 0 0.00065010930574035074 0.00050638751513855309 0 0.00059044108241498589 0.00049875807601804047 0 0.00045414564243154588 0.00014885427534023948 0 -0.00038358565663031412 0.00056124945041762864 0 -0.00019093858089220682 0.00064283464173897707 0 -0.00030992947317556873 0.00076593978203695103 0 -0.00021255299239849196 0.00043077396273460429 0 -0.00038358565663031412 0.00056124945041762864 0 -0.00019093858089220682 0.00064283464173897707 0 0.0001426959844928495 0.00053337552677880623 0 0.00012426038254676109 0.00080475070635406261 0 -1.826815028368207e-05 0.00072318273850378737 0 -0.00019093858089220682 0.00064283464173897707 0 -1.826815028368207e-05 0.00072318273850378737 0 -0.00014864767629216166 0.00084047892606579086 0 -0.00019093858089220682 0.00064283464173897707 0 -5.6461709639507537e-05 0.00054327386593711426 0 -1.826815028368207e-05 0.00072318273850378737 0 -0.00021255299239849196 0.00043077396273460429 0 -0.00019093858089220682 0.00064283464173897707 0 -5.6461709639507537e-05 0.00054327386593711426 0 0.0001426959844928495 0.00053337552677880623 0 -5.6461709639507537e-05 0.00054327386593711426 0 -1.826815028368207e-05 0.00072318273850378737 0 0.00012426038254676109 0.00080475070635406261 0 -1.9018170873265905e-05 0.00094314261255145292 0 0.0001469177818179324 0.0011164532834513896 0 0.00012426038254676109 0.00080475070635406261 0 -1.826815028368207e-05 0.00072318273850378737 0 -1.9018170873265905e-05 0.00094314261255145292 0 -1.9018170873265905e-05 0.00094314261255145292 0 -0.00014864767629216166 0.00084047892606579086 0 -0.000214836370543235 0.0010564049526390034 0 -1.826815028368207e-05 0.00072318273850378737 0 -1.9018170873265905e-05 0.00094314261255145292 0 -0.00014864767629216166 0.00084047892606579086 0 -0.00014864767629216166 0.00084047892606579086 0 -0.00030992947317556873 0.00076593978203695103 0 -0.000214836370543235 0.0010564049526390034 0 -0.00030992947317556873 0.00076593978203695103 0 -0.000214836370543235 0.0010564049526390034 0 -0.00052949938898024971 0.00070289419053647345 0 -0.00019093858089220682 0.00064283464173897707 0 -0.00014864767629216166 0.00084047892606579086 0 -0.00030992947317556873 0.00076593978203695103 0 -0.00064679170135740159 -6.3994440579728039e-05 0 -0.00064030617374683245 -8.7749621776137511e-05 0 -0.00065937719817897491 -9.8991592096088469e-05 0 -0.00064679170135740159 -6.3994440579728039e-05 0 -0.0006697068832925249 -6.0554710884663591e-05 0 -0.00065937719817897491 -9.8991592096088469e-05 0 -5.5572036700334275e-05 0.0002712670777654699 0 -0.00032827054834083771 -0.00026237262318971357 0 -0.00034985152467067272 0.0011621994103514905 0 -0.000214836370543235 0.0010564049526390034 0 0.0001469177818179324 0.0011164532834513896 0 -0.00048975332860996324 0.00052401113314856011 0 -5.5572036700334275e-05 0.0002712670777654699 0 -1.9018170873265905e-05 0.00094314261255145292 0 -0.000214836370543235 0.0010564049526390034 0 0.0001469177818179324 0.0011164532834513896 0 9.7305161082233514e-06 -0.00033539975685712125 0 7.5096464666458455e-06 -0.00034174597617549527 0 8.9208815055774585e-06 -0.00034660972156312707 0 7.7253748530610007e-06 -0.00033554656656837228 0 9.7305161082233514e-06 -0.00033539975685712125 0 7.5096464666458455e-06 -0.00034174597617549527 0 0.00052412178338777263 0.00050358783494837932 0 0.00058038602989705197 0.00060412791640394403 0 0.00038652840437507875 0.00062312086670983217 0 0.00045414564243154588 0.00014885427534023948 0 -5.5572036700334275e-05 0.0002712670777654699 0 7.7253748530610007e-06 -0.00033554656656837228 0 7.5096464666458455e-06 -0.00034174597617549527 0 6.3854751846802461e-06 -0.00034050873559486036 0 0.00045414564243154588 0.00014885427534023948 0 0.00064691665214077008 -0.00048314712461452303 0 0.00058767953239614455 0.0006207560183181316 0 0.00081679993035930468 0.00060344886448078234 0 0.00065010930574035074 0.00050638751513855309 0 0.00069059971186816898 -5.5961114307326979e-05 0 0.00072172907566182181 -2.797546378877102e-06 0 0.00077250153178259982 -6.3088927527046572e-05 0 0.00045414564243154588 0.00014885427534023948 0 0.001064912529100999 0.00011722833808232164 0 0.00064691665214077008 -0.00048314712461452303 0 0.001064912529100999 0.00011722833808232164 0 0.0015812087393103113 -0.00041441558291588587 0 0.0016406566216940394 -0.0004845991727656032 0 0.0016847955343959598 -0.00040360740213497777 0 0.0017863908153288495 -0.00049353214008541091 0 0.0016406566216940394 -0.0004845991727656032 0 0.0016847955343959598 -0.00040360740213497777 0 0.0015059656488248514 1.3589000554206151e-05 0 0.001064912529100999 0.00011722833808232164 0 0.0017741002731779787 -0.00040355301798362578 0 0.0017863908153288495 -0.00049353214008541091 0 0.0016847955343959598 -0.00040360740213497777 0 0.0011613213427497243 0.00054239487015251772 0 0.00085410716568992847 0.00056488854445740054 0 0.0010269561565699294 0.00034402766630805599 0 0.00081679993035930468 0.00060344886448078234 0 0.0010269561565699294 0.00034402766630805599 0 0.00085608605848007467 0.00032439543010766151 0 0.001064912529100999 0.00011722833808232164 0 0.00090116522470166612 0.00051819840281161858 0 0.00081679993035930468 0.00060344886448078234 0 0.00085608605848007467 0.00032439543010766151 0 0.00071230129315906867 0.00037908984623569511 0 0.00071230129315906867 0.00037908984623569511 0 0.0005954654169691892 0.00042784446334433629 0 0.00065010930574035074 0.00050638751513855309 0 0.00071230129315906867 0.00037908984623569511 0 0.00060939012447793763 0.0003366844393309854 0 0.0005954654169691892 0.00042784446334433629 0 0.00081679993035930468 0.00060344886448078234 0 0.00071230129315906867 0.00037908984623569511 0 0.00065010930574035074 0.00050638751513855309 0 -0.0034026535619673609 0.00019411743505976046 0 -0.0030134314412819832 4.750675067648777e-05 0 -0.0028994169490781196 -0.00025414693701925279 0 -0.0031542352636574752 0.00027099550378282161 0 -0.0030134314412819832 4.750675067648777e-05 0 -0.0026283793260086911 0.00019310592010848384 0 -0.0033775043027760069 -0.00010737922298146996 0 -0.003263516729288611 -8.5528822638494466e-06 0 -0.0030134314412819832 4.750675067648777e-05 0 -0.0026283793260086911 0.00019310592010848384 0 -0.0028994169490781196 -0.00025414693701925279 0 -0.0026139777329283365 0.0018070720246189376 0 -0.0025007685724221587 0.0014122009085936653 0 -0.0027384604739055553 0.0013824573079262794 0 -0.0026139777329283365 0.0018070720246189376 0 -0.0023276289507689171 0.0015555989681118555 0 -0.0025007685724221587 0.0014122009085936653 0 -0.0027395700916079645 0.00062417711711612611 0 -0.0020028881560025394 0.00081418162760778213 0 -0.0019833597138587456 0.00031069926043620895 0 -0.001730746200434153 9.7690156149354834e-05 0 -0.0015743538383674763 0.00024790727663356074 0 -0.001730746200434153 9.7690156149354834e-05 0 -0.0014679191455458718 8.789895274445213e-05 0 -0.0014884001004195134 -0.00011169284309796041 0 -0.001730746200434153 9.7690156149354834e-05 0 -0.0015743538383674763 0.00024790727663356074 0 -0.0014679191455458718 8.789895274445213e-05 0 -0.0019833597138587456 0.00031069926043620895 0 -0.0015908375960797735 0.00049726028092463329 0 -0.0016134091483488257 0.00045387702598406184 0 -0.0027395700916079645 0.00062417711711612611 0 -0.0018314830761902252 0.0002577511339882656 0 -0.0019833597138587456 0.00031069926043620895 0 -0.0015743538383674763 0.00024790727663356074 0 -0.0016134091483488257 0.00045387702598406184 0 -0.0026283793260086911 0.00019310592010848384 0 -0.0028994169490781196 -0.00025414693701925279 0 -0.0021062196207667868 0.00013097575161657846 0 -0.0015908375960797735 0.00049726028092463329 0 -0.0016134091483488257 0.00045387702598406184 0 -0.0012833857922450256 0.00029941290952178269 0 -0.0010971659990240297 0.00048778904830288608 0 -0.00082787238577697049 0.00020033445693114289 0 -0.00083229610051920879 0.00087382572455263236 0 -0.0015908375960797735 0.00049726028092463329 0 -0.0010971659990240297 0.00048778904830288608 0 -0.0012833857922450256 0.00029941290952178269 0 -0.0010971659990240297 0.00048778904830288608 0 -0.0012833857922450256 0.00029941290952178269 0 -0.00082787238577697049 0.00020033445693114289 0 -0.0012833857922450256 0.00029941290952178269 0 -0.0010961757063637624 -2.2714630997595086e-05 0 -0.00082787238577697049 0.00020033445693114289 0 -0.0015728845741026197 0.00041614124275586394 0 -0.0012529429796471704 0.00011101175042397574 0 -0.0015743538383674763 0.00024790727663356074 0 -0.0016134091483488257 0.00045387702598406184 0 -0.0013623663323761811 0.00023909947735615192 0 -0.0016134091483488257 0.00045387702598406184 0 -0.0012833857922450256 0.00029941290952178269 0 -0.0010961757063637624 -2.2714630997595086e-05 0 -0.0015743538383674763 0.00024790727663356074 0 -0.0014679191455458718 8.789895274445213e-05 0 -0.0013623663323761811 0.00023909947735615192 0 -0.0014679191455458718 8.789895274445213e-05 0 -0.0013623663323761811 0.00023909947735615192 0 -0.00110367439285187 2.3013010400343684e-05 0 -0.0014679191455458718 8.789895274445213e-05 0 -0.00110367439285187 2.3013010400343684e-05 0 -0.0014884001004195134 -0.00011169284309796041 0 -0.0012529429796471704 0.00011101175042397574 0 -0.00053754772482431557 7.82681838840027e-05 0 -0.0010961757063637624 -2.2714630997595086e-05 0 -0.00070897643337606089 -8.7624467203339587e-05 0 -0.00059235965216463586 -0.00043436850262296124 0 -0.00070897643337606089 -8.7624467203339587e-05 0 -0.00059235965216463586 -0.00043436850262296124 0 -0.0004318009322623322 -1.4172126047927674e-05 0 -0.00081766031152844454 0.00030020589787558313 0 -0.00098593880186266872 0.00070396896315102044 0 -0.0004318009322623322 -1.4172126047927674e-05 0 -0.00082787238577697049 0.00020033445693114289 0 -0.00043238843235303946 0.00030514494953894409 0 -0.00082787238577697049 0.00020033445693114289 0 -0.00059991971291729093 0.00049468389648869599 0 -0.00081377987576298713 0.00076942092134069855 0 -0.0010961757063637624 -2.2714630997595086e-05 0 -0.00070897643337606089 -8.7624467203339587e-05 0 -0.00082787238577697049 0.00020033445693114289 0 -0.00070897643337606089 -8.7624467203339587e-05 0 -0.0004318009322623322 -1.4172126047927674e-05 0 -0.00082787238577697049 0.00020033445693114289 0 -0.00082787238577697049 0.00020033445693114289 0 -0.00059991971291729093 0.00049468389648869599 0 -0.00043238843235303946 0.00030514494953894409 0 -0.00038358565663031412 0.00056124945041762864 0 -0.00059991971291729093 0.00049468389648869599 0 -0.00043238843235303946 0.00030514494953894409 0 -0.000214836370543235 0.0010564049526390034 0 -0.00052949938898024971 0.00070289419053647345 0 -0.00081377987576298713 0.00076942092134069855 0 -0.00020986881046044554 0.0010541233668753351 0 -0.00098593880186266872 0.00070396896315102044 0 -0.00038358565663031412 0.00056124945041762864 0 -0.00030992947317556873 0.00076593978203695103 0 -0.00052949938898024971 0.00070289419053647345 0 -0.00038358565663031412 0.00056124945041762864 0 -0.00059991971291729093 0.00049468389648869599 0 -0.00052949938898024971 0.00070289419053647345 0 -0.00059991971291729093 0.00049468389648869599 0 -0.00052949938898024971 0.00070289419053647345 0 -0.00081377987576298713 0.00076942092134069855 0 -0.00098593880186266872 0.00070396896315102044 0 -0.0013479568946256969 0.00042706535592096752 0 -0.00048975332860996324 0.00052401113314856011 0 -0.0010894528348604888 0.00020625773608723186 0 -0.00034985152467067272 0.0011621994103514905 0 -0.000214836370543235 0.0010564049526390034 0 -0.00087371100879919054 0.00071962792286902808 0 -0.00064679170135740159 -6.3994440579728039e-05 0 -0.00062167489647351067 -6.5576727879074678e-05 0 -0.00064030617374683245 -8.7749621776137511e-05 0 -0.00034985152467067272 0.0011621994103514905 0 -0.00087371100879919054 0.00071962792286902808 0 -0.00087582137925632669 0.0010424773123093574 0 -0.0010894528348604888 0.00020625773608723186 0 -0.0013479568946256969 0.00042706535592096752 0 -0.00034985152467067272 0.0011621994103514905 0 -0.00087679271828964493 0.0012037360394880191 0 -0.00087582137925632669 0.0010424773123093574 0 -0.0015830482914726586 -0.00023047220578240309 0 -0.0018177805735230695 -6.7223172514047064e-05 0 -0.0023266871450685739 -0.00047381920886652206 0 -0.0015874001843692667 -8.8454880678180573e-05 0 -0.0018177805735230695 -6.7223172514047064e-05 0 -0.0015907943194507525 0.0005387760683846992 0 -0.0018177805735230695 -6.7223172514047064e-05 0 -0.0023361660466379342 5.242108856750092e-05 0 -0.0020092106223997155 0.00027527414950567704 0 -0.0015831329471296121 -8.6550923238069616e-05 0 -0.0015830482914726586 -0.00023047220578240309 0 -0.0018177805735230695 -6.7223172514047064e-05 0 -0.0010894528348604888 0.00020625773608723186 0 -0.0016765784814289221 0.00011376631424199539 0 -0.0013479568946256969 0.00042706535592096752 0 -0.0022540117924005065 2.4228719327833263e-05 0 -0.0018314830761902252 0.0002577511339882656 0 -0.00098593880186266872 0.00070396896315102044 0 -0.0015908375960797735 0.00049726028092463329 0 -0.0010971659990240297 0.00048778904830288608 0 -0.00083229610051920879 0.00087382572455263236 0 -0.0013175763233624876 0.00051443460875224124 0 -0.001319372371202549 0.00086348098884569762 0 -0.0022334275032064631 0.00056783735014673264 0 -0.0021062196207667868 0.00013097575161657846 0 -0.0013175763233624876 0.00051443460875224124 0 -0.0022334275032064631 0.00056783735014673264 0 -0.0026283793260086911 0.00019310592010848384 0 -0.0021062196207667868 0.00013097575161657846 0 -0.0022334275032064631 0.00056783735014673264 0 -0.0023266871450685739 -0.00047381920886652206 0 -0.0023361660466379342 5.242108856750092e-05 0 -0.0028631083460361555 -0.00018183743783883139 0 -0.0018177805735230695 -6.7223172514047064e-05 0 -0.0023266871450685739 -0.00047381920886652206 0 -0.0023361660466379342 5.242108856750092e-05 0 -0.0023361660466379342 5.242108856750092e-05 0 -0.0028631083460361555 -0.00018183743783883139 0 -0.0030012781005066065 0.00060994505560363072 0 -0.0030683744724041323 -0.00071305870441920409 0 -0.0023266871450685739 -0.00047381920886652206 0 -0.0028631083460361555 -0.00018183743783883139 0 -0.0031542352636574752 0.00027099550378282161 0 -0.0026283793260086911 0.00019310592010848384 0 -0.0022334275032064631 0.00056783735014673264 0 -0.0033775043027760069 -0.00010737922298146996 0 -0.0022540117924005065 2.4228719327833263e-05 0 -0.0026968799600765995 -0.00056785150230900805 0 -0.001985427751323742 -0.0011795819827273336 0 -0.0023463961584554533 -0.0016054526303736628 0 -0.0025171968336225974 -0.0018905368478727088 0 -0.0018784180746841215 -0.0017515441039034252 0 -0.0026968799600765995 -0.00056785150230900805 0 -0.0022212549588493361 5.1269339226142381e-05 0 -0.0023361660466379342 5.242108856750092e-05 0 -0.0030012781005066065 0.00060994505560363072 0 -0.0022938288266772023 0.00057617665939967524 0 -0.0023361660466379342 5.242108856750092e-05 0 -0.0022938288266772023 0.00057617665939967524 0 -0.0020092106223997155 0.00027527414950567704 0 -0.0026744568646361569 -0.00055281160435498788 0 -0.0020363108307539335 -0.00058277964171472916 0 -0.0020367527696759351 -0.00042668769213448772 0 -0.0023433966486921753 -0.0016698642712817883 0 -0.0018462852574117113 -0.0016011454977395449 0 -0.0020963393745494058 -0.0014773339071869325 0 -0.0023463961584554533 -0.0016054526303736628 0 -0.0018784180746841215 -0.0017515441039034252 0 -0.0017894225473165997 -0.0015008390408553672 0 -0.0023416558016451641 -0.0016359145778401562 0 -0.0018629257520592917 -0.0015693509158630858 0 -0.0020367527696759351 -0.00042668769213448772 0 -0.0013989238430698752 -0.00061251796080720108 0 -0.0013997733290059696 -0.00030134905393058717 0 -0.0018784180746841215 -0.0017515441039034252 0 -0.0017894225473165997 -0.0015008390408553672 0 -0.0012137980790339735 -0.0016124696567014307 0 -0.0018629257520592917 -0.0015693509158630858 0 -0.0011132513932616292 -0.001210213582196651 0 -0.0017894225473165997 -0.0015008390408553672 0 -0.0012137980790339735 -0.0016124696567014307 0 -0.0012144182636064495 -0.0014036002916549138 0 -0.001985427751323742 -0.0011795819827273336 0 -0.0011618362435626569 -0.00070717478737249064 0 -0.0022938288266772023 0.00057617665939967524 0 -0.0020092106223997155 0.00027527414950567704 0 -0.0015907943194507525 0.0005387760683846992 0 -0.0018177805735230695 -6.7223172514047064e-05 0 -0.0020092106223997155 0.00027527414950567704 0 -0.0015907943194507525 0.0005387760683846992 0 -0.0020363108307539335 -0.00058277964171472916 0 -0.0020367527696759351 -0.00042668769213448772 0 -0.0013989238430698752 -0.00061251796080720108 0 -0.0022212549588493361 5.1269339226142381e-05 0 -0.0013757157667529923 -2.7496404697621747e-05 0 -0.00062167489647351067 -6.5576727879074678e-05 0 -0.00062025782115168455 -0.00011047039707718285 0 -0.00062917992085005626 -9.9504836642170434e-05 0 -0.00062167489647351067 -6.5576727879074678e-05 0 -0.00062917992085005626 -9.9504836642170434e-05 0 -0.00064030617374683245 -8.7749621776137511e-05 0 -0.0010894528348604888 0.00020625773608723186 0 -0.0013757157667529923 -2.7496404697621747e-05 0 -0.00062025782115168455 -0.00011047039707718285 0 -0.00063035758002949146 -0.000110403523576858 0 -0.00062998061349590483 -0.00012098099636592273 0 -0.00062025782115168455 -0.00011047039707718285 0 -0.00063035758002949146 -0.000110403523576858 0 -0.00062917992085005626 -9.9504836642170434e-05 0 -0.00062917992085005626 -9.9504836642170434e-05 0 -0.00064030617374683245 -8.7749621776137511e-05 0 -0.00064059078837860623 -0.00011092144548585359 0 -0.00063035758002949146 -0.000110403523576858 0 -0.00062917992085005626 -9.9504836642170434e-05 0 -0.00064059078837860623 -0.00011092144548585359 0 -0.00063035758002949146 -0.000110403523576858 0 -0.00064059078837860623 -0.00011092144548585359 0 -0.00062998061349590483 -0.00012098099636592273 0 -0.00064059078837860623 -0.00011092144548585359 0 -0.00062998061349590483 -0.00012098099636592273 0 -0.00064502493957392616 -0.0001428078666738479 0 -0.00062998061349590483 -0.00012098099636592273 0 -0.00062057930080938457 -0.00013819557035152385 0 -0.00064502493957392616 -0.0001428078666738479 0 -0.0013757157667529923 -2.7496404697621747e-05 0 -0.0011618362435626569 -0.00070717478737249064 0 -0.00062025782115168455 -0.00011047039707718285 0 -0.00062998061349590483 -0.00012098099636592273 0 -0.00062057930080938457 -0.00013819557035152385 0 -0.00094865996433067036 -0.00088823975765182765 0 -0.00066594455303556452 -0.00063056256697557487 0 -0.00094930783203497232 -0.00067468295048416383 0 -0.0011618362435626569 -0.00070717478737249064 0 -0.0011132513932616292 -0.001210213582196651 0 -0.0011618362435626569 -0.00070717478737249064 0 -0.0003851488939844754 -0.00042281393809560393 0 -0.00094865996433067036 -0.00088823975765182765 0 -0.00057735224612561235 -0.00081436777841393669 0 -0.00066594455303556452 -0.00063056256697557487 0 3.8463973382773029e-06 -0.00035946931430465859 0 3.4231861831758843e-06 -0.00036014213894482064 0 5.6928594468173857e-06 -0.0003579562079370796 0 -0.0003851488939844754 -0.00042281393809560393 0 -0.00037426429316814966 -0.00072487529726660894 0 -6.0350023993037723e-05 -0.00068772552009720362 0 -0.00011826759624142706 -0.00057098105474119381 0 4.895890485502282e-05 -0.00064525080155122285 0 -0.00037426429316814966 -0.00072487529726660894 0 -0.00037618646682581149 -0.001217979270294817 0 -0.00074190990477516463 -0.0010769421622195768 0 -0.00072684616170965897 -0.0010890047944310788 0 -0.00072959488844848196 -0.0011061457521803681 0 -0.00071631712544806075 -0.0010737269112113454 0 -0.00072684616170965897 -0.0010890047944310788 0 -0.00071587533749211014 -0.0011102981604255904 0 -0.00037426429316814966 -0.00072487529726660894 0 -0.0011132513932616292 -0.001210213582196651 0 -0.00074190990477516463 -0.0010769421622195768 0 -0.00071631712544806075 -0.0010737269112113454 0 -0.00072684616170965897 -0.0010890047944310788 0 -0.0014316748483617686 -0.0015274661820774578 0 -0.0014409026104681437 -0.0012745459239439983 0 -0.0015222028437808749 -0.0014018701169671226 0 -0.0011132513932616292 -0.001210213582196651 0 -0.0010630321718055676 -0.0012139840038921741 0 -0.00072684616170965897 -0.0010890047944310788 0 -0.00071587533749211014 -0.0011102981604255904 0 -0.00072959488844848196 -0.0011061457521803681 0 -0.0010630321718055676 -0.0012139840038921741 0 -0.00037618646682581149 -0.001217979270294817 0 -0.00033057662783544614 -0.0018368214835914626 0 -0.00034144767411442106 -0.0018256070113434894 0 -0.00032226473099308616 -0.0018352013773922213 0 -0.00034278002032232959 -0.0019040837028530683 0 -0.00031728979449661743 -0.001876142762179804 0 -0.00033434308599011766 -0.0018877524246438092 0 -0.00033337255561385784 -0.0018428040703131459 0 -0.00033057662783544614 -0.0018368214835914626 0 -0.00032014157621414375 -0.0018425921758781685 0 -0.00051254439094797037 -0.0017992984710017354 0 -0.00029054712275369365 -0.0018656762268705581 0 -0.00071493884972958035 -0.0017080383630008885 0 -0.00071524524182615869 -0.0015519125893592328 0 -0.00063064013933431949 -0.0017312727630357601 0 -0.00033057662783544614 -0.0018368214835914626 0 -0.00034144767411442106 -0.0018256070113434894 0 -0.00034118568997555822 -0.0018331628740871305 0 -0.00051254439094797037 -0.0017992984710017354 0 -0.00072369938539902548 -0.0014758459606958533 0 -0.00033337255561385784 -0.0018428040703131459 0 -0.00033057662783544614 -0.0018368214835914626 0 -0.00034118568997555822 -0.0018331628740871305 0 -0.00037618646682581149 -0.001217979270294817 0 -0.00072369938539902548 -0.0014758459606958533 0 -0.0013060063637985854 -0.0013530657165591795 0 -0.0013064136518427501 -0.0011247966459867087 0 -0.001425506983690218 -0.001120607890471137 0 -0.0006531039919742505 -0.0011986841385145676 0 -0.00075138847989819895 -0.0011719577132119968 0 -0.00065303614773926967 -0.0013822976207921926 0 -0.0010630321718055676 -0.0012139840038921741 0 -0.00072369938539902548 -0.0014758459606958533 0 -0.0013060063637985854 -0.0013530657165591795 0 -0.0016879382488882652 -0.00107546665058041 0 -0.0019985660769635608 -0.0011506885194693388 0 -0.0010630321718055676 -0.0012139840038921741 0 -0.0020997275418095846 -0.0011746729466958097 0 -0.0014016168395439479 -0.00093117654485047271 0 -0.0016879382488882652 -0.00107546665058041 0 -0.0018548173697924058 -0.00081524298338611655 0 -0.0013060063637985854 -0.0013530657165591795 0 -0.001425506983690218 -0.001120607890471137 0 -0.0016879382488882652 -0.00107546665058041 0 -0.001425506983690218 -0.001120607890471137 0 -0.0014016168395439479 -0.00093117654485047271 0 -0.0016879382488882652 -0.00107546665058041 0 -0.0013064136518427501 -0.0011247966459867087 0 -0.001425506983690218 -0.001120607890471137 0 -0.0014016168395439479 -0.00093117654485047271 0 -0.00072369938539902548 -0.0014758459606958533 0 -0.00083411800310294478 -0.0016141184325507659 0 -0.00051254439094797037 -0.0017992984710017354 0 -0.00083411800310294478 -0.0016141184325507659 0 -0.0014409026104681437 -0.0012745459239439983 0 -0.0016585965530369693 -0.0013367947499890308 0 -0.0019985660769635608 -0.0011506885194693388 0 -0.0018462852574117113 -0.0016011454977395449 0 -0.0014316748483617686 -0.0015274661820774578 0 -0.0016535037042041789 -0.0014410162307847941 0 -0.0016585965530369693 -0.0013367947499890308 0 -0.0016535037042041789 -0.0014410162307847941 0 -0.0018064876773759631 -0.0013417721667672139 0 -0.0014409026104681437 -0.0012745459239439983 0 -0.0016585965530369693 -0.0013367947499890308 0 -0.0015222028437808749 -0.0014018701169671226 0 -0.0016585965530369693 -0.0013367947499890308 0 -0.0015222028437808749 -0.0014018701169671226 0 -0.0016535037042041789 -0.0014410162307847941 0 -0.0014316748483617686 -0.0015274661820774578 0 -0.0015222028437808749 -0.0014018701169671226 0 -0.0016535037042041789 -0.0014410162307847941 0 -0.0018462852574117113 -0.0016011454977395449 0 -0.0016535037042041789 -0.0014410162307847941 0 -0.0018064876773759631 -0.0013417721667672139 0 -0.0020963393745494058 -0.0014773339071869325 0 -0.0018064876773759631 -0.0013417721667672139 0 -0.0024031048086579901 -0.0013008192265476842 0 -0.0016585965530369693 -0.0013367947499890308 0 -0.0018064876773759631 -0.0013417721667672139 0 -0.0019985660769635608 -0.0011506885194693388 0 -0.0018401642392302652 -0.0013411969476339559 0 -0.002368771374258857 -0.0013574204118676956 0 -0.0018064876773759631 -0.0013417721667672139 0 -0.0021502009426716527 -0.0012354164813844493 0 -0.0022977387634176677 -0.0014115762788738159 0 -0.0018462852574117113 -0.0016011454977395449 0 -0.0020963393745494058 -0.0014773339071869325 0 -0.0018064876773759631 -0.0013417721667672139 0 -0.0018064876773759631 -0.0013417721667672139 0 -0.0019985660769635608 -0.0011506885194693388 0 -0.0021502009426716527 -0.0012354164813844493 0 -0.0016879382488882652 -0.00107546665058041 0 -0.0019985660769635608 -0.0011506885194693388 0 -0.0018548173697924058 -0.00081524298338611655 0 -0.0019985660769635608 -0.0011506885194693388 0 -0.0021106158265841767 -0.00090264378819574658 0 -0.0018548173697924058 -0.00081524298338611655 0 -0.0019985660769635608 -0.0011506885194693388 0 -0.0021502009426716527 -0.0012354164813844493 0 -0.0022791477604555623 -0.0010359789356637996 0 -0.0019985660769635608 -0.0011506885194693388 0 -0.0022791477604555623 -0.0010359789356637996 0 -0.0021106158265841767 -0.00090264378819574658 0 -0.0022791477604555623 -0.0010359789356637996 0 -0.0021106158265841767 -0.00090264378819574658 0 -0.0022475961382044446 -0.00087925666659346448 0 -0.0021502009426716527 -0.0012354164813844493 0 -0.0022791477604555623 -0.0010359789356637996 0 -0.0024014513038802315 -0.0012057956015680193 0 -0.0025790001770587194 -0.0010720818376518317 0 -0.0022791477604555623 -0.0010359789356637996 0 -0.0024014513038802315 -0.0012057956015680193 0 -0.0025941524735970901 -0.001262406188828189 0 -0.0024014513038802315 -0.0012057956015680193 0 -0.0022977387634176677 -0.0014115762788738159 0 -0.0021502009426716527 -0.0012354164813844493 0 -0.0024014513038802315 -0.0012057956015680193 0 -0.0022977387634176677 -0.0014115762788738159 0 -0.0023433966486921753 -0.0016698642712817883 0 -0.0020963393745494058 -0.0014773339071869325 0 -0.0024031048086579901 -0.0013008192265476842 0 -0.0026376514069268251 -0.0015153098450680555 0 -0.0023433966486921753 -0.0016698642712817883 0 -0.0024031048086579901 -0.0013008192265476842 0 0.00053690499291560764 -0.00072920526892945371 0 0.00036676902006448618 -0.00077480539716389871 0 0.00021555145746465854 -0.00064858555824094373 0 0.00045975540771746548 -0.00084320243475581081 0 0.00054390073915019346 -0.00077657306034884801 0 0.00052875448163898671 -0.00092077175054357165 0 0.00045975540771746548 -0.00084320243475581081 0 0.00053690499291560764 -0.00072920526892945371 0 0.00036676902006448618 -0.00077480539716389871 0 0.00045975540771746548 -0.00084320243475581081 0 0.00054390073915019346 -0.00077657306034884801 0 0.00053690499291560764 -0.00072920526892945371 0 0.00048436936710463647 -0.0010227075492001921 0 0.00049727223398294705 -0.0012458724526231988 0 0.00049727223398294705 -0.0012458724526231988 0 0.0016767508724059386 -0.00067815789696734792 0 0.0017004242291723661 -0.0002201401534007401 0 0.0017549207939859055 -0.00032839512513589203 0 0.0016409923194535591 -0.00031894006941806134 0 0.00054390073915019346 -0.00077657306034884801 0 0.00053815165428884799 -0.00073031293769376855 0 0.00063043247810105419 -0.00075353500036800429 0 0.00054390073915019346 -0.00077657306034884801 0 0.00063043247810105419 -0.00075353500036800429 0 0.00052875448163898671 -0.00092077175054357165 0 0.0016767508724059386 -0.00067815789696734792 0 0.0010744110247515562 -0.00063997348235315487 0 0.0016847955343959598 -0.00040360740213497777 0 0.0017549207939859055 -0.00032839512513589203 0 0.0016409923194535591 -0.00031894006941806134 0 0.0017741002731779787 -0.00040355301798362578 0 0.0016847955343959598 -0.00040360740213497777 0 0.0017549207939859055 -0.00032839512513589203 0 0.00043356322278220597 -0.0010852275676105315 0 0.00045975540771746548 -0.00084320243475581081 0 0.00052875448163898671 -0.00092077175054357165 0 0.00043356322278220597 -0.0010852275676105315 0 0.00045975540771746548 -0.00084320243475581081 0 0.00025545978005627791 -0.00087698525622890522 0 0.00064691665214077008 -0.00048314712461452303 0 0.0010744110247515562 -0.00063997348235315487 0 0.0015812087393103113 -0.00041441558291588587 0 0.0016847955343959598 -0.00040360740213497777 0 0.0016409923194535591 -0.00031894006941806134 0 7.5096464666458455e-06 -0.00034174597617549527 0 8.9208815055774585e-06 -0.00034660972156312707 0 5.5302748469948917e-06 -0.00035087906638967421 0 0.00064691665214077008 -0.00048314712461452303 0 8.0061732501367089e-05 -0.00061923550277887256 0 7.5096464666458455e-06 -0.00034174597617549527 0 6.3854751846802461e-06 -0.00034050873559486036 0 5.5302748469948917e-06 -0.00035087906638967421 0 -0.00064030617374683245 -8.7749621776137511e-05 0 -0.00064059078837860623 -0.00011092144548585359 0 -0.00065937719817897491 -9.8991592096088469e-05 0 8.9208815055774585e-06 -0.00034660972156312707 0 6.3987301524459014e-06 -0.00035427076493533188 0 5.5302748469948917e-06 -0.00035087906638967421 0 -0.0003851488939844754 -0.00042281393809560393 0 -0.00032827054834083771 -0.00026237262318971357 0 -0.00064059078837860623 -0.00011092144548585359 0 -0.00064502493957392616 -0.0001428078666738479 0 -0.00065937719817897491 -9.8991592096088469e-05 0 0.00025545978005627791 -0.00087698525622890522 0 0.00021555145746465854 -0.00064858555824094373 0 6.6362083920548353e-05 -0.00066410845171453194 0 8.0061732501367089e-05 -0.00061923550277887256 0 3.3115598152484416e-05 -0.00057075469310413846 0 6.3987301524459014e-06 -0.00035427076493533188 0 5.5302748469948917e-06 -0.00035087906638967421 0 4.9637798535459418e-06 -0.00036038660178732535 0 7.2411190003468713e-06 -0.00035751290678389752 0 8.9208815055774585e-06 -0.00034660972156312707 0 6.3987301524459014e-06 -0.00035427076493533188 0 7.2411190003468713e-06 -0.00035751290678389752 0 6.3987301524459014e-06 -0.00035427076493533188 0 5.6928594468173857e-06 -0.0003579562079370796 0 6.3987301524459014e-06 -0.00035427076493533188 0 5.6928594468173857e-06 -0.0003579562079370796 0 4.9637798535459418e-06 -0.00036038660178732535 0 -0.0003851488939844754 -0.00042281393809560393 0 -0.00012111068050136768 -0.00037394508322794633 0 0.00045975540771746548 -0.00084320243475581081 0 0.00025545978005627791 -0.00087698525622890522 0 0.00036676902006448618 -0.00077480539716389871 0 0.00025545978005627791 -0.00087698525622890522 0 0.00036676902006448618 -0.00077480539716389871 0 0.00021555145746465854 -0.00064858555824094373 0 -0.00031290793219640353 -0.0018454119019480858 0 -0.00032014157621414375 -0.0018425921758781685 0 -0.00031515915163228873 -0.0018519327684818024 0 -0.00031290793219640353 -0.0018454119019480858 0 -0.00031515915163228873 -0.0018519327684818024 0 -0.00031548894211436102 -0.0018462044000776934 0 -0.00011826759624142706 -0.00057098105474119381 0 0.00021555145746465854 -0.00064858555824094373 0 4.895890485502282e-05 -0.00064525080155122285 0 -0.00037618646682581149 -0.001217979270294817 0 -9.7613456758990143e-05 -0.0012452196480953017 0 -0.00033337255561385784 -0.0018428040703131459 0 -0.00031290793219640353 -0.0018454119019480858 0 -0.00032014157621414375 -0.0018425921758781685 0 -6.0350023993037723e-05 -0.00068772552009720362 0 6.5546890598477478e-05 -0.00066601209975275446 0 4.895890485502282e-05 -0.00064525080155122285 0 3.4231861831758843e-06 -0.00036014213894482064 0 5.6928594468173857e-06 -0.0003579562079370796 0 4.9637798535459418e-06 -0.00036038660178732535 0 -0.00037426429316814966 -0.00072487529726660894 0 3.3115598152484416e-05 -0.00057075469310413846 0 3.3115598152484416e-05 -0.00057075469310413846 0 3.9692525236860487e-05 -0.00058145248384469509 0 0.00021555145746465854 -0.00064858555824094373 0 6.6362083920548353e-05 -0.00066410845171453194 0 4.895890485502282e-05 -0.00064525080155122285 0 -0.00031728979449661743 -0.001876142762179804 0 -0.00031515915163228873 -0.0018519327684818024 0 -0.00031662863501585447 -0.0018724476175798126 0 -0.00029054712275369365 -0.0018656762268705581 0 -0.00032974733831311686 -0.0018493191880242506 0 -0.00032014157621414375 -0.0018425921758781685 0 -0.00032226473099308616 -0.0018352013773922213 0 -0.00031515915163228873 -0.0018519327684818024 0 -0.00033057662783544614 -0.0018368214835914626 0 -0.00032014157621414375 -0.0018425921758781685 0 -0.00032226473099308616 -0.0018352013773922213 0 -0.00031515915163228873 -0.0018519327684818024 0 -0.00032186590982849386 -0.0018533593829127286 0 -0.00032172208052850843 -0.0018631768731154465 0 -0.00031515915163228873 -0.0018519327684818024 0 -0.00032186590982849386 -0.0018533593829127286 0 -0.00031548894211436102 -0.0018462044000776934 0 0.0018026731894369165 -0.001030112513457732 0 0.0017934242282449117 -0.00088110589589288882 0 0.0018514282238837648 -0.00095481070366807287 0 0.00049727223398294705 -0.0012458724526231988 0 0.00077387813458310473 -0.0014095465593502649 0 0.00049727223398294705 -0.0012458724526231988 0 -9.7613456758990143e-05 -0.0012452196480953017 0 -0.00031300130267741919 -0.0018355926389243991 0 -0.00032186590982849386 -0.0018533593829127286 0 -0.00031548894211436102 -0.0018462044000776934 0 -0.00031300130267741919 -0.0018355926389243991 0 -0.00031290793219640353 -0.0018454119019480858 0 -0.00031548894211436102 -0.0018462044000776934 0 0.0019276791082890711 -0.000909538451848317 0 0.0018462713748229114 -0.0010401568072284379 0 0.0018514282238837648 -0.00095481070366807287 0 0.0018026731894369165 -0.001030112513457732 0 0.0018462713748229114 -0.0010401568072284379 0 0.0018514282238837648 -0.00095481070366807287 0 0.0020897025999234652 -0.00079609363128663689 0 0.0016767508724059386 -0.00067815789696734792 0 0.0019276791082890711 -0.000909538451848317 0 0.0017934242282449117 -0.00088110589589288882 0 0.0018832242780834672 -0.00080482532235162923 0 0.0019276791082890711 -0.000909538451848317 0 0.0017934242282449117 -0.00088110589589288882 0 0.0018514282238837648 -0.00095481070366807287 0 0.0017978503612811707 -0.00075459884700292265 0 0.0018531004820921003 -0.00070344742063230704 0 0.0019140330388478905 -0.00072832014315776393 0 0.0018832242780834672 -0.00080482532235162923 0 0.0017978503612811707 -0.00075459884700292265 0 0.0019140330388478905 -0.00072832014315776393 0 0.00077387813458310473 -0.0014095465593502649 0 0.0007206066840920451 -0.0013293005519680481 0 0.0017934242282449117 -0.00088110589589288882 0 0.0018832242780834672 -0.00080482532235162923 0 0.0017978503612811707 -0.00075459884700292265 0 -0.00032186590982849386 -0.0018533593829127286 0 -0.00033074582804737775 -0.0018775189083311858 0 -0.00032172208052850843 -0.0018631768731154465 0 -0.00031515915163228873 -0.0018519327684818024 0 -0.00031936794830969323 -0.001870282458698044 0 -0.00031662863501585447 -0.0018724476175798126 0 -0.00031515915163228873 -0.0018519327684818024 0 -0.00032172208052850843 -0.0018631768731154465 0 -0.00031936794830969323 -0.001870282458698044 0 -0.00033074582804737775 -0.0018775189083311858 0 -0.00032172208052850843 -0.0018631768731154465 0 -0.00031936794830969323 -0.001870282458698044 0 -0.00031662863501585447 -0.0018724476175798126 0 -0.00032009723010816444 -0.0018707027102286872 0 -0.00032340215876882088 -0.001878393388225075 0 -0.00031728979449661743 -0.001876142762179804 0 -0.00031662863501585447 -0.0018724476175798126 0 -0.00032340215876882088 -0.001878393388225075 0 -0.00031936794830969323 -0.001870282458698044 0 -0.00031662863501585447 -0.0018724476175798126 0 -0.00031855025247924516 -0.0018727679648185621 0 -0.00031855025247924516 -0.0018727679648185621 0 -0.00032009723010816444 -0.0018707027102286872 0 -0.00031896746084181742 -0.0018725258702169496 0 -0.00031662863501585447 -0.0018724476175798126 0 -0.00031855025247924516 -0.0018727679648185621 0 -0.00032009723010816444 -0.0018707027102286872 0 -0.00031936794830969323 -0.001870282458698044 0 -0.00031855025247924516 -0.0018727679648185621 0 -0.00032246842068001352 -0.0018846649663804649 0 -0.00031855025247924516 -0.0018727679648185621 0 -0.00031896746084181742 -0.0018725258702169496 0 -0.00032246842068001352 -0.0018846649663804649 0 -0.00031896746084181742 -0.0018725258702169496 0 -0.00032246842068001352 -0.0018846649663804649 0 -0.00031695309273671151 -0.0018888805199185588 0 -0.00033074582804737775 -0.0018775189083311858 0 -0.00031936794830969323 -0.001870282458698044 0 -0.00032246842068001352 -0.0018846649663804649 0 -0.00033074582804737775 -0.0018775189083311858 0 -0.00032246842068001352 -0.0018846649663804649 0 -0.00033399320281501265 -0.0019123401198666919 0 -0.00032246842068001352 -0.0018846649663804649 0 -0.00031966367866998049 -0.0019045182092392028 0 -0.00033399320281501265 -0.0019123401198666919 0 -0.00031966367866998049 -0.0019045182092392028 0 -0.00031695309273671151 -0.0018888805199185588 0 -0.00030833044733695822 -0.0019125984348042243 0 -0.00032246842068001352 -0.0018846649663804649 0 -0.00031966367866998049 -0.0019045182092392028 0 -0.00031695309273671151 -0.0018888805199185588 0 -0.00031966367866998049 -0.0019045182092392028 0 -0.00032145204491363093 -0.0019253908384034347 0 -0.00030833044733695822 -0.0019125984348042243 0 -0.00031966367866998049 -0.0019045182092392028 0 -0.00032145204491363093 -0.0019253908384034347 0 -0.00033399320281501265 -0.0019123401198666919 0 -0.00032145204491363093 -0.0019253908384034347 0 -0.00033399320281501265 -0.0019123401198666919 0 -0.00032153426267821387 -0.0019394682818707478 0 0.0018024498746297432 -0.00068017638185041739 0 0.0018586472684514908 -0.00067234714243894714 0 0.0018531004820921003 -0.00070344742063230704 0 0.0018024498746297432 -0.00068017638185041739 0 0.0018586472684514908 -0.00067234714243894714 0 0.0018335396729288495 -0.00065347968139170402 0 0.0018586472684514908 -0.00067234714243894714 0 0.0018700021717694929 -0.00064905186096040962 0 0.0018335396729288495 -0.00065347968139170402 0 0.0018586472684514908 -0.00067234714243894714 0 0.0018700021717694929 -0.00064905186096040962 0 0.0018920403439398393 -0.00066291307661246561 0 0.0018586472684514908 -0.00067234714243894714 0 0.0018920403439398393 -0.00066291307661246561 0 0.0019006449864837338 -0.00068777639035446183 0 0.0018531004820921003 -0.00070344742063230704 0 0.0019006449864837338 -0.00068777639035446183 0 0.0019140330388478905 -0.00072832014315776393 0 0.0018586472684514908 -0.00067234714243894714 0 0.0018531004820921003 -0.00070344742063230704 0 0.0019006449864837338 -0.00068777639035446183 0 0.0007206066840920451 -0.0013293005519680481 0 0.00079682315832536107 -0.0011987355540013568 0 0.0017978503612811707 -0.00075459884700292265 0 0.0018024498746297432 -0.00068017638185041739 0 0.0018531004820921003 -0.00070344742063230704 0 -0.0010354546134021198 -0.0016629092583734986 0 -0.0010105388491619097 -0.0019596951294323268 0 -0.00081612530231445365 -0.0018060607411498602 0 -0.0010354546134021198 -0.0016629092583734986 0 -0.00081612530231445365 -0.0018060607411498602 0 -0.00088988439116748216 -0.0015383514795548603 0 -0.0012727611560163371 -0.0016279278775387734 0 -0.0010354546134021198 -0.0016629092583734986 0 -0.0010105388491619097 -0.0019596951294323268 0 -0.0024696013182541037 -0.00085327284386816293 0 -0.0022771692105092237 -0.0007106496868184767 0 -0.0023149688136787834 -0.00079212414720920799 0 -0.0024696013182541037 -0.00085327284386816293 0 -0.0023149688136787834 -0.00079212414720920799 0 -0.0022475961382044446 -0.00087925666659346448 0 -0.0024696013182541037 -0.00085327284386816293 0 -0.0022791477604555623 -0.0010359789356637996 0 -0.0022475961382044446 -0.00087925666659346448 0 -0.0022771692105092237 -0.0007106496868184767 0 -0.0023149688136787834 -0.00079212414720920799 0 -0.0022475961382044446 -0.00087925666659346448 0 -0.0022771692105092237 -0.0007106496868184767 0 -0.0021106158265841767 -0.00090264378819574658 0 -0.0022475961382044446 -0.00087925666659346448 0 -0.0010105388491619097 -0.0019596951294323268 0 -0.00073238972428160383 -0.0020323122806275773 0 -0.00081612530231445365 -0.0018060607411498602 0 -0.0022771692105092237 -0.0007106496868184767 0 -0.0021106158265841767 -0.00090264378819574658 0 -0.0018548173697924058 -0.00081524298338611655 0 -0.0017630679281475596 -0.0016174818252609824 0 -0.0013029110800197477 -0.0014057997576102403 0 -0.00073238972428160383 -0.0020323122806275773 0 -0.00081612530231445365 -0.0018060607411498602 0 -0.00058737733987606635 -0.0018989810440887846 0 -0.00081612530231445365 -0.0018060607411498602 0 -0.00058752478151715521 -0.0016985753140829004 0 -0.00088988439116748216 -0.0015383514795548603 0 -0.00081612530231445365 -0.0018060607411498602 0 -0.00058752478151715521 -0.0016985753140829004 0 -0.00058737733987606635 -0.0018989810440887846 0 -0.00058752478151715521 -0.0016985753140829004 0 -0.00031707985719083904 -0.0018596634103686057 0 -0.00040309029267876013 -0.0018386830569723119 0 -0.00042990405676762288 -0.0018011159205564005 0 -0.00032812347922742379 -0.0018540234024457304 0 -0.00058752478151715521 -0.0016985753140829004 0 -0.00058737733987606635 -0.0018989810440887846 0 -0.00040309029267876013 -0.0018386830569723119 0 -0.00073238972428160383 -0.0020323122806275773 0 -0.00058737733987606635 -0.0018989810440887846 0 -0.00048338919525299073 -0.0020539791754996106 0 -0.00046145488482867173 -0.0020991409168643572 0 -0.00073238972428160383 -0.0020323122806275773 0 -0.00048338919525299073 -0.0020539791754996106 0 -0.00083411800310294478 -0.0016141184325507659 0 -0.0013029110800197477 -0.0014057997576102403 0 -0.00041070081746950274 -0.0021124873996625809 0 -0.00048338919525299073 -0.0020539791754996106 0 -0.00047130476136940711 -0.0019649870966856864 0 -0.00041070081746950274 -0.0021124873996625809 0 -0.00046249593748517927 -0.0020978908782749153 0 -0.00048338919525299073 -0.0020539791754996106 0 -0.00083411800310294478 -0.0016141184325507659 0 -0.00072465724473315179 -0.0018072402007042309 0 -0.00058737733987606635 -0.0018989810440887846 0 -0.00048338919525299073 -0.0020539791754996106 0 -0.00047130476136940711 -0.0019649870966856864 0 -0.00058737733987606635 -0.0018989810440887846 0 -0.00047130476136940711 -0.0019649870966856864 0 -0.00040309029267876013 -0.0018386830569723119 0 -0.00034725116201710527 -0.0018743835689898666 0 -0.00031707985719083904 -0.0018596634103686057 0 -0.00040309029267876013 -0.0018386830569723119 0 -0.00041070081746950274 -0.0021124873996625809 0 -0.00047130476136940711 -0.0019649870966856864 0 -0.00040309029267876013 -0.0018386830569723119 0 -0.00034278002032232959 -0.0019040837028530683 0 -0.00034725116201710527 -0.0018743835689898666 0 -0.00040309029267876013 -0.0018386830569723119 0 -0.00051254439094797037 -0.0017992984710017354 0 -0.00038335790856456952 -0.0019251321338851694 0 -0.00034278002032232959 -0.0019040837028530683 0 -0.00034725116201710527 -0.0018743835689898666 0 -0.00033434308599011766 -0.0018877524246438092 0 -0.00031728979449661743 -0.001876142762179804 0 -0.00033434308599011766 -0.0018877524246438092 0 -0.00032340215876882088 -0.001878393388225075 0 -0.00033434308599011766 -0.0018877524246438092 0 -0.00032340215876882088 -0.001878393388225075 0 -0.00032869101677526373 -0.0018726143581586751 0 -0.00034725116201710527 -0.0018743835689898666 0 -0.00033434308599011766 -0.0018877524246438092 0 -0.00032869101677526373 -0.0018726143581586751 0 -0.00032009723010816444 -0.0018707027102286872 0 -0.00032340215876882088 -0.001878393388225075 0 -0.00032869101677526373 -0.0018726143581586751 0 -0.00034725116201710527 -0.0018743835689898666 0 -0.00032869101677526373 -0.0018726143581586751 0 -0.00031707985719083904 -0.0018596634103686057 0 -0.00032009723010816444 -0.0018707027102286872 0 -0.00032869101677526373 -0.0018726143581586751 0 -0.00031707985719083904 -0.0018596634103686057 0 -0.00027899703129017467 -0.0018984047471645082 0 -0.00031707985719083904 -0.0018596634103686057 0 -0.00030265337078127754 -0.0018971308787306563 0 -0.00032009723010816444 -0.0018707027102286872 0 -0.00031896746084181742 -0.0018725258702169496 0 -0.00031707985719083904 -0.0018596634103686057 0 -0.00031896746084181742 -0.0018725258702169496 0 -0.00031707985719083904 -0.0018596634103686057 0 -0.00031695309273671151 -0.0018888805199185588 0 -0.00031707985719083904 -0.0018596634103686057 0 -0.00031695309273671151 -0.0018888805199185588 0 -0.00030265337078127754 -0.0018971308787306563 0 -0.00031695309273671151 -0.0018888805199185588 0 -0.00030265337078127754 -0.0018971308787306563 0 -0.00030833044733695822 -0.0019125984348042243 0 -0.00030265337078127754 -0.0018971308787306563 0 -0.00030833044733695822 -0.0019125984348042243 0 -0.00028780478036509325 -0.001920370562145945 0 -0.00030833044733695822 -0.0019125984348042243 0 -0.00029944862596449417 -0.0019361653894336441 0 -0.00028780478036509325 -0.001920370562145945 0 -0.00032145204491363093 -0.0019253908384034347 0 -0.00029944862596449417 -0.0019361653894336441 0 -0.00031276003508078683 -0.001955165505619381 0 -0.00032145204491363093 -0.0019253908384034347 0 -0.00030833044733695822 -0.0019125984348042243 0 -0.00029944862596449417 -0.0019361653894336441 0 -0.00029944862596449417 -0.0019361653894336441 0 -0.00027323030545650776 -0.0019476810936988847 0 -0.00028202634834363058 -0.0019642159859080818 0 -0.00029944862596449417 -0.0019361653894336441 0 -0.00027323030545650776 -0.0019476810936988847 0 -0.00028780478036509325 -0.001920370562145945 0 -0.00027899703129017467 -0.0018984047471645082 0 -0.00030265337078127754 -0.0018971308787306563 0 -0.00028780478036509325 -0.001920370562145945 0 -0.00027899703129017467 -0.0018984047471645082 0 -0.00028780478036509325 -0.001920370562145945 0 -0.00026078363881463124 -0.0019332449631298968 0 -0.00042990405676762288 -0.0018011159205564005 0 -0.00059639873581476171 -0.001730998226081938 0 -0.00027323030545650776 -0.0019476810936988847 0 -0.00028780478036509325 -0.001920370562145945 0 -0.00026078363881463124 -0.0019332449631298968 0 -0.00027323030545650776 -0.0019476810936988847 0 -0.00026166807798859979 -0.0019621037613947964 0 -0.00026078363881463124 -0.0019332449631298968 0 -0.00027323030545650776 -0.0019476810936988847 0 -0.00026166807798859979 -0.0019621037613947964 0 -0.0002649313834203837 -0.0019685789395175197 0 -0.00026248777615083983 -0.0019602232147024243 0 -0.00026166807798859979 -0.0019621037613947964 0 -0.00026360754603322077 -0.0019727268800907942 0 -0.00026248777615083983 -0.0019602232147024243 0 -0.00026166807798859979 -0.0019621037613947964 0 -0.00026078363881463124 -0.0019332449631298968 0 -0.00061090741506088307 -0.0016599887760257554 0 -0.00059639873581476171 -0.001730998226081938 0 -0.0011846854576769692 -0.0013868018767431137 0 -0.0010354546134021198 -0.0016629092583734986 0 -0.00088988439116748216 -0.0015383514795548603 0 -0.00026233195790842102 -0.001981707531640761 0 -0.0002645882795420455 -0.0019845217987499468 0 -0.00026704250339066834 -0.0019840282846079874 0 -0.00026360754603322077 -0.0019727268800907942 0 -0.00026233195790842102 -0.001981707531640761 0 -0.00026704250339066834 -0.0019840282846079874 0 -0.00026166807798859979 -0.0019621037613947964 0 -0.00026360754603322077 -0.0019727268800907942 0 -0.00026233195790842102 -0.001981707531640761 0 -0.00026166807798859979 -0.0019621037613947964 0 -0.0002649313834203837 -0.0019685789395175197 0 -0.00026233195790842102 -0.001981707531640761 0 -0.0002649313834203837 -0.0019685789395175197 0 -0.00025529897097708882 -0.0019927426295416363 0 -0.00026233195790842102 -0.001981707531640761 0 -0.00025529897097708882 -0.0019927426295416363 0 -0.00026233195790842102 -0.001981707531640761 0 -0.0002645882795420455 -0.0019845217987499468 0 -0.00025334355337783168 -0.0019967773799911236 0 -0.00024708769471633389 -0.0020286860108114221 0 -0.00025529897097708882 -0.0019927426295416363 0 -0.00026867830256928517 -0.0020526982876188098 0 -0.00021860973790349848 -0.0020616910861537743 0 -0.00025529897097708882 -0.0019927426295416363 0 -0.00029228624333281456 -0.0020037417759606103 0 -0.00026867830256928517 -0.0020526982876188098 0 -0.00029228624333281456 -0.0020037417759606103 0 -0.00030870833742402111 -0.0020570567622244752 0 -0.00026867830256928517 -0.0020526982876188098 0 -0.00025529897097708882 -0.0019927426295416363 0 -0.00028202634834363058 -0.0019642159859080818 0 -0.00029228624333281456 -0.0020037417759606103 0 -0.0002649313834203837 -0.0019685789395175197 0 -0.00025529897097708882 -0.0019927426295416363 0 -0.00028202634834363058 -0.0019642159859080818 0 -0.00027323030545650776 -0.0019476810936988847 0 -0.0002649313834203837 -0.0019685789395175197 0 -0.00028202634834363058 -0.0019642159859080818 0 -0.00031276003508078683 -0.001955165505619381 0 -0.00029228624333281456 -0.0020037417759606103 0 -0.0003374474069110662 -0.0020184251082003167 0 -0.00029944862596449417 -0.0019361653894336441 0 -0.00028202634834363058 -0.0019642159859080818 0 -0.00031276003508078683 -0.001955165505619381 0 -0.00028202634834363058 -0.0019642159859080818 0 -0.00031276003508078683 -0.001955165505619381 0 -0.00029228624333281456 -0.0020037417759606103 0 -0.00029228624333281456 -0.0020037417759606103 0 -0.00030870833742402111 -0.0020570567622244752 0 -0.0003374474069110662 -0.0020184251082003167 0 -0.00030870833742402111 -0.0020570567622244752 0 -0.00028451587691452824 -0.0021041883763703926 0 -0.00034147423589908079 -0.0021213616353697074 0 -0.00031086022145846218 -0.0021528252283720814 0 -0.00028451587691452824 -0.0021041883763703926 0 -0.00034147423589908079 -0.0021213616353697074 0 -0.00031086022145846218 -0.0021528252283720814 0 -0.00025449033996438364 -0.0021386569356873527 0 -0.00028451587691452824 -0.0021041883763703926 0 -0.00034740274838191386 -0.0021955931216061822 0 -9.6221066106417377e-05 -0.0021865882878720987 0 -0.00025449033996438364 -0.0021386569356873527 0 -0.00028451587691452824 -0.0021041883763703926 0 -0.00023954319116751039 -0.0021007052842383182 0 -0.00028451587691452824 -0.0021041883763703926 0 -0.00026867830256928517 -0.0020526982876188098 0 -0.00023954319116751039 -0.0021007052842383182 0 -0.00030870833742402111 -0.0020570567622244752 0 -0.00028451587691452824 -0.0021041883763703926 0 -0.00026867830256928517 -0.0020526982876188098 0 -0.00026867830256928517 -0.0020526982876188098 0 -0.00021860973790349848 -0.0020616910861537743 0 -0.00023954319116751039 -0.0021007052842383182 0 -0.00021860973790349848 -0.0020616910861537743 0 -0.00023954319116751039 -0.0021007052842383182 0 -0.00020334673541512908 -0.0021165171117100848 0 -0.00024708769471633389 -0.0020286860108114221 0 -0.00057851761144407155 -0.0021630883179042507 0 -9.6221066106417377e-05 -0.0021865882878720987 0 -0.00091486488367509223 -0.0022092524707666267 0 -0.00023908196552215779 -0.0022485512054855527 0 -9.8923277384222716e-05 -0.0022277028106287007 0 -0.00017752132078863571 -0.0023289412382715338 0 -0.00025449033996438364 -0.0021386569356873527 0 -0.00023954319116751039 -0.0021007052842383182 0 -0.00020919006488737227 -0.0021228958226847719 0 -0.00025449033996438364 -0.0021386569356873527 0 -0.00020919006488737227 -0.0021228958226847719 0 -0.00019900265448011354 -0.0021342185812877616 0 -0.00020919006488737227 -0.0021228958226847719 0 -0.0002053905921992785 -0.0021177816387133301 0 -0.00019900265448011354 -0.0021342185812877616 0 -0.00057851761144407155 -0.0021630883179042507 0 -0.00091486488367509223 -0.0022092524707666267 0 -0.00023954319116751039 -0.0021007052842383182 0 -0.00020919006488737227 -0.0021228958226847719 0 -0.00020334673541512908 -0.0021165171117100848 0 -0.00052544373257886314 -0.0021258394405937 0 -0.00057851761144407155 -0.0021630883179042507 0 -0.0019597430656638063 -0.0021084997762736311 0 -0.0015515906260875172 -0.0020866110186547899 0 -0.0017457940091370643 -0.0022344951253126665 0 -0.0020959339709915748 -0.0023048348790881178 0 -0.0018044505355342062 -0.0023037440512602551 0 -0.0019526294632472478 -0.0022199179351507087 0 -0.001510942430003918 -0.0021892238258784716 0 -0.0015515906260875172 -0.0020866110186547899 0 -0.0017457940091370643 -0.0022344951253126665 0 -0.0021893798532754906 -0.0022088420513332483 0 -0.00091486488367509223 -0.0022092524707666267 0 -0.00057851761144407155 -0.0021630883179042507 0 -0.0010457946999407725 -0.0022271308795313465 0 -0.001510942430003918 -0.0021892238258784716 0 -0.0017457940091370643 -0.0022344951253126665 0 -0.0017541090779844438 -0.0024628053045980137 0 -0.0002645882795420455 -0.0019845217987499468 0 -0.00026800160908841905 -0.0019872982836435086 0 -0.00026704250339066834 -0.0019840282846079874 0 0.0010848024874044462 -0.0016850893536717512 0 0.00024298918999639412 -0.0017489482928290489 0 0.00011090868192502294 -0.0028357801506956933 0 -0.00032520608786520527 -0.0029668579390266523 0 -7.3195273337471262e-05 -0.0025434769904739657 0 0.0018407392399857757 -0.00060918909067040619 0 0.0018460071197337357 -0.00063245434141476285 0 0.0017867052897027206 -0.00062918571656518099 0 0.0018407392399857757 -0.00060918909067040619 0 0.0018906350326307545 -0.0005971659841959606 0 0.0018829926961727314 -0.00062574351247619126 0 0.0010848024874044462 -0.0016850893536717512 0 0.0011533346744272801 -0.0018747337395068041 0 0.0018407392399857757 -0.00060918909067040619 0 0.0018460071197337357 -0.00063245434141476285 0 0.0018829926961727314 -0.00062574351247619126 0 0.0018460071197337357 -0.00063245434141476285 0 0.0018700021717694929 -0.00064905186096040962 0 0.0018829926961727314 -0.00062574351247619126 0 0.0018460071197337357 -0.00063245434141476285 0 0.0018700021717694929 -0.00064905186096040962 0 0.0018335396729288495 -0.00065347968139170402 0 0.0018024498746297432 -0.00068017638185041739 0 0.0018335396729288495 -0.00065347968139170402 0 0.0017867052897027206 -0.00062918571656518099 0 0.00079682315832536107 -0.0011987355540013568 0 0.00024298918999639412 -0.0017489482928290489 0 0.0018460071197337357 -0.00063245434141476285 0 0.0018335396729288495 -0.00065347968139170402 0 0.0017867052897027206 -0.00062918571656518099 0 -0.00033399320281501265 -0.0019123401198666919 0 -0.00032153426267821387 -0.0019394682818707478 0 -0.00032864476377588716 -0.0019381515904875097 0 -0.0004705185068971388 -0.0020050339461695579 0 0.00024298918999639412 -0.0017489482928290489 0 -0.00027128102395107794 -0.0019384399593202232 0 -0.0004705185068971388 -0.0020050339461695579 0 -0.00031276003508078683 -0.001955165505619381 0 -0.00037904627247714134 -0.0019837147218294523 0 -0.0003374474069110662 -0.0020184251082003167 0 -0.00032145204491363093 -0.0019253908384034347 0 -0.00031276003508078683 -0.001955165505619381 0 -0.00032153426267821387 -0.0019394682818707478 0 -0.00030870833742402111 -0.0020570567622244752 0 -0.0003374474069110662 -0.0020184251082003167 0 -0.00037105978655898166 -0.0020631758310246644 0 -0.00037904627247714134 -0.0019837147218294523 0 -0.0003374474069110662 -0.0020184251082003167 0 -0.00037105978655898166 -0.0020631758310246644 0 -0.00037904627247714134 -0.0019837147218294523 0 -0.00037105978655898166 -0.0020631758310246644 0 -0.0004469842853995023 -0.0020087193531782266 0 -0.00037105978655898166 -0.0020631758310246644 0 -0.0004469842853995023 -0.0020087193531782266 0 -0.00042871555722789239 -0.0021357767310707745 0 0.00024298918999639412 -0.0017489482928290489 0 -0.00048402124160860043 -0.0024151338022579279 0 -0.00037105978655898166 -0.0020631758310246644 0 -0.00042871555722789239 -0.0021357767310707745 0 -0.00034147423589908079 -0.0021213616353697074 0 -0.00030870833742402111 -0.0020570567622244752 0 -0.00037105978655898166 -0.0020631758310246644 0 -0.00034147423589908079 -0.0021213616353697074 0 -0.00034740274838191386 -0.0021955931216061822 0 -0.00035985721011795536 -0.0021915295152497966 0 -0.00031086022145846218 -0.0021528252283720814 0 -0.00034147423589908079 -0.0021213616353697074 0 -0.00037048096768787576 -0.002189809727937309 0 -0.00042871555722789239 -0.0021357767310707745 0 -0.00034147423589908079 -0.0021213616353697074 0 -0.00037048096768787576 -0.002189809727937309 0 -0.00039489849395854423 -0.0023504303467956058 0 -0.00032018090644305 -0.0021945411836320778 0 -0.00037322965283584066 -0.0022289044342521961 0 -0.00042871555722789239 -0.0021357767310707745 0 -0.00037048096768787576 -0.002189809727937309 0 -0.00037322965283584066 -0.0022289044342521961 0 -0.00048402124160860043 -0.0024151338022579279 0 -0.00036420839570698528 -0.0021575192094288945 0 -0.00032018090644305 -0.0021945411836320778 0 7.6455580417512459e-05 -0.0022509454163810224 0 0.00022234654228040716 -0.0019723470718372104 0 -0.00017679948545681312 -0.0023280490699057175 0 -7.3195273337471262e-05 -0.0025434769904739657 0 7.6455580417512459e-05 -0.0022509454163810224 0 -0.00032018090644305 -0.0021945411836320778 0 -0.00017679948545681312 -0.0023280490699057175 0 7.6455580417512459e-05 -0.0022509454163810224 0 -0.00039489849395854423 -0.0023504303467956058 0 -0.00032018090644305 -0.0021945411836320778 0 -0.00017679948545681312 -0.0023280490699057175 0 -0.00032520608786520527 -0.0029668579390266523 0 -0.00039489849395854423 -0.0023504303467956058 0 -7.3195273337471262e-05 -0.0025434769904739657 0 -0.00039489849395854423 -0.0023504303467956058 0 -0.00017679948545681312 -0.0023280490699057175 0 -7.3195273337471262e-05 -0.0025434769904739657 0 0.00011090868192502294 -0.0028357801506956933 0 0.00032334120842859566 -0.0025453048628481753 0 0.00056026639547072303 -0.0026936123158459685 0 -7.3195273337471262e-05 -0.0025434769904739657 0 0.00032334120842859566 -0.0025453048628481753 0 7.6455580417512459e-05 -0.0022509454163810224 0 0.00011090868192502294 -0.0028357801506956933 0 -7.3195273337471262e-05 -0.0025434769904739657 0 0.00032334120842859566 -0.0025453048628481753 0 0.00032334120842859566 -0.0025453048628481753 0 0.00036106816315314158 -0.002276386776474184 0 7.6455580417512459e-05 -0.0022509454163810224 0 0.00036106816315314158 -0.002276386776474184 0 7.6455580417512459e-05 -0.0022509454163810224 0 0.00022234654228040716 -0.0019723470718372104 0 0.00036106816315314158 -0.002276386776474184 0 0.0005181458233453432 -0.0020507644385962011 0 0.00022234654228040716 -0.0019723470718372104 0 0.0005181458233453432 -0.0020507644385962011 0 0.00068212542711912404 -0.0023711449968443366 0 0.00078760411235766832 -0.0019382797058058554 0 0.00036106816315314158 -0.002276386776474184 0 0.0005181458233453432 -0.0020507644385962011 0 0.00068212542711912404 -0.0023711449968443366 0 0.0012009186593083946 -0.0022158255930357779 0 0.00068212542711912404 -0.0023711449968443366 0 0.00078760411235766832 -0.0019382797058058554 0 0.0012009186593083946 -0.0022158255930357779 0 0.00078760411235766832 -0.0019382797058058554 0 0.0011767318134823658 -0.0018164471113099731 0 0.0012009186593083946 -0.0022158255930357779 0 0.0010855688863333878 -0.0026043002026685238 0 0.0015313455604394008 -0.0024419465542572655 0 0.0012009186593083946 -0.0022158255930357779 0 0.0010855688863333878 -0.0026043002026685238 0 0.00068212542711912404 -0.0023711449968443366 0 0.001539636952888761 -0.0014124675946928233 0 0.0016183830748479088 -0.0013853821076382348 0 0.0015499755158632552 -0.0014934341323006421 0 0.0012297466827542944 -0.002035986907085514 0 0.0011533346744272801 -0.0018747337395068041 0 0.0010855688863333878 -0.0026043002026685238 0 0.00063494778934724573 -0.0027581683978318938 0 0.00068212542711912404 -0.0023711449968443366 0 0.00048779437404303 -0.0024106244445933549 0 0.0011533346744272801 -0.0018747337395068041 0 0.00032334120842859566 -0.0025453048628481753 0 0.00063494778934724573 -0.0027581683978318938 0 0.00068212542711912404 -0.0023711449968443366 0 0.00032334120842859566 -0.0025453048628481753 0 0.00036106816315314158 -0.002276386776474184 0 0.00068212542711912404 -0.0023711449968443366 0 0.0015092046221061855 -0.0014744189309352292 0 0.001434321258480251 -0.0016433648314681515 0 0.0016908875002132737 -0.0014258901149107868 0 0.0015772240105634489 -0.0017077214988024507 0 0.0014625444511911065 -0.0014846184758715891 0 0.0015092046221061855 -0.0014744189309352292 0 0.0013430643069480628 -0.0015570056372535149 0 0.0014506481651104439 -0.0014294635311160365 0 0.0020020361278302577 -0.0011755266818388832 0 0.0015772240105634489 -0.0017077214988024507 0 0.0015092046221061855 -0.0014744189309352292 0 0.001434321258480251 -0.0016433648314681515 0 0.0013430643069480628 -0.0015570056372535149 0 0.0015772240105634489 -0.0017077214988024507 0 0.0011010786609197568 -0.0016738765333751922 0 0.0012009186593083946 -0.0022158255930357779 0 0.0016913636188270276 -0.0021774512917632455 0 0.0011767318134823658 -0.0018164471113099731 0 0.0012009186593083946 -0.0022158255930357779 0 0.0016913636188270276 -0.0021774512917632455 0 0.0015313455604394008 -0.0024419465542572655 0 0.0015772240105634489 -0.0017077214988024507 0 0.0017768177631796707 -0.0014319724733712197 0 0.0018037710864831499 -0.0014012834223914479 0 0.0017650074531133228 -0.0013751697301391346 0 0.0017336197591881809 -0.0014261346519781417 0 0.0022332009313315417 -0.00068730034727786159 0 0.0022463318818975791 -0.00069069504365968607 0 0.0022402381489188055 -0.00070026545828482138 0 0.0017768177631796707 -0.0014319724733712197 0 0.0019192233955094445 -0.00075609596376925692 0 0.0012297466827542944 -0.002035986907085514 0 0.0017768177631796707 -0.0014319724733712197 0 0.0020020361278302577 -0.0011755266818388832 0 0.0024087216936156176 -0.00076709871847531268 0 0.0022463318818975791 -0.00069069504365968607 0 0.0022512380353737439 -0.00069779457995042965 0 0.0022679826249610096 -0.00068803225233463061 0 0.00224659648405639 -0.00068182937318541411 0 0.0022463318818975791 -0.00069069504365968607 0 0.0022679826249610096 -0.00068803225233463061 0 0.00224659648405639 -0.00068182937318541411 0 0.0022332009313315417 -0.00068730034727786159 0 0.0022463318818975791 -0.00069069504365968607 0 0.0020020361278302577 -0.0011755266818388832 0 0.0017768177631796707 -0.0014319724733712197 0 0.0022506669455245212 -0.00070586482939298534 0 0.0022402381489188055 -0.00070026545828482138 0 0.0022441924148855533 -0.00071442361935721997 0 0.0022512380353737439 -0.00069779457995042965 0 0.0022506669455245212 -0.00070586482939298534 0 0.0022658874085610147 -0.00070231903087207049 0 0.0022463318818975791 -0.00069069504365968607 0 0.0022512380353737439 -0.00069779457995042965 0 0.0022402381489188055 -0.00070026545828482138 0 0.0022512380353737439 -0.00069779457995042965 0 0.0022506669455245212 -0.00070586482939298534 0 0.0022402381489188055 -0.00070026545828482138 0 0.0022332009313315417 -0.00068730034727786159 0 0.0022402381489188055 -0.00070026545828482138 0 0.0022203471893035608 -0.00070618532305025464 0 0.0022402381489188055 -0.00070026545828482138 0 0.0022441924148855533 -0.00071442361935721997 0 0.0022203471893035608 -0.00070618532305025464 0 0.002215620437379153 -0.00065993054964952542 0 0.0019192233955094445 -0.00075609596376925692 0 0.0021312871096806863 -0.00061816211634105464 0 0.0020008604019695758 -0.00053954225291485286 0 0.0020268166747992446 -0.00062163689568910498 0 0.0021312871096806863 -0.00061816211634105464 0 0.0020268166747992446 -0.00062163689568910498 0 0.0020051350276496334 -0.00069798798733361836 0 0.0022441924148855533 -0.00071442361935721997 0 0.0022541321258858437 -0.00071452406433622029 0 0.0022589443318519571 -0.0007103781024667134 0 0.0022506669455245212 -0.00070586482939298534 0 0.0022441924148855533 -0.00071442361935721997 0 0.0022589443318519571 -0.0007103781024667134 0 0.0022506669455245212 -0.00070586482939298534 0 0.0022589443318519571 -0.0007103781024667134 0 0.0022658874085610147 -0.00070231903087207049 0 0.0018906350326307545 -0.0005971659841959606 0 0.0018829926961727314 -0.00062574351247619126 0 0.0019325987992380382 -0.00061824244274266064 0 0.001539636952888761 -0.0014124675946928233 0 0.0014600696353116753 -0.0014411408137215869 0 0.0015499755158632552 -0.0014934341323006421 0 0.0011533346744272801 -0.0018747337395068041 0 0.0019192233955094445 -0.00075609596376925692 0 0.0020008604019695758 -0.00053954225291485286 0 0.0020268166747992446 -0.00062163689568910498 0 0.0019243285945726664 -0.00066558306406114449 0 0.0019192233955094445 -0.00075609596376925692 0 0.0019529990698775777 -0.0005904052800814151 0 0.0019325987992380382 -0.00061824244274266064 0 0.0018973644091636079 -0.00064726018946205562 0 0.0019243285945726664 -0.00066558306406114449 0 0.0018829926961727314 -0.00062574351247619126 0 0.0019325987992380382 -0.00061824244274266064 0 0.0018973644091636079 -0.00064726018946205562 0 0.0018700021717694929 -0.00064905186096040962 0 0.0018829926961727314 -0.00062574351247619126 0 0.0018973644091636079 -0.00064726018946205562 0 0.0018700021717694929 -0.00064905186096040962 0 0.0018973644091636079 -0.00064726018946205562 0 0.0018920403439398393 -0.00066291307661246561 0 0.0018920403439398393 -0.00066291307661246561 0 0.0019243285945726664 -0.00066558306406114449 0 0.0020051350276496334 -0.00069798798733361836 0 0.0018920403439398393 -0.00066291307661246561 0 0.0019437663287334335 -0.00067468459203113347 0 0.0019908841774384737 -0.00063952660992269543 0 0.0018973644091636079 -0.00064726018946205562 0 0.0018920403439398393 -0.00066291307661246561 0 0.0019243285945726664 -0.00066558306406114449 0 0.0019024223544014968 -0.00066324080902458219 0 0.001998871795246192 -0.00066908096082300185 0 0.0018920403439398393 -0.00066291307661246561 0 0.0019437663287334335 -0.00067468459203113347 0 0.0019006449864837338 -0.00068777639035446183 0 0.0019006449864837338 -0.00068777639035446183 0 0.001950044844090946 -0.00069778944158945617 0 0.0019140330388478905 -0.00072832014315776393 0 0.001950044844090946 -0.00069778944158945617 0 0.0019140330388478905 -0.00072832014315776393 0 0.0020002906398044829 -0.00072111944665686047 0 0.0019437663287334335 -0.00067468459203113347 0 0.0019006449864837338 -0.00068777639035446183 0 0.001950044844090946 -0.00069778944158945617 0 0.0019907413885603444 -0.00068194059472615615 0 0.0020227465020155495 -0.00069716439445565142 0 0.0020002906398044829 -0.00072111944665686047 0 0.001950044844090946 -0.00069778944158945617 0 0.0019907413885603444 -0.00068194059472615615 0 0.0020002906398044829 -0.00072111944665686047 0 0.0019437663287334335 -0.00067468459203113347 0 0.001950044844090946 -0.00069778944158945617 0 0.0019907413885603444 -0.00068194059472615615 0 0.0019907413885603444 -0.00068194059472615615 0 0.0019908841774384737 -0.00063952660992269543 0 0.0020229695985885827 -0.00066464910100407447 0 0.0020268166747992446 -0.00062163689568910498 0 0.0019243285945726664 -0.00066558306406114449 0 0.0020051350276496334 -0.00069798798733361836 0 0.0019437663287334335 -0.00067468459203113347 0 0.0019907413885603444 -0.00068194059472615615 0 0.0019908841774384737 -0.00063952660992269543 0 0.0021312871096806863 -0.00061816211634105464 0 0.0020051350276496334 -0.00069798798733361836 0 0.0021671735987239577 -0.0007217732622432024 0 0.001998871795246192 -0.00066908096082300185 0 0.0021138069078339723 -0.00067571012912484205 0 0.0019908841774384737 -0.00063952660992269543 0 0.002057458124838667 -0.0006312538704784928 0 0.0020229695985885827 -0.00066464910100407447 0 0.0021312871096806863 -0.00061816211634105464 0 0.0021671735987239577 -0.0007217732622432024 0 0.0022541321258858437 -0.00071452406433622029 0 0.002215620437379153 -0.00065993054964952542 0 0.0022403894197181849 -0.00070947839492367822 0 0.002057458124838667 -0.0006312538704784928 0 0.0020545639903559554 -0.00067304458509151411 0 0.002096613679969828 -0.00065557888371062484 0 0.0020545639903559554 -0.00067304458509151411 0 0.0020893307592595202 -0.00067908066588432488 0 0.002096613679969828 -0.00065557888371062484 0 0.002057458124838667 -0.0006312538704784928 0 0.0020545639903559554 -0.00067304458509151411 0 0.0020229695985885827 -0.00066464910100407447 0 0.0020545639903559554 -0.00067304458509151411 0 0.0020893307592595202 -0.00067908066588432488 0 0.0020470673505352628 -0.00070124986154419756 0 0.0019907413885603444 -0.00068194059472615615 0 0.0020229695985885827 -0.00066464910100407447 0 0.0020227465020155495 -0.00069716439445565142 0 0.0020545639903559554 -0.00067304458509151411 0 0.0020229695985885827 -0.00066464910100407447 0 0.0020227465020155495 -0.00069716439445565142 0 0.0020545639903559554 -0.00067304458509151411 0 0.0020227465020155495 -0.00069716439445565142 0 0.0020470673505352628 -0.00070124986154419756 0 0.0020227465020155495 -0.00069716439445565142 0 0.0020203727525749775 -0.00072410860793325853 0 0.0020470673505352628 -0.00070124986154419756 0 0.0020227465020155495 -0.00069716439445565142 0 0.0020203727525749775 -0.00072410860793325853 0 0.0020002906398044829 -0.00072111944665686047 0 0.0020893307592595202 -0.00067908066588432488 0 0.0020470673505352628 -0.00070124986154419756 0 0.0021120370363908918 -0.00069562109102228086 0 0.0020470673505352628 -0.00070124986154419756 0 0.0020584375024781248 -0.00070920514469921547 0 0.0021120370363908918 -0.00069562109102228086 0 0.0020203727525749775 -0.00072410860793325853 0 0.0020470673505352628 -0.00070124986154419756 0 0.0020584375024781248 -0.00070920514469921547 0 0.0020166310353375624 -0.00071096533557247674 0 0.0020203727525749775 -0.00072410860793325853 0 0.0020584375024781248 -0.00070920514469921547 0 0.0020019992946849912 -0.00071495694457676337 0 0.0020166310353375624 -0.00071096533557247674 0 0.0020203727525749775 -0.00072410860793325853 0 0.0020019992946849912 -0.00071495694457676337 0 0.0020203727525749775 -0.00072410860793325853 0 0.0020077377806735639 -0.00076078101130352678 0 0.0020463236317413312 -0.00068547846536024643 0 0.0020019992946849912 -0.00071495694457676337 0 0.0020077377806735639 -0.00076078101130352678 0 0.0020897025999234652 -0.00079609363128663689 0 0.0019986472858261268 -0.00076271607948952009 0 0.0019276791082890711 -0.000909538451848317 0 0.0018832242780834672 -0.00080482532235162923 0 0.0020077377806735639 -0.00076078101130352678 0 0.0018832242780834672 -0.00080482532235162923 0 0.0020077377806735639 -0.00076078101130352678 0 0.0019140330388478905 -0.00072832014315776393 0 0.0020077377806735639 -0.00076078101130352678 0 0.0019140330388478905 -0.00072832014315776393 0 0.0020002906398044829 -0.00072111944665686047 0 0.0020203727525749775 -0.00072410860793325853 0 0.0020077377806735639 -0.00076078101130352678 0 0.0020002906398044829 -0.00072111944665686047 0 0.0022358743336365998 -0.00070583370894065141 0 0.002201696939009846 -0.00069165624395128118 0 0.0022851234556435034 -0.00068982909345573315 0 0.0022358743336365998 -0.00070583370894065141 0 0.0023035432698697523 -0.00070404742608575648 0 0.0022851234556435034 -0.00068982909345573315 0 0.0023035432698697523 -0.00070404742608575648 0 0.0022851234556435034 -0.00068982909345573315 0 0.0023266386520140467 -0.00069591234475696736 0 0.0022358743336365998 -0.00070583370894065141 0 0.0023035432698697523 -0.00070404742608575648 0 0.0022718279779083872 -0.00072676269355609845 0 0.0023035432698697523 -0.00070404742608575648 0 0.0022718279779083872 -0.00072676269355609845 0 0.0023323705008663747 -0.00072701871965450348 0 0.0022074428380599522 -0.00073069113652028867 0 0.0022358743336365998 -0.00070583370894065141 0 0.0022718279779083872 -0.00072676269355609845 0 0.0022074428380599522 -0.00073069113652028867 0 0.0022358743336365998 -0.00070583370894065141 0 0.0021296105870641526 -0.00071281952640690402 0 0.0020584375024781248 -0.00070920514469921547 0 0.0021296105870641526 -0.00071281952640690402 0 0.0021120370363908918 -0.00069562109102228086 0 0.0020166310353375624 -0.00071096533557247674 0 0.0020584375024781248 -0.00070920514469921547 0 0.0021296105870641526 -0.00071281952640690402 0 0.0022358743336365998 -0.00070583370894065141 0 0.0021296105870641526 -0.00071281952640690402 0 0.002201696939009846 -0.00069165624395128118 0 0.0021120370363908918 -0.00069562109102228086 0 0.002201696939009846 -0.00069165624395128118 0 0.0021478964715094394 -0.00067398902463292585 0 0.0021296105870641526 -0.00071281952640690402 0 0.0021120370363908918 -0.00069562109102228086 0 0.002201696939009846 -0.00069165624395128118 0 0.002201696939009846 -0.00069165624395128118 0 0.0021478964715094394 -0.00067398902463292585 0 0.0022795743486157169 -0.00068329525581020591 0 0.0021478964715094394 -0.00067398902463292585 0 0.0021451176550877651 -0.0006249694465289557 0 0.0022795743486157169 -0.00068329525581020591 0 0.0020893307592595202 -0.00067908066588432488 0 0.0021120370363908918 -0.00069562109102228086 0 0.0021478964715094394 -0.00067398902463292585 0 0.0020893307592595202 -0.00067908066588432488 0 0.0021478964715094394 -0.00067398902463292585 0 0.002096613679969828 -0.00065557888371062484 0 0.0021478964715094394 -0.00067398902463292585 0 0.002096613679969828 -0.00065557888371062484 0 0.0021451176550877651 -0.0006249694465289557 0 0.0021138069078339723 -0.00067571012912484205 0 0.0022164329288326661 -0.00067738342363815509 0 0.0021671735987239577 -0.0007217732622432024 0 0.002293597161140787 -0.00072772218407655335 0 0.0022541321258858437 -0.00071452406433622029 0 0.002057458124838667 -0.0006312538704784928 0 0.002096613679969828 -0.00065557888371062484 0 0.0021451176550877651 -0.0006249694465289557 0 0.002293597161140787 -0.00072772218407655335 0 0.0022787046918755337 -0.0007128959988255615 0 0.0022541321258858437 -0.00071452406433622029 0 0.0022164329288326661 -0.00067738342363815509 0 0.002270334819207681 -0.00068185185680960983 0 0.002293597161140787 -0.00072772218407655335 0 0.0022928497868496189 -0.00071346628209571674 0 0.0022795743486157169 -0.00068329525581020591 0 0.002293597161140787 -0.00072772218407655335 0 0.0022787046918755337 -0.0007128959988255615 0 0.0022928497868496189 -0.00071346628209571674 0 0.0022928497868496189 -0.00071346628209571674 0 0.0022795743486157169 -0.00068329525581020591 0 0.0023219203185923707 -0.00074124192040828346 0 0.0022795743486157169 -0.00068329525581020591 0 0.0023225148617094199 -0.00070731552777225377 0 0.0023219203185923707 -0.00074124192040828346 0 0.002201696939009846 -0.00069165624395128118 0 0.0022795743486157169 -0.00068329525581020591 0 0.0022851234556435034 -0.00068982909345573315 0 0.0022795743486157169 -0.00068329525581020591 0 0.0022851234556435034 -0.00068982909345573315 0 0.0023225148617094199 -0.00070731552777225377 0 0.0022851234556435034 -0.00068982909345573315 0 0.0023266386520140467 -0.00069591234475696736 0 0.0023225148617094199 -0.00070731552777225377 0 0.0023225148617094199 -0.00070731552777225377 0 0.0023219203185923707 -0.00074124192040828346 0 0.0023159639037627988 -0.00078618073968876395 0 0.0022928497868496189 -0.00071346628209571674 0 0.0023219203185923707 -0.00074124192040828346 0 0.0022972722307057314 -0.00071938619369095339 0 0.0023219203185923707 -0.00074124192040828346 0 0.0022972722307057314 -0.00071938619369095339 0 0.0022931508128343327 -0.00069898814984525892 0 0.0023232856488269601 -0.00074148440121251432 0 0.002335691668835794 -0.0007541188656936368 0 0.0023219203185923707 -0.00074124192040828346 0 0.0023913238539282678 -0.00081053676569215307 0 0.0023209278851123805 -0.00084782457518295471 0 0.0023219203185923707 -0.00074124192040828346 0 0.0023159639037627988 -0.00078618073968876395 0 0.0023209278851123805 -0.00084782457518295471 0 0.0023159639037627988 -0.00078618073968876395 0 0.0023209278851123805 -0.00084782457518295471 0 0.0022998425938158202 -0.00088084671814357121 0 0.0022787046918755337 -0.0007128959988255615 0 0.0022541321258858437 -0.00071452406433622029 0 0.0022589443318519571 -0.0007103781024667134 0 0.0022787046918755337 -0.0007128959988255615 0 0.0022589443318519571 -0.0007103781024667134 0 0.002282177235547632 -0.0007129033741557773 0 0.0022589443318519571 -0.0007103781024667134 0 0.002282177235547632 -0.0007129033741557773 0 0.0022658874085610147 -0.00070231903087207049 0 0.0022787046918755337 -0.0007128959988255615 0 0.0022928497868496189 -0.00071346628209571674 0 0.002282177235547632 -0.0007129033741557773 0 0.0022928497868496189 -0.00071346628209571674 0 0.002282177235547632 -0.0007129033741557773 0 0.0022972722307057314 -0.00071938619369095339 0 0.002282177235547632 -0.0007129033741557773 0 0.0022972722307057314 -0.00071938619369095339 0 0.0022931508128343327 -0.00069898814984525892 0 0.002282177235547632 -0.0007129033741557773 0 0.0022931508128343327 -0.00069898814984525892 0 0.0022658874085610147 -0.00070231903087207049 0 0.002335691668835794 -0.0007541188656936368 0 0.0024087216936156176 -0.00076709871847531268 0 0.0022512380353737439 -0.00069779457995042965 0 0.0022658874085610147 -0.00070231903087207049 0 0.0022679826249610096 -0.00068803225233463061 0 0.0022931508128343327 -0.00069898814984525892 0 0.0022658874085610147 -0.00070231903087207049 0 0.0022679826249610096 -0.00068803225233463061 0 0.0025512486516433013 -0.00093957425040096742 0 0.0024711516587160405 -0.00087647843180189619 0 0.0024743080049767956 -0.0009291676627053891 0 0.0024711516587160405 -0.00087647843180189619 0 0.0024743080049767956 -0.0009291676627053891 0 0.0024233147597019578 -0.00091607382727129899 0 0.0023913238539282678 -0.00081053676569215307 0 0.0024233147597019578 -0.00091607382727129899 0 0.0023499317920302712 -0.00091756290153612529 0 0.0023913238539282678 -0.00081053676569215307 0 0.0024711516587160405 -0.00087647843180189619 0 0.0024233147597019578 -0.00091607382727129899 0 0.0021429766402134343 -0.0012179808492431773 0 0.0022661323583720592 -0.0010809939676250718 0 0.0024233147597019578 -0.00091607382727129899 0 0.0024479620754491028 -0.00098462412417369446 0 0.0023499317920302712 -0.00091756290153612529 0 0.0024479620754491028 -0.00098462412417369446 0 0.0023499317920302712 -0.00091756290153612529 0 0.0022777439740409287 -0.0010522499576901571 0 0.001434321258480251 -0.0016433648314681515 0 0.0018702996499958622 -0.0014432234183977179 0 0.0016908875002132737 -0.0014258901149107868 0 0.0020020361278302577 -0.0011755266818388832 0 0.0021429766402134343 -0.0012179808492431773 0 0.0025512486516433013 -0.00093957425040096742 0 0.0024743080049767956 -0.0009291676627053891 0 0.0024479620754491028 -0.00098462412417369446 0 0.0024743080049767956 -0.0009291676627053891 0 0.0024233147597019578 -0.00091607382727129899 0 0.0024479620754491028 -0.00098462412417369446 0 0.0018702996499958622 -0.0014432234183977179 0 0.0016908875002132737 -0.0014258901149107868 0 0.0020220996976599752 -0.0011427581257934317 0 0.0023209278851123805 -0.00084782457518295471 0 0.0022868972084128859 -0.00095068776299729076 0 0.0022998425938158202 -0.00088084671814357121 0 0.0023209278851123805 -0.00084782457518295471 0 0.0023499317920302712 -0.00091756290153612529 0 0.0022868972084128859 -0.00095068776299729076 0 0.0023913238539282678 -0.00081053676569215307 0 0.0023209278851123805 -0.00084782457518295471 0 0.0023499317920302712 -0.00091756290153612529 0 0.0023499317920302712 -0.00091756290153612529 0 0.0022868972084128859 -0.00095068776299729076 0 0.0022777439740409287 -0.0010522499576901571 0 0.0022868972084128859 -0.00095068776299729076 0 0.0022898063755407406 -0.00093863419415793022 0 0.0022998425938158202 -0.00088084671814357121 0 0.0022868972084128859 -0.00095068776299729076 0 0.0022681184424844674 -0.0009751246063520756 0 0.0022898063755407406 -0.00093863419415793022 0 0.0022868972084128859 -0.00095068776299729076 0 0.0022681184424844674 -0.0009751246063520756 0 0.0022777439740409287 -0.0010522499576901571 0 0.0022681184424844674 -0.0009751246063520756 0 0.0022777439740409287 -0.0010522499576901571 0 0.0021545498426180218 -0.00096485046076142506 0 0.0022681184424844674 -0.0009751246063520756 0 0.0021916440551201281 -0.00091061497306656484 0 0.0021545498426180218 -0.00096485046076142506 0 0.0022681184424844674 -0.0009751246063520756 0 0.0022617384941276469 -0.00092100917841060636 0 0.0021916440551201281 -0.00091061497306656484 0 0.0022681184424844674 -0.0009751246063520756 0 0.0022617384941276469 -0.00092100917841060636 0 0.0022893297912626146 -0.00093568598741459454 0 0.0022617384941276469 -0.00092100917841060636 0 0.0022007593674312656 -0.00088282688146851176 0 0.0021916440551201281 -0.00091061497306656484 0 0.0022617384941276469 -0.00092100917841060636 0 0.0022007593674312656 -0.00088282688146851176 0 0.0022419986217227547 -0.00088013766880333305 0 0.0021916440551201281 -0.00091061497306656484 0 0.0021561552976045745 -0.00087002588841340325 0 0.0020818041933882664 -0.00086034743156359554 0 0.0022007593674312656 -0.00088282688146851176 0 0.0021916440551201281 -0.00091061497306656484 0 0.0021561552976045745 -0.00087002588841340325 0 0.0021597588719611052 -0.00085802070990544544 0 0.0021779003752032075 -0.00083160562562489165 0 0.0020784724117796816 -0.00084008301071976225 0 0.0022007593674312656 -0.00088282688146851176 0 0.0021561552976045745 -0.00087002588841340325 0 0.0021597588719611052 -0.00085802070990544544 0 0.0021561552976045745 -0.00087002588841340325 0 0.0021597588719611052 -0.00085802070990544544 0 0.0021290206696185951 -0.00085116150286091851 0 0.0023540376286636756 -0.0010695078317641627 0 0.00044642035688806885 -0.0021114446114660307 0 0.0021597588719611052 -0.00085802070990544544 0 0.0021290206696185951 -0.00085116150286091851 0 0.0021195167609426046 -0.00083626309521086292 0 0.0021597588719611052 -0.00085802070990544544 0 0.0022059893745247213 -0.00085911468268172247 0 0.0021779003752032075 -0.00083160562562489165 0 0.0022059893745247213 -0.00085911468268172247 0 0.0022419986217227547 -0.00088013766880333305 0 0.0022411875067873963 -0.00084273148747127547 0 0.0022007593674312656 -0.00088282688146851176 0 0.0022059893745247213 -0.00085911468268172247 0 0.0022419986217227547 -0.00088013766880333305 0 0.0022007593674312656 -0.00088282688146851176 0 0.0021597588719611052 -0.00085802070990544544 0 0.0022059893745247213 -0.00085911468268172247 0 0.00097234016777513984 -0.0015411219031758482 0 0.00044642035688806885 -0.0021114446114660307 0 0.0015160218962530698 -0.00080788725961330565 0 0.001721772001434189 -0.0010012441514190781 0 0.0017737375154939204 -0.00078083377137263198 0 0.0021290206696185951 -0.00085116150286091851 0 0.0020818041933882664 -0.00086034743156359554 0 0.0021195167609426046 -0.00083626309521086292 0 0.0020976172696628593 -0.00061651141871610772 0 0.00044642035688806885 -0.0021114446114660307 0 0.0021561552976045745 -0.00087002588841340325 0 0.0021290206696185951 -0.00085116150286091851 0 0.0020818041933882664 -0.00086034743156359554 0 0.0015160218962530698 -0.00080788725961330565 0 0.001721772001434189 -0.0010012441514190781 0 0.0015062171036381838 -0.00099536910468699656 0 0.001721772001434189 -0.0010012441514190781 0 0.0015425200453231462 -0.0011638063278186534 0 0.0015062171036381838 -0.00099536910468699656 0 0.0015425200453231462 -0.0011638063278186534 0 0.0016668374188560993 -0.0012444142321283956 0 0.0015610946520357367 -0.0013329408056956215 0 0.001721772001434189 -0.0010012441514190781 0 0.0015425200453231462 -0.0011638063278186534 0 0.0016668374188560993 -0.0012444142321283956 0 0.0021916440551201281 -0.00091061497306656484 0 0.0020818041933882664 -0.00086034743156359554 0 0.0021545498426180218 -0.00096485046076142506 0 0.0020976172696628593 -0.00061651141871610772 0 0.0017703161311771087 -0.0011960652546464678 0 0.0020818041933882664 -0.00086034743156359554 0 0.0019416367786499081 -0.00096397833491448372 0 0.0021545498426180218 -0.00096485046076142506 0 0.0018702996499958622 -0.0014432234183977179 0 0.0022777439740409287 -0.0010522499576901571 0 0.0020220996976599752 -0.0011427581257934317 0 0.0019416367786499081 -0.00096397833491448372 0 0.0021545498426180218 -0.00096485046076142506 0 0.0020220996976599752 -0.0011427581257934317 0 0.0022777439740409287 -0.0010522499576901571 0 0.0021545498426180218 -0.00096485046076142506 0 0.0020220996976599752 -0.0011427581257934317 0 0.0017086423292148524 -0.0013810342580177987 0 0.0017703161311771087 -0.0011960652546464678 0 0.0016908875002132737 -0.0014258901149107868 0 0.0016668374188560993 -0.0012444142321283956 0 0.0015610946520357367 -0.0013329408056956215 0 0.0016908875002132737 -0.0014258901149107868 0 0.0019416367786499081 -0.00096397833491448372 0 0.0020220996976599752 -0.0011427581257934317 0 0.0015092046221061855 -0.0014744189309352292 0 0.0016908875002132737 -0.0014258901149107868 0 0.0015610946520357367 -0.0013329408056956215 0 0.0015092046221061855 -0.0014744189309352292 0 0.0015610946520357367 -0.0013329408056956215 0 0.0014506481651104439 -0.0014294635311160365 0 0.0013428332756046301 -0.0016210967582269216 0 0.0014506481651104439 -0.0014294635311160365 0 0.0012665974094229189 -0.0013288170383524108 0 0.0015610946520357367 -0.0013329408056956215 0 0.0014506481651104439 -0.0014294635311160365 0 0.0014434063611625254 -0.0012739191039117562 0 0.0014506481651104439 -0.0014294635311160365 0 0.0012665974094229189 -0.0013288170383524108 0 0.0014434063611625254 -0.0012739191039117562 0 0.0013428332756046301 -0.0016210967582269216 0 0.0012665974094229189 -0.0013288170383524108 0 0.0010552640596353127 -0.0014982182607824631 0 0.0012665974094229189 -0.0013288170383524108 0 0.00099759546495214817 -0.0012790122530812215 0 0.0011617757253471303 -0.001073336743806815 0 0.0012665974094229189 -0.0013288170383524108 0 0.0013730571065066238 -0.001122505261906197 0 0.0011617757253471303 -0.001073336743806815 0 0.0015425200453231462 -0.0011638063278186534 0 0.0015610946520357367 -0.0013329408056956215 0 0.0014434063611625254 -0.0012739191039117562 0 0.0015425200453231462 -0.0011638063278186534 0 0.0013730571065066238 -0.001122505261906197 0 0.0014434063611625254 -0.0012739191039117562 0 0.0012665974094229189 -0.0013288170383524108 0 0.0013730571065066238 -0.001122505261906197 0 0.0014434063611625254 -0.0012739191039117562 0 0.00049066045476230287 -0.0017536081053145581 0 0.00078760411235766832 -0.0019382797058058554 0 0.00065668847252416335 -0.0014132890331519381 0 0.00049066045476230287 -0.0017536081053145581 0 0.00065668847252416335 -0.0014132890331519381 0 0.00026382470801590785 -0.0014733665517819012 0 0.0005181458233453432 -0.0020507644385962011 0 0.00049066045476230287 -0.0017536081053145581 0 0.00078760411235766832 -0.0019382797058058554 0 0.0010552640596353127 -0.0014982182607824631 0 0.00099759546495214817 -0.0012790122530812215 0 0.00065668847252416335 -0.0014132890331519381 0 0.00078760411235766832 -0.0019382797058058554 0 0.0011767318134823658 -0.0018164471113099731 0 0.00065668847252416335 -0.0014132890331519381 0 0.0011010786609197568 -0.0016738765333751922 0 0.00068314777719151953 -0.0014100270869429323 0 0.0012665974094229189 -0.0013288170383524108 0 0.0010552640596353127 -0.0014982182607824631 0 0.00099759546495214817 -0.0012790122530812215 0 0.00099759546495214817 -0.0012790122530812215 0 0.00084645407009527535 -0.0010304912822354801 0 0.0011617757253471303 -0.001073336743806815 0 0.00099759546495214817 -0.0012790122530812215 0 0.00065668847252416335 -0.0014132890331519381 0 0.00084645407009527535 -0.0010304912822354801 0 0.00065668847252416335 -0.0014132890331519381 0 0.00084645407009527535 -0.0010304912822354801 0 0.00026382470801590785 -0.0014733665517819012 0 -0.00043945182033176263 -0.0022891655581834484 0 -0.00041936246933106235 -0.002252446013749377 0 -0.0004213056598522782 -0.0022875363337625985 0 0.00033493722597682048 -0.0015127983676724815 0 -0.00010603315719630767 -0.0019076006741475457 0 -0.00043945182033176263 -0.0022891655581834484 0 -0.00043837035196483075 -0.0023046538251207025 0 -0.0004213056598522782 -0.0022875363337625985 0 -0.00043945182033176263 -0.0022891655581834484 0 -0.00043837035196483075 -0.0023046538251207025 0 -0.00044618665073607451 -0.002304918889585038 0 0.00084645407009527535 -0.0010304912822354801 0 0.0011617757253471303 -0.001073336743806815 0 0.0011907206299381979 -0.00081916210633773876 0 0.00033493722597682048 -0.0015127983676724815 0 -0.00017548156602909061 -0.0022716738154718629 0 -0.0012816906347403727 -0.0037327011843299985 0 -0.001472165390181875 -0.0036428981387224518 0 -0.0013969336053840755 -0.003826348762525199 0 -0.0010050581883931978 -0.0030588543603690035 0 -0.00017548156602909061 -0.0022716738154718629 0 -0.0012816906347403727 -0.0037327011843299985 0 -0.0012024750097995853 -0.0036175101023151017 0 -0.001472165390181875 -0.0036428981387224518 0 -0.0012816906347403727 -0.0037327011843299985 0 -0.0012024750097995853 -0.0036175101023151017 0 -0.00113007365060708 -0.0037127709663788097 0 0.0015425200453231462 -0.0011638063278186534 0 0.0013730571065066238 -0.001122505261906197 0 0.0015062171036381838 -0.00099536910468699656 0 0.0013730571065066238 -0.001122505261906197 0 0.0013547381844051325 -0.00095705128622340728 0 0.0015062171036381838 -0.00099536910468699656 0 0.0013730571065066238 -0.001122505261906197 0 0.0013547381844051325 -0.00095705128622340728 0 0.0011617757253471303 -0.001073336743806815 0 0.0013547381844051325 -0.00095705128622340728 0 0.0011617757253471303 -0.001073336743806815 0 0.0011907206299381979 -0.00081916210633773876 0 -0.001472165390181875 -0.0036428981387224518 0 -0.0016420017599616337 -0.0037789932290837503 0 -0.0013969336053840755 -0.003826348762525199 0 -0.00017548156602909061 -0.0022716738154718629 0 -0.00094285441522240943 -0.0032062603489001981 0 0.0015160218962530698 -0.00080788725961330565 0 0.0013547381844051325 -0.00095705128622340728 0 0.0011907206299381979 -0.00081916210633773876 0 -6.9688454911674141e-05 -0.0025629937154526693 0 -0.00018402629615212561 -0.002575587181404822 0 -0.00012948980810734736 -0.0025343398219874508 0 0.0015160218962530698 -0.00080788725961330565 0 0.0013547381844051325 -0.00095705128622340728 0 0.0015062171036381838 -0.00099536910468699656 0 0.00097234016777513984 -0.0015411219031758482 0 -0.00017548156602909061 -0.0022716738154718629 0 -0.00094285441522240943 -0.0032062603489001981 0 -0.0012502422890690679 -0.0037461339657645998 0 -0.0016420017599616337 -0.0037789932290837503 0 -0.0016355748546024338 -0.004023875208024553 0 -0.0018112838840470505 -0.0039257876754322388 0 -6.9688454911674141e-05 -0.0025629937154526693 0 -0.00012948980810734736 -0.0025343398219874508 0 -7.5756321589236724e-05 -0.0024880126616643791 0 -0.0016420017599616337 -0.0037789932290837503 0 -0.00148623301799525 -0.0039677435402684751 0 -0.0013969336053840755 -0.003826348762525199 0 -0.0016420017599616337 -0.0037789932290837503 0 -0.00148623301799525 -0.0039677435402684751 0 -0.0016355748546024338 -0.004023875208024553 0 -0.00148623301799525 -0.0039677435402684751 0 -0.0014399449164736666 -0.0041597442082065509 0 -0.0016355748546024338 -0.004023875208024553 0 -0.0014410018749908794 -0.0041709308353445095 0 -0.0016222393883674297 -0.004083402128355962 0 -0.0014399449164736666 -0.0041597442082065509 0 -0.0015575786471390531 -0.0042064716492041417 0 -0.0015474809745540069 -0.0042919095329869072 0 -0.0016431591763937502 -0.0042545081324485336 0 -0.0015575786471390531 -0.0042064716492041417 0 -0.0015474809745540069 -0.0042919095329869072 0 -0.0016431591763937502 -0.0042545081324485336 0 -0.0016586555052806944 -0.0043621039046976328 0 -0.0015474809745540069 -0.0042919095329869072 0 -0.0016222393883674297 -0.004083402128355962 0 -0.0012502422890690679 -0.0037461339657645998 0 -0.0016431591763937502 -0.0042545081324485336 0 -0.0015575786471390531 -0.0042064716492041417 0 -0.0016658746318873893 -0.0041874621227104055 0 -0.0012816906347403727 -0.0037327011843299985 0 -0.00113007365060708 -0.0037127709663788097 0 -0.0012080402402146588 -0.0038496971542813243 0 -0.0012080402402146588 -0.0038496971542813243 0 -0.0011463135701820966 -0.003934938777744086 0 -0.0010843849175588567 -0.0038153899633173709 0 -0.00113007365060708 -0.0037127709663788097 0 -0.0012080402402146588 -0.0038496971542813243 0 -0.0010843849175588567 -0.0038153899633173709 0 -0.0012080402402146588 -0.0038496971542813243 0 -0.0013969336053840755 -0.003826348762525199 0 -0.0012923269724291939 -0.0040074536559089532 0 -0.0012816906347403727 -0.0037327011843299985 0 -0.0012080402402146588 -0.0038496971542813243 0 -0.0013969336053840755 -0.003826348762525199 0 -0.00148623301799525 -0.0039677435402684751 0 -0.0013969336053840755 -0.003826348762525199 0 -0.0012923269724291939 -0.0040074536559089532 0 -0.0013100298340398314 -0.0041453608431257227 0 -0.0012923269724291939 -0.0040074536559089532 0 -0.0011514543964305833 -0.0041073876864938146 0 -0.00148623301799525 -0.0039677435402684751 0 -0.0014399449164736666 -0.0041597442082065509 0 -0.0012923269724291939 -0.0040074536559089532 0 -0.0014399449164736666 -0.0041597442082065509 0 -0.0013100298340398314 -0.0041453608431257227 0 -0.0012923269724291939 -0.0040074536559089532 0 -0.0012923269724291939 -0.0040074536559089532 0 -0.0011463135701820966 -0.003934938777744086 0 -0.0011514543964305833 -0.0041073876864938146 0 -0.0012080402402146588 -0.0038496971542813243 0 -0.0012923269724291939 -0.0040074536559089532 0 -0.0011463135701820966 -0.003934938777744086 0 -0.001393163489774955 -0.0046400267093964585 0 -0.001431671309727869 -0.0047498099565038343 0 -0.0013655771419529643 -0.004713770494384947 0 -0.001393163489774955 -0.0046400267093964585 0 -0.0014837251128385865 -0.0046365916826484445 0 -0.001431671309727869 -0.0047498099565038343 0 -0.0013100298340398314 -0.0041453608431257227 0 -0.0011514543964305833 -0.0041073876864938146 0 -0.0013695334565063601 -0.0043018143613718493 0 -0.0012915714784443105 -0.0044037417190828879 0 -0.0014368874182738567 -0.0044667852850578263 0 -0.0014399449164736666 -0.0041597442082065509 0 -0.0013100298340398314 -0.0041453608431257227 0 -0.0013695334565063601 -0.0043018143613718493 0 -0.0014837251128385865 -0.0046365916826484445 0 -0.001431671309727869 -0.0047498099565038343 0 -0.0015073302241165279 -0.0047220967589135261 0 -0.001431671309727869 -0.0047498099565038343 0 -0.0013655771419529643 -0.004713770494384947 0 -0.0013425127846392808 -0.0047901369133662771 0 -0.001431671309727869 -0.0047498099565038343 0 -0.0013425127846392808 -0.0047901369133662771 0 -0.0013825252632081362 -0.0048612363209547755 0 -0.0016586555052806944 -0.0043621039046976328 0 -0.0015890235054282832 -0.0045353781664556397 0 -0.0016932185126575837 -0.0045244777333265486 0 -0.0016586555052806944 -0.0043621039046976328 0 -0.0015474809745540069 -0.0042919095329869072 0 -0.0015890235054282832 -0.0045353781664556397 0 -0.0014368874182738567 -0.0044667852850578263 0 -0.0015964808802435236 -0.0045344680243247755 0 -0.0013695334565063601 -0.0043018143613718493 0 -0.0015474809745540069 -0.0042919095329869072 0 -0.0015890235054282832 -0.0045353781664556397 0 -0.0014399449164736666 -0.0041597442082065509 0 -0.0013695334565063601 -0.0043018143613718493 0 -0.0015474809745540069 -0.0042919095329869072 0 -0.0014837251128385865 -0.0046365916826484445 0 -0.0015073302241165279 -0.0047220967589135261 0 -0.0015890235054282832 -0.0045353781664556397 0 -0.0015073302241165279 -0.0047220967589135261 0 -0.0015890235054282832 -0.0045353781664556397 0 -0.0016294786189486245 -0.004688970691151817 0 -0.0015890235054282832 -0.0045353781664556397 0 -0.0016932185126575837 -0.0045244777333265486 0 -0.0016294786189486245 -0.004688970691151817 0 -0.0017599091998035828 -0.0046510387723689671 0 -0.0016932185126575837 -0.0045244777333265486 0 -0.0016294786189486245 -0.004688970691151817 0 -0.0017599091998035828 -0.0046510387723689671 0 -0.0017745379422959445 -0.0045135481347786015 0 -0.0016932185126575837 -0.0045244777333265486 0 -0.0016586555052806944 -0.0043621039046976328 0 -0.0016932185126575837 -0.0045244777333265486 0 -0.0017348174113624788 -0.0043772695089374083 0 -0.0017745379422959445 -0.0045135481347786015 0 -0.0016932185126575837 -0.0045244777333265486 0 -0.0017348174113624788 -0.0043772695089374083 0 -0.0016586555052806944 -0.0043621039046976328 0 -0.0017348174113624788 -0.0043772695089374083 0 -0.0017045901115382302 -0.0042848145376411066 0 -0.0018150535439897262 -0.0043926631304688638 0 -0.0018779840153050871 -0.0045465214546375199 0 -0.0019280234283997411 -0.0043178254657532666 0 -0.001848994837076425 -0.0042909081312306682 0 -0.0014844478138635612 -0.0042906061450066002 0 -0.0018150535439897262 -0.0043926631304688638 0 -0.00186381339915817 -0.0043049567035632246 0 -0.0017831248510355778 -0.0042782151253557034 0 -0.0017348174113624788 -0.0043772695089374083 0 -0.0018150535439897262 -0.0043926631304688638 0 -0.0017488971384506226 -0.0042854065389199749 0 -0.0017745379422959445 -0.0045135481347786015 0 -0.0018150535439897262 -0.0043926631304688638 0 -0.0018779840153050871 -0.0045465214546375199 0 -0.0017745379422959445 -0.0045135481347786015 0 -0.0017348174113624788 -0.0043772695089374083 0 -0.0018150535439897262 -0.0043926631304688638 0 -0.0017599091998035828 -0.0046510387723689671 0 -0.0018779840153050871 -0.0045465214546375199 0 -0.0019300081176657066 -0.0047762633416275979 0 -0.0017599091998035828 -0.0046510387723689671 0 -0.0017745379422959445 -0.0045135481347786015 0 -0.0018779840153050871 -0.0045465214546375199 0 -0.0018779840153050871 -0.0045465214546375199 0 -0.0020664980582777532 -0.0045984937922769926 0 -0.0019300081176657066 -0.0047762633416275979 0 0.0005524734376582852 -0.0051081063273811971 0 0.00058968398745845455 -0.0050345392141717951 0 0.00064702654982580184 -0.0051062305156824861 0 0.0005524734376582852 -0.0051081063273811971 0 0.00062530578481102838 -0.0051846027857629174 0 0.00064702654982580184 -0.0051062305156824861 0 -0.00022857875913330066 -0.0047236244396630907 0 0.000412836569401164 -0.0047006151507777661 0 -7.2951187192819364e-05 -0.0039728273010783471 0 0.00013414839632697469 -0.0042200911958986146 0 -5.0001776221696387e-05 -0.0043413160383743103 0 0.00013414839632697469 -0.0042200911958986146 0 -5.0001776221696387e-05 -0.0043413160383743103 0 0.00034929469494790933 -0.0044676768236322582 0 -7.2951187192819364e-05 -0.0039728273010783471 0 -5.0001776221696387e-05 -0.0043413160383743103 0 -0.00031219364083115338 -0.0043894801127038006 0 -0.0018779840153050871 -0.0045465214546375199 0 -0.0020664980582777532 -0.0045984937922769926 0 -0.0019280234283997411 -0.0043178254657532666 0 -0.00022857875913330066 -0.0047236244396630907 0 -0.0014844478138635612 -0.0042906061450066002 0 -0.0014844478138635612 -0.0042906061450066002 0 -0.00069066675809108366 -0.0044578127345973797 0 -5.0001776221696387e-05 -0.0043413160383743103 0 -0.00031219364083115338 -0.0043894801127038006 0 -3.8995854059943557e-05 -0.0045818879405453289 0 -0.001663966392123926 -0.0039805894471764657 0 -0.0015998874450292228 -0.0041868962564502428 0 -0.0013196299783234523 -0.0041719349968884134 0 -0.0015998874450292228 -0.0041868962564502428 0 -0.0013196299783234523 -0.0041719349968884134 0 -0.0015152987556182583 -0.0042797052153834229 0 -0.0015998874450292228 -0.0041868962564502428 0 -0.0017084313028579857 -0.0042636275428948106 0 -0.0017665442794247523 -0.0042015229740647976 0 -0.001663966392123926 -0.0039805894471764657 0 -0.0015998874450292228 -0.0041868962564502428 0 -0.0017665442794247523 -0.0042015229740647976 0 -3.8995854059943557e-05 -0.0045818879405453289 0 0.00024111163778826945 -0.0047740447880557585 0 0.00034929469494790933 -0.0044676768236322582 0 -5.0001776221696387e-05 -0.0043413160383743103 0 -3.8995854059943557e-05 -0.0045818879405453289 0 0.00034929469494790933 -0.0044676768236322582 0 0.0022059893745247213 -0.00085911468268172247 0 0.0021779003752032075 -0.00083160562562489165 0 0.0022411875067873963 -0.00084273148747127547 0 0.00031414763845587939 -0.0026529374186181325 0 0.0008165082742384815 -0.003255166666558808 0 -0.00069066675809108366 -0.0044578127345973797 0 0.0008165082742384815 -0.003255166666558808 0 -0.0013196299783234523 -0.0041719349968884134 0 -0.0013674126210515335 -0.0044720804405787712 0 -0.00094223392430809372 -0.0044053046100351548 0 0.00031414763845587939 -0.0026529374186181325 0 0.00044642035688806885 -0.0021114446114660307 0 -0.0013674126210515335 -0.0044720804405787712 0 -0.0015817576740982835 -0.0043776745751924941 0 -0.0017661637986914182 -0.0045011352616572209 0 -0.0015998874450292228 -0.0041868962564502428 0 -0.0015152987556182583 -0.0042797052153834229 0 -0.0017084313028579857 -0.0042636275428948106 0 -0.0015152987556182583 -0.0042797052153834229 0 -0.0015817576740982835 -0.0043776745751924941 0 -0.0017084313028579857 -0.0042636275428948106 0 -0.0013196299783234523 -0.0041719349968884134 0 -0.0015152987556182583 -0.0042797052153834229 0 -0.0013674126210515335 -0.0044720804405787712 0 -0.0015152987556182583 -0.0042797052153834229 0 -0.0013674126210515335 -0.0044720804405787712 0 -0.0015817576740982835 -0.0043776745751924941 0 0.00044642035688806885 -0.0021114446114660307 0 -0.0016098449661180762 -0.0049621929681549857 0 -0.0015817576740982835 -0.0043776745751924941 0 -0.0017661637986914182 -0.0045011352616572209 0 -0.0017084313028579857 -0.0042636275428948106 0 -0.0017403523240035255 -0.0042415045816231655 0 -0.0017084313028579857 -0.0042636275428948106 0 -0.0017665442794247523 -0.0042015229740647976 0 -0.0017311480617346706 -0.0042308488116363863 0 -0.0017403523240035255 -0.0042415045816231655 0 -0.0017084313028579857 -0.0042636275428948106 0 -0.0017311480617346706 -0.0042308488116363863 0 -0.0017403523240035255 -0.0042415045816231655 0 -0.0017236765292039859 -0.004230196416060145 0 -0.0017311480617346706 -0.0042308488116363863 0 -0.0016953887818430739 -0.0042141777386145484 0 -0.0017236765292039859 -0.004230196416060145 0 -6.9688454911674141e-05 -0.0025629937154526693 0 5.3636085081391754e-05 -0.0025398271894497087 0 -7.5756321589236724e-05 -0.0024880126616643791 0 0.00044642035688806885 -0.0021114446114660307 0 -0.0012502422890690679 -0.0037461339657645998 0 -0.0016953887818430739 -0.0042141777386145484 0 -0.0017236765292039859 -0.004230196416060145 0 -0.0016987538636610497 -0.0042218573277980264 0 -0.0012502422890690679 -0.0037461339657645998 0 -0.0015681148293765826 -0.0040421654729718383 0 -0.0017266294091428463 -0.0042440969808349152 0 -0.0016987538636610497 -0.0042218573277980264 0 -0.0017045901115382302 -0.0042848145376411066 0 -0.0017236765292039859 -0.004230196416060145 0 -0.0017266294091428463 -0.0042440969808349152 0 -0.0016987538636610497 -0.0042218573277980264 0 -0.0017236765292039859 -0.004230196416060145 0 -0.0017266294091428463 -0.0042440969808349152 0 -0.0017503245923636958 -0.0042368272823844659 0 -0.0016431591763937502 -0.0042545081324485336 0 -0.0016987538636610497 -0.0042218573277980264 0 -0.0017045901115382302 -0.0042848145376411066 0 -0.0016431591763937502 -0.0042545081324485336 0 -0.0016658746318873893 -0.0041874621227104055 0 -0.0016987538636610497 -0.0042218573277980264 0 -0.0016431591763937502 -0.0042545081324485336 0 -0.0016586555052806944 -0.0043621039046976328 0 -0.0017045901115382302 -0.0042848145376411066 0 -0.0017348174113624788 -0.0043772695089374083 0 -0.0017045901115382302 -0.0042848145376411066 0 -0.0017488971384506226 -0.0042854065389199749 0 -0.0017266294091428463 -0.0042440969808349152 0 -0.0017045901115382302 -0.0042848145376411066 0 -0.0017488971384506226 -0.0042854065389199749 0 -0.0018150535439897262 -0.0043926631304688638 0 -0.0017488971384506226 -0.0042854065389199749 0 -0.0017831248510355778 -0.0042782151253557034 0 -0.0017488971384506226 -0.0042854065389199749 0 -0.0017831248510355778 -0.0042782151253557034 0 -0.0017503245923636958 -0.0042368272823844659 0 -0.0014844478138635612 -0.0042906061450066002 0 -0.0016830779614714405 -0.0042367043919794749 0 -0.00186381339915817 -0.0043049567035632246 0 -0.0017831248510355778 -0.0042782151253557034 0 -0.0017665442794247523 -0.0042015229740647976 0 -0.0017403523240035255 -0.0042415045816231655 0 -0.0017665442794247523 -0.0042015229740647976 0 -0.0017503245923636958 -0.0042368272823844659 0 -0.0017831248510355778 -0.0042782151253557034 0 -0.0017665442794247523 -0.0042015229740647976 0 -0.0017503245923636958 -0.0042368272823844659 0 -0.0017403523240035255 -0.0042415045816231655 0 -0.0017236765292039859 -0.004230196416060145 0 -0.0017503245923636958 -0.0042368272823844659 0 -0.0017266294091428463 -0.0042440969808349152 0 -0.0017488971384506226 -0.0042854065389199749 0 -0.0017503245923636958 -0.0042368272823844659 0 -0.00038922421623249591 -0.0033545818577092011 0 -0.00044516665928363776 -0.0031479645420357679 0 -0.00052919807349994 -0.003491115193989681 0 -0.00022052733731422653 -0.003212163426235779 0 -0.00044578814623356852 -0.0035423319784259441 0 -0.00027751178043600736 -0.0034402790044446865 0 -0.00038922421623249591 -0.0033545818577092011 0 -0.00052919807349994 -0.003491115193989681 0 -0.00031105531348324627 -0.0032265723847803361 0 -0.00038922421623249591 -0.0033545818577092011 0 -0.00044516665928363776 -0.0031479645420357679 0 -0.00031105531348324627 -0.0032265723847803361 0 -0.00038922421623249591 -0.0033545818577092011 0 -0.00029358003401033767 -0.003336416744434874 0 -0.00027751178043600736 -0.0034402790044446865 0 -0.00038922421623249591 -0.0033545818577092011 0 -0.00029358003401033767 -0.003336416744434874 0 -0.00052253987156708861 -0.0034407611789963339 0 -0.00012920558682300687 -0.0032445138419501755 0 -0.00035350809242907149 -0.0036160550166989976 0 -0.00052253987156708861 -0.0034407611789963339 0 -0.00063873622388043556 -0.0036360112508735461 0 -0.00035350809242907149 -0.0036160550166989976 0 -0.00052253987156708861 -0.0034407611789963339 0 -0.00012920558682300687 -0.0032445138419501755 0 -0.00056902876952282032 -0.0031063838413082868 0 -0.00012920558682300687 -0.0032445138419501755 0 -5.5660467949781688e-06 -0.002725298168817347 0 -0.00056902876952282032 -0.0031063838413082868 0 -0.00022052733731422653 -0.003212163426235779 0 -0.0010541475428352905 -0.0023554543649521179 0 -0.00022736923295693705 -0.0030560346427516436 0 -0.00044516665928363776 -0.0031479645420357679 0 -0.0003370802737443968 -0.0027847734720487407 0 -0.00012920558682300687 -0.0032445138419501755 0 -5.5660467949781688e-06 -0.002725298168817347 0 9.3465139090893182e-05 -0.0025930453491892678 0 -0.00022736923295693705 -0.0030560346427516436 0 -0.00031105531348324627 -0.0032265723847803361 0 -0.00044516665928363776 -0.0031479645420357679 0 -5.5660467949781688e-06 -0.002725298168817347 0 9.3465139090893182e-05 -0.0025930453491892678 0 -9.4382896328275726e-05 -0.0025012495885053201 0 9.3465139090893182e-05 -0.0025930453491892678 0 -9.4382896328275726e-05 -0.0025012495885053201 0 -2.6933366760864058e-05 -0.0023581961579696047 0 -0.0010541475428352905 -0.0023554543649521179 0 -0.0009505629930258489 -0.0022455567574787652 0 -0.0020298732620549938 -0.0021451652160153732 0 -0.0019449494842520231 -0.001938312920516165 0 -0.0018773158103224117 -0.0021210820841370244 0 -9.4382896328275726e-05 -0.0025012495885053201 0 -2.6933366760864058e-05 -0.0023581961579696047 0 -0.00017752132078863571 -0.0023289412382715338 0 -0.00091486488367509223 -0.0022092524707666267 0 -0.0009505629930258489 -0.0022455567574787652 0 -0.0018044505355342062 -0.0023037440512602551 0 -0.0018773158103224117 -0.0021210820841370244 0 -0.0019526294632472478 -0.0022199179351507087 0 -0.0020298732620549938 -0.0021451652160153732 0 -0.0018773158103224117 -0.0021210820841370244 0 -0.0019526294632472478 -0.0022199179351507087 0 -9.8923277384222716e-05 -0.0022277028106287007 0 -2.6933366760864058e-05 -0.0023581961579696047 0 -0.00017752132078863571 -0.0023289412382715338 0 -9.4382896328275726e-05 -0.0025012495885053201 0 -0.00017752132078863571 -0.0023289412382715338 0 -0.00020420927649645034 -0.0024193879253571566 0 -5.5660467949781688e-06 -0.002725298168817347 0 -9.4382896328275726e-05 -0.0025012495885053201 0 -0.00024237784081461436 -0.0024850622698729201 0 -9.4382896328275726e-05 -0.0025012495885053201 0 -0.00020420927649645034 -0.0024193879253571566 0 -0.00024237784081461436 -0.0024850622698729201 0 -2.3237230133572389e-06 -0.0027248405373028958 0 -0.00037303822104747569 -0.0027940063201268004 0 -0.00027652749198417079 -0.0023511314977604928 0 -0.00032358130273198285 -0.0023817534641729352 0 -0.00024237784081461436 -0.0024850622698729201 0 -0.00020420927649645034 -0.0024193879253571566 0 -0.00027652749198417079 -0.0023511314977604928 0 -0.00024237784081461436 -0.0024850622698729201 0 -0.00017752132078863571 -0.0023289412382715338 0 -0.00020420927649645034 -0.0024193879253571566 0 -0.00027652749198417079 -0.0023511314977604928 0 -0.00031491977966164686 -0.0022375705798819835 0 -0.00023908196552215779 -0.0022485512054855527 0 -0.00027652749198417079 -0.0023511314977604928 0 -0.00023908196552215779 -0.0022485512054855527 0 -0.00017752132078863571 -0.0023289412382715338 0 -0.00027652749198417079 -0.0023511314977604928 0 -0.00031491977966164686 -0.0022375705798819835 0 -0.00027652749198417079 -0.0023511314977604928 0 -0.00033600324968579914 -0.0022884837040128008 0 -0.00027652749198417079 -0.0023511314977604928 0 -0.00032358130273198285 -0.0023817534641729352 0 -0.00033600324968579914 -0.0022884837040128008 0 -0.00079097507700206951 -0.0033466056487621472 0 -0.00056902876952282032 -0.0031063838413082868 0 -0.00074174477377489314 -0.0035249804247440343 0 -0.00054511271766591134 -0.0028605134356837819 0 -0.00037303822104747569 -0.0027940063201268004 0 -0.00052253987156708861 -0.0034407611789963339 0 -0.00056902876952282032 -0.0031063838413082868 0 -0.00074174477377489314 -0.0035249804247440343 0 -0.00052253987156708861 -0.0034407611789963339 0 -0.00074174477377489314 -0.0035249804247440343 0 -0.00063873622388043556 -0.0036360112508735461 0 -0.00079097507700206951 -0.0033466056487621472 0 -0.00074174477377489314 -0.0035249804247440343 0 -0.00087401378027372159 -0.0036279326800037624 0 -0.00087401378027372159 -0.0036279326800037624 0 -0.00091560822893260784 -0.0034941767404528326 0 -0.00096592508880482381 -0.0036509770563165106 0 -0.00054511271766591134 -0.0028605134356837819 0 -0.00064351554235679369 -0.0029098986344970115 0 -0.00079097507700206951 -0.0033466056487621472 0 -0.00087401378027372159 -0.0036279326800037624 0 -0.00091560822893260784 -0.0034941767404528326 0 -0.00032358130273198285 -0.0023817534641729352 0 -0.00036644199409405383 -0.002322982401356595 0 -0.00035540760634087499 -0.0023056635817522756 0 -0.00035540760634087499 -0.0023056635817522756 0 -0.00033600324968579914 -0.0022884837040128008 0 -0.00037322965283584066 -0.0022289044342521961 0 -0.00032358130273198285 -0.0023817534641729352 0 -0.00035540760634087499 -0.0023056635817522756 0 -0.00033600324968579914 -0.0022884837040128008 0 -0.00031491977966164686 -0.0022375705798819835 0 -0.00037048096768787576 -0.002189809727937309 0 -0.00033600324968579914 -0.0022884837040128008 0 -0.00037048096768787576 -0.002189809727937309 0 -0.00033600324968579914 -0.0022884837040128008 0 -0.00037322965283584066 -0.0022289044342521961 0 -0.00035540760634087499 -0.0023056635817522756 0 -0.00037322965283584066 -0.0022289044342521961 0 -0.00038300757993333246 -0.0022786204708494387 0 -0.00036644199409405383 -0.002322982401356595 0 -0.00035540760634087499 -0.0023056635817522756 0 -0.00038300757993333246 -0.0022786204708494387 0 -0.00038300757993333246 -0.0022786204708494387 0 -0.00036555065089522918 -0.0022387041459161392 0 -0.00041936246933106235 -0.002252446013749377 0 -0.00037322965283584066 -0.0022289044342521961 0 -0.00038300757993333246 -0.0022786204708494387 0 -0.00036555065089522918 -0.0022387041459161392 0 -0.00029547049819714395 -0.002148752865879009 0 -0.00010603315719630767 -0.0019076006741475457 0 -0.00032018090644305 -0.0021945411836320778 0 -0.00036555065089522918 -0.0022387041459161392 0 -0.00041936246933106235 -0.002252446013749377 0 -0.00032018090644305 -0.0021945411836320778 0 -0.00037322965283584066 -0.0022289044342521961 0 -0.00036555065089522918 -0.0022387041459161392 0 0.00049066045476230287 -0.0017536081053145581 0 0.00022234654228040716 -0.0019723470718372104 0 0.00026382470801590785 -0.0014733665517819012 0 -0.00032018090644305 -0.0021945411836320778 0 0.00022234654228040716 -0.0019723470718372104 0 0.00026382470801590785 -0.0014733665517819012 0 0.0005181458233453432 -0.0020507644385962011 0 0.00049066045476230287 -0.0017536081053145581 0 0.00022234654228040716 -0.0019723470718372104 0 -0.00038300757993333246 -0.0022786204708494387 0 -0.00041936246933106235 -0.002252446013749377 0 -0.0004213056598522782 -0.0022875363337625985 0 -0.00038300757993333246 -0.0022786204708494387 0 -0.00040445855230419468 -0.0023108014711802852 0 -0.0004213056598522782 -0.0022875363337625985 0 -0.00043837035196483075 -0.0023046538251207025 0 -0.00040445855230419468 -0.0023108014711802852 0 -0.0004213056598522782 -0.0022875363337625985 0 -0.00036644199409405383 -0.002322982401356595 0 -0.00038300757993333246 -0.0022786204708494387 0 -0.00040445855230419468 -0.0023108014711802852 0 -0.00064351554235679369 -0.0029098986344970115 0 -0.00067236646008450454 -0.0029283850640428005 0 -0.0010264370140323042 -0.0035808384026853007 0 -0.00096592508880482381 -0.0036509770563165106 0 -0.0010396872107855208 -0.0037057689062181529 0 -0.00091560822893260784 -0.0034941767404528326 0 -0.0010264370140323042 -0.0035808384026853007 0 -0.00096592508880482381 -0.0036509770563165106 0 -0.00113007365060708 -0.0037127709663788097 0 -0.0010264370140323042 -0.0035808384026853007 0 -0.0010396872107855208 -0.0037057689062181529 0 -0.0012024750097995853 -0.0036175101023151017 0 -0.00113007365060708 -0.0037127709663788097 0 -0.0010264370140323042 -0.0035808384026853007 0 -0.0010050581883931978 -0.0030588543603690035 0 -0.00067236646008450454 -0.0029283850640428005 0 -0.0010843849175588567 -0.0038153899633173709 0 -0.0010132881892489533 -0.003784618718882212 0 -0.001018884590914519 -0.003885715444311144 0 -0.00113007365060708 -0.0037127709663788097 0 -0.0010396872107855208 -0.0037057689062181529 0 -0.0010843849175588567 -0.0038153899633173709 0 -0.0010396872107855208 -0.0037057689062181529 0 -0.0010843849175588567 -0.0038153899633173709 0 -0.0010132881892489533 -0.003784618718882212 0 -0.00096592508880482381 -0.0036509770563165106 0 -0.00096463944943475937 -0.0037706610485496793 0 -0.0010132881892489533 -0.003784618718882212 0 -0.00096592508880482381 -0.0036509770563165106 0 -0.0010396872107855208 -0.0037057689062181529 0 -0.0010132881892489533 -0.003784618718882212 0 -0.00096463944943475937 -0.0037706610485496793 0 -0.0010132881892489533 -0.003784618718882212 0 -0.001018884590914519 -0.003885715444311144 0 -0.00096463944943475937 -0.0037706610485496793 0 -0.0010002009065289157 -0.0038834369797464316 0 -0.001018884590914519 -0.003885715444311144 0 -0.0010846818957731593 -0.003812075486263358 0 -0.00098318894549671875 -0.0039161392960834684 0 -0.00091200450348719226 -0.0037609951922600187 0 -0.0010778122048550887 -0.0040335175324786778 0 -0.00089315263211472626 -0.0037534184260932112 0 -0.00096463944943475937 -0.0037706610485496793 0 -0.0010002009065289157 -0.0038834369797464316 0 -0.00089904359224525824 -0.0037891181653459485 0 -0.0012915714784443105 -0.0044037417190828879 0 -0.0010778122048550887 -0.0040335175324786778 0 -0.0011463135701820966 -0.003934938777744086 0 -0.0010843849175588567 -0.0038153899633173709 0 -0.001018884590914519 -0.003885715444311144 0 -0.0011463135701820966 -0.003934938777744086 0 -0.0011514543964305833 -0.0041073876864938146 0 -0.001018884590914519 -0.003885715444311144 0 -0.0011514543964305833 -0.0041073876864938146 0 -0.00094797507867884121 -0.0039594495642426356 0 -0.001018884590914519 -0.003885715444311144 0 -0.0010778122048550887 -0.0040335175324786778 0 -0.0010535242687879909 -0.0039387781078167421 0 -0.001393163489774955 -0.0046400267093964585 0 -0.0012911812911359786 -0.0046976479436828568 0 -0.0013655771419529643 -0.004713770494384947 0 -0.001393163489774955 -0.0046400267093964585 0 -0.0012721709071551869 -0.0046014187745019178 0 -0.0012911812911359786 -0.0046976479436828568 0 -0.0012911812911359786 -0.0046976479436828568 0 -0.0013425127846392808 -0.0047901369133662771 0 -0.0012459533582006902 -0.0047893068957452489 0 -0.0012911812911359786 -0.0046976479436828568 0 -0.0013655771419529643 -0.004713770494384947 0 -0.0013425127846392808 -0.0047901369133662771 0 -0.0012911812911359786 -0.0046976479436828568 0 -0.0012459533582006902 -0.0047893068957452489 0 -0.0011873697238806685 -0.0046846074157332529 0 -0.0012459533582006902 -0.0047893068957452489 0 -0.0011873697238806685 -0.0046846074157332529 0 -0.0011705564007670726 -0.0048341750051409159 0 -0.0013425127846392808 -0.0047901369133662771 0 -0.0012459533582006902 -0.0047893068957452489 0 -0.0013002992370279172 -0.0048695703757366069 0 -0.0012721709071551869 -0.0046014187745019178 0 -0.0012911812911359786 -0.0046976479436828568 0 -0.0011873697238806685 -0.0046846074157332529 0 -0.0010778122048550887 -0.0040335175324786778 0 -0.0010696861601107786 -0.0043223985376653366 0 -0.00089011079329613749 -0.0038855084159865466 0 -0.00098318894549671875 -0.0039161392960834684 0 -0.00088056351941164543 -0.0040271725561067942 0 -0.00089011079329613749 -0.0038855084159865466 0 -0.00098318894549671875 -0.0039161392960834684 0 -0.00091200450348719226 -0.0037609951922600187 0 -0.0011873697238806685 -0.0046846074157332529 0 -0.0010870977774493659 -0.0047834241298646092 0 -0.0011705564007670726 -0.0048341750051409159 0 -0.0010696861601107786 -0.0043223985376653366 0 -0.0011296108338401112 -0.0044339562799903288 0 -0.00075302261599763159 -0.0038872991842059429 0 -0.00077339921192242972 -0.0038924647005170901 0 -0.00074193421821826971 -0.0039004480172945459 0 -0.00075302261599763159 -0.0038872991842059429 0 -0.00077339921192242972 -0.0038924647005170901 0 -0.00078303274465957968 -0.0038436083362162724 0 -0.00089011079329613749 -0.0038855084159865466 0 -0.00088056351941164543 -0.0040271725561067942 0 -0.00078303274465957968 -0.0038436083362162724 0 -0.0011296108338401112 -0.0044339562799903288 0 -0.00065670491728691454 -0.003642642701137338 0 -0.00089011079329613749 -0.0038855084159865466 0 -0.00078303274465957968 -0.0038436083362162724 0 -0.00091200450348719226 -0.0037609951922600187 0 -0.00078303274465957968 -0.0038436083362162724 0 -0.00091200450348719226 -0.0037609951922600187 0 -0.00077286167818015365 -0.0037175537100278015 0 -0.00089315263211472626 -0.0037534184260932112 0 -0.00078776322603466942 -0.0037294547873068717 0 -0.00087401378027372159 -0.0036279326800037624 0 -0.00096463944943475937 -0.0037706610485496793 0 -0.00089904359224525824 -0.0037891181653459485 0 -0.00087401378027372159 -0.0036279326800037624 0 -0.00096592508880482381 -0.0036509770563165106 0 -0.00096463944943475937 -0.0037706610485496793 0 -0.00087401378027372159 -0.0036279326800037624 0 -0.00089904359224525824 -0.0037891181653459485 0 -0.00077286167818015365 -0.0037175537100278015 0 -0.00074174477377489314 -0.0035249804247440343 0 -0.00077286167818015365 -0.0037175537100278015 0 -0.00063873622388043556 -0.0036360112508735461 0 -0.00074174477377489314 -0.0035249804247440343 0 -0.00087401378027372159 -0.0036279326800037624 0 -0.00077286167818015365 -0.0037175537100278015 0 -0.00077286167818015365 -0.0037175537100278015 0 -0.00063873622388043556 -0.0036360112508735461 0 -0.00067613213160642907 -0.0037496953568087526 0 -0.00063873622388043556 -0.0036360112508735461 0 -0.00067613213160642907 -0.0037496953568087526 0 -0.00059384397993240772 -0.0037442307720449482 0 -0.00067613213160642907 -0.0037496953568087526 0 -0.00059384397993240772 -0.0037442307720449482 0 -0.00065155244662212319 -0.0038152881452798294 0 -0.00059384397993240772 -0.0037442307720449482 0 -0.00065155244662212319 -0.0038152881452798294 0 -0.00061267812887687723 -0.0038002476421070586 0 -0.00065155244662212319 -0.0038152881452798294 0 -0.000652518155368196 -0.0038685651702397793 0 -0.00062313955721531326 -0.0038396253530044852 0 -0.00065155244662212319 -0.0038152881452798294 0 -0.00062313955721531326 -0.0038396253530044852 0 -0.00061267812887687723 -0.0038002476421070586 0 -0.00067613213160642907 -0.0037496953568087526 0 -0.00065155244662212319 -0.0038152881452798294 0 -0.0007119008610382521 -0.0038153617975830952 0 -0.00065155244662212319 -0.0038152881452798294 0 -0.0007119008610382521 -0.0038153617975830952 0 -0.00068179757569956131 -0.0038550180126624813 0 -0.00078303274465957968 -0.0038436083362162724 0 -0.00077286167818015365 -0.0037175537100278015 0 -0.0007119008610382521 -0.0038153617975830952 0 -0.00077286167818015365 -0.0037175537100278015 0 -0.00067613213160642907 -0.0037496953568087526 0 -0.0007119008610382521 -0.0038153617975830952 0 -0.00078303274465957968 -0.0038436083362162724 0 -0.00071362810365533475 -0.003864960687460403 0 -0.00073285085426073328 -0.00388213575153178 0 -0.00078303274465957968 -0.0038436083362162724 0 -0.0007119008610382521 -0.0038153617975830952 0 -0.00071362810365533475 -0.003864960687460403 0 -0.00075302261599763159 -0.0038872991842059429 0 -0.00078303274465957968 -0.0038436083362162724 0 -0.00073285085426073328 -0.00388213575153178 0 -0.00071362810365533475 -0.003864960687460403 0 -0.00073285085426073328 -0.00388213575153178 0 -0.00070580356458659738 -0.0038830623084054137 0 -0.00073285085426073328 -0.00388213575153178 0 -0.00071829286838914947 -0.0038878160895982196 0 -0.00070580356458659738 -0.0038830623084054137 0 -0.00073285085426073328 -0.00388213575153178 0 -0.00073434794654524127 -0.0038907645051756063 0 -0.00071829286838914947 -0.0038878160895982196 0 -0.00075302261599763159 -0.0038872991842059429 0 -0.00073285085426073328 -0.00388213575153178 0 -0.00073434794654524127 -0.0038907645051756063 0 -0.00070738710766326 -0.0038839138011250579 0 -0.00071829286838914947 -0.0038878160895982196 0 -0.00070580356458659738 -0.0038830623084054137 0 -0.00070738710766326 -0.0038839138011250579 0 -0.00070580356458659738 -0.0038830623084054137 0 -0.00069315372357315642 -0.0038824633725543134 0 -0.00070580356458659738 -0.0038830623084054137 0 -0.00068258663938170589 -0.0038783777816048114 0 -0.00069315372357315642 -0.0038824633725543134 0 -0.00068258663938170589 -0.0038783777816048114 0 -0.000652518155368196 -0.0038685651702397793 0 -0.00066537483729412514 -0.0038827040570957841 0 -0.00071362810365533475 -0.003864960687460403 0 -0.00070580356458659738 -0.0038830623084054137 0 -0.00068258663938170589 -0.0038783777816048114 0 -0.00071362810365533475 -0.003864960687460403 0 -0.00068258663938170589 -0.0038783777816048114 0 -0.00068179757569956131 -0.0038550180126624813 0 -0.0007119008610382521 -0.0038153617975830952 0 -0.00071362810365533475 -0.003864960687460403 0 -0.00068179757569956131 -0.0038550180126624813 0 -0.00065155244662212319 -0.0038152881452798294 0 -0.00068179757569956131 -0.0038550180126624813 0 -0.000652518155368196 -0.0038685651702397793 0 -0.00068258663938170589 -0.0038783777816048114 0 -0.00068179757569956131 -0.0038550180126624813 0 -0.000652518155368196 -0.0038685651702397793 0 -0.000652518155368196 -0.0038685651702397793 0 -0.00062652441001670456 -0.0038910317945613101 0 -0.00062313955721531326 -0.0038396253530044852 0 -0.000652518155368196 -0.0038685651702397793 0 -0.00062652441001670456 -0.0038910317945613101 0 -0.00066537483729412514 -0.0038827040570957841 0 -0.00062652441001670456 -0.0038910317945613101 0 -0.0006835895419676155 -0.0038888718952426148 0 -0.00066537483729412514 -0.0038827040570957841 0 -0.00062652441001670456 -0.0038910317945613101 0 -0.0006835895419676155 -0.0038888718952426148 0 -0.00071082813441609592 -0.0039153146179075875 0 -0.0006835895419676155 -0.0038888718952426148 0 -0.00066537483729412514 -0.0038827040570957841 0 -0.00069976497591361735 -0.0038817914580730373 0 -0.0006835895419676155 -0.0038888718952426148 0 -0.00069976497591361735 -0.0038817914580730373 0 -0.00072319150785030292 -0.0038910773674222525 0 -0.00068258663938170589 -0.0038783777816048114 0 -0.00066537483729412514 -0.0038827040570957841 0 -0.00069315372357315642 -0.0038824633725543134 0 -0.00069315372357315642 -0.0038824633725543134 0 -0.00069976497591361735 -0.0038817914580730373 0 -0.0007103887136364138 -0.0038787304854395722 0 -0.00066537483729412514 -0.0038827040570957841 0 -0.00069315372357315642 -0.0038824633725543134 0 -0.00069976497591361735 -0.0038817914580730373 0 -0.00069976497591361735 -0.0038817914580730373 0 -0.00072835760771085745 -0.0038741306682970799 0 -0.0007103887136364138 -0.0038787304854395722 0 -0.00069976497591361735 -0.0038817914580730373 0 -0.00072835760771085745 -0.0038741306682970799 0 -0.00073246663033560888 -0.0038809261204304831 0 -0.00070738710766326 -0.0038839138011250579 0 -0.00069315372357315642 -0.0038824633725543134 0 -0.0007103887136364138 -0.0038787304854395722 0 -0.00079198976078503739 -0.0038708151633342425 0 -0.00075611790327211102 -0.0038720592616278073 0 -0.00076507751105380775 -0.0038871322296403828 0 -0.00075611790327211102 -0.0038720592616278073 0 -0.00073246663033560888 -0.0038809261204304831 0 -0.00076507751105380775 -0.0038871322296403828 0 -0.00072835760771085745 -0.0038741306682970799 0 -0.00075611790327211102 -0.0038720592616278073 0 -0.00073246663033560888 -0.0038809261204304831 0 -0.00069976497591361735 -0.0038817914580730373 0 -0.00073246663033560888 -0.0038809261204304831 0 -0.00072319150785030292 -0.0038910773674222525 0 -0.00073246663033560888 -0.0038809261204304831 0 -0.00076507751105380775 -0.0038871322296403828 0 -0.00072319150785030292 -0.0038910773674222525 0 -0.00076507751105380775 -0.0038871322296403828 0 -0.00075950675022207865 -0.0039115473759187801 0 -0.00072319150785030292 -0.0038910773674222525 0 -0.0006835895419676155 -0.0038888718952426148 0 -0.00072319150785030292 -0.0038910773674222525 0 -0.00071082813441609592 -0.0039153146179075875 0 -0.00075950675022207865 -0.0039115473759187801 0 -0.00072319150785030292 -0.0038910773674222525 0 -0.00071082813441609592 -0.0039153146179075875 0 -0.00075950675022207865 -0.0039115473759187801 0 -0.00071082813441609592 -0.0039153146179075875 0 -0.00076178589437453479 -0.00394899608787518 0 -0.00082969262760133444 -0.0034866005181494108 0 -0.00078203360972114338 -0.0034818717412381842 0 -0.00081925249305493815 -0.0035121686060514143 0 -0.00079778922663983356 -0.0037374844325713404 0 -0.00063297218391779439 -0.0037302846347728605 0 -0.00078230276337184677 -0.0039961715182588176 0 -0.00076178589437453479 -0.00394899608787518 0 -0.00070725844643684734 -0.0039871414311815432 0 -0.00071082813441609592 -0.0039153146179075875 0 -0.00076178589437453479 -0.00394899608787518 0 -0.00070725844643684734 -0.0039871414311815432 0 -0.00062652441001670456 -0.0038910317945613101 0 -0.00043290802969206404 -0.0037702361912099799 0 -0.00055634532390499405 -0.003783814637760083 0 -0.00062995206225866039 -0.0038992874657726609 0 -0.00063297218391779439 -0.0037302846347728605 0 -0.00062652441001670456 -0.0038910317945613101 0 -0.00071082813441609592 -0.0039153146179075875 0 -0.00070725844643684734 -0.0039871414311815432 0 -0.00057623170435961877 -0.0038027626558089912 0 -0.00055634532390499405 -0.003783814637760083 0 -0.00052919807349994 -0.003491115193989681 0 -0.00062652441001670456 -0.0038910317945613101 0 -0.00057623170435961877 -0.0038027626558089912 0 -0.00055634532390499405 -0.003783814637760083 0 -0.00062652441001670456 -0.0038910317945613101 0 -0.00062313955721531326 -0.0038396253530044852 0 -0.00057623170435961877 -0.0038027626558089912 0 -0.00062313955721531326 -0.0038396253530044852 0 -0.00057623170435961877 -0.0038027626558089912 0 -0.00061267812887687723 -0.0038002476421070586 0 -0.00059384397993240772 -0.0037442307720449482 0 -0.00057623170435961877 -0.0038027626558089912 0 -0.00061267812887687723 -0.0038002476421070586 0 -0.00063297218391779439 -0.0037302846347728605 0 -0.00051950905149758606 -0.003748294587099181 0 -0.00063873622388043556 -0.0036360112508735461 0 -0.00059384397993240772 -0.0037442307720449482 0 -0.00035350809242907149 -0.0036160550166989976 0 -0.00055413685449815875 -0.0037756956741378336 0 -0.00044578814623356852 -0.0035423319784259441 0 -0.00059384397993240772 -0.0037442307720449482 0 -0.00057623170435961877 -0.0038027626558089912 0 -0.00035350809242907149 -0.0036160550166989976 0 -0.00044922226243146034 -0.0037575151757628569 0 -0.00055634532390499405 -0.003783814637760083 0 -0.00052919807349994 -0.003491115193989681 0 -0.00044922226243146034 -0.0037575151757628569 0 -0.00052919807349994 -0.003491115193989681 0 -0.00028655778357192425 -0.0035818805693454366 0 -0.00027751178043600736 -0.0034402790044446865 0 -0.00052919807349994 -0.003491115193989681 0 -0.00028655778357192425 -0.0035818805693454366 0 -0.00063297218391779439 -0.0037302846347728605 0 -0.00052270877340418898 -0.0035124926883110192 0 -0.0020669442382960112 -0.0052002727061275294 0 -0.0019717794808452272 -0.0052357808874958318 0 -0.0020781555927339205 -0.0051968019183113237 0 -0.0020661427014974187 -0.0051880139274218546 0 -0.0020240001909844047 -0.0052645200759072527 0 -0.0020892612418770135 -0.0051845212158068525 0 -0.0020781555927339205 -0.0051968019183113237 0 -0.0020661427014974187 -0.0051880139274218546 0 -0.0020661427014974187 -0.0051880139274218546 0 -0.0020240001909844047 -0.0052645200759072527 0 -0.0020418800856966315 -0.0051739809287750967 0 -0.001988134283850362 -0.0052103803715703419 0 -0.0020240001909844047 -0.0052645200759072527 0 -0.0020418800856966315 -0.0051739809287750967 0 -0.001988134283850362 -0.0052103803715703419 0 -0.0020240001909844047 -0.0052645200759072527 0 -0.0019484005872676344 -0.0052714618835622666 0 -0.0019262715835841396 -0.0052039146120802125 0 -0.0020239644539781685 -0.0052788599827672048 0 -0.0018708859325195907 -0.005303956218055207 0 -0.0020781555927339205 -0.0051968019183113237 0 -0.0019262715835841396 -0.0052039146120802125 0 -0.0020239644539781685 -0.0052788599827672048 0 -0.0008089174152558458 -0.0038416879154853419 0 -0.00077147254795583819 -0.0038225541487479794 0 -0.00077132573721992704 -0.0038486704063617904 0 -0.00077147254795583819 -0.0038225541487479794 0 -0.00077132573721992704 -0.0038486704063617904 0 -0.00074484989681707439 -0.0038547352275180254 0 -0.00077132573721992704 -0.0038486704063617904 0 -0.00074989969015024885 -0.0038633413165900638 0 -0.00077893061650661859 -0.0038599694686781666 0 -0.00077132573721992704 -0.0038486704063617904 0 -0.00074989969015024885 -0.0038633413165900638 0 -0.00074484989681707439 -0.0038547352275180254 0 -0.00072835760771085745 -0.0038741306682970799 0 -0.00075611790327211102 -0.0038720592616278073 0 -0.00074989969015024885 -0.0038633413165900638 0 -0.00079198976078503739 -0.0038708151633342425 0 -0.00075611790327211102 -0.0038720592616278073 0 -0.00077893061650661859 -0.0038599694686781666 0 -0.00075611790327211102 -0.0038720592616278073 0 -0.00074989969015024885 -0.0038633413165900638 0 -0.00077893061650661859 -0.0038599694686781666 0 -0.0007103887136364138 -0.0038787304854395722 0 -0.00072899723013926864 -0.003868872702215709 0 -0.00071756248458496128 -0.0038773238345886068 0 -0.00070738710766326 -0.0038839138011250579 0 -0.0007103887136364138 -0.0038787304854395722 0 -0.00071756248458496128 -0.0038773238345886068 0 -0.00072835760771085745 -0.0038741306682970799 0 -0.00074989969015024885 -0.0038633413165900638 0 -0.00072899723013926864 -0.003868872702215709 0 -0.00072835760771085745 -0.0038741306682970799 0 -0.0007103887136364138 -0.0038787304854395722 0 -0.00072899723013926864 -0.003868872702215709 0 -0.00074989969015024885 -0.0038633413165900638 0 -0.00072899723013926864 -0.003868872702215709 0 -0.00074484989681707439 -0.0038547352275180254 0 -0.00072899723013926864 -0.003868872702215709 0 -0.00072719443111300165 -0.0038662133906380344 0 -0.00071756248458496128 -0.0038773238345886068 0 -0.00072719443111300165 -0.0038662133906380344 0 -0.00074484989681707439 -0.0038547352275180254 0 -0.00072734579986720427 -0.0038543908986397955 0 -0.00077147254795583819 -0.0038225541487479794 0 -0.00074484989681707439 -0.0038547352275180254 0 -0.00072734579986720427 -0.0038543908986397955 0 -0.0012879905474815286 -0.0045429221473942656 0 -0.0012959303893816051 -0.0045555881598878713 0 -0.00072719443111300165 -0.0038662133906380344 0 -0.00072734579986720427 -0.0038543908986397955 0 -0.00072126231255766375 -0.0038762605761095618 0 -0.00072899723013926864 -0.003868872702215709 0 -0.00072719443111300165 -0.0038662133906380344 0 -0.00074484989681707439 -0.0038547352275180254 0 -0.0012959303893816051 -0.0045555881598878713 0 -0.0014026017191948524 -0.0049513061763899312 0 -0.00072734579986720427 -0.0038543908986397955 0 -0.00072126231255766375 -0.0038762605761095618 0 -0.00072194559196610416 -0.003888084071789759 0 -0.0018708859325195907 -0.005303956218055207 0 -0.001746276246635477 -0.0052785111725273566 0 -0.0016965676975753835 -0.0053221180757682405 0 -0.001746276246635477 -0.0052785111725273566 0 -0.0017075789377559605 -0.0053004632743318351 0 -0.0017382238845810145 -0.0052462682208777346 0 -0.001558375285039955 -0.0051198301171981094 0 -0.0014026017191948524 -0.0049513061763899312 0 -0.00072126231255766375 -0.0038762605761095618 0 -0.00072176735086292238 -0.0038872297608676994 0 -0.00072194559196610416 -0.003888084071789759 0 -0.00072126231255766375 -0.0038762605761095618 0 -0.00071756248458496128 -0.0038773238345886068 0 -0.00071695436588755062 -0.0038846574733412578 0 -0.00072719443111300165 -0.0038662133906380344 0 -0.00072126231255766375 -0.0038762605761095618 0 -0.00071756248458496128 -0.0038773238345886068 0 -0.00071695436588755062 -0.0038846574733412578 0 -0.00072489618691278586 -0.0038901325142786476 0 -0.00072176735086292238 -0.0038872297608676994 0 -0.00072126231255766375 -0.0038762605761095618 0 -0.00071695436588755062 -0.0038846574733412578 0 -0.00072176735086292238 -0.0038872297608676994 0 -0.00070738710766326 -0.0038839138011250579 0 -0.00071829286838914947 -0.0038878160895982196 0 -0.00071695436588755062 -0.0038846574733412578 0 -0.00071829286838914947 -0.0038878160895982196 0 -0.00071695436588755062 -0.0038846574733412578 0 -0.00072489618691278586 -0.0038901325142786476 0 -0.00070738710766326 -0.0038839138011250579 0 -0.00071756248458496128 -0.0038773238345886068 0 -0.00071695436588755062 -0.0038846574733412578 0 -0.00075302261599763159 -0.0038872991842059429 0 -0.00073434794654524127 -0.0038907645051756063 0 -0.00074193421821826971 -0.0039004480172945459 0 -0.00072489618691278586 -0.0038901325142786476 0 -0.00072176735086292238 -0.0038872297608676994 0 -0.00074193421821826971 -0.0039004480172945459 0 -0.00073434794654524127 -0.0038907645051756063 0 -0.00072489618691278586 -0.0038901325142786476 0 -0.00074193421821826971 -0.0039004480172945459 0 -0.00073434794654524127 -0.0038907645051756063 0 -0.00071829286838914947 -0.0038878160895982196 0 -0.00072489618691278586 -0.0038901325142786476 0 -0.0014570940528659795 -0.0052623180409881957 0 -0.0015489726626418305 -0.0052464877242179245 0 -0.0015366349560870006 -0.0051840995629487052 0 -0.0017075789377559605 -0.0053004632743318351 0 -0.0016677563023600212 -0.0052790781352191115 0 -0.0016161827830450269 -0.0052803607559454057 0 -0.0014026017191948524 -0.0049513061763899312 0 -0.0016079875540022796 -0.0052531797867675072 0 -0.00072176735086292238 -0.0038872297608676994 0 -0.00072194559196610416 -0.003888084071789759 0 -0.00074193421821826971 -0.0039004480172945459 0 -0.0018111295367532285 -0.0052919029119799293 0 -0.0016955665985729123 -0.0053488736446308345 0 -0.0016677563023600212 -0.0052790781352191115 0 -0.0017382238845810145 -0.0052462682208777346 0 -0.0016125719849802271 -0.0052766403237529029 0 -0.0014026017191948524 -0.0049513061763899312 0 -0.001132937213353226 -0.0045195776921224413 0 -0.0017075789377559605 -0.0053004632743318351 0 -0.0016677563023600212 -0.0052790781352191115 0 -0.0017382238845810145 -0.0052462682208777346 0 -0.0018088935401134368 -0.0053446879843630415 0 -0.0017644994429146406 -0.005356287073247974 0 -0.0017325739641556887 -0.0053981008923261178 0 -0.0018088935401134368 -0.0053446879843630415 0 -0.0017735756025166589 -0.0053216919018699137 0 -0.0017644994429146406 -0.005356287073247974 0 -0.0018088935401134368 -0.0053446879843630415 0 -0.0018942510814531468 -0.0053389116719679578 0 -0.0017325739641556887 -0.0053981008923261178 0 -0.0018088935401134368 -0.0053446879843630415 0 -0.00182346515576812 -0.00531633613932976 0 -0.0017735756025166589 -0.0053216919018699137 0 -0.0017735756025166589 -0.0053216919018699137 0 -0.0018147101688692721 -0.0052757593885567021 0 -0.0017569659451847088 -0.0052656703021574615 0 -0.00182346515576812 -0.00531633613932976 0 -0.0017735756025166589 -0.0053216919018699137 0 -0.0018147101688692721 -0.0052757593885567021 0 -0.0018147101688692721 -0.0052757593885567021 0 -0.0018620599467513226 -0.0053016266367102048 0 -0.0018709871911008992 -0.0052528502626755513 0 -0.0018620599467513226 -0.0053016266367102048 0 -0.001893735493379037 -0.0052901093594777439 0 -0.0018709871911008992 -0.0052528502626755513 0 -0.00182346515576812 -0.00531633613932976 0 -0.0018147101688692721 -0.0052757593885567021 0 -0.0018620599467513226 -0.0053016266367102048 0 -0.0018620599467513226 -0.0053016266367102048 0 -0.001848753573307342 -0.0053264371683520032 0 -0.0018942510814531468 -0.0053389116719679578 0 -0.0018088935401134368 -0.0053446879843630415 0 -0.001848753573307342 -0.0053264371683520032 0 -0.0018942510814531468 -0.0053389116719679578 0 -0.0018088935401134368 -0.0053446879843630415 0 -0.00182346515576812 -0.00531633613932976 0 -0.001848753573307342 -0.0053264371683520032 0 -0.00182346515576812 -0.00531633613932976 0 -0.0018620599467513226 -0.0053016266367102048 0 -0.001848753573307342 -0.0053264371683520032 0 -0.0019262715835841396 -0.0052039146120802125 0 -0.0018708859325195907 -0.005303956218055207 0 -0.0017382238845810145 -0.0052462682208777346 0 -0.0020240001909844047 -0.0052645200759072527 0 -0.0018942510814531468 -0.0053389116719679578 0 -0.0019484005872676344 -0.0052714618835622666 0 -0.0018708859325195907 -0.005303956218055207 0 -0.001746276246635477 -0.0052785111725273566 0 -0.0017382238845810145 -0.0052462682208777346 0 -0.0019717794808452272 -0.0052357808874958318 0 -0.0018111295367532285 -0.0052919029119799293 0 -0.0018942510814531468 -0.0053389116719679578 0 -0.0019484005872676344 -0.0052714618835622666 0 -0.001893735493379037 -0.0052901093594777439 0 -0.0019484005872676344 -0.0052714618835622666 0 -0.001893735493379037 -0.0052901093594777439 0 -0.0018709871911008992 -0.0052528502626755513 0 -0.0018620599467513226 -0.0053016266367102048 0 -0.0018942510814531468 -0.0053389116719679578 0 -0.001893735493379037 -0.0052901093594777439 0 -0.0019484005872676344 -0.0052714618835622666 0 -0.0019227439563339853 -0.0052036431778771392 0 -0.0018709871911008992 -0.0052528502626755513 0 -0.001988134283850362 -0.0052103803715703419 0 -0.0019484005872676344 -0.0052714618835622666 0 -0.0019227439563339853 -0.0052036431778771392 0 -0.0018020642434835978 -0.005239595125818358 0 -0.0018709871911008992 -0.0052528502626755513 0 -0.0018240495233627927 -0.0051907637771364057 0 -0.0019227439563339853 -0.0052036431778771392 0 -0.0018709871911008992 -0.0052528502626755513 0 -0.0018240495233627927 -0.0051907637771364057 0 -0.0018020642434835978 -0.005239595125818358 0 -0.0017388686897550319 -0.0052151846513844484 0 -0.0018240495233627927 -0.0051907637771364057 0 -0.0018147101688692721 -0.0052757593885567021 0 -0.0018020642434835978 -0.005239595125818358 0 -0.0017569659451847088 -0.0052656703021574615 0 -0.0018147101688692721 -0.0052757593885567021 0 -0.0018020642434835978 -0.005239595125818358 0 -0.0018709871911008992 -0.0052528502626755513 0 -0.0016533248254713897 -0.0052141085784106278 0 -0.0017388686897550319 -0.0052151846513844484 0 -0.0016798783753820062 -0.0052581476189355212 0 -0.0018020642434835978 -0.005239595125818358 0 -0.0017388686897550319 -0.0052151846513844484 0 -0.0017569659451847088 -0.0052656703021574615 0 -0.0017388686897550319 -0.0052151846513844484 0 -0.0016798783753820062 -0.0052581476189355212 0 -0.0017569659451847088 -0.0052656703021574615 0 -0.0017388686897550319 -0.0052151846513844484 0 -0.0017030105881760864 -0.0051715527938812735 0 -0.0018240495233627927 -0.0051907637771364057 0 -0.0016533248254713897 -0.0052141085784106278 0 -0.0017388686897550319 -0.0052151846513844484 0 -0.0017030105881760864 -0.0051715527938812735 0 -0.0016533248254713897 -0.0052141085784106278 0 -0.0015478650851370912 -0.0051729831877239249 0 -0.0017030105881760864 -0.0051715527938812735 0 -0.0016533248254713897 -0.0052141085784106278 0 -0.0015478650851370912 -0.0051729831877239249 0 -0.0015938812911606591 -0.0052613870808329135 0 -0.0015938812911606591 -0.0052613870808329135 0 -0.001594159849787342 -0.0053657808594454858 0 -0.0013741085612605348 -0.0051885010948558644 0 -0.0015478650851370912 -0.0051729831877239249 0 -0.0015938812911606591 -0.0052613870808329135 0 -0.0013741085612605348 -0.0051885010948558644 0 -0.0015938812911606591 -0.0052613870808329135 0 -0.0016725808525414473 -0.0053439738670591503 0 -0.001594159849787342 -0.0053657808594454858 0 -0.0015938812911606591 -0.0052613870808329135 0 -0.0016725808525414473 -0.0053439738670591503 0 -0.001667260946573462 -0.0052918162641773106 0 -0.0016725808525414473 -0.0053439738670591503 0 -0.001667260946573462 -0.0052918162641773106 0 -0.0017190579909230981 -0.005308244372210477 0 -0.0015938812911606591 -0.0052613870808329135 0 -0.001667260946573462 -0.0052918162641773106 0 -0.0016798783753820062 -0.0052581476189355212 0 -0.0016533248254713897 -0.0052141085784106278 0 -0.0015938812911606591 -0.0052613870808329135 0 -0.0016798783753820062 -0.0052581476189355212 0 -0.001667260946573462 -0.0052918162641773106 0 -0.0016798783753820062 -0.0052581476189355212 0 -0.0017190579909230981 -0.005308244372210477 0 -0.0016798783753820062 -0.0052581476189355212 0 -0.0017569659451847088 -0.0052656703021574615 0 -0.0017190579909230981 -0.005308244372210477 0 -0.0017735756025166589 -0.0053216919018699137 0 -0.0017569659451847088 -0.0052656703021574615 0 -0.0017190579909230981 -0.005308244372210477 0 -0.0017735756025166589 -0.0053216919018699137 0 -0.0017190579909230981 -0.005308244372210477 0 -0.0017330597395332345 -0.0053452033202162474 0 -0.0016725808525414473 -0.0053439738670591503 0 -0.0017190579909230981 -0.005308244372210477 0 -0.0017330597395332345 -0.0053452033202162474 0 -0.0017735756025166589 -0.0053216919018699137 0 -0.0017330597395332345 -0.0053452033202162474 0 -0.0017644994429146406 -0.005356287073247974 0 -0.0015489726626418305 -0.0052464877242179245 0 -0.0015888201984562648 -0.0052024290969165951 0 -0.0016454609232436632 -0.0052316310332912374 0 -0.0016677563023600212 -0.0052790781352191115 0 -0.0016125719849802271 -0.0052766403237529029 0 -0.0016161827830450269 -0.0052803607559454057 0 -0.0017330597395332345 -0.0053452033202162474 0 -0.0017644994429146406 -0.005356287073247974 0 -0.0017325739641556887 -0.0053981008923261178 0 -0.0016079875540022796 -0.0052531797867675072 0 -0.0016349542901022123 -0.0052400961106451489 0 -0.0016125719849802271 -0.0052766403237529029 0 -0.0016161827830450269 -0.0052803607559454057 0 -0.0016454609232436632 -0.0052316310332912374 0 -0.0016725808525414473 -0.0053439738670591503 0 -0.0017330597395332345 -0.0053452033202162474 0 -0.0017325739641556887 -0.0053981008923261178 0 -0.0016725808525414473 -0.0053439738670591503 0 -0.0017325739641556887 -0.0053981008923261178 0 -0.001594159849787342 -0.0053657808594454858 0 -0.001617449957790071 -0.005102516883276109 0 -0.0015888201984562648 -0.0052024290969165951 0 -0.0016454609232436632 -0.0052316310332912374 0 -0.001617449957790071 -0.005102516883276109 0 -0.0015366349560870006 -0.0051840995629487052 0 -0.0015888201984562648 -0.0052024290969165951 0 -0.0015489726626418305 -0.0052464877242179245 0 -0.0015366349560870006 -0.0051840995629487052 0 -0.0015888201984562648 -0.0052024290969165951 0 -0.0011296108338401112 -0.0044339562799903288 0 -0.001132937213353226 -0.0045195776921224413 0 -0.0010870977774493659 -0.0047834241298646092 0 -0.0011705564007670726 -0.0048341750051409159 0 -0.0011716791646899465 -0.0049389265934889201 0 -0.001617449957790071 -0.005102516883276109 0 -0.0016454609232436632 -0.0052316310332912374 0 -0.001670666088796863 -0.0052254816381449177 0 -0.0011296108338401112 -0.0044339562799903288 0 -0.0014481342926307549 -0.0052146497474224651 0 -0.0011705564007670726 -0.0048341750051409159 0 -0.0011716791646899465 -0.0049389265934889201 0 -0.0012194218565106238 -0.0049200536074055379 0 -0.0014481342926307549 -0.0052146497474224651 0 -0.0013042641677543394 -0.0051303513183693292 0 -0.0017325739641556887 -0.0053981008923261178 0 -0.0015097553168293895 -0.0054945644269256064 0 -0.001594159849787342 -0.0053657808594454858 0 -0.0016125719849802271 -0.0052766403237529029 0 -0.0016454609232436632 -0.0052316310332912374 0 -0.001670666088796863 -0.0052254816381449177 0 -0.0016955665985729123 -0.0053488736446308345 0 -0.0014481342926307549 -0.0052146497474224651 0 -0.0015097553168293895 -0.0054945644269256064 0 -0.001594159849787342 -0.0053657808594454858 0 -0.0013741085612605348 -0.0051885010948558644 0 -0.0011479139527180188 -0.004949196833670612 0 -0.0013217527599285997 -0.0050189629502875423 0 -0.0013741085612605348 -0.0051885010948558644 0 -0.0013217527599285997 -0.0050189629502875423 0 -0.0013833386039819766 -0.0050632026477749172 0 -0.0013741085612605348 -0.0051885010948558644 0 -0.0014481342926307549 -0.0052146497474224651 0 -0.0013325145023161777 -0.0051836828131804008 0 -0.0011479139527180188 -0.004949196833670612 0 -0.0013217527599285997 -0.0050189629502875423 0 -0.0012194218565106238 -0.0049200536074055379 0 -0.0013217527599285997 -0.0050189629502875423 0 -0.0012194218565106238 -0.0049200536074055379 0 -0.0013002992370279172 -0.0048695703757366069 0 -0.0012194218565106238 -0.0049200536074055379 0 -0.0013002992370279172 -0.0048695703757366069 0 -0.0012340583901867359 -0.0048529000342239868 0 -0.0012459533582006902 -0.0047893068957452489 0 -0.0013002992370279172 -0.0048695703757366069 0 -0.0012340583901867359 -0.0048529000342239868 0 -0.0011705564007670726 -0.0048341750051409159 0 -0.0012194218565106238 -0.0049200536074055379 0 -0.0012340583901867359 -0.0048529000342239868 0 -0.0012459533582006902 -0.0047893068957452489 0 -0.0011705564007670726 -0.0048341750051409159 0 -0.0012340583901867359 -0.0048529000342239868 0 -0.0013425127846392808 -0.0047901369133662771 0 -0.0013002992370279172 -0.0048695703757366069 0 -0.0013825252632081362 -0.0048612363209547755 0 -0.0013002992370279172 -0.0048695703757366069 0 -0.0013576115887444942 -0.0049523800562975683 0 -0.0013825252632081362 -0.0048612363209547755 0 -0.0013576115887444942 -0.0049523800562975683 0 -0.0013833386039819766 -0.0050632026477749172 0 -0.0014188395461996216 -0.0049239498177264 0 -0.0013217527599285997 -0.0050189629502875423 0 -0.0013002992370279172 -0.0048695703757366069 0 -0.0013576115887444942 -0.0049523800562975683 0 -0.0013217527599285997 -0.0050189629502875423 0 -0.0013576115887444942 -0.0049523800562975683 0 -0.0013833386039819766 -0.0050632026477749172 0 -0.0013833386039819766 -0.0050632026477749172 0 -0.001392625467409032 -0.0051295535763522231 0 -0.0014088259180842673 -0.0050574422702882585 0 -0.0013833386039819766 -0.0050632026477749172 0 -0.0013741085612605348 -0.0051885010948558644 0 -0.001392625467409032 -0.0051295535763522231 0 -0.0015478650851370912 -0.0051729831877239249 0 -0.0013741085612605348 -0.0051885010948558644 0 -0.0014325460430286634 -0.0051506740445490858 0 -0.0013741085612605348 -0.0051885010948558644 0 -0.001392625467409032 -0.0051295535763522231 0 -0.0014325460430286634 -0.0051506740445490858 0 -0.001392625467409032 -0.0051295535763522231 0 -0.0014325460430286634 -0.0051506740445490858 0 -0.0013941433075424191 -0.005132175946617178 0 -0.0014325460430286634 -0.0051506740445490858 0 -0.0014171449896699297 -0.0051275678871610351 0 -0.0013941433075424191 -0.005132175946617178 0 -0.0014325460430286634 -0.0051506740445490858 0 -0.0015138451627634297 -0.0051289117539649494 0 -0.0014171449896699297 -0.0051275678871610351 0 -0.0015478650851370912 -0.0051729831877239249 0 -0.0014325460430286634 -0.0051506740445490858 0 -0.0015138451627634297 -0.0051289117539649494 0 -0.0015138451627634297 -0.0051289117539649494 0 -0.0014171449896699297 -0.0051275678871610351 0 -0.0014065331216812456 -0.005103488577215291 0 -0.0015138451627634297 -0.0051289117539649494 0 -0.0014065331216812456 -0.005103488577215291 0 -0.0015949911328129922 -0.0050797199000559932 0 -0.0014171449896699297 -0.0051275678871610351 0 -0.0014065331216812456 -0.005103488577215291 0 -0.001360036363236024 -0.0051157310135948788 0 -0.0014065331216812456 -0.005103488577215291 0 -0.001455508793624992 -0.0049999790739812585 0 -0.0013095708498868156 -0.005083794856933904 0 -0.001455508793624992 -0.0049999790739812585 0 -0.0013095708498868156 -0.005083794856933904 0 -0.0011994054423319007 -0.0049999851828883375 0 -0.0014065331216812456 -0.005103488577215291 0 -0.001455508793624992 -0.0049999790739812585 0 -0.0015462082127232915 -0.005118567068428277 0 -0.0014247354087782043 -0.005099312406151588 0 -0.0015639368740025077 -0.0050559586956289973 0 -0.0014065331216812456 -0.005103488577215291 0 -0.0015726146102779867 -0.0049893082742656827 0 -0.0015949911328129922 -0.0050797199000559932 0 -0.0015726146102779867 -0.0049893082742656827 0 -0.0017314011046448633 -0.0050359866536902618 0 -0.0015949911328129922 -0.0050797199000559932 0 -0.0015726146102779867 -0.0049893082742656827 0 -0.0017689583416628594 -0.0049557044372792475 0 -0.0017314011046448633 -0.0050359866536902618 0 -0.0017314011046448633 -0.0050359866536902618 0 -0.001723731275138897 -0.0050856395806715407 0 -0.0015949911328129922 -0.0050797199000559932 0 -0.0015639368740025077 -0.0050559586956289973 0 -0.0017614086377353815 -0.0050221563130276193 0 -0.001455508793624992 -0.0049999790739812585 0 -0.0015462082127232915 -0.005118567068428277 0 -0.0017123036684941095 -0.0049999724799309562 0 -0.0015462082127232915 -0.005118567068428277 0 -0.0017123036684941095 -0.0049999724799309562 0 -0.0017620289026518796 -0.0050820189793181749 0 -0.0017614086377353815 -0.0050221563130276193 0 -0.00196892662145075 -0.0049999987723910143 0 -0.0017123036684941095 -0.0049999724799309562 0 -0.0017620289026518796 -0.0050820189793181749 0 -0.0019689895616555294 -0.005000008549306276 0 -0.0017689583416628594 -0.0049557044372792475 0 -0.0017314011046448633 -0.0050359866536902618 0 -0.001866687579403962 -0.0050380339310818799 0 -0.0017314011046448633 -0.0050359866536902618 0 -0.0018190053178334419 -0.0050835410422387572 0 -0.001723731275138897 -0.0050856395806715407 0 -0.0017314011046448633 -0.0050359866536902618 0 -0.0018190053178334419 -0.0050835410422387572 0 -0.001866687579403962 -0.0050380339310818799 0 -0.001723731275138897 -0.0050856395806715407 0 -0.0016445169330946106 -0.0051281174841089098 0 -0.0018088042638160628 -0.0051259942476465587 0 -0.0018190053178334419 -0.0050835410422387572 0 -0.001723731275138897 -0.0050856395806715407 0 -0.0018088042638160628 -0.0051259942476465587 0 -0.0015138451627634297 -0.0051289117539649494 0 -0.0015949911328129922 -0.0050797199000559932 0 -0.0016445169330946106 -0.0051281174841089098 0 -0.001723731275138897 -0.0050856395806715407 0 -0.0015949911328129922 -0.0050797199000559932 0 -0.0016445169330946106 -0.0051281174841089098 0 -0.0015478650851370912 -0.0051729831877239249 0 -0.0015138451627634297 -0.0051289117539649494 0 -0.0016445169330946106 -0.0051281174841089098 0 -0.0015478650851370912 -0.0051729831877239249 0 -0.0016445169330946106 -0.0051281174841089098 0 -0.0017030105881760864 -0.0051715527938812735 0 -0.0016445169330946106 -0.0051281174841089098 0 -0.0017030105881760864 -0.0051715527938812735 0 -0.0018088042638160628 -0.0051259942476465587 0 -0.0017030105881760864 -0.0051715527938812735 0 -0.0018240495233627927 -0.0051907637771364057 0 -0.0018088042638160628 -0.0051259942476465587 0 -0.0018949659566166171 -0.0051502430466276988 0 -0.0018240495233627927 -0.0051907637771364057 0 -0.0018088042638160628 -0.0051259942476465587 0 -0.0019227439563339853 -0.0052036431778771392 0 -0.0018949659566166171 -0.0051502430466276988 0 -0.0018240495233627927 -0.0051907637771364057 0 -0.001988134283850362 -0.0052103803715703419 0 -0.0019227439563339853 -0.0052036431778771392 0 -0.0019912664484512612 -0.0051434274251281574 0 -0.0019227439563339853 -0.0052036431778771392 0 -0.0018949659566166171 -0.0051502430466276988 0 -0.0019912664484512612 -0.0051434274251281574 0 -0.0018949659566166171 -0.0051502430466276988 0 -0.0019912664484512612 -0.0051434274251281574 0 -0.0019208799326033451 -0.0050931510190952919 0 -0.0019912664484512612 -0.0051434274251281574 0 -0.0019208799326033451 -0.0050931510190952919 0 -0.0020308318477966895 -0.0050929023667139837 0 -0.0018949659566166171 -0.0051502430466276988 0 -0.0019208799326033451 -0.0050931510190952919 0 -0.0018088042638160628 -0.0051259942476465587 0 -0.0018190053178334419 -0.0050835410422387572 0 -0.0019208799326033451 -0.0050931510190952919 0 -0.0018088042638160628 -0.0051259942476465587 0 -0.0019208799326033451 -0.0050931510190952919 0 -0.001866687579403962 -0.0050380339310818799 0 -0.002049195445706988 -0.0050555922497044683 0 -0.0018190053178334419 -0.0050835410422387572 0 -0.0019208799326033451 -0.0050931510190952919 0 -0.001866687579403962 -0.0050380339310818799 0 -0.001866687579403962 -0.0050380339310818799 0 -0.0019691244168458834 -0.0049997156626745273 0 -0.002049195445706988 -0.0050555922497044683 0 -0.0017689583416628594 -0.0049557044372792475 0 -0.001866687579403962 -0.0050380339310818799 0 -0.0019691244168458834 -0.0049997156626745273 0 -0.0019691244168458834 -0.0049997156626745273 0 -0.002049195445706988 -0.0050555922497044683 0 -0.0022421667309243864 -0.0050000491890641527 0 -0.0019208799326033451 -0.0050931510190952919 0 -0.002049195445706988 -0.0050555922497044683 0 -0.0020308318477966895 -0.0050929023667139837 0 -0.0020308318477966895 -0.0050929023667139837 0 -0.0021190205078203384 -0.0050735152094346083 0 -0.0020636635315430247 -0.0051165710327366479 0 -0.002049195445706988 -0.0050555922497044683 0 -0.0020308318477966895 -0.0050929023667139837 0 -0.0021190205078203384 -0.0050735152094346083 0 -0.0023341307074508256 -0.0051458934676943974 0 -0.0023040031030910637 -0.0050194652053220743 0 -0.0022426952644567151 -0.0050000110679379846 0 -0.002049195445706988 -0.0050555922497044683 0 -0.0021190205078203384 -0.0050735152094346083 0 -0.0022421667309243864 -0.0050000491890641527 0 -0.0022284112179858555 -0.0051038744569872514 0 -0.0022426381714221312 -0.0049999966429937195 0 -0.0023341307074508256 -0.0051458934676943974 0 -0.0023040031030910637 -0.0050194652053220743 0 -0.0023959223988426403 -0.0051472658962498615 0 -0.0025006598422908817 -0.004999973207824953 0 -0.0023040031030910637 -0.0050194652053220743 0 -0.0024655800628406652 -0.005082612424458335 0 -0.0023040031030910637 -0.0050194652053220743 0 -0.0024655800628406652 -0.005082612424458335 0 -0.0024803875775574083 -0.0051986622280208675 0 -0.0023137627275626803 -0.0050278379262312239 0 -0.0024336813316298634 -0.0051662036116242611 0 -0.0025006598422908817 -0.004999973207824953 0 -0.0023040031030910637 -0.0050194652053220743 0 -0.0022426952644567151 -0.0050000110679379846 0 -0.0025755670381850488 -0.005112595505033425 0 -0.0024655800628406652 -0.005082612424458335 0 -0.0024803875775574083 -0.0051986622280208675 0 -0.0023341307074508256 -0.0051458934676943974 0 -0.0023959223988426403 -0.0051472658962498615 0 -0.0023906008878413791 -0.0052359565578790112 0 -0.0020889533834688688 -0.0051367648168213391 0 -0.0020636635315430247 -0.0051165710327366479 0 -0.0020418800856966315 -0.0051739809287750967 0 -0.0022284112179858555 -0.0051038744569872514 0 -0.0022312324262454991 -0.0051653157470541548 0 -0.002454625540486591 -0.0052283201329162022 0 -0.0023959223988426403 -0.0051472658962498615 0 -0.0023906008878413791 -0.0052359565578790112 0 -0.0021190205078203384 -0.0050735152094346083 0 -0.0020889533834688688 -0.0051367648168213391 0 -0.0020636635315430247 -0.0051165710327366479 0 -0.0019912664484512612 -0.0051434274251281574 0 -0.0020308318477966895 -0.0050929023667139837 0 -0.0020636635315430247 -0.0051165710327366479 0 -0.0019912664484512612 -0.0051434274251281574 0 -0.0020636635315430247 -0.0051165710327366479 0 -0.0020418800856966315 -0.0051739809287750967 0 -0.001988134283850362 -0.0052103803715703419 0 -0.0019912664484512612 -0.0051434274251281574 0 -0.0020418800856966315 -0.0051739809287750967 0 -0.0023002029163002795 -0.0053370089257950056 0 -0.0022312324262454991 -0.0051653157470541548 0 -0.0020892612418770135 -0.0051845212158068525 0 -0.0020661427014974187 -0.0051880139274218546 0 -0.0020889533834688688 -0.0051367648168213391 0 -0.0020661427014974187 -0.0051880139274218546 0 -0.0020889533834688688 -0.0051367648168213391 0 -0.0020418800856966315 -0.0051739809287750967 0 6.7182276282605377e-05 -0.0046583746141649254 0 0.0002679992709476236 -0.004752314122148554 0 2.6607590157932178e-05 -0.0049201547685163794 0 -0.00014671894060710699 -0.0047176863673682587 0 6.7182276282605377e-05 -0.0046583746141649254 0 2.6607590157932178e-05 -0.0049201547685163794 0 -0.00092123418377676447 -0.0048679959330439693 0 -0.00087988688267684652 -0.0049347998348849131 0 -0.0016915968902313473 -0.0050713488396849707 0 -0.0018075056220369229 -0.0049356784571289577 0 -0.0016635694454376663 -0.0049481350898877207 0 -0.00014671894060710699 -0.0047176863673682587 0 6.7182276282605377e-05 -0.0046583746141649254 0 -4.2469138927990859e-05 -0.0045159288495591806 0 -0.00014671894060710699 -0.0047176863673682587 0 -0.00032073359537528143 -0.0045125656875211221 0 -4.2469138927990859e-05 -0.0045159288495591806 0 6.7182276282605377e-05 -0.0046583746141649254 0 0.00023601701871201199 -0.0045903606861330305 0 0.00010346103327073727 -0.0044641853804141427 0 0.00023601701871201199 -0.0045903606861330305 0 0.00051438820455357239 -0.0046394526517166707 0 0.0002679992709476236 -0.004752314122148554 0 0.00023601701871201199 -0.0045903606861330305 0 0.00051438820455357239 -0.0046394526517166707 0 0.00022715444744039577 -0.0044366587020716131 0 6.7182276282605377e-05 -0.0046583746141649254 0 0.00023601701871201199 -0.0045903606861330305 0 0.0002679992709476236 -0.004752314122148554 0 0.00051438820455357239 -0.0046394526517166707 0 0.00050592056638292123 -0.0048253729199503178 0 0.0002679992709476236 -0.004752314122148554 0 0.00050592056638292123 -0.0048253729199503178 0 0.0002679992709476236 -0.004752314122148554 0 0.00034147928140986801 -0.0049520483165334658 0 0.0002679992709476236 -0.004752314122148554 0 0.00034147928140986801 -0.0049520483165334658 0 2.6607590157932178e-05 -0.0049201547685163794 0 0.00034147928140986801 -0.0049520483165334658 0 0.00047761622465998255 -0.0051533788224368809 0 0.00019864454663813996 -0.0051244017507538955 0 0.00034147928140986801 -0.0049520483165334658 0 0.00019864454663813996 -0.0051244017507538955 0 2.6607590157932178e-05 -0.0049201547685163794 0 0.00034147928140986801 -0.0049520483165334658 0 0.00047761622465998255 -0.0051533788224368809 0 0.00059580426986282286 -0.0049555501635380654 0 0.00050592056638292123 -0.0048253729199503178 0 0.00034147928140986801 -0.0049520483165334658 0 0.00059580426986282286 -0.0049555501635380654 0 0.00053267390335443976 -0.0051091935251248001 0 0.00059556418413245584 -0.0049637201744779109 0 -0.00022857875913330066 -0.0047236244396630907 0 0.00053267390335443976 -0.0051091935251248001 0 0.00036933514537458589 -0.0053328595722522939 0 0.00047761622465998255 -0.0051533788224368809 0 0.00019864454663813996 -0.0051244017507538955 0 -0.00022857875913330066 -0.0047236244396630907 0 -0.00093584723443160647 -0.0049518043228201584 0 -0.0017599091998035828 -0.0046510387723689671 0 -0.0019300081176657066 -0.0047762633416275979 0 -0.0016999889985838831 -0.0048243297809028854 0 -0.00093584723443160647 -0.0049518043228201584 0 -0.00087988688267684652 -0.0049347998348849131 0 -0.0019300081176657066 -0.0047762633416275979 0 -0.0018075056220369229 -0.0049356784571289577 0 -0.0016999889985838831 -0.0048243297809028854 0 -0.0018075056220369229 -0.0049356784571289577 0 -0.0016999889985838831 -0.0048243297809028854 0 -0.0016635694454376663 -0.0049481350898877207 0 -0.0017599091998035828 -0.0046510387723689671 0 -0.0016999889985838831 -0.0048243297809028854 0 -0.0016294786189486245 -0.004688970691151817 0 -0.0016999889985838831 -0.0048243297809028854 0 -0.0016294786189486245 -0.004688970691151817 0 -0.0015670860566213381 -0.004870119862831623 0 -0.0015073302241165279 -0.0047220967589135261 0 -0.0016294786189486245 -0.004688970691151817 0 -0.0015670860566213381 -0.004870119862831623 0 -0.0015073302241165279 -0.0047220967589135261 0 -0.0015670860566213381 -0.004870119862831623 0 -0.0014749267177515848 -0.0048553201040651937 0 -0.0015670860566213381 -0.004870119862831623 0 -0.0014749267177515848 -0.0048553201040651937 0 -0.001459669118701036 -0.0050004434020325759 0 -0.0016999889985838831 -0.0048243297809028854 0 -0.0015670860566213381 -0.004870119862831623 0 -0.0016635694454376663 -0.0049481350898877207 0 -0.0015670860566213381 -0.004870119862831623 0 -0.0015634033230339406 -0.0050299716704056323 0 -0.0016635694454376663 -0.0049481350898877207 0 -0.0013576115887444942 -0.0049523800562975683 0 -0.0013825252632081362 -0.0048612363209547755 0 -0.0014188395461996216 -0.0049239498177264 0 -0.001431671309727869 -0.0047498099565038343 0 -0.0013825252632081362 -0.0048612363209547755 0 -0.0014188395461996216 -0.0049239498177264 0 -0.001431671309727869 -0.0047498099565038343 0 -0.0015073302241165279 -0.0047220967589135261 0 -0.0014749267177515848 -0.0048553201040651937 0 -0.001431671309727869 -0.0047498099565038343 0 -0.0014749267177515848 -0.0048553201040651937 0 -0.0014188395461996216 -0.0049239498177264 0 -0.0014749267177515848 -0.0048553201040651937 0 -0.0014188395461996216 -0.0049239498177264 0 -0.001459669118701036 -0.0050004434020325759 0 -0.0014188395461996216 -0.0049239498177264 0 -0.0014088259180842673 -0.0050574422702882585 0 -0.001459669118701036 -0.0050004434020325759 0 -0.0013833386039819766 -0.0050632026477749172 0 -0.0014188395461996216 -0.0049239498177264 0 -0.0014088259180842673 -0.0050574422702882585 0 -0.0014088259180842673 -0.0050574422702882585 0 -0.001459669118701036 -0.0050004434020325759 0 -0.0014074575304738989 -0.0051114007770079366 0 -0.0014074575304738989 -0.0051114007770079366 0 -0.0014481895125336493 -0.0051044861215427881 0 -0.00139677732571935 -0.0051205128906605044 0 -0.001459669118701036 -0.0050004434020325759 0 -0.0014074575304738989 -0.0051114007770079366 0 -0.0014481895125336493 -0.0051044861215427881 0 -0.001392625467409032 -0.0051295535763522231 0 -0.0014074575304738989 -0.0051114007770079366 0 -0.0013941433075424191 -0.005132175946617178 0 -0.001392625467409032 -0.0051295535763522231 0 -0.0014088259180842673 -0.0050574422702882585 0 -0.0014074575304738989 -0.0051114007770079366 0 -0.0016915968902313473 -0.0050713488396849707 0 -0.0015634033230339406 -0.0050299716704056323 0 -0.0016635694454376663 -0.0049481350898877207 0 -0.001459669118701036 -0.0050004434020325759 0 -0.0015634033230339406 -0.0050299716704056323 0 -0.0014481895125336493 -0.0051044861215427881 0 -0.0015670860566213381 -0.004870119862831623 0 -0.001459669118701036 -0.0050004434020325759 0 -0.0015634033230339406 -0.0050299716704056323 0 -0.0015634033230339406 -0.0050299716704056323 0 -0.0014481895125336493 -0.0051044861215427881 0 -0.0015866411631618278 -0.0051952586449178877 0 -0.0016201339249809414 -0.0051854003872552987 0 -0.0010344225808064367 -0.0050345394840817575 0 -0.00092123418377676447 -0.0048679959330439693 0 -0.0010344225808064367 -0.0050345394840817575 0 -0.0016915968902313473 -0.0050713488396849707 0 -0.0015634033230339406 -0.0050299716704056323 0 -0.0015866411631618278 -0.0051952586449178877 0 -0.00073255228265569304 -0.0055584100081501027 0 -0.00071428283021931615 -0.005374917776507785 0 -0.00059123219883361821 -0.0054728787378534706 0 -0.0010344225808064367 -0.0050345394840817575 0 -0.00027371417686117766 -0.0048781193406422039 0 -0.0014159785031026366 -0.0051147574965313058 0 -0.0014157014478047702 -0.0051152487914849177 0 -0.0013924108770799583 -0.0051194535317521219 0 -0.0014481895125336493 -0.0051044861215427881 0 -0.0014159785031026366 -0.0051147574965313058 0 -0.0014157014478047702 -0.0051152487914849177 0 -0.0010344225808064367 -0.0050345394840817575 0 -0.0011276271222489379 -0.0052961670531958523 0 -0.00088482739731760322 -0.0053767523526342753 0 -0.00071428283021931615 -0.005374917776507785 0 -0.00076214540504986582 -0.0051838394634688024 0 -0.00073255228265569304 -0.0055584100081501027 0 -0.00088482739731760322 -0.0053767523526342753 0 -0.00071428283021931615 -0.005374917776507785 0 -0.0013941433075424191 -0.005132175946617178 0 -0.00139677732571935 -0.0051205128906605044 0 -0.001360036363236024 -0.0051157310135948788 0 -0.0014074575304738989 -0.0051114007770079366 0 -0.0013941433075424191 -0.005132175946617178 0 -0.00139677732571935 -0.0051205128906605044 0 -0.0014157014478047702 -0.0051152487914849177 0 -0.0013924108770799583 -0.0051194535317521219 0 -0.00139677732571935 -0.0051205128906605044 0 -0.0014481895125336493 -0.0051044861215427881 0 -0.0014157014478047702 -0.0051152487914849177 0 -0.00139677732571935 -0.0051205128906605044 0 -0.0013924108770799583 -0.0051194535317521219 0 -0.001360036363236024 -0.0051157310135948788 0 -0.0013277353400433553 -0.0051024592214447004 0 -0.0013924108770799583 -0.0051194535317521219 0 -0.00139677732571935 -0.0051205128906605044 0 -0.001360036363236024 -0.0051157310135948788 0 -0.0014171449896699297 -0.0051275678871610351 0 -0.0013941433075424191 -0.005132175946617178 0 -0.001360036363236024 -0.0051157310135948788 0 -0.001360036363236024 -0.0051157310135948788 0 -0.0013095708498868156 -0.005083794856933904 0 -0.0013277353400433553 -0.0051024592214447004 0 -0.0014065331216812456 -0.005103488577215291 0 -0.001360036363236024 -0.0051157310135948788 0 -0.0013095708498868156 -0.005083794856933904 0 -0.0011276271222489379 -0.0052961670531958523 0 -0.001190034888003805 -0.0051277337059831563 0 -0.0010412144937049055 -0.0051903065726958382 0 -0.0011989342578151781 -0.0049999990624778117 0 -0.00090898631872096648 -0.0049999962558206585 0 -0.0013095708498868156 -0.005083794856933904 0 -0.0013277353400433553 -0.0051024592214447004 0 -0.0011994054423319007 -0.0049999851828883375 0 -0.001190034888003805 -0.0051277337059831563 0 -0.0011989607041883929 -0.0050000285696844369 0 -0.00071428283021931615 -0.005374917776507785 0 -0.00076214540504986582 -0.0051838394634688024 0 -0.00056564147798689732 -0.005308518879456583 0 -0.00076214540504986582 -0.0051838394634688024 0 -0.00055134889522436188 -0.005147628214966532 0 -0.00056564147798689732 -0.005308518879456583 0 -0.00088482739731760322 -0.0053767523526342753 0 -0.0010412144937049055 -0.0051903065726958382 0 -0.00076214540504986582 -0.0051838394634688024 0 -0.0010412144937049055 -0.0051903065726958382 0 -0.00076214540504986582 -0.0051838394634688024 0 -0.00090898631872096648 -0.0049999962558206585 0 -0.00076214540504986582 -0.0051838394634688024 0 -0.00090898631872096648 -0.0049999962558206585 0 -0.00061904105385710982 -0.0049999981565828182 0 -0.00076214540504986582 -0.0051838394634688024 0 -0.00061904105385710982 -0.0049999981565828182 0 -0.00055134889522436188 -0.005147628214966532 0 -0.00061904105385710982 -0.0049999981565828182 0 -0.00055134889522436188 -0.005147628214966532 0 -0.0003290929774797263 -0.00499999354236911 0 -0.00055134889522436188 -0.005147628214966532 0 -0.0003290929774797263 -0.00499999354236911 0 -0.00042345909392038747 -0.0052334738470197753 0 -0.00042345909392038747 -0.0052334738470197753 0 -0.00044504273442594913 -0.0053967793029518641 0 -0.00025989860483718158 -0.0052837288697394312 0 -0.0003290929774797263 -0.00499999354236911 0 -0.00042345909392038747 -0.0052334738470197753 0 -0.00025989860483718158 -0.0052837288697394312 0 -0.00055134889522436188 -0.005147628214966532 0 -0.00042345909392038747 -0.0052334738470197753 0 -0.00056564147798689732 -0.005308518879456583 0 -0.00071428283021931615 -0.005374917776507785 0 -0.00056564147798689732 -0.005308518879456583 0 -0.00059123219883361821 -0.0054728787378534706 0 -0.00042345909392038747 -0.0052334738470197753 0 -0.00056564147798689732 -0.005308518879456583 0 -0.00044504273442594913 -0.0053967793029518641 0 -0.00056564147798689732 -0.005308518879456583 0 -0.0004532499612883957 -0.0053870941703387763 0 -0.00059123219883361821 -0.0054728787378534706 0 -0.0003278712155145213 -0.0051697640468451661 0 -0.00027371417686117766 -0.0048781193406422039 0 -0.0005234321790564152 -0.0053022210012022069 0 -0.0003278712155145213 -0.0051697640468451661 0 -0.00026162744192571565 -0.0053711350276565428 0 -0.00036856825818385076 -0.005369040316096794 0 -0.00022612361720070822 -0.0054735178548977062 0 -0.0003278712155145213 -0.0051697640468451661 0 0.00024460203094035777 -0.0048775609444309306 0 -0.0003278712155145213 -0.0051697640468451661 0 -0.00026297275988793344 -0.0053040271946093722 0 -0.00026162744192571565 -0.0053711350276565428 0 -0.00036856825818385076 -0.005369040316096794 0 -0.0002177715785847596 -0.0052727960354225171 0 2.0775175598057308e-05 -0.0043031676201186319 0 0.00010346103327073727 -0.0044641853804141427 0 0.00021797456224417682 -0.0044435005923488136 0 2.0775175598057308e-05 -0.0043031676201186319 0 0.00010346103327073727 -0.0044641853804141427 0 -4.2469138927990859e-05 -0.0045159288495591806 0 6.7182276282605377e-05 -0.0046583746141649254 0 0.00010346103327073727 -0.0044641853804141427 0 -4.2469138927990859e-05 -0.0045159288495591806 0 0.00017479122006228246 -0.0046168705348923296 0 0.00024460203094035777 -0.0048775609444309306 0 -0.00032073359537528143 -0.0045125656875211221 0 -4.2469138927990859e-05 -0.0045159288495591806 0 -0.00014857421502941106 -0.0044055812453060303 0 2.0775175598057308e-05 -0.0043031676201186319 0 -4.2469138927990859e-05 -0.0045159288495591806 0 -0.00014857421502941106 -0.0044055812453060303 0 0.00090865020111007184 -0.005207218696268362 0 0.00090966151163841607 -0.0051765789231073304 0 0.00085129552089394057 -0.0051781199024274801 0 0.00046009624448167753 -0.0053626144613606735 0 0.00024460203094035777 -0.0048775609444309306 0 0.00076549542101276809 -0.0049235331745261643 0 0.00024460203094035777 -0.0048775609444309306 0 0.00023601701871201199 -0.0045903606861330305 0 0.00010346103327073727 -0.0044641853804141427 0 0.00022715444744039577 -0.0044366587020716131 0 -0.00026162744192571565 -0.0053711350276565428 0 -0.00022612361720070822 -0.0054735178548977062 0 -0.00013070788178286396 -0.0053652581943405215 0 -0.00026162744192571565 -0.0053711350276565428 0 -0.00013070788178286396 -0.0053652581943405215 0 -0.0002177715785847596 -0.0052727960354225171 0 -1.4051747912366549e-06 -0.0054406065966525795 0 -0.00013070788178286396 -0.0053652581943405215 0 4.4716703855756045e-05 -0.0052800670390090211 0 -1.4051747912366549e-06 -0.0054406065966525795 0 -0.00022612361720070822 -0.0054735178548977062 0 -0.00013070788178286396 -0.0053652581943405215 0 -0.00013070788178286396 -0.0053652581943405215 0 -6.9770750964882582e-05 -0.0051670079365337233 0 4.4716703855756045e-05 -0.0052800670390090211 0 -0.00013070788178286396 -0.0053652581943405215 0 -6.9770750964882582e-05 -0.0051670079365337233 0 -0.0002177715785847596 -0.0052727960354225171 0 -7.0424089737468123e-05 -0.0051670611976492847 0 -0.00026297275988793344 -0.0053040271946093722 0 -0.0003290929774797263 -0.00499999354236911 0 -6.9770750964882582e-05 -0.0051670079365337233 0 -0.00025989860483718158 -0.0052837288697394312 0 -0.0003290929774797263 -0.00499999354236911 0 -6.9770750964882582e-05 -0.0051670079365337233 0 -3.9121326111360071e-05 -0.0049999967153855768 0 -6.9770750964882582e-05 -0.0051670079365337233 0 -3.9121326111360071e-05 -0.0049999967153855768 0 7.5741838862783387e-05 -0.0051280993560352877 0 -3.9121326111360071e-05 -0.0049999967153855768 0 7.5741838862783387e-05 -0.0051280993560352877 0 0.00025080969353290082 -0.0049999934396675596 0 0.00025080969353290082 -0.0049999934396675596 0 0.00019090680872263898 -0.0051917073719661457 0 0.00039426154051793729 -0.0051732306181360849 0 7.5741838862783387e-05 -0.0051280993560352877 0 0.00025080969353290082 -0.0049999934396675596 0 0.00019090680872263898 -0.0051917073719661457 0 0.00019090680872263898 -0.0051917073719661457 0 0.00039426154051793729 -0.0051732306181360849 0 0.00024885450999819234 -0.0054047976002747425 0 7.5741838862783387e-05 -0.0051280993560352877 0 0.00019090680872263898 -0.0051917073719661457 0 4.4716703855756045e-05 -0.0052800670390090211 0 -6.9770750964882582e-05 -0.0051670079365337233 0 7.5741838862783387e-05 -0.0051280993560352877 0 4.4716703855756045e-05 -0.0052800670390090211 0 0.00019090680872263898 -0.0051917073719661457 0 4.4716703855756045e-05 -0.0052800670390090211 0 0.00024885450999819234 -0.0054047976002747425 0 0.00054081747850968042 -0.0049999527331045998 0 0.00039426154051793729 -0.0051732306181360849 0 0.00064643815286530922 -0.0051408377691540457 0 0.00025080969353290082 -0.0049999934396675596 0 0.00054081747850968042 -0.0049999527331045998 0 0.00039426154051793729 -0.0051732306181360849 0 0.00039426154051793729 -0.0051732306181360849 0 0.00064643815286530922 -0.0051408377691540457 0 0.00052938723734857794 -0.0053534733448623063 0 0.00064643815286530922 -0.0051408377691540457 0 0.00052938723734857794 -0.0053534733448623063 0 0.00088275821668750722 -0.0052262107632353354 0 0.00094930332104631093 -0.0052164566572806001 0 0.00094539295528073134 -0.0052078567609273093 0 0.00088275821668750722 -0.0052262107632353354 0 0.00039426154051793729 -0.0051732306181360849 0 0.00052938723734857794 -0.0053534733448623063 0 0.00024885450999819234 -0.0054047976002747425 0 0.00073872080157811292 -0.0052809592748993186 0 0.00059564168580690535 -0.0052914000036684327 0 0.00094930332104631093 -0.0052164566572806001 0 0.00095242557249094638 -0.00520229065981227 0 0.00094458025375074891 -0.0051896658688380861 0 0.00095242557249094638 -0.00520229065981227 0 0.00094806755720989956 -0.0052007962664610266 0 0.0009576546755382298 -0.0052043803612235092 0 0.00094930332104631093 -0.0052164566572806001 0 0.00095242557249094638 -0.00520229065981227 0 0.00094539295528073134 -0.0052078567609273093 0 0.00095242557249094638 -0.00520229065981227 0 0.00094539295528073134 -0.0052078567609273093 0 0.0009576546755382298 -0.0052043803612235092 0 0.00046009624448167753 -0.0053626144613606735 0 0.00059564168580690535 -0.0052914000036684327 0 -1.4051747912366549e-06 -0.0054406065966525795 0 4.4716703855756045e-05 -0.0052800670390090211 0 0.00024885450999819234 -0.0054047976002747425 0 0.00095242557249094638 -0.00520229065981227 0 0.00094458025375074891 -0.0051896658688380861 0 0.00094806755720989956 -0.0052007962664610266 0 0.00090966151163841607 -0.0051765789231073304 0 0.00094458025375074891 -0.0051896658688380861 0 0.00094806755720989956 -0.0052007962664610266 0 0.00090865020111007184 -0.005207218696268362 0 0.00090966151163841607 -0.0051765789231073304 0 0.00094806755720989956 -0.0052007962664610266 0 0.00090865020111007184 -0.005207218696268362 0 0.00094982416057438825 -0.0052088438110689901 0 0.00094806755720989956 -0.0052007962664610266 0 0.00050592056638292123 -0.0048253729199503178 0 0.00074891444534999575 -0.0048412934886864914 0 0.00059580426986282286 -0.0049555501635380654 0 0.00051438820455357239 -0.0046394526517166707 0 0.00050592056638292123 -0.0048253729199503178 0 0.00074891444534999575 -0.0048412934886864914 0 0.00076549542101276809 -0.0049235331745261643 0 0.00083533393301510534 -0.0050197597834042169 0 0.00094982416057438825 -0.0052088438110689901 0 0.00094806755720989956 -0.0052007962664610266 0 0.00096314915566570597 -0.0051998449283560313 0 0.00094806755720989956 -0.0052007962664610266 0 0.0009576546755382298 -0.0052043803612235092 0 0.00096314915566570597 -0.0051998449283560313 0 0.00094539295528073134 -0.0052078567609273093 0 0.0009576546755382298 -0.0052043803612235092 0 0.00095759745462925267 -0.0052141308167679042 0 0.0009576546755382298 -0.0052043803612235092 0 0.0009630405262945731 -0.0051958778774293677 0 0.00095759745462925267 -0.0052141308167679042 0 0.0009576546755382298 -0.0052043803612235092 0 0.0009630405262945731 -0.0051958778774293677 0 0.00096314915566570597 -0.0051998449283560313 0 0.0009630405262945731 -0.0051958778774293677 0 0.00096314915566570597 -0.0051998449283560313 0 0.00097806889597511042 -0.0051801832864005201 0 0.00094982416057438825 -0.0052088438110689901 0 0.00096314915566570597 -0.0051998449283560313 0 0.00097806889597511042 -0.0051801832864005201 0 0.00083533393301510534 -0.0050197597834042169 0 0.00093104875072125585 -0.0050801423373435985 0 0.00097806889597511042 -0.0051801832864005201 0 0.00097353489815269335 -0.0051166590903454464 0 0.00094924845677703501 -0.0051636110381143591 0 0.0009630405262945731 -0.0051958778774293677 0 0.00097806889597511042 -0.0051801832864005201 0 0.00094924845677703501 -0.0051636110381143591 0 0.00093104875072125585 -0.0050801423373435985 0 0.00096732950033680991 -0.0051112033403298892 0 0.00088676342207975791 -0.0049816080566845028 0 0.00090629936000983071 -0.0050848206420931342 0 0.00097353489815269335 -0.0051166590903454464 0 0.00090629936000983071 -0.0050848206420931342 0 0.00097353489815269335 -0.0051166590903454464 0 0.00094887089376541616 -0.0051195548847660132 0 0.00088676342207975791 -0.0049816080566845028 0 0.00083267875453618169 -0.0050805568454274407 0 0.00074877544773485898 -0.0049947816995618904 0 0.00088676342207975791 -0.0049816080566845028 0 0.00090629936000983071 -0.0050848206420931342 0 0.00083267875453618169 -0.0050805568454274407 0 0.00066344889321611692 -0.0050411969712701515 0 0.00074877544773485898 -0.0049947816995618904 0 0.00073888607148946898 -0.0050979401163550892 0 0.00083267875453618169 -0.0050805568454274407 0 0.00074877544773485898 -0.0049947816995618904 0 0.00073888607148946898 -0.0050979401163550892 0 0.00058968398745845455 -0.0050345392141717951 0 0.00066344889321611692 -0.0050411969712701515 0 0.00059580426986282286 -0.0049555501635380654 0 0.00066344889321611692 -0.0050411969712701515 0 0.00073888607148946898 -0.0050979401163550892 0 0.00064702654982580184 -0.0051062305156824861 0 0.00058968398745845455 -0.0050345392141717951 0 0.00066344889321611692 -0.0050411969712701515 0 0.00064702654982580184 -0.0051062305156824861 0 0.00066344889321611692 -0.0050411969712701515 0 0.00059580426986282286 -0.0049555501635380654 0 0.00074877544773485898 -0.0049947816995618904 0 0.00074891444534999575 -0.0048412934886864914 0 0.00059580426986282286 -0.0049555501635380654 0 0.00074877544773485898 -0.0049947816995618904 0 0.00074891444534999575 -0.0048412934886864914 0 0.00088676342207975791 -0.0049816080566845028 0 0.00074877544773485898 -0.0049947816995618904 0 0.001137396282573766 -0.0051764317077589161 0 0.0011258404824352269 -0.0051941542979193336 0 0.0011302101154552627 -0.0052045880327695913 0 0.0012532099759631438 -0.0052083289198425562 0 0.0011302101154552627 -0.0052045880327695913 0 0.0011792953021528159 -0.0051973045578232232 0 0.0011740793488139794 -0.0051474669081364227 0 0.001137396282573766 -0.0051764317077589161 0 0.0011302101154552627 -0.0052045880327695913 0 0.0012121986036969993 -0.0051783305469067223 0 0.0011390464746319484 -0.0051972179677218025 0 0.0012532099759631438 -0.0052083289198425562 0 0.0011792953021528159 -0.0051973045578232232 0 0.0012712035957693284 -0.0051686394722440807 0 0.0011740793488139794 -0.0051474669081364227 0 0.0011537078055519937 -0.0051733625682217205 0 0.001186493343000155 -0.0051848131241180075 0 0.0011740793488139794 -0.0051474669081364227 0 0.0011537078055519937 -0.0051733625682217205 0 0.001137396282573766 -0.0051764317077589161 0 0.0011537078055519937 -0.0051733625682217205 0 0.001137396282573766 -0.0051764317077589161 0 0.0011334653051896344 -0.0051801845393709819 0 0.0011128602006721018 -0.0051801459999224336 0 0.0011224702059952911 -0.0051791299949335776 0 0.0011306417250765471 -0.0051878969643470736 0 0.0011334653051896344 -0.0051801845393709819 0 0.0011224702059952911 -0.0051791299949335776 0 0.0011110463394415719 -0.005184910808433368 0 0.0011128602006721018 -0.0051801459999224336 0 0.0011224702059952911 -0.0051791299949335776 0 0.0011110463394415719 -0.005184910808433368 0 0.001137396282573766 -0.0051764317077589161 0 0.0011334653051896344 -0.0051801845393709819 0 0.0011224702059952911 -0.0051791299949335776 0 0.00103888965117949 -0.0051760821134805369 0 0.0010344374991164058 -0.0051528936031391146 0 0.0011128602006721018 -0.0051801459999224336 0 0.0011306417250765471 -0.0051878969643470736 0 0.0010935603564010384 -0.0051776187081459491 0 0.00097353489815269335 -0.0051166590903454464 0 0.00094924845677703501 -0.0051636110381143591 0 0.00097878031929706497 -0.0051091496769669186 0 0.0011306417250765471 -0.0051878969643470736 0 0.0011258404824352269 -0.0051941542979193336 0 0.0011034817080202786 -0.0052301484561631242 0 0.001137396282573766 -0.0051764317077589161 0 0.0011224702059952911 -0.0051791299949335776 0 0.0011258404824352269 -0.0051941542979193336 0 0.0011224702059952911 -0.0051791299949335776 0 0.0011306417250765471 -0.0051878969643470736 0 0.0011258404824352269 -0.0051941542979193336 0 0.0011034817080202786 -0.0052301484561631242 0 0.0011337147039434173 -0.0052228319341110045 0 0.0011302101154552627 -0.0052045880327695913 0 0.0011258404824352269 -0.0051941542979193336 0 0.0011034817080202786 -0.0052301484561631242 0 0.0011302101154552627 -0.0052045880327695913 0 0.00103888965117949 -0.0051760821134805369 0 0.0010254378823540816 -0.0052136085498776389 0 0.0009630405262945731 -0.0051958778774293677 0 0.00094924845677703501 -0.0051636110381143591 0 0.00095167990056011268 -0.0052087652727379761 0 0.00095759745462925267 -0.0052141308167679042 0 0.00095167990056011268 -0.0052087652727379761 0 0.00099444381280239876 -0.0052288803835877423 0 0.0009630405262945731 -0.0051958778774293677 0 0.00095759745462925267 -0.0052141308167679042 0 0.00095167990056011268 -0.0052087652727379761 0 0.0011034817080202786 -0.0052301484561631242 0 0.0011117949956895145 -0.0052406256661733062 0 0.00099444381280239876 -0.0052288803835877423 0 0.0011034817080202786 -0.0052301484561631242 0 0.0011117949956895145 -0.0052406256661733062 0 0.0011337147039434173 -0.0052228319341110045 0 0.0010254378823540816 -0.0052136085498776389 0 0.0010024717448279266 -0.005220811872614398 0 0.0011117949956895145 -0.0052406256661733062 0 0.0011337147039434173 -0.0052228319341110045 0 0.001177107933501271 -0.0052425862951469239 0 0.0011337147039434173 -0.0052228319341110045 0 0.0011792953021528159 -0.0051973045578232232 0 0.001177107933501271 -0.0052425862951469239 0 0.0011337147039434173 -0.0052228319341110045 0 0.0011302101154552627 -0.0052045880327695913 0 0.0011792953021528159 -0.0051973045578232232 0 0.0011792953021528159 -0.0051973045578232232 0 0.001177107933501271 -0.0052425862951469239 0 0.0012385304277728302 -0.0052806189405892601 0 0.0011940922601450909 -0.0051976234537288663 0 0.0012846596050886847 -0.0051839721804263945 0 0.0011792953021528159 -0.0051973045578232232 0 0.0013265047834603552 -0.0050925013732876978 0 0.0012712035957693284 -0.0051686394722440807 0 0.0011987241480252648 -0.0052382222144622169 0 0.001177107933501271 -0.0052425862951469239 0 0.0012385304277728302 -0.0052806189405892601 0 0.0011117949956895145 -0.0052406256661733062 0 0.0011987241480252648 -0.0052382222144622169 0 0.001177107933501271 -0.0052425862951469239 0 0.0011987241480252648 -0.0052382222144622169 0 0.0010980716273241401 -0.0052217272302723227 0 0.0012248469523558224 -0.0051989331727118606 0 0.0011117949956895145 -0.0052406256661733062 0 0.0011987241480252648 -0.0052382222144622169 0 0.0010980716273241401 -0.0052217272302723227 0 0.0011117949956895145 -0.0052406256661733062 0 0.0010980716273241401 -0.0052217272302723227 0 0.00099444381280239876 -0.0052288803835877423 0 0.0010980716273241401 -0.0052217272302723227 0 0.0010066039979220673 -0.0052136699934195833 0 0.0010614856873212583 -0.0051562925100303858 0 0.0010980716273241401 -0.0052217272302723227 0 0.0012248469523558224 -0.0051989331727118606 0 0.0010614856873212583 -0.0051562925100303858 0 0.00094539295528073134 -0.0052078567609273093 0 0.00095759745462925267 -0.0052141308167679042 0 0.00099444381280239876 -0.0052288803835877423 0 0.0010980716273241401 -0.0052217272302723227 0 0.00099444381280239876 -0.0052288803835877423 0 0.0010066039979220673 -0.0052136699934195833 0 0.0010066039979220673 -0.0052136699934195833 0 0.00088275821668750722 -0.0052262107632353354 0 0.0010614856873212583 -0.0051562925100303858 0 0.00099444381280239876 -0.0052288803835877423 0 0.0010066039979220673 -0.0052136699934195833 0 0.00088275821668750722 -0.0052262107632353354 0 0.00073872080157811292 -0.0052809592748993186 0 0.00087290853857957139 -0.0052344342090600423 0 0.00094539295528073134 -0.0052078567609273093 0 0.00099444381280239876 -0.0052288803835877423 0 0.00088275821668750722 -0.0052262107632353354 0 0.00064643815286530922 -0.0051408377691540457 0 0.00088275821668750722 -0.0052262107632353354 0 0.00083082418986412971 -0.0049999713585123394 0 0.00088275821668750722 -0.0052262107632353354 0 0.00083082418986412971 -0.0049999713585123394 0 0.0010614856873212583 -0.0051562925100303858 0 0.00054081747850968042 -0.0049999527331045998 0 0.00064643815286530922 -0.0051408377691540457 0 0.00083082418986412971 -0.0049999713585123394 0 0.0012248469523558224 -0.0051989331727118606 0 0.0010614856873212583 -0.0051562925100303858 0 0.001298584748899648 -0.005131357949204835 0 0.00083082418986412971 -0.0049999713585123394 0 0.0010614856873212583 -0.0051562925100303858 0 0.0011206850219375483 -0.0049999519933212238 0 0.0010614856873212583 -0.0051562925100303858 0 0.0011206850219375483 -0.0049999519933212238 0 0.001298584748899648 -0.005131357949204835 0 0.0011206850219375483 -0.0049999519933212238 0 0.001298584748899648 -0.005131357949204835 0 0.0014105153065275763 -0.0049999776544354269 0 0.001298584748899648 -0.005131357949204835 0 0.0014791650943274154 -0.0051364970700041859 0 0.0013714087178991283 -0.0051770582842803475 0 0.001298584748899648 -0.005131357949204835 0 0.0014791650943274154 -0.0051364970700041859 0 0.0014105153065275763 -0.0049999776544354269 0 0.0014791650943274154 -0.0051364970700041859 0 0.0014105153065275763 -0.0049999776544354269 0 0.0017004652753741692 -0.004999939367460151 0 0.0014791650943274154 -0.0051364970700041859 0 0.0017004652753741692 -0.004999939367460151 0 0.0018287503788127068 -0.0052065353107770638 0 0.0017004652753741692 -0.004999939367460151 0 0.0018287503788127068 -0.0052065353107770638 0 0.0019905274389271708 -0.0050000242624836152 0 0.0014791650943274154 -0.0051364970700041859 0 0.0014616555226439453 -0.0051318091328169096 0 0.0014531193117943843 -0.0051364391268352658 0 0.0015078726262231317 -0.0051417061450003548 0 0.001601861998984053 -0.0051660728044805688 0 0.0014791650943274154 -0.0051364970700041859 0 0.0014531193117943843 -0.0051364391268352658 0 0.0013714087178991283 -0.0051770582842803475 0 0.0014616555226439453 -0.0051318091328169096 0 0.0014531193117943843 -0.0051364391268352658 0 0.0014674479883321555 -0.005126742107810168 0 0.0014531193117943843 -0.0051364391268352658 0 0.0014586348114299127 -0.0051350316734399678 0 0.0014674479883321555 -0.005126742107810168 0 0.0014531193117943843 -0.0051364391268352658 0 0.0013714087178991283 -0.0051770582842803475 0 0.0013816524968632993 -0.0052348997411675357 0 0.0014531193117943843 -0.0051364391268352658 0 0.0014586348114299127 -0.0051350316734399678 0 0.0013816524968632993 -0.0052348997411675357 0 0.0012877528785791867 -0.0052255454158017644 0 0.0013714087178991283 -0.0051770582842803475 0 0.0013816524968632993 -0.0052348997411675357 0 0.0011987241480252648 -0.0052382222144622169 0 0.0012248469523558224 -0.0051989331727118606 0 0.0012877528785791867 -0.0052255454158017644 0 0.0012248469523558224 -0.0051989331727118606 0 0.0012877528785791867 -0.0052255454158017644 0 0.0013714087178991283 -0.0051770582842803475 0 0.0012248469523558224 -0.0051989331727118606 0 0.001298584748899648 -0.005131357949204835 0 0.0013714087178991283 -0.0051770582842803475 0 0.0024663641003998195 -0.0051353513899129377 0 0.0022953065596160072 -0.0049999863836482656 0 0.0027057918935638097 -0.0049999649067479926 0 0.0024663641003998195 -0.0051353513899129377 0 0.0023569969463927477 -0.0052279223253375445 0 0.0024670520546835879 -0.0052720691559692357 0 0.0024663641003998195 -0.0051353513899129377 0 0.0022953065596160072 -0.0049999863836482656 0 0.0023569969463927477 -0.0052279223253375445 0 0.0022953065596160072 -0.0049999863836482656 0 0.0023569969463927477 -0.0052279223253375445 0 0.002126750945657634 -0.0052205162641429268 0 0.0024318741971009828 -0.0052393756749441389 0 0.0019651917617366657 -0.0051751407234113802 0 0.0019651917617366657 -0.0051751407234113802 0 0.0019906613245298981 -0.0050001719345843356 0 0.0022953065596160072 -0.0049999863836482656 0 0.002126750945657634 -0.0052205162641429268 0 0.0019905087073091082 -0.0049999974366123131 0 0.0018287503788127068 -0.0052065353107770638 0 0.0021070629145018799 -0.0052308873545832881 0 0.0019905274389271708 -0.0050000242624836152 0 0.001601861998984053 -0.0051660728044805688 0 0.0019651917617366657 -0.0051751407234113802 0 0.0014616555226439453 -0.0051318091328169096 0 0.0014690599495950658 -0.0051288825993463386 0 0.0014674479883321555 -0.005126742107810168 0 0.0014586348114299127 -0.0051350316734399678 0 0.0014674479883321555 -0.005126742107810168 0 0.0014710727961849462 -0.0050999938762091484 0 0.0014674479883321555 -0.005126742107810168 0 0.0014645647316277562 -0.0051196300131683649 0 0.0014710727961849462 -0.0050999938762091484 0 0.0014690599495950658 -0.0051288825993463386 0 0.0014674479883321555 -0.005126742107810168 0 0.0014645647316277562 -0.0051196300131683649 0 0.0019651917617366657 -0.0051751407234113802 0 0.0018765807404323102 -0.005208646530218357 0 0.0023569969463927477 -0.0052279223253375445 0 0.0023307007871797439 -0.0053338180894362966 0 0.0024286237880173163 -0.0053490908805695599 0 0.0023569969463927477 -0.0052279223253375445 0 0.0022561032815253722 -0.0052186758148316595 0 0.0023307007871797439 -0.0053338180894362966 0 0.0023307007871797439 -0.0053338180894362966 0 0.0024176909277124825 -0.0053936567060201505 0 0.0023894205167673396 -0.0054184355713051309 0 0.0018765807404323102 -0.005208646530218357 0 0.0019579222310490097 -0.0053147868815860994 0 0.0014645647316277562 -0.0051196300131683649 0 0.0014633300643940178 -0.005091529186762745 0 0.0014710727961849462 -0.0050999938762091484 0 0.0023307007871797439 -0.0053338180894362966 0 0.0024286237880173163 -0.0053490908805695599 0 0.0024176909277124825 -0.0053936567060201505 0 0.0024336934529590646 -0.0053831622757351261 0 0.0025792734895551629 -0.00527412627149577 0 0.0024286237880173163 -0.0053490908805695599 0 0.0024176909277124825 -0.0053936567060201505 0 0.002547947985766354 -0.005382157288940064 0 0.0024286237880173163 -0.0053490908805695599 0 0.0024670520546835879 -0.0052720691559692357 0 0.002547947985766354 -0.005382157288940064 0 0.0023569969463927477 -0.0052279223253375445 0 0.0024286237880173163 -0.0053490908805695599 0 0.0024670520546835879 -0.0052720691559692357 0 0.0014633300643940178 -0.005091529186762745 0 0.0014770740875048353 -0.0050336237201477913 0 0.0014540397285332065 -0.0050372286969945475 0 0.0019579222310490097 -0.0053147868815860994 0 0.0018468499496160546 -0.005079295798315178 0 0.0024176909277124825 -0.0053936567060201505 0 0.0023894205167673396 -0.0054184355713051309 0 0.0024944517933165149 -0.0056274359462726627 0 0.0014633300643940178 -0.005091529186762745 0 0.0014797547617396579 -0.0050590403804803485 0 0.0014710727961849462 -0.0050999938762091484 0 0.0014633300643940178 -0.005091529186762745 0 0.0014797547617396579 -0.0050590403804803485 0 0.0014770740875048353 -0.0050336237201477913 0 0.0014777571156912863 -0.005066656958333424 0 0.0014710727961849462 -0.0050999938762091484 0 0.0014645161117377359 -0.0050885467922608552 0 0.0014797547617396579 -0.0050590403804803485 0 0.0014777571156912863 -0.005066656958333424 0 0.0014710727961849462 -0.0050999938762091484 0 0.0014586348114299127 -0.0051350316734399678 0 0.0014710727961849462 -0.0050999938762091484 0 0.0014645161117377359 -0.0050885467922608552 0 0.0014777571156912863 -0.005066656958333424 0 0.0014645161117377359 -0.0050885467922608552 0 0.0014713448304871815 -0.0050715117143982262 0 0.0014645161117377359 -0.0050885467922608552 0 0.0014713448304871815 -0.0050715117143982262 0 0.0014552165389693306 -0.0050898846312151507 0 0.0014713448304871815 -0.0050715117143982262 0 0.0014664461959523402 -0.0050758696905715993 0 0.0014552165389693306 -0.0050898846312151507 0 0.0014664461959523402 -0.0050758696905715993 0 0.0014455912180859909 -0.0051026642294509624 0 0.0014762350041392558 -0.0050634938746872719 0 0.0014664461959523402 -0.0050758696905715993 0 0.0014826990751604908 -0.0050488809744135572 0 0.0014762350041392558 -0.0050634938746872719 0 0.0014713448304871815 -0.0050715117143982262 0 0.0014664461959523402 -0.0050758696905715993 0 0.0014826990751604908 -0.0050488809744135572 0 0.0014826990751604908 -0.0050488809744135572 0 0.0014881608771609503 -0.0050346725274768977 0 0.0014762350041392558 -0.0050634938746872719 0 0.0014826990751604908 -0.0050488809744135572 0 0.0014876108944628505 -0.0050361757206696511 0 0.0014937826754049578 -0.0050149744001374121 0 0.0014826990751604908 -0.0050488809744135572 0 0.0014881608771609503 -0.0050346725274768977 0 0.0014937826754049578 -0.0050149744001374121 0 0.0014777571156912863 -0.005066656958333424 0 0.0014713448304871815 -0.0050715117143982262 0 0.0014826990751604908 -0.0050488809744135572 0 0.0014777571156912863 -0.005066656958333424 0 0.0014826990751604908 -0.0050488809744135572 0 0.0014876108944628505 -0.0050361757206696511 0 0.0014797547617396579 -0.0050590403804803485 0 0.0014777571156912863 -0.005066656958333424 0 0.0014876108944628505 -0.0050361757206696511 0 0.0014797547617396579 -0.0050590403804803485 0 0.0014868277492339282 -0.0050238347593876409 0 0.0014876108944628505 -0.0050361757206696511 0 0.0014797547617396579 -0.0050590403804803485 0 0.0014868277492339282 -0.0050238347593876409 0 0.0014770740875048353 -0.0050336237201477913 0 0.0014868277492339282 -0.0050238347593876409 0 0.0014876108944628505 -0.0050361757206696511 0 0.0014941311424512291 -0.0049949724551355563 0 0.0014876108944628505 -0.0050361757206696511 0 0.0014937826754049578 -0.0050149744001374121 0 0.0014941311424512291 -0.0049949724551355563 0 0.0014881608771609503 -0.0050346725274768977 0 0.0014937826754049578 -0.0050149744001374121 0 0.0014969771528235253 -0.0050042615156239614 0 0.0014937826754049578 -0.0050149744001374121 0 0.0015001015151042013 -0.0049739000096543865 0 0.0014969771528235253 -0.0050042615156239614 0 0.0014937826754049578 -0.0050149744001374121 0 0.0015001015151042013 -0.0049739000096543865 0 0.0014941311424512291 -0.0049949724551355563 0 0.0015001015151042013 -0.0049739000096543865 0 0.0014941311424512291 -0.0049949724551355563 0 0.0014971465253509155 -0.0049547416520398947 0 0.0014941311424512291 -0.0049949724551355563 0 0.0014971465253509155 -0.0049547416520398947 0 0.0014844653494871722 -0.0049979738047457129 0 0.0015001015151042013 -0.0049739000096543865 0 0.0015009395899855018 -0.0049308331383728409 0 0.0014971465253509155 -0.0049547416520398947 0 0.0015009395899855018 -0.0049308331383728409 0 0.0014971465253509155 -0.0049547416520398947 0 0.001502200061425937 -0.004879702085834008 0 0.0014971465253509155 -0.0049547416520398947 0 0.0014844653494871722 -0.0049979738047457129 0 0.0014680469166522699 -0.0049516530316459015 0 0.0014844653494871722 -0.0049979738047457129 0 0.0014699112235470302 -0.0050234031353289747 0 0.0014680469166522699 -0.0049516530316459015 0 0.0014868277492339282 -0.0050238347593876409 0 0.0014941311424512291 -0.0049949724551355563 0 0.0014844653494871722 -0.0049979738047457129 0 0.0014868277492339282 -0.0050238347593876409 0 0.0014844653494871722 -0.0049979738047457129 0 0.0014770740875048353 -0.0050336237201477913 0 0.0014844653494871722 -0.0049979738047457129 0 0.0014770740875048353 -0.0050336237201477913 0 0.0014699112235470302 -0.0050234031353289747 0 0.0014146211442251217 -0.0050655636610104308 0 0.0018468499496160546 -0.005079295798315178 0 0.0013265047834603552 -0.0050925013732876978 0 0.001417757537520116 -0.0050817084128329309 0 0.0013975887572772578 -0.0051284853211716304 0 0.0013265047834603552 -0.0050925013732876978 0 0.0013281260423126887 -0.0051579445876492411 0 0.0012712035957693284 -0.0051686394722440807 0 0.0011987241480252648 -0.0052382222144622169 0 0.0012877528785791867 -0.0052255454158017644 0 0.0012385304277728302 -0.0052806189405892601 0 0.0012846596050886847 -0.0051839721804263945 0 0.0013947849571729399 -0.0051587587452716051 0 0.0012877528785791867 -0.0052255454158017644 0 0.0012385304277728302 -0.0052806189405892601 0 0.0013816524968632993 -0.0052348997411675357 0 0.0014493939745309871 -0.0051389793940157472 0 0.0013947849571729399 -0.0051587587452716051 0 0.0014586348114299127 -0.0051350316734399678 0 0.001417757537520116 -0.0050817084128329309 0 0.0014452506593466267 -0.0050974209996050438 0 0.0014586348114299127 -0.0051350316734399678 0 0.0014645161117377359 -0.0050885467922608552 0 0.0014452506593466267 -0.0050974209996050438 0 0.0014645161117377359 -0.0050885467922608552 0 0.0014452506593466267 -0.0050974209996050438 0 0.0014552165389693306 -0.0050898846312151507 0 0.001417757537520116 -0.0050817084128329309 0 0.0014452506593466267 -0.0050974209996050438 0 0.0013975887572772578 -0.0051284853211716304 0 0.0014452506593466267 -0.0050974209996050438 0 0.0014278036030298171 -0.0051147857902546136 0 0.0013975887572772578 -0.0051284853211716304 0 0.0014452506593466267 -0.0050974209996050438 0 0.0014552165389693306 -0.0050898846312151507 0 0.0014278036030298171 -0.0051147857902546136 0 0.0014664461959523402 -0.0050758696905715993 0 0.0014552165389693306 -0.0050898846312151507 0 0.0014455912180859909 -0.0051026642294509624 0 0.0014552165389693306 -0.0050898846312151507 0 0.0014455912180859909 -0.0051026642294509624 0 0.0014278036030298171 -0.0051147857902546136 0 0.0014007630615824624 -0.0051445095047263347 0 0.0014278036030298171 -0.0051147857902546136 0 0.0013975887572772578 -0.0051284853211716304 0 0.0014455912180859909 -0.0051026642294509624 0 0.0014007630615824624 -0.0051445095047263347 0 0.0014278036030298171 -0.0051147857902546136 0 0.0014007630615824624 -0.0051445095047263347 0 0.0013975887572772578 -0.0051284853211716304 0 0.0013636691957822479 -0.0051784042552600103 0 0.0013975887572772578 -0.0051284853211716304 0 0.0013281260423126887 -0.0051579445876492411 0 0.0013636691957822479 -0.0051784042552600103 0 0.0013265047834603552 -0.0050925013732876978 0 0.0013975887572772578 -0.0051284853211716304 0 0.0013281260423126887 -0.0051579445876492411 0 0.0012532099759631438 -0.0052083289198425562 0 0.0013281260423126887 -0.0051579445876492411 0 0.0012712035957693284 -0.0051686394722440807 0 0.0012121986036969993 -0.0051783305469067223 0 0.0013169635508229523 -0.0051611385589520444 0 0.0012532099759631438 -0.0052083289198425562 0 0.0013281260423126887 -0.0051579445876492411 0 0.0013636691957822479 -0.0051784042552600103 0 0.0011740793488139794 -0.0051474669081364227 0 0.0012704586793272812 -0.0051431403102900489 0 0.001186493343000155 -0.0051848131241180075 0 0.0012435777655304581 -0.0051919228621108184 0 0.0012704586793272812 -0.0051431403102900489 0 0.001186493343000155 -0.0051848131241180075 0 0.0012435777655304581 -0.0051919228621108184 0 0.001186493343000155 -0.0051848131241180075 0 0.0012064531209851682 -0.0052179903326822485 0 0.0017867283324008907 -0.0050585784842298752 0 0.0017836368688654129 -0.0050804143159015472 0 0.0016603969282767887 -0.0050867863235521506 0 0.0012435777655304581 -0.0051919228621108184 0 0.0012552197019913174 -0.0052402012214628627 0 0.0012064531209851682 -0.0052179903326822485 0 0.0012435777655304581 -0.0051919228621108184 0 0.0012552197019913174 -0.0052402012214628627 0 0.0013112851677153561 -0.0051833323842644117 0 0.0017867283324008907 -0.0050585784842298752 0 0.0018326296329697614 -0.0050267625099262971 0 0.001832438678445576 -0.0050306158967297863 0 0.0015274329020632234 -0.0051406716167664568 0 0.0015849935676011649 -0.0051657236956136748 0 0.0012552197019913174 -0.0052402012214628627 0 0.0013112851677153561 -0.0051833323842644117 0 0.001390851925812963 -0.0052002545312279736 0 0.0017867283324008907 -0.0050585784842298752 0 0.001832438678445576 -0.0050306158967297863 0 0.0017836368688654129 -0.0050804143159015472 0 0.0012435777655304581 -0.0051919228621108184 0 0.0013112851677153561 -0.0051833323842644117 0 0.0012704586793272812 -0.0051431403102900489 0 0.0013169635508229523 -0.0051611385589520444 0 0.0013950775151200592 -0.0051605274935608066 0 0.0013112851677153561 -0.0051833323842644117 0 0.0012704586793272812 -0.0051431403102900489 0 0.0014008209834499958 -0.0051547552467015095 0 0.0014007630615824624 -0.0051445095047263347 0 0.0013636691957822479 -0.0051784042552600103 0 0.0014008209834499958 -0.0051547552467015095 0 0.0014007630615824624 -0.0051445095047263347 0 0.0014208271282565481 -0.0051317669699476372 0 0.0014008209834499958 -0.0051547552467015095 0 0.0014455912180859909 -0.0051026642294509624 0 0.0014007630615824624 -0.0051445095047263347 0 0.0014208271282565481 -0.0051317669699476372 0 0.0014455912180859909 -0.0051026642294509624 0 0.001434091721208685 -0.0051295570120336517 0 0.0014620331824597508 -0.005094488374350112 0 0.0014455912180859909 -0.0051026642294509624 0 0.0014208271282565481 -0.0051317669699476372 0 0.001434091721208685 -0.0051295570120336517 0 0.0014208271282565481 -0.0051317669699476372 0 0.001434091721208685 -0.0051295570120336517 0 0.0014008209834499958 -0.0051547552467015095 0 0.0019193681951179067 -0.0042733342074388718 0 0.0017475694277376175 -0.0046478019010455637 0 0.001934928042675056 -0.0036145594563871957 0 0.0019295184144549865 -0.0036010959581526986 0 0.0019249219333602326 -0.0036028653773326601 0 0.0015849935676011649 -0.0051657236956136748 0 0.0017475694277376175 -0.0046478019010455637 0 0.001434091721208685 -0.0051295570120336517 0 0.001390851925812963 -0.0052002545312279736 0 0.0014660410949839291 -0.0051234255715316432 0 0.0018326296329697614 -0.0050267625099262971 0 0.001832438678445576 -0.0050306158967297863 0 0.0018358470565167622 -0.0049929646047156594 0 0.0013112851677153561 -0.0051833323842644117 0 0.0014008209834499958 -0.0051547552467015095 0 0.001390851925812963 -0.0052002545312279736 0 0.001434091721208685 -0.0051295570120336517 0 0.0014008209834499958 -0.0051547552467015095 0 0.001390851925812963 -0.0052002545312279736 0 0.001934928042675056 -0.0036145594563871957 0 0.0019574960322174292 -0.0035953413055408606 0 0.001992127217781079 -0.0036017213629982053 0 0.001934928042675056 -0.0036145594563871957 0 0.0019574960322174292 -0.0035953413055408606 0 0.0019373345061456605 -0.0035983162725465047 0 0.001934928042675056 -0.0036145594563871957 0 0.0019373345061456605 -0.0035983162725465047 0 0.0019295184144549865 -0.0036010959581526986 0 0.0019373345061456605 -0.0035983162725465047 0 0.0019350127024383617 -0.0035794874606486101 0 0.0019295184144549865 -0.0036010959581526986 0 0.0019574960322174292 -0.0035953413055408606 0 0.0019373345061456605 -0.0035983162725465047 0 0.0019350127024383617 -0.0035794874606486101 0 0.0019574960322174292 -0.0035953413055408606 0 0.0019350127024383617 -0.0035794874606486101 0 0.0019823042516008979 -0.0035675964922887971 0 0.0019350127024383617 -0.0035794874606486101 0 0.0019250334502671667 -0.0035943655741997324 0 0.0019209580600650124 -0.0035848209289446086 0 0.0019295184144549865 -0.0036010959581526986 0 0.0019250334502671667 -0.0035943655741997324 0 0.0019249219333602326 -0.0036028653773326601 0 0.0019350127024383617 -0.0035794874606486101 0 0.0019295184144549865 -0.0036010959581526986 0 0.0019250334502671667 -0.0035943655741997324 0 0.0017827125846690375 -0.0034089588488192806 0 0.0018295040192126981 -0.0034396313561211918 0 0.0017634626975986949 -0.0033798247406072075 0 0.0018561934933594116 -0.0035011437988839915 0 0.0018964113571355902 -0.0034846854200694644 0 0.0019350127024383617 -0.0035794874606486101 0 0.0019209580600650124 -0.0035848209289446086 0 0.0019408223725482351 -0.0035372259857918155 0 0.0019350127024383617 -0.0035794874606486101 0 0.0019408223725482351 -0.0035372259857918155 0 0.0019823042516008979 -0.0035675964922887971 0 0.0018964113571355902 -0.0034846854200694644 0 0.0020243889236027375 -0.0034598409423405745 0 0.0019408223725482351 -0.0035372259857918155 0 0.002030400514536158 -0.0034534367891347526 0 0.0019823042516008979 -0.0035675964922887971 0 0.002030400514536158 -0.0034534367891347526 0 0.0020464224731843918 -0.0035512663029311042 0 0.0019823042516008979 -0.0035675964922887971 0 0.002030400514536158 -0.0034534367891347526 0 0.0021405280521158828 -0.0033685332346032647 0 0.0021731668683251338 -0.0034945928688398299 0 0.002030400514536158 -0.0034534367891347526 0 0.0020464224731843918 -0.0035512663029311042 0 0.0021731668683251338 -0.0034945928688398299 0 0.0020464224731843918 -0.0035512663029311042 0 0.0021750474631794026 -0.0035721496378795219 0 0.0021731668683251338 -0.0034945928688398299 0 0.0020464224731843918 -0.0035512663029311042 0 0.0020699331681082065 -0.0036396578303218188 0 0.0020217633876795636 -0.0035927814783371825 0 0.0020464224731843918 -0.0035512663029311042 0 0.0020699331681082065 -0.0036396578303218188 0 0.0021750474631794026 -0.0035721496378795219 0 0.0019193681951179067 -0.0042733342074388718 0 0.001917815263869826 -0.0043670894425946868 0 0.0020699331681082065 -0.0036396578303218188 0 0.001992127217781079 -0.0036017213629982053 0 0.0020217633876795636 -0.0035927814783371825 0 0.001934928042675056 -0.0036145594563871957 0 0.0020699331681082065 -0.0036396578303218188 0 0.001992127217781079 -0.0036017213629982053 0 0.0019574960322174292 -0.0035953413055408606 0 0.001992127217781079 -0.0036017213629982053 0 0.0019823042516008979 -0.0035675964922887971 0 0.001992127217781079 -0.0036017213629982053 0 0.0019823042516008979 -0.0035675964922887971 0 0.0020217633876795636 -0.0035927814783371825 0 0.0020464224731843918 -0.0035512663029311042 0 0.0019823042516008979 -0.0035675964922887971 0 0.0020217633876795636 -0.0035927814783371825 0 0.0019449017827823109 -0.0036490173739674105 0 0.0019437970505401378 -0.0036385915705830691 0 0.0019443948871243121 -0.0036653141486837045 0 0.0019449017827823109 -0.0036490173739674105 0 0.0019444353701396284 -0.003630886894757475 0 0.0019437970505401378 -0.0036385915705830691 0 0.0015072166625386746 -0.0049362843167301282 0 0.0015012597116460325 -0.0048964866679877608 0 0.0014908800212280302 -0.0049164203132032059 0 0.0015012597116460325 -0.0048964866679877608 0 0.0015023970156762194 -0.0049335908539966267 0 0.0015032901043363278 -0.0048701648867754471 0 0.0015072166625386746 -0.0049362843167301282 0 0.0015012597116460325 -0.0048964866679877608 0 0.0015023970156762194 -0.0049335908539966267 0 0.0015009395899855018 -0.0049308331383728409 0 0.0015023970156762194 -0.0049335908539966267 0 0.0015032901043363278 -0.0048701648867754471 0 0.0015001015151042013 -0.0049739000096543865 0 0.0015009395899855018 -0.0049308331383728409 0 0.0015023970156762194 -0.0049335908539966267 0 0.0015001015151042013 -0.0049739000096543865 0 0.0015023970156762194 -0.0049335908539966267 0 0.0015018953918491936 -0.0049735896679075197 0 0.0015034907743926372 -0.0049558198908788214 0 0.0015023970156762194 -0.0049335908539966267 0 0.0015018953918491936 -0.0049735896679075197 0 0.0015072166625386746 -0.0049362843167301282 0 0.0015034907743926372 -0.0049558198908788214 0 0.0015026056786011748 -0.004973527886669978 0 0.0015072166625386746 -0.0049362843167301282 0 0.0015034907743926372 -0.0049558198908788214 0 0.0015023970156762194 -0.0049335908539966267 0 0.0015072166625386746 -0.0049362843167301282 0 0.0015026056786011748 -0.004973527886669978 0 0.0015003527950484422 -0.0049966924905432333 0 0.0015026056786011748 -0.004973527886669978 0 0.0015018953918491936 -0.0049735896679075197 0 0.001498555382679296 -0.0050026468177816145 0 0.0015034907743926372 -0.0049558198908788214 0 0.0015026056786011748 -0.004973527886669978 0 0.0015018953918491936 -0.0049735896679075197 0 0.0015001015151042013 -0.0049739000096543865 0 0.0015018953918491936 -0.0049735896679075197 0 0.0014969771528235253 -0.0050042615156239614 0 0.0015018953918491936 -0.0049735896679075197 0 0.0014969771528235253 -0.0050042615156239614 0 0.001498555382679296 -0.0050026468177816145 0 0.0014969771528235253 -0.0050042615156239614 0 0.001498555382679296 -0.0050026468177816145 0 0.0014919588214573508 -0.0050289994010167148 0 0.0015026056786011748 -0.004973527886669978 0 0.001498555382679296 -0.0050026468177816145 0 0.0015003527950484422 -0.0049966924905432333 0 0.001498555382679296 -0.0050026468177816145 0 0.0015003527950484422 -0.0049966924905432333 0 0.0014954176048385562 -0.0050257024969350356 0 0.0015003527950484422 -0.0049966924905432333 0 0.0014998849451547693 -0.0050026930642723365 0 0.0014954176048385562 -0.0050257024969350356 0 0.0015072166625386746 -0.0049362843167301282 0 0.0014998849451547693 -0.0050026930642723365 0 0.0014948778347253456 -0.005047966225474469 0 0.0014998849451547693 -0.0050026930642723365 0 0.0014948778347253456 -0.005047966225474469 0 0.0014954176048385562 -0.0050257024969350356 0 0.0015208172837748082 -0.0049390301332062798 0 0.0015155536561114924 -0.0050036677915057514 0 0.0019449017827823109 -0.0036490173739674105 0 0.0019444353701396284 -0.003630886894757475 0 0.001942278480933922 -0.0036121628944156261 0 0.0019444353701396284 -0.003630886894757475 0 0.001942278480933922 -0.0036121628944156261 0 0.0019445845333560024 -0.0036218738186689007 0 0.0017119048690955826 -0.0042851351216417538 0 0.0018009856040534899 -0.0042025273606113925 0 0.0015072166625386746 -0.0049362843167301282 0 0.0016130863660670032 -0.0048827869297560795 0 0.0016251104211580643 -0.0048944682945948406 0 0.0015072166625386746 -0.0049362843167301282 0 0.0014908800212280302 -0.0049164203132032059 0 0.0016130863660670032 -0.0048827869297560795 0 0.0015072166625386746 -0.0049362843167301282 0 0.0015003527950484422 -0.0049966924905432333 0 0.0014998849451547693 -0.0050026930642723365 0 0.0018009856040534899 -0.0042025273606113925 0 0.0017475694277376175 -0.0046478019010455637 0 0.0014948778347253456 -0.005047966225474469 0 0.001482221413866425 -0.0050629387378416804 0 0.0014660410949839291 -0.0051234255715316432 0 0.0016130863660670032 -0.0048827869297560795 0 0.0016251104211580643 -0.0048944682945948406 0 0.0017566891428352541 -0.0048487547344405269 0 0.0015155536561114924 -0.0050036677915057514 0 0.0017475694277376175 -0.0046478019010455637 0 0.001942278480933922 -0.0036121628944156261 0 0.0019249219333602326 -0.0036028653773326601 0 0.0019340802510797069 -0.0036054695151661468 0 0.001942278480933922 -0.0036121628944156261 0 0.0019340802510797069 -0.0036054695151661468 0 0.0019395388779717858 -0.0036080632247275147 0 0.001942278480933922 -0.0036121628944156261 0 0.0019395388779717858 -0.0036080632247275147 0 0.0019435066964254644 -0.0036116902961767987 0 0.0014948778347253456 -0.005047966225474469 0 0.0014954176048385562 -0.0050257024969350356 0 0.001482221413866425 -0.0050629387378416804 0 0.001498555382679296 -0.0050026468177816145 0 0.0014954176048385562 -0.0050257024969350356 0 0.0014919588214573508 -0.0050289994010167148 0 0.0014954176048385562 -0.0050257024969350356 0 0.0014919588214573508 -0.0050289994010167148 0 0.001482221413866425 -0.0050629387378416804 0 0.0014881608771609503 -0.0050346725274768977 0 0.0014969771528235253 -0.0050042615156239614 0 0.0014919588214573508 -0.0050289994010167148 0 0.0014881608771609503 -0.0050346725274768977 0 0.0014919588214573508 -0.0050289994010167148 0 0.0014762350041392558 -0.0050634938746872719 0 0.0014919588214573508 -0.0050289994010167148 0 0.001482221413866425 -0.0050629387378416804 0 0.0014762350041392558 -0.0050634938746872719 0 0.0014455912180859909 -0.0051026642294509624 0 0.0014762350041392558 -0.0050634938746872719 0 0.0014620331824597508 -0.005094488374350112 0 0.001482221413866425 -0.0050629387378416804 0 0.0014762350041392558 -0.0050634938746872719 0 0.0014620331824597508 -0.005094488374350112 0 0.001434091721208685 -0.0051295570120336517 0 0.0014620331824597508 -0.005094488374350112 0 0.0014660410949839291 -0.0051234255715316432 0 0.001482221413866425 -0.0050629387378416804 0 0.0014620331824597508 -0.005094488374350112 0 0.0014660410949839291 -0.0051234255715316432 0 0.0019250334502671667 -0.0035943655741997324 0 0.0019249219333602326 -0.0036028653773326601 0 0.0019285297170834428 -0.0035973489289194446 0 0.0019249219333602326 -0.0036028653773326601 0 0.0019285297170834428 -0.0035973489289194446 0 0.0019340802510797069 -0.0036054695151661468 0 0.0019285297170834428 -0.0035973489289194446 0 0.0019360995783564772 -0.0036022770387481658 0 0.0019340802510797069 -0.0036054695151661468 0 0.0019250334502671667 -0.0035943655741997324 0 0.0019209580600650124 -0.0035848209289446086 0 0.0019285297170834428 -0.0035973489289194446 0 0.0019209580600650124 -0.0035848209289446086 0 0.0019285297170834428 -0.0035973489289194446 0 0.0019387499479356764 -0.0036021352393307755 0 0.0017827125846690375 -0.0034089588488192806 0 0.0019137164762077967 -0.0034703950607160288 0 0.0018717965525862365 -0.0034800862903377381 0 0.0018561934933594116 -0.0035011437988839915 0 0.0019178629847781312 -0.0035374510601528988 0 0.0019137164762077967 -0.0034703950607160288 0 0.0019366895786195049 -0.0035396821363827494 0 0.001926547453468057 -0.0035075073730468447 0 0.0019137164762077967 -0.0034703950607160288 0 0.001926547453468057 -0.0035075073730468447 0 0.0018717965525862365 -0.0034800862903377381 0 0.0019387499479356764 -0.0036021352393307755 0 0.0019411272968527424 -0.0036054591080045472 0 0.0019453725897638973 -0.0036059856331973126 0 0.0019411272968527424 -0.0036054591080045472 0 0.0019360995783564772 -0.0036022770387481658 0 0.0019395388779717858 -0.0036080632247275147 0 0.0019285297170834428 -0.0035973489289194446 0 0.0019387499479356764 -0.0036021352393307755 0 0.0019360995783564772 -0.0036022770387481658 0 0.0019387499479356764 -0.0036021352393307755 0 0.0019411272968527424 -0.0036054591080045472 0 0.0019360995783564772 -0.0036022770387481658 0 0.0019360995783564772 -0.0036022770387481658 0 0.0019340802510797069 -0.0036054695151661468 0 0.0019395388779717858 -0.0036080632247275147 0 0.0019411272968527424 -0.0036054591080045472 0 0.0019395388779717858 -0.0036080632247275147 0 0.0019435066964254644 -0.0036116902961767987 0 0.0019445845333560024 -0.0036218738186689007 0 0.0019453725897638973 -0.0036059856331973126 0 0.0019414550733608653 -0.0035808713265841671 0 0.0019435066964254644 -0.0036116902961767987 0 0.0019445845333560024 -0.0036218738186689007 0 0.0019453725897638973 -0.0036059856331973126 0 0.0019411272968527424 -0.0036054591080045472 0 0.0019435066964254644 -0.0036116902961767987 0 0.0019453725897638973 -0.0036059856331973126 0 0.001942278480933922 -0.0036121628944156261 0 0.0019435066964254644 -0.0036116902961767987 0 0.0019445845333560024 -0.0036218738186689007 0 0.0019387499479356764 -0.0036021352393307755 0 0.0019453725897638973 -0.0036059856331973126 0 0.0019414550733608653 -0.0035808713265841671 0 0.0019178629847781312 -0.0035374510601528988 0 0.0019329944543864731 -0.0035710740348893354 0 0.0019137164762077967 -0.0034703950607160288 0 0.0019414550733608653 -0.0035808713265841671 0 0.0019366895786195049 -0.0035396821363827494 0 0.0019414550733608653 -0.0035808713265841671 0 0.0019295555428626306 -0.0035603704913721363 0 0.0019366895786195049 -0.0035396821363827494 0 0.0019414550733608653 -0.0035808713265841671 0 0.0019295555428626306 -0.0035603704913721363 0 0.001942695296491035 -0.0036242475400075297 0 0.0019445845333560024 -0.0036218738186689007 0 0.0019414550733608653 -0.0035808713265841671 0 0.0019437970505401378 -0.0036385915705830691 0 0.0019414550733608653 -0.0035808713265841671 0 0.0019437970505401378 -0.0036385915705830691 0 0.001942695296491035 -0.0036242475400075297 0 0.0019444353701396284 -0.003630886894757475 0 0.0019445845333560024 -0.0036218738186689007 0 0.0019437970505401378 -0.0036385915705830691 0 0.0018974785143632403 -0.0034985061782879319 0 0.0019295555428626306 -0.0035603704913721363 0 0.0019160836470827067 -0.0035130427422733726 0 0.0018974785143632403 -0.0034985061782879319 0 0.0019160836470827067 -0.0035130427422733726 0 0.0018951507911196051 -0.0034589284488025472 0 0.0019366895786195049 -0.0035396821363827494 0 0.0019276644137737344 -0.0035139272682716606 0 0.0019160836470827067 -0.0035130427422733726 0 0.0019295555428626306 -0.0035603704913721363 0 0.0019366895786195049 -0.0035396821363827494 0 0.0019160836470827067 -0.0035130427422733726 0 0.0019366895786195049 -0.0035396821363827494 0 0.0019276644137737344 -0.0035139272682716606 0 0.001926547453468057 -0.0035075073730468447 0 0.0019276644137737344 -0.0035139272682716606 0 0.0019160836470827067 -0.0035130427422733726 0 0.001918051139273069 -0.0034733275667288219 0 0.0019160836470827067 -0.0035130427422733726 0 0.001918051139273069 -0.0034733275667288219 0 0.0018951507911196051 -0.0034589284488025472 0 0.001918051139273069 -0.0034733275667288219 0 0.0019793140746666212 -0.0034538907178136573 0 0.001943381698824512 -0.0033989507555170235 0 0.0019276644137737344 -0.0035139272682716606 0 0.001918051139273069 -0.0034733275667288219 0 0.0019422633528539852 -0.00350384506597707 0 0.001918051139273069 -0.0034733275667288219 0 0.0019793140746666212 -0.0034538907178136573 0 0.0019422633528539852 -0.00350384506597707 0 0.0019276644137737344 -0.0035139272682716606 0 0.001926547453468057 -0.0035075073730468447 0 0.0019422633528539852 -0.00350384506597707 0 0.001926547453468057 -0.0035075073730468447 0 0.0019422633528539852 -0.00350384506597707 0 0.0018717965525862365 -0.0034800862903377381 0 0.0018717965525862365 -0.0034800862903377381 0 0.0016902298051502877 -0.0032729426956823546 0 0.0017634626975986949 -0.0033798247406072075 0 0.0018827118268647863 -0.0034527241971671527 0 0.0019119744964421898 -0.0033653367349754087 0 0.0017827125846690375 -0.0034089588488192806 0 0.0018717965525862365 -0.0034800862903377381 0 0.0017634626975986949 -0.0033798247406072075 0 0.0019422633528539852 -0.00350384506597707 0 0.0018717965525862365 -0.0034800862903377381 0 0.0021100610843664946 -0.0034943838560525307 0 0.0019793140746666212 -0.0034538907178136573 0 0.0021100610843664946 -0.0034943838560525307 0 0.0020552454751313321 -0.0033686823210393305 0 0.0019793140746666212 -0.0034538907178136573 0 0.0019422633528539852 -0.00350384506597707 0 0.0021100610843664946 -0.0034943838560525307 0 0.0020552454751313321 -0.0033686823210393305 0 0.0021235751760651416 -0.0031808277219960127 0 0.0023543848625852655 -0.003291583577036598 0 0.0020552454751313321 -0.0033686823210393305 0 0.0021235751760651416 -0.0031808277219960127 0 0.0019825956646554585 -0.0032624121293287141 0 0.0021235751760651416 -0.0031808277219960127 0 0.0020156133640697803 -0.0031138979964003702 0 0.0021138059131948056 -0.0030019704692000422 0 0.0021235751760651416 -0.0031808277219960127 0 0.0019825956646554585 -0.0032624121293287141 0 0.0020156133640697803 -0.0031138979964003702 0 0.0019825956646554585 -0.0032624121293287141 0 0.0020156133640697803 -0.0031138979964003702 0 0.0018835063082646695 -0.0031396938494185197 0 0.0019825956646554585 -0.0032624121293287141 0 0.0018835063082646695 -0.0031396938494185197 0 0.001898735737007267 -0.0033144212627968825 0 0.0019825956646554585 -0.0032624121293287141 0 0.001943381698824512 -0.0033989507555170235 0 0.001898735737007267 -0.0033144212627968825 0 0.0020552454751313321 -0.0033686823210393305 0 0.0019825956646554585 -0.0032624121293287141 0 0.001943381698824512 -0.0033989507555170235 0 0.0019793140746666212 -0.0034538907178136573 0 0.0020552454751313321 -0.0033686823210393305 0 0.001943381698824512 -0.0033989507555170235 0 0.001918051139273069 -0.0034733275667288219 0 0.001943381698824512 -0.0033989507555170235 0 0.0018785267763392686 -0.0034091370613782757 0 0.001918051139273069 -0.0034733275667288219 0 0.0018785267763392686 -0.0034091370613782757 0 0.0018951507911196051 -0.0034589284488025472 0 0.0018785267763392686 -0.0034091370613782757 0 0.0018951507911196051 -0.0034589284488025472 0 0.0018807078741524103 -0.0034105155909417042 0 0.0018740222646727223 -0.0033835795106953999 0 0.001876166047056608 -0.0033583139682958427 0 0.001943381698824512 -0.0033989507555170235 0 0.0018785267763392686 -0.0034091370613782757 0 0.001898735737007267 -0.0033144212627968825 0 0.0018785267763392686 -0.0034091370613782757 0 0.0017875833721745166 -0.0033094066009000797 0 0.001898735737007267 -0.0033144212627968825 0 0.0018874818910428123 -0.0031038577623242747 0 0.001876166047056608 -0.0033583139682958427 0 0.0018835063082646695 -0.0031396938494185197 0 0.0017875833721745166 -0.0033094066009000797 0 0.001898735737007267 -0.0033144212627968825 0 0.0017364215837991494 -0.0032465366855818599 0 0.0017414602643941286 -0.0030687553670879913 0 0.0015547776731721231 -0.0029953135095863621 0 0.0018862354169199682 -0.0030755517376088674 0 0.0017364215837991494 -0.0032465366855818599 0 0.0017414602643941286 -0.0030687553670879913 0 0.001876166047056608 -0.0033583139682958427 0 0.0017338617691074457 -0.003268978468803814 0 0.0021036165467548658 -0.0034722736470766818 0 0.0020398253127256695 -0.003469777083925471 0 0.0020614244327966632 -0.0034039868667251724 0 0.0020397956851408031 -0.0035357962456822076 0 0.0021036165467548658 -0.0034722736470766818 0 0.0020398253127256695 -0.003469777083925471 0 0.0019860722575566984 -0.0035203205374288102 0 0.001876166047056608 -0.0033583139682958427 0 0.0018974785143632403 -0.0034985061782879319 0 0.0018951507911196051 -0.0034589284488025472 0 0.0018807078741524103 -0.0034105155909417042 0 0.0020031975771960114 -0.0032614793767704155 0 0.0018081010514093469 -0.0032477802539368716 0 0.0019377576039558929 -0.0030780887397143797 0 0.0020031975771960114 -0.0032614793767704155 0 0.0019377576039558929 -0.0030780887397143797 0 0.0021206606263824181 -0.0030766603734823242 0 0.0020031975771960114 -0.0032614793767704155 0 0.0021206606263824181 -0.0030766603734823242 0 0.0022111702368113749 -0.0032340858234974471 0 0.0020031975771960114 -0.0032614793767704155 0 0.0021405280521158828 -0.0033685332346032647 0 0.0022111702368113749 -0.0032340858234974471 0 0.002030400514536158 -0.0034534367891347526 0 0.0020031975771960114 -0.0032614793767704155 0 0.0021405280521158828 -0.0033685332346032647 0 0.0018295040192126981 -0.0034396313561211918 0 0.002030400514536158 -0.0034534367891347526 0 0.0020031975771960114 -0.0032614793767704155 0 0.0018295040192126981 -0.0034396313561211918 0 0.0017634626975986949 -0.0033798247406072075 0 0.0018081010514093469 -0.0032477802539368716 0 0.0018295040192126981 -0.0034396313561211918 0 0.0020031975771960114 -0.0032614793767704155 0 0.0018081010514093469 -0.0032477802539368716 0 0.0016902298051502877 -0.0032729426956823546 0 0.0017634626975986949 -0.0033798247406072075 0 0.0018081010514093469 -0.0032477802539368716 0 0.0016902298051502877 -0.0032729426956823546 0 0.0018081010514093469 -0.0032477802539368716 0 0.0016745711587661972 -0.0029911167476227287 0 0.0018081010514093469 -0.0032477802539368716 0 0.0018103957796204622 -0.0029475794442292745 0 0.0019377576039558929 -0.0030780887397143797 0 0.0018081010514093469 -0.0032477802539368716 0 0.0018103957796204622 -0.0029475794442292745 0 0.0016745711587661972 -0.0029911167476227287 0 0.0021100610843664946 -0.0034943838560525307 0 0.0020552454751313321 -0.0033686823210393305 0 0.0023543848625852655 -0.003291583577036598 0 0.0019119744964421898 -0.0033653367349754087 0 0.0020184754839554031 -0.0031309863224663176 0 0.0021235751760651416 -0.0031808277219960127 0 0.0023543848625852655 -0.003291583577036598 0 0.002278621133510331 -0.0029649468459021495 0 0.0023543848625852655 -0.003291583577036598 0 0.0025834372944254927 -0.0030057329463776131 0 0.002278621133510331 -0.0029649468459021495 0 0.0020184754839554031 -0.0031309863224663176 0 0.002144338195686634 -0.0028241804594917454 0 0.0018103957796204622 -0.0029475794442292745 0 0.0016745711587661972 -0.0029911167476227287 0 0.0016982659903789581 -0.0026625864399282728 0 0.0018103957796204622 -0.0029475794442292745 0 0.0019806059839021094 -0.0028505399591562232 0 0.0016982659903789581 -0.0026625864399282728 0 0.0018103957796204622 -0.0029475794442292745 0 0.0019377576039558929 -0.0030780887397143797 0 0.0019806059839021094 -0.0028505399591562232 0 0.0019377576039558929 -0.0030780887397143797 0 0.0021206606263824181 -0.0030766603734823242 0 0.0019806059839021094 -0.0028505399591562232 0 0.0021206606263824181 -0.0030766603734823242 0 0.0019806059839021094 -0.0028505399591562232 0 0.0022365125342389035 -0.002897124671906635 0 0.0019806059839021094 -0.0028505399591562232 0 0.0021076527845926246 -0.0026909853939581546 0 0.0019330674993983145 -0.0025336969278793781 0 0.0019806059839021094 -0.0028505399591562232 0 0.0021076527845926246 -0.0026909853939581546 0 0.0022365125342389035 -0.002897124671906635 0 0.0021076527845926246 -0.0026909853939581546 0 0.0023810957605881048 -0.0027250234611651074 0 0.0022365125342389035 -0.002897124671906635 0 0.0023810957605881048 -0.0027250234611651074 0 0.0024399660637378401 -0.0029217214223496778 0 0.0025897894209662726 -0.0028509812421173733 0 0.0023810957605881048 -0.0027250234611651074 0 0.0024399660637378401 -0.0029217214223496778 0 0.0022365125342389035 -0.002897124671906635 0 0.0024399660637378401 -0.0029217214223496778 0 0.0023584073063332165 -0.0031037823074401461 0 0.0025351223715935514 -0.0030664734798633475 0 0.0024399660637378401 -0.0029217214223496778 0 0.0022365125342389035 -0.002897124671906635 0 0.0023584073063332165 -0.0031037823074401461 0 0.0021206606263824181 -0.0030766603734823242 0 0.0022365125342389035 -0.002897124671906635 0 0.0023584073063332165 -0.0031037823074401461 0 0.0021206606263824181 -0.0030766603734823242 0 0.0022111702368113749 -0.0032340858234974471 0 0.0023584073063332165 -0.0031037823074401461 0 0.0022111702368113749 -0.0032340858234974471 0 0.0023584073063332165 -0.0031037823074401461 0 0.0024084976404652879 -0.0033018863756515745 0 0.0023584073063332165 -0.0031037823074401461 0 0.0024084976404652879 -0.0033018863756515745 0 0.0025088845450350356 -0.0032113733451913282 0 0.0023584073063332165 -0.0031037823074401461 0 0.0025088845450350356 -0.0032113733451913282 0 0.0025351223715935514 -0.0030664734798633475 0 0.0024084976404652879 -0.0033018863756515745 0 0.0022865630751314624 -0.0033868523924737207 0 0.0024602206147411715 -0.0034295181740140054 0 0.0022111702368113749 -0.0032340858234974471 0 0.0024084976404652879 -0.0033018863756515745 0 0.0022865630751314624 -0.0033868523924737207 0 0.0021405280521158828 -0.0033685332346032647 0 0.0022111702368113749 -0.0032340858234974471 0 0.0022865630751314624 -0.0033868523924737207 0 0.002730591169015046 -0.0032464735356066247 0 0.0025988692226484519 -0.003358220606828138 0 0.002748828723942308 -0.0034283798436685938 0 0.002730591169015046 -0.0032464735356066247 0 0.0028675800560634158 -0.0032859559371625903 0 0.002748828723942308 -0.0034283798436685938 0 0.002730591169015046 -0.0032464735356066247 0 0.0028027665623970269 -0.0031468538306140951 0 0.0028675800560634158 -0.0032859559371625903 0 0.0024084976404652879 -0.0033018863756515745 0 0.0025988692226484519 -0.003358220606828138 0 0.0024602206147411715 -0.0034295181740140054 0 0.0024084976404652879 -0.0033018863756515745 0 0.0025988692226484519 -0.003358220606828138 0 0.0025088845450350356 -0.0032113733451913282 0 0.0025988692226484519 -0.003358220606828138 0 0.0026147475283199201 -0.0032275269637391493 0 0.0025088845450350356 -0.0032113733451913282 0 0.002730591169015046 -0.0032464735356066247 0 0.0025988692226484519 -0.003358220606828138 0 0.0026147475283199201 -0.0032275269637391493 0 0.0026147475283199201 -0.0032275269637391493 0 0.0025351223715935514 -0.0030664734798633475 0 0.0026909717143219184 -0.0030502019074014324 0 0.0026147475283199201 -0.0032275269637391493 0 0.0025088845450350356 -0.0032113733451913282 0 0.0025351223715935514 -0.0030664734798633475 0 0.002730591169015046 -0.0032464735356066247 0 0.0028027665623970269 -0.0031468538306140951 0 0.0026909717143219184 -0.0030502019074014324 0 0.002730591169015046 -0.0032464735356066247 0 0.0026147475283199201 -0.0032275269637391493 0 0.0026909717143219184 -0.0030502019074014324 0 0.0028027665623970269 -0.0031468538306140951 0 0.0027829471058700901 -0.003048693254346408 0 0.0028328718483006704 -0.003073834482665534 0 0.0028027665623970269 -0.0031468538306140951 0 0.0027829471058700901 -0.003048693254346408 0 0.0026909717143219184 -0.0030502019074014324 0 0.0026909717143219184 -0.0030502019074014324 0 0.0025897894209662726 -0.0028509812421173733 0 0.0027642779784298301 -0.0028384285311864191 0 0.0027829471058700901 -0.003048693254346408 0 0.0027642779784298301 -0.0028384285311864191 0 0.0028753912044312394 -0.0030523143628129611 0 0.0027829471058700901 -0.003048693254346408 0 0.0026909717143219184 -0.0030502019074014324 0 0.0027642779784298301 -0.0028384285311864191 0 0.0025417378295191496 -0.0018351678442543953 0 0.0023442636772426626 -0.0023311037801228254 0 0.0024399660637378401 -0.0029217214223496778 0 0.0025351223715935514 -0.0030664734798633475 0 0.0025897894209662726 -0.0028509812421173733 0 0.0025351223715935514 -0.0030664734798633475 0 0.0026909717143219184 -0.0030502019074014324 0 0.0025897894209662726 -0.0028509812421173733 0 0.0025897894209662726 -0.0028509812421173733 0 0.0027642779784298301 -0.0028384285311864191 0 0.002643634818274722 -0.0025981535661605574 0 0.0023810957605881048 -0.0027250234611651074 0 0.0025897894209662726 -0.0028509812421173733 0 0.002643634818274722 -0.0025981535661605574 0 0.0025417378295191496 -0.0018351678442543953 0 0.0024606441965385876 -0.0017509397762269115 0 0.0022971902441078149 -0.00092009809333019194 0 0.0023092636986192308 -0.00091620763355101031 0 0.0023102090952672148 -0.00089401440879208617 0 0.0023092636986192308 -0.00091620763355101031 0 0.0023049798178856789 -0.00091851591245994838 0 0.0023102090952672148 -0.00089401440879208617 0 0.0023092636986192308 -0.00091620763355101031 0 0.0023077223555760264 -0.00092140936549319223 0 0.0023049798178856789 -0.00091851591245994838 0 0.0023092636986192308 -0.00091620763355101031 0 0.0023077223555760264 -0.00092140936549319223 0 0.002308612901520477 -0.00092862824454575303 0 0.0022971902441078149 -0.00092009809333019194 0 0.0023092636986192308 -0.00091620763355101031 0 0.002308612901520477 -0.00092862824454575303 0 0.0027829471058700901 -0.003048693254346408 0 0.0028753912044312394 -0.0030523143628129611 0 0.0028328718483006704 -0.003073834482665534 0 0.0022681184424844674 -0.0009751246063520756 0 0.0022898063755407406 -0.00093863419415793022 0 0.0022893297912626146 -0.00093568598741459454 0 0.0022898063755407406 -0.00093863419415793022 0 0.0023049798178856789 -0.00091851591245994838 0 0.0022893297912626146 -0.00093568598741459454 0 0.0023077223555760264 -0.00092140936549319223 0 0.0023049798178856789 -0.00091851591245994838 0 0.0022965548841476203 -0.00092226123798588985 0 0.0023049798178856789 -0.00091851591245994838 0 0.0022965548841476203 -0.00092226123798588985 0 0.0022893297912626146 -0.00093568598741459454 0 0.0022617384941276469 -0.00092100917841060636 0 0.0022965548841476203 -0.00092226123798588985 0 0.0022893297912626146 -0.00093568598741459454 0 0.0022617384941276469 -0.00092100917841060636 0 0.0022419986217227547 -0.00088013766880333305 0 0.002273887137500583 -0.00090319479043142513 0 0.0022617384941276469 -0.00092100917841060636 0 0.0022965548841476203 -0.00092226123798588985 0 0.002273887137500583 -0.00090319479043142513 0 0.0022965548841476203 -0.00092226123798588985 0 0.002273887137500583 -0.00090319479043142513 0 0.0022909054743894194 -0.00088377691956014739 0 0.0022965548841476203 -0.00092226123798588985 0 0.0022909054743894194 -0.00088377691956014739 0 0.0023106992494300463 -0.00091356091942059305 0 0.0021702422371953165 -0.0017300059866137425 0 0.0020450582696855575 -0.0017822287024432909 0 0.001845746185111309 -0.0027472705935221902 0 0.0019212677264239795 -0.0027567285507283414 0 0.0018488337588793544 -0.0026943311668454297 0 0.0025986657434345635 -0.0030009285693618202 0 0.0015854665021632951 -0.0039985965749137452 0 0.0021702422371953165 -0.0017300059866137425 0 0.0008165082742384815 -0.003255166666558808 0 0.0022419986217227547 -0.00088013766880333305 0 0.0022909054743894194 -0.00088377691956014739 0 0.0022411875067873963 -0.00084273148747127547 0 0.0022419986217227547 -0.00088013766880333305 0 0.002273887137500583 -0.00090319479043142513 0 0.0022909054743894194 -0.00088377691956014739 0 0.0023442636772426626 -0.0023311037801228254 0 0.0025986657434345635 -0.0030009285693618202 0 0.0028027665623970269 -0.0031468538306140951 0 0.0028753912044312394 -0.0030523143628129611 0 0.0028675800560634158 -0.0032859559371625903 0 0.0023442636772426626 -0.0023311037801228254 0 0.0020450582696855575 -0.0017822287024432909 0 0.0028753912044312394 -0.0030523143628129611 0 0.0030001888505797815 -0.0032730373855086804 0 0.0028675800560634158 -0.0032859559371625903 0 0.0028027665623970269 -0.0031468538306140951 0 0.0028753912044312394 -0.0030523143628129611 0 0.0028328718483006704 -0.003073834482665534 0 0.0019860487098463634 -0.0027983949762790585 0 0.0019209382973112098 -0.0027767113851908244 0 0.0019212677264239795 -0.0027567285507283414 0 0.0023077223555760264 -0.00092140936549319223 0 0.0022965548841476203 -0.00092226123798588985 0 0.0023106992494300463 -0.00091356091942059305 0 0.0023077223555760264 -0.00092140936549319223 0 0.002308612901520477 -0.00092862824454575303 0 0.0023106992494300463 -0.00091356091942059305 0 0.001845746185111309 -0.0027472705935221902 0 0.0019209382973112098 -0.0027767113851908244 0 0.0019212677264239795 -0.0027567285507283414 0 0.0030001888505797815 -0.0032730373855086804 0 0.0028675800560634158 -0.0032859559371625903 0 0.002891786882585319 -0.0035092210856909351 0 0.0028675800560634158 -0.0032859559371625903 0 0.002891786882585319 -0.0035092210856909351 0 0.002748828723942308 -0.0034283798436685938 0 0.0020624641262112146 -0.0044745100819017268 0 0.0015854665021632951 -0.0039985965749137452 0 0.0030001888505797815 -0.0032730373855086804 0 0.002891786882585319 -0.0035092210856909351 0 0.0031201226712385607 -0.0034635189596075111 0 0.0010813221521182345 -0.0053331234897077556 0 0.00078758093567808294 -0.0053831856618847583 0 0.00081119281711373114 -0.0052302659246203894 0 0.0010314701082237867 -0.0052052582251221405 0 0.00082645573696773611 -0.0052268784403498823 0 0.0010813221521182345 -0.0053331234897077556 0 0.0011226027726565066 -0.0051556996754243576 0 0.00081119281711373114 -0.0052302659246203894 0 0.0010813221521182345 -0.0053331234897077556 0 0.0011226027726565066 -0.0051556996754243576 0 0.0014052096890391959 -0.0052432118722850491 0 0.001845746185111309 -0.0027472705935221902 0 0.0017642278734181754 -0.0027073898476480218 0 0.0018488337588793544 -0.0026943311668454297 0 0.00024111163778826945 -0.0047740447880557585 0 0.00056914200715213286 -0.004720280441614301 0 0.00034929469494790933 -0.0044676768236322582 0 0.0008165082742384815 -0.003255166666558808 0 0.0015854665021632951 -0.0039985965749137452 0 0.0015854665021632951 -0.0039985965749137452 0 0.00049923487631808091 -0.0049424888215480415 0 0.00078758093567808294 -0.0053831856618847583 0 0.00081119281711373114 -0.0052302659246203894 0 0.00069783036595520676 -0.005259137636067987 0 0.000412836569401164 -0.0047006151507777661 0 0.00049923487631808091 -0.0049424888215480415 0 0.00062530578481102838 -0.0051846027857629174 0 0.00069783036595520676 -0.005259137636067987 0 0.00072154537349640728 -0.0051716068561101711 0 0.00081119281711373114 -0.0052302659246203894 0 0.00072154537349640728 -0.0051716068561101711 0 0.00080584093237816463 -0.0051557612152735646 0 0.00081119281711373114 -0.0052302659246203894 0 0.00069783036595520676 -0.005259137636067987 0 0.00072154537349640728 -0.0051716068561101711 0 0.00072154537349640728 -0.0051716068561101711 0 0.00080584093237816463 -0.0051557612152735646 0 0.00073888607148946898 -0.0050979401163550892 0 0.00083267875453618169 -0.0050805568454274407 0 0.00080584093237816463 -0.0051557612152735646 0 0.00073888607148946898 -0.0050979401163550892 0 0.00062530578481102838 -0.0051846027857629174 0 0.00072154537349640728 -0.0051716068561101711 0 0.00064702654982580184 -0.0051062305156824861 0 0.00072154537349640728 -0.0051716068561101711 0 0.00073888607148946898 -0.0050979401163550892 0 0.00064702654982580184 -0.0051062305156824861 0 0.00092348614941341843 -0.0051916104607996928 0 0.00087456684974697809 -0.0051951496664239226 0 0.00090231546642976059 -0.0051413515394701428 0 0.00092348614941341843 -0.0051916104607996928 0 0.00095532868294938788 -0.0051550331741733622 0 0.0010120471668351315 -0.0052292687856581744 0 0.00093796277155028338 -0.0052529874618164338 0 0.00092348614941341843 -0.0051916104607996928 0 0.0010120471668351315 -0.0052292687856581744 0 0.00093796277155028338 -0.0052529874618164338 0 0.00092348614941341843 -0.0051916104607996928 0 0.00087456684974697809 -0.0051951496664239226 0 0.00081119281711373114 -0.0052302659246203894 0 0.00080584093237816463 -0.0051557612152735646 0 0.00087456684974697809 -0.0051951496664239226 0 0.00093796277155028338 -0.0052529874618164338 0 0.00081119281711373114 -0.0052302659246203894 0 0.00087456684974697809 -0.0051951496664239226 0 0.00080584093237816463 -0.0051557612152735646 0 0.00087456684974697809 -0.0051951496664239226 0 0.00090231546642976059 -0.0051413515394701428 0 0.00083267875453618169 -0.0050805568454274407 0 0.00080584093237816463 -0.0051557612152735646 0 0.00090231546642976059 -0.0051413515394701428 0 0.00090629936000983071 -0.0050848206420931342 0 0.00083267875453618169 -0.0050805568454274407 0 0.00090231546642976059 -0.0051413515394701428 0 0.00090629936000983071 -0.0050848206420931342 0 0.00090231546642976059 -0.0051413515394701428 0 0.00094887089376541616 -0.0051195548847660132 0 0.00092348614941341843 -0.0051916104607996928 0 0.00090231546642976059 -0.0051413515394701428 0 0.00095532868294938788 -0.0051550331741733622 0 0.00090231546642976059 -0.0051413515394701428 0 0.00095532868294938788 -0.0051550331741733622 0 0.00094887089376541616 -0.0051195548847660132 0 0.0010935603564010384 -0.0051776187081459491 0 0.0010829161609015008 -0.0052000560180281673 0 0.0010120471668351315 -0.0052292687856581744 0 0.00097353489815269335 -0.0051166590903454464 0 0.00094887089376541616 -0.0051195548847660132 0 0.00097878031929706497 -0.0051091496769669186 0 0.0010344374991164058 -0.0051528936031391146 0 0.0010138816356417258 -0.0052293588801123362 0 0.00095532868294938788 -0.0051550331741733622 0 0.00094887089376541616 -0.0051195548847660132 0 0.00097878031929706497 -0.0051091496769669186 0 0.00095532868294938788 -0.0051550331741733622 0 0.00097878031929706497 -0.0051091496769669186 0 0.0010120471668351315 -0.0052292687856581744 0 0.0010935603564010384 -0.0051776187081459491 0 0.0010829161609015008 -0.0052000560180281673 0 0.0011110463394415719 -0.005184910808433368 0 0.0011128602006721018 -0.0051801459999224336 0 0.0010935603564010384 -0.0051776187081459491 0 0.0011110463394415719 -0.005184910808433368 0 0.00093796277155028338 -0.0052529874618164338 0 0.0010120471668351315 -0.0052292687856581744 0 0.0011012810281496306 -0.0052540326271563933 0 0.0010829161609015008 -0.0052000560180281673 0 0.0010776606818407781 -0.0052185466063523972 0 0.0010120471668351315 -0.0052292687856581744 0 0.0010776606818407781 -0.0052185466063523972 0 0.0010120471668351315 -0.0052292687856581744 0 0.0011012810281496306 -0.0052540326271563933 0 0.001107477883176286 -0.0052221778850773098 0 0.0011339045551853274 -0.0052315872582597046 0 0.0011012810281496306 -0.0052540326271563933 0 0.0010776606818407781 -0.0052185466063523972 0 0.001107477883176286 -0.0052221778850773098 0 0.0011012810281496306 -0.0052540326271563933 0 0.0010776606818407781 -0.0052185466063523972 0 0.001107477883176286 -0.0052221778850773098 0 0.0010976715291198061 -0.0052039132059238553 0 0.001107477883176286 -0.0052221778850773098 0 0.0010976715291198061 -0.0052039132059238553 0 0.0011189617672025828 -0.0052065435890267754 0 0.0010829161609015008 -0.0052000560180281673 0 0.0010776606818407781 -0.0052185466063523972 0 0.0010976715291198061 -0.0052039132059238553 0 0.001107477883176286 -0.0052221778850773098 0 0.0011189617672025828 -0.0052065435890267754 0 0.0011339045551853274 -0.0052315872582597046 0 0.0011189617672025828 -0.0052065435890267754 0 0.0011110463394415719 -0.005184910808433368 0 0.0011303965219902445 -0.005193622020234899 0 0.0010829161609015008 -0.0052000560180281673 0 0.0010976715291198061 -0.0052039132059238553 0 0.0011110463394415719 -0.005184910808433368 0 0.0010976715291198061 -0.0052039132059238553 0 0.0011189617672025828 -0.0052065435890267754 0 0.0011110463394415719 -0.005184910808433368 0 0.0011334653051896344 -0.0051801845393709819 0 0.0011110463394415719 -0.005184910808433368 0 0.0011303965219902445 -0.005193622020234899 0 0.0011334653051896344 -0.0051801845393709819 0 0.0011512760042820562 -0.0051890944361619963 0 0.0011303965219902445 -0.005193622020234899 0 0.0011537078055519937 -0.0051733625682217205 0 0.0011334653051896344 -0.0051801845393709819 0 0.0011512760042820562 -0.0051890944361619963 0 0.0011512760042820562 -0.0051890944361619963 0 0.0011619592397671744 -0.0052063334842293559 0 0.001142259056512376 -0.0052073219581081328 0 0.0011189617672025828 -0.0052065435890267754 0 0.001142259056512376 -0.0052073219581081328 0 0.0011303965219902445 -0.005193622020234899 0 0.0011512760042820562 -0.0051890944361619963 0 0.001142259056512376 -0.0052073219581081328 0 0.0011303965219902445 -0.005193622020234899 0 0.0011537078055519937 -0.0051733625682217205 0 0.0011512760042820562 -0.0051890944361619963 0 0.001186493343000155 -0.0051848131241180075 0 0.0011512760042820562 -0.0051890944361619963 0 0.0011619592397671744 -0.0052063334842293559 0 0.001186493343000155 -0.0051848131241180075 0 0.0011619592397671744 -0.0052063334842293559 0 0.001186493343000155 -0.0051848131241180075 0 0.0011777769536968745 -0.005219092082146764 0 0.0015274329020632234 -0.0051406716167664568 0 0.0014128254862537186 -0.0051661900317301682 0 0.0012552197019913174 -0.0052402012214628627 0 0.0012064531209851682 -0.0052179903326822485 0 0.0011676562910877977 -0.0052428357641778976 0 0.001186493343000155 -0.0051848131241180075 0 0.0012064531209851682 -0.0052179903326822485 0 0.0011777769536968745 -0.005219092082146764 0 0.0011777769536968745 -0.005219092082146764 0 0.0011676562910877977 -0.0052428357641778976 0 0.0011559282767158667 -0.0052222559616721389 0 0.0012064531209851682 -0.0052179903326822485 0 0.0011777769536968745 -0.005219092082146764 0 0.0011676562910877977 -0.0052428357641778976 0 0.0011676562910877977 -0.0052428357641778976 0 0.0011339045551853274 -0.0052315872582597046 0 0.0011012810281496306 -0.0052540326271563933 0 0.0014128254862537186 -0.0051661900317301682 0 0.0012657592534027753 -0.0051838197007528777 0 0.0011189617672025828 -0.0052065435890267754 0 0.001142259056512376 -0.0052073219581081328 0 0.0011339045551853274 -0.0052315872582597046 0 0.001142259056512376 -0.0052073219581081328 0 0.0011559282767158667 -0.0052222559616721389 0 0.0011339045551853274 -0.0052315872582597046 0 0.0011619592397671744 -0.0052063334842293559 0 0.001142259056512376 -0.0052073219581081328 0 0.0011559282767158667 -0.0052222559616721389 0 0.0011619592397671744 -0.0052063334842293559 0 0.0011777769536968745 -0.005219092082146764 0 0.0011559282767158667 -0.0052222559616721389 0 0.0011676562910877977 -0.0052428357641778976 0 0.0011559282767158667 -0.0052222559616721389 0 0.0011339045551853274 -0.0052315872582597046 0 0.0023369267885765721 -0.0036265505943223857 0 0.002453775206238659 -0.0035314832770677726 0 0.0026280320093676627 -0.0035735033873135341 0 0.0016603969282767887 -0.0050867863235521506 0 0.0016487245554782765 -0.0051518318494628212 0 0.0014316553254039835 -0.0051148480289908262 0 0.0020699331681082065 -0.0036396578303218188 0 0.0023369267885765721 -0.0036265505943223857 0 0.0021750474631794026 -0.0035721496378795219 0 0.0023369267885765721 -0.0036265505943223857 0 0.0021750474631794026 -0.0035721496378795219 0 0.0022537422797125947 -0.003545433378042391 0 0.001917815263869826 -0.0043670894425946868 0 0.0019959289137738401 -0.0043879673371121607 0 0.0017836368688654129 -0.0050804143159015472 0 0.0016603969282767887 -0.0050867863235521506 0 0.0016487245554782765 -0.0051518318494628212 0 0.0023369267885765721 -0.0036265505943223857 0 0.0022537422797125947 -0.003545433378042391 0 0.0023338789525931434 -0.0034905115108375645 0 0.0022865630751314624 -0.0033868523924737207 0 0.0021731668683251338 -0.0034945928688398299 0 0.0023338789525931434 -0.0034905115108375645 0 0.0021731668683251338 -0.0034945928688398299 0 0.0022537422797125947 -0.003545433378042391 0 0.0023338789525931434 -0.0034905115108375645 0 0.0021750474631794026 -0.0035721496378795219 0 0.0021731668683251338 -0.0034945928688398299 0 0.0022537422797125947 -0.003545433378042391 0 0.0021405280521158828 -0.0033685332346032647 0 0.0022865630751314624 -0.0033868523924737207 0 0.0021731668683251338 -0.0034945928688398299 0 0.0022865630751314624 -0.0033868523924737207 0 0.0023338789525931434 -0.0034905115108375645 0 0.0024602206147411715 -0.0034295181740140054 0 0.002453775206238659 -0.0035314832770677726 0 0.0023338789525931434 -0.0034905115108375645 0 0.0024602206147411715 -0.0034295181740140054 0 0.0023369267885765721 -0.0036265505943223857 0 0.002453775206238659 -0.0035314832770677726 0 0.0023338789525931434 -0.0034905115108375645 0 0.002453775206238659 -0.0035314832770677726 0 0.0025575903669859765 -0.0034709505425673617 0 0.0026280320093676627 -0.0035735033873135341 0 0.0025988692226484519 -0.003358220606828138 0 0.0024602206147411715 -0.0034295181740140054 0 0.0025575903669859765 -0.0034709505425673617 0 0.002453775206238659 -0.0035314832770677726 0 0.0024602206147411715 -0.0034295181740140054 0 0.0025575903669859765 -0.0034709505425673617 0 0.0025575903669859765 -0.0034709505425673617 0 0.0026335523298313237 -0.0034574328509417826 0 0.0026280320093676627 -0.0035735033873135341 0 0.0025988692226484519 -0.003358220606828138 0 0.0025575903669859765 -0.0034709505425673617 0 0.0026335523298313237 -0.0034574328509417826 0 0.0025988692226484519 -0.003358220606828138 0 0.0026335523298313237 -0.0034574328509417826 0 0.002748828723942308 -0.0034283798436685938 0 0.002891786882585319 -0.0035092210856909351 0 0.002748828723942308 -0.0034283798436685938 0 0.0026280320093676627 -0.0035735033873135341 0 0.0026335523298313237 -0.0034574328509417826 0 0.002748828723942308 -0.0034283798436685938 0 0.0026280320093676627 -0.0035735033873135341 0 0.0020624641262112146 -0.0044745100819017268 0 0.0019954809985114007 -0.0044018945205026696 0 0.0010314701082237867 -0.0052052582251221405 0 0.0012657592534027753 -0.0051838197007528777 0 0.0011226027726565066 -0.0051556996754243576 0 0.0014316553254039835 -0.0051148480289908262 0 0.0014052096890391959 -0.0052432118722850491 0 0.0016487245554782765 -0.0051518318494628212 0 0.0014316553254039835 -0.0051148480289908262 0 0.0014052096890391959 -0.0052432118722850491 0 0.0019959289137738401 -0.0043879673371121607 0 0.0019954809985114007 -0.0044018945205026696 0 0.0050866072655638365 -0.0038707232832442648 0 0.0050864177496491433 -0.0039330462351161513 0 0.0050910139006444021 -0.0039172054145205594 0 0.0050001018926743067 -0.0039813754083448637 0 0.0050866072655638365 -0.0038707232832442648 0 0.0050910139006444021 -0.0039172054145205594 0 0.0050001018926743067 -0.0039813754083448637 0 0.0050866072655638365 -0.0038707232832442648 0 0.0049999145824149065 -0.003710923060449733 0 0.0051145685103408381 -0.0039862587850387609 0 0.0051301874648661287 -0.0037896906295886421 0 0.0050866072655638365 -0.0038707232832442648 0 0.0050864177496491433 -0.0039330462351161513 0 0.0051784066899376504 -0.003705285611462013 0 0.0048960617227402081 -0.0040074457249321448 0 0.0050864177496491433 -0.0039330462351161513 0 0.0049510987804787252 -0.0041451589965457837 0 0.0050864177496491433 -0.0039330462351161513 0 0.0049510987804787252 -0.0041451589965457837 0 0.0051550981074255731 -0.0041884244771655662 0 0.0048960617227402081 -0.0040074457249321448 0 0.0047854235064768063 -0.004116128828317453 0 0.0049510987804787252 -0.0041451589965457837 0 0.0048960617227402081 -0.0040074457249321448 0 0.0049395385232976945 -0.0039025345847172477 0 0.0047560045556665331 -0.0039754785596178791 0 0.0048960617227402081 -0.0040074457249321448 0 0.0049395385232976945 -0.0039025345847172477 0 0.0050864177496491433 -0.0039330462351161513 0 0.0049395385232976945 -0.0039025345847172477 0 0.0050864177496491433 -0.0039330462351161513 0 0.0050410080039069455 -0.0038671849698473939 0 0.0049395385232976945 -0.0039025345847172477 0 0.0048676877291395186 -0.0037040907629240878 0 0.0047560045556665331 -0.0039754785596178791 0 0.0049395385232976945 -0.0039025345847172477 0 0.0050410080039069455 -0.0038671849698473939 0 0.0048676877291395186 -0.0037040907629240878 0 0.0045282783241413311 -0.0051331726006748762 0 0.0048098078722413175 -0.0048897703148253801 0 0.0045898827857158968 -0.0049585596689742184 0 0.0046800738039132492 -0.0044081637296974549 0 0.0049799223406828538 -0.0044139365772155915 0 0.0045282783241413311 -0.0051331726006748762 0 0.0048098078722413175 -0.0048897703148253801 0 0.0048487347431910932 -0.0049222493600947917 0 0.0050410080039069455 -0.0038671849698473939 0 0.0048676877291395186 -0.0037040907629240878 0 0.0050616112778383701 -0.0037664297117375361 0 0.0050070657358601296 -0.0045777017411506313 0 0.0049799223406828538 -0.0044139365772155915 0 0.0048569381666981578 -0.004869908549224795 0 0.00499989957647432 -0.0043454308045575837 0 0.0049296384952814912 -0.0046772990919068435 0 0.0049799223406828538 -0.0044139365772155915 0 0.0051114081790801999 -0.0039841088346152529 0 0.0052852252804770593 -0.0043078908961376398 0 0.0051443104835703747 -0.0041473717023118029 0 0.0051077902771969157 -0.0042409180666326176 0 0.0048098078722413175 -0.0048897703148253801 0 0.0048569381666981578 -0.004869908549224795 0 0.0049296384952814912 -0.0046772990919068435 0 0.0050864177496491433 -0.0039330462351161513 0 0.0050410080039069455 -0.0038671849698473939 0 0.0050910139006444021 -0.0039172054145205594 0 0.0050410080039069455 -0.0038671849698473939 0 0.0050616112778383701 -0.0037664297117375361 0 0.0050910139006444021 -0.0039172054145205594 0 0.0050000437277947932 -0.0039817740496056464 0 0.0051114081790801999 -0.0039841088346152529 0 0.0050000011034229495 -0.0039817510753055053 0 0.0051443104835703747 -0.0041473717023118029 0 0.0049999963543798523 -0.0041630507269166828 0 0.0051443104835703747 -0.0041473717023118029 0 0.0049999963543798523 -0.0041630507269166828 0 0.0051077902771969157 -0.0042409180666326176 0 0.0049999963543798523 -0.0041630507269166828 0 0.0049999991780458981 -0.0043443349970852373 0 0.0051077902771969157 -0.0042409180666326176 0 0.0049799223406828538 -0.0044139365772155915 0 0.0050000312565757791 -0.0043445481478786895 0 0.0052852252804770593 -0.0043078908961376398 0 0.0049999991780458981 -0.0043443349970852373 0 0.0051077902771969157 -0.0042409180666326176 0 0.00499989957647432 -0.0043454308045575837 0 0.0049296384952814912 -0.0046772990919068435 0 0.0049999334124280976 -0.0045945934580508873 0 0.0049999817564821388 -0.0049992522025130654 0 0.004497523019165681 -0.0049837334417106001 0 0.0040041909058070764 -0.0049997744268004156 0 0.0048098078722413175 -0.0048897703148253801 0 0.0049296384952814912 -0.0046772990919068435 0 0.0047501594637225043 -0.0048193459245405353 0 0.0049296384952814912 -0.0046772990919068435 0 0.0048718184290921472 -0.0046573375448418419 0 0.0047501594637225043 -0.0048193459245405353 0 0.0049296384952814912 -0.0046772990919068435 0 0.0048718184290921472 -0.0046573375448418419 0 0.0049999334124280976 -0.0045945934580508873 0 0.0048340937415707079 -0.004772741180916488 0 0.0049999287142531608 -0.0045951912118662929 0 0.0048171693922628937 -0.004880544666438948 0 0.0049995059761411388 -0.0045964629790248472 0 0.0049999817564821388 -0.0049992522025130654 0 0.0048171693922628937 -0.004880544666438948 0 0.0049999817564821388 -0.0049992522025130654 0 0.004497523019165681 -0.0049837334417106001 0 0.0048171693922628937 -0.004880544666438948 0 0.004497523019165681 -0.0049837334417106001 0 0.0045633914582818421 -0.0049413518632434126 0 0.0045633914582818421 -0.0049413518632434126 0 0.0045898827857158968 -0.0049585596689742184 0 0.0044494580702236497 -0.0049977190811452566 0 0.004497523019165681 -0.0049837334417106001 0 0.0045633914582818421 -0.0049413518632434126 0 0.0044494580702236497 -0.0049977190811452566 0 0.0048718184290921472 -0.0046573375448418419 0 0.0045633914582818421 -0.0049413518632434126 0 0.0047501594637225043 -0.0048193459245405353 0 0.0048340937415707079 -0.004772741180916488 0 0.0045977778233803118 -0.0049095215498274952 0 0.0048098078722413175 -0.0048897703148253801 0 0.0047501594637225043 -0.0048193459245405353 0 0.0045898827857158968 -0.0049585596689742184 0 0.0045282783241413311 -0.0051331726006748762 0 0.0045898827857158968 -0.0049585596689742184 0 0.0043941503421564354 -0.0050746217627396714 0 0.0045633914582818421 -0.0049413518632434126 0 0.0047501594637225043 -0.0048193459245405353 0 0.0045898827857158968 -0.0049585596689742184 0 0.0045898827857158968 -0.0049585596689742184 0 0.0043941503421564354 -0.0050746217627396714 0 0.0044494580702236497 -0.0049977190811452566 0 0.0043941503421564354 -0.0050746217627396714 0 0.0043426810362711408 -0.0050473950725521601 0 0.0044494580702236497 -0.0049977190811452566 0 0.0043941503421564354 -0.0050746217627396714 0 0.0043426810362711408 -0.0050473950725521601 0 0.0042293522572545619 -0.0050904064530689942 0 0.0043941503421564354 -0.0050746217627396714 0 0.0042293522572545619 -0.0050904064530689942 0 0.0042986117087624523 -0.0052429673421468944 0 0.004318235181168301 -0.0050211797618627046 0 0.0042709103860830225 -0.0050353753577086248 0 0.0041497487371261613 -0.0050505159091497167 0 0.0043426810362711408 -0.0050473950725521601 0 0.004318235181168301 -0.0050211797618627046 0 0.0042293522572545619 -0.0050904064530689942 0 0.004497523019165681 -0.0049837334417106001 0 0.004318235181168301 -0.0050211797618627046 0 0.0044494580702236497 -0.0049977190811452566 0 0.0043426810362711408 -0.0050473950725521601 0 0.004318235181168301 -0.0050211797618627046 0 0.0044494580702236497 -0.0049977190811452566 0 0.004497523019165681 -0.0049837334417106001 0 0.004318235181168301 -0.0050211797618627046 0 0.0042709103860830225 -0.0050353753577086248 0 0.004497523019165681 -0.0049837334417106001 0 0.0042709103860830225 -0.0050353753577086248 0 0.0040041909058070764 -0.0049997744268004156 0 0.0042709103860830225 -0.0050353753577086248 0 0.0040041909058070764 -0.0049997744268004156 0 0.0039564316260923341 -0.0051711872446086864 0 0.0042438045487457983 -0.0050450713297621593 0 0.0040503025496712378 -0.0050630182396607833 0 0.0042709103860830225 -0.0050353753577086248 0 0.0041552278191297328 -0.0049687736856328293 0 0.0041497487371261613 -0.0050505159091497167 0 0.0040041909058070764 -0.0049997744268004156 0 0.0039564316260923341 -0.0051711872446086864 0 0.0037087031226380588 -0.0051991264405046858 0 0.0040503025496712378 -0.0050630182396607833 0 0.0038099131941073533 -0.0050489535677223432 0 0.0041552278191297328 -0.0049687736856328293 0 0.0041497487371261613 -0.0050505159091497167 0 0.0039207459000543234 -0.0049002338905341017 0 0.0041137459737333121 -0.0049510077140607622 0 0.0039687059991338853 -0.0050430830019521427 0 0.0038047026889829359 -0.0049206145705643503 0 0.0041137459737333121 -0.0049510077140607622 0 0.0039687059991338853 -0.0050430830019521427 0 0.0040960080590690586 -0.0050824422864501227 0 0.0041281045783863671 -0.0050010682371595056 0 0.003826037103704561 -0.0049799503898627483 0 0.0043055647913986103 -0.0050182844163061567 0 0.0041281045783863671 -0.0050010682371595056 0 0.004318235181168301 -0.0050211797618627046 0 0.0041137459737333121 -0.0049510077140607622 0 0.0042293522572545619 -0.0050904064530689942 0 0.0041137459737333121 -0.0049510077140607622 0 0.0042293522572545619 -0.0050904064530689942 0 0.0040960080590690586 -0.0050824422864501227 0 0.0042293522572545619 -0.0050904064530689942 0 0.0040960080590690586 -0.0050824422864501227 0 0.0041366682314844657 -0.0051844903999042893 0 0.0039687059991338853 -0.0050430830019521427 0 0.0040960080590690586 -0.0050824422864501227 0 0.0039874524403694326 -0.0051618022517680344 0 0.0040960080590690586 -0.0050824422864501227 0 0.0039874524403694326 -0.0051618022517680344 0 0.0041366682314844657 -0.0051844903999042893 0 0.0039874524403694326 -0.0051618022517680344 0 0.0040470833938720321 -0.0053395763058153838 0 0.0041366682314844657 -0.0051844903999042893 0 0.0039874524403694326 -0.0051618022517680344 0 0.0040470833938720321 -0.0053395763058153838 0 0.0038521740139363402 -0.0052457935899494759 0 0.0041593901407238846 -0.0036854870730557046 0 0.0041152879792781252 -0.0040683861072444826 0 0.0037513623154571225 -0.0037291012595472369 0 0.0041593901407238846 -0.0036854870730557046 0 0.0045539278868852893 -0.0036785483388585023 0 0.0043974420913326807 -0.0039253579246086951 0 0.0042293522572545619 -0.0050904064530689942 0 0.0041366682314844657 -0.0051844903999042893 0 0.0042986117087624523 -0.0052429673421468944 0 0.0040759970552915392 -0.0045160919609581298 0 0.0044270347445365928 -0.004462568778856613 0 0.0040470833938720321 -0.0053395763058153838 0 0.0041366682314844657 -0.0051844903999042893 0 0.0042986117087624523 -0.0052429673421468944 0 0.0048676877291395186 -0.0037040907629240878 0 0.0045539278868852893 -0.0036785483388585023 0 0.0047560045556665331 -0.0039754785596178791 0 0.0045282783241413311 -0.0051331726006748762 0 0.0043941503421564354 -0.0050746217627396714 0 0.0042986117087624523 -0.0052429673421468944 0 0.0046800738039132492 -0.0044081637296974549 0 0.0044270347445365928 -0.004462568778856613 0 0.0045539278868852893 -0.0036785483388585023 0 0.0047560045556665331 -0.0039754785596178791 0 0.0043974420913326807 -0.0039253579246086951 0 0.0047560045556665331 -0.0039754785596178791 0 0.0045022019416182382 -0.0042128289229630862 0 0.0043974420913326807 -0.0039253579246086951 0 0.0047560045556665331 -0.0039754785596178791 0 0.0045982254317932115 -0.0040541368935458569 0 0.0047854235064768063 -0.004116128828317453 0 0.0048960617227402081 -0.0040074457249321448 0 0.0047560045556665331 -0.0039754785596178791 0 0.0047854235064768063 -0.004116128828317453 0 0.0047534564123604458 -0.0039804363381430842 0 0.0045138078256728182 -0.0041480818628363298 0 0.0045022019416182382 -0.0042128289229630862 0 0.0041152879792781252 -0.0040683861072444826 0 0.0042271293268639921 -0.0044267708713930272 0 0.0041152879792781252 -0.0040683861072444826 0 0.0039788666585865093 -0.0043662794280143764 0 0.0042271293268639921 -0.0044267708713930272 0 0.0041593901407238846 -0.0036854870730557046 0 0.0041152879792781252 -0.0040683861072444826 0 0.0043974420913326807 -0.0039253579246086951 0 0.0045022019416182382 -0.0042128289229630862 0 0.0041152879792781252 -0.0040683861072444826 0 0.0043974420913326807 -0.0039253579246086951 0 0.0038008684612370839 -0.0041028545105689729 0 0.0035519892297892724 -0.0040618221894001012 0 0.0037513623154571225 -0.0037291012595472369 0 0.0041152879792781252 -0.0040683861072444826 0 0.0038008684612370839 -0.0041028545105689729 0 0.0037513623154571225 -0.0037291012595472369 0 0.0041152879792781252 -0.0040683861072444826 0 0.0038008684612370839 -0.0041028545105689729 0 0.0039788666585865093 -0.0043662794280143764 0 0.0038008684612370839 -0.0041028545105689729 0 0.0037504174080754001 -0.0043430475757627119 0 0.0039788666585865093 -0.0043662794280143764 0 0.00255992160329982 -0.0041839547813864982 0 0.0026506293033903613 -0.0044134736178653702 0 0.0038008684612370839 -0.0041028545105689729 0 0.0035519892297892724 -0.0040618221894001012 0 0.0037504174080754001 -0.0043430475757627119 0 0.0017356719919503884 -0.0044498405773936728 0 0.001732290701226218 -0.0045463233043181077 0 0.0015674261655188012 -0.004406679592377255 0 0.0017356719919503884 -0.0044498405773936728 0 0.0017842229461210778 -0.0045304826026634744 0 0.001732290701226218 -0.0045463233043181077 0 0.0017842229461210778 -0.0045304826026634744 0 0.0017779063931238127 -0.0045419632709196084 0 0.001732290701226218 -0.0045463233043181077 0 0.0017779063931238127 -0.0045419632709196084 0 0.001732290701226218 -0.0045463233043181077 0 0.0017777317196575901 -0.0045489661618465507 0 0.00255992160329982 -0.0041839547813864982 0 0.0029405572874330078 -0.0046831462419680394 0 0.0029405572874330078 -0.0046831462419680394 0 0.0038431351010826411 -0.0045621945183088137 0 0.0035519892297892724 -0.0040618221894001012 0 0.003349852457104072 -0.0037807102105737859 0 0.0037513623154571225 -0.0037291012595472369 0 0.0034102413266047871 -0.0054757945941770678 0 0.0035076136452684824 -0.0053218912064875931 0 0.0037365193426281466 -0.0054208292795301311 0 0.0033878507121687844 -0.0055207744283584112 0 0.0032929811983522629 -0.0053793879484950301 0 0.0030825324386247774 -0.0055659681079542264 0 0.0029405572874330078 -0.0046831462419680394 0 0.002327526278193286 -0.0050884013300895228 0 0.0017779063931238127 -0.0045419632709196084 0 0.0017777317196575901 -0.0045489661618465507 0 0.001759007647313036 -0.0045128925865726907 0 0.0029405572874330078 -0.0046831462419680394 0 0.0033837124815757546 -0.0054772409904984666 0 0.0033837124815757546 -0.0054772409904984666 0 0.0031894241392843308 -0.005203164375535591 0 0.0034102413266047871 -0.0054757945941770678 0 0.0033102634007383652 -0.0053437727992664535 0 0.0035076136452684824 -0.0053218912064875931 0 0.0033102634007383652 -0.0053437727992664535 0 0.0035076136452684824 -0.0053218912064875931 0 0.0034311757020975731 -0.0051608096409306043 0 0.0035076136452684824 -0.0053218912064875931 0 0.0036531279845006693 -0.0052092642800976316 0 0.0034311757020975731 -0.0051608096409306043 0 0.0035076136452684824 -0.0053218912064875931 0 0.0037365193426281466 -0.0054208292795301311 0 0.0036531279845006693 -0.0052092642800976316 0 0.0037365193426281466 -0.0054208292795301311 0 0.0038521740139363402 -0.0052457935899494759 0 0.0036531279845006693 -0.0052092642800976316 0 0.0040759970552915392 -0.0045160919609581298 0 0.0038431351010826411 -0.0045621945183088137 0 0.0040470833938720321 -0.0053395763058153838 0 0.0037365193426281466 -0.0054208292795301311 0 0.0038521740139363402 -0.0052457935899494759 0 0.0039874524403694326 -0.0051618022517680344 0 0.0038521740139363402 -0.0052457935899494759 0 0.0038229884797878338 -0.0050941603054547912 0 0.0040041909058070764 -0.0049997744268004156 0 0.0037087031226380588 -0.0051991264405046858 0 0.003258739347400594 -0.0050000303405986525 0 0.0038521740139363402 -0.0052457935899494759 0 0.0038229884797878338 -0.0050941603054547912 0 0.0036531279845006693 -0.0052092642800976316 0 0.0039687059991338853 -0.0050430830019521427 0 0.0039874524403694326 -0.0051618022517680344 0 0.0038229884797878338 -0.0050941603054547912 0 0.0038229884797878338 -0.0050941603054547912 0 0.0036370831016800816 -0.0050629862856078362 0 0.0036531279845006693 -0.0052092642800976316 0 0.003826037103704561 -0.0049799503898627483 0 0.0034760089421010717 -0.0049668840975014223 0 0.0036370831016800816 -0.0050629862856078362 0 0.0038047026889829359 -0.0049206145705643503 0 0.0034690854007461548 -0.0049277953977952295 0 0.0038229884797878338 -0.0050941603054547912 0 0.0036370831016800816 -0.0050629862856078362 0 0.0038047026889829359 -0.0049206145705643503 0 0.0039687059991338853 -0.0050430830019521427 0 0.0038229884797878338 -0.0050941603054547912 0 0.0038047026889829359 -0.0049206145705643503 0 0.0041497487371261613 -0.0050505159091497167 0 0.003846000436275815 -0.0050379560140061848 0 0.0039207459000543234 -0.0049002338905341017 0 0.0037087031226380588 -0.0051991264405046858 0 0.0034597896625617225 -0.0051957766682399703 0 0.003258739347400594 -0.0050000303405986525 0 0.003846000436275815 -0.0050379560140061848 0 0.0039207459000543234 -0.0049002338905341017 0 0.0036258512043332663 -0.004841332305592215 0 0.003846000436275815 -0.0050379560140061848 0 0.0036258512043332663 -0.004841332305592215 0 0.003484361001327253 -0.0050053355022288805 0 0.0038099131941073533 -0.0050489535677223432 0 0.0035411908592531171 -0.0050195982137165767 0 0.003258739347400594 -0.0050000303405986525 0 0.0032125158373660784 -0.0051854935188302385 0 0.0029822572566557078 -0.0051462086025438197 0 0.0034597896625617225 -0.0051957766682399703 0 0.003258739347400594 -0.0050000303405986525 0 0.0032125158373660784 -0.0051854935188302385 0 0.0035411908592531171 -0.0050195982137165767 0 0.0032663214573731073 -0.0049843122404254038 0 0.0036258512043332663 -0.004841332305592215 0 0.0033238047779107667 -0.0047977212105071495 0 0.003484361001327253 -0.0050053355022288805 0 0.0033238047779107667 -0.0047977212105071495 0 0.003484361001327253 -0.0050053355022288805 0 0.0031351941736307899 -0.0049592527927462384 0 0.0034760089421010717 -0.0049668840975014223 0 0.0031552075532081071 -0.0049595677970605588 0 0.0032551550232250833 -0.0050792319181067859 0 0.0034690854007461548 -0.0049277953977952295 0 0.0034311757020975731 -0.0051608096409306043 0 0.0032551550232250833 -0.0050792319181067859 0 0.0034690854007461548 -0.0049277953977952295 0 0.0031351941736307899 -0.0049592527927462384 0 0.0036370831016800816 -0.0050629862856078362 0 0.0034690854007461548 -0.0049277953977952295 0 0.0034311757020975731 -0.0051608096409306043 0 0.0036370831016800816 -0.0050629862856078362 0 0.0036531279845006693 -0.0052092642800976316 0 0.0034311757020975731 -0.0051608096409306043 0 0.0032551550232250833 -0.0050792319181067859 0 0.0034311757020975731 -0.0051608096409306043 0 0.0032011212097954114 -0.0052241191910054278 0 0.0033102634007383652 -0.0053437727992664535 0 0.0034311757020975731 -0.0051608096409306043 0 0.0032011212097954114 -0.0052241191910054278 0 0.0032551550232250833 -0.0050792319181067859 0 0.0032011212097954114 -0.0052241191910054278 0 0.0030430072387066559 -0.0051089034406958354 0 0.0032011212097954114 -0.0052241191910054278 0 0.0030430072387066559 -0.0051089034406958354 0 0.0030465395630887501 -0.0053498177780116974 0 0.0030430072387066559 -0.0051089034406958354 0 0.0028340172690773076 -0.005248491704322459 0 0.0030465395630887501 -0.0053498177780116974 0 0.0030430072387066559 -0.0051089034406958354 0 0.0030031512729835497 -0.0049262747119302713 0 0.0028226024845979516 -0.0049582415444969028 0 0.0030430072387066559 -0.0051089034406958354 0 0.0028226024845979516 -0.0049582415444969028 0 0.0028340172690773076 -0.005248491704322459 0 0.0032551550232250833 -0.0050792319181067859 0 0.0030430072387066559 -0.0051089034406958354 0 0.0031351941736307899 -0.0049592527927462384 0 0.0030430072387066559 -0.0051089034406958354 0 0.0031351941736307899 -0.0049592527927462384 0 0.0030031512729835497 -0.0049262747119302713 0 0.0033238047779107667 -0.0047977212105071495 0 0.0031351941736307899 -0.0049592527927462384 0 0.0031036703430296696 -0.0048653585465969042 0 0.0032663214573731073 -0.0049843122404254038 0 0.003005716230360576 -0.0050359454139092766 0 0.0032125158373660784 -0.0051854935188302385 0 0.0029640171671941407 -0.005161878264553969 0 0.0029822572566557078 -0.0051462086025438197 0 0.0033238047779107667 -0.0047977212105071495 0 0.0030416276086363187 -0.0047659377767244266 0 0.0031036703430296696 -0.0048653585465969042 0 0.003258739347400594 -0.0050000303405986525 0 0.0029822572566557078 -0.0051462086025438197 0 0.0027057918935638097 -0.0049999649067479926 0 0.003005716230360576 -0.0050359454139092766 0 0.0029938885722507825 -0.0050510971900467943 0 0.0030416276086363187 -0.0047659377767244266 0 0.0031036703430296696 -0.0048653585465969042 0 0.0030031512729835497 -0.0049262747119302713 0 0.0031351941736307899 -0.0049592527927462384 0 0.0031036703430296696 -0.0048653585465969042 0 0.0030031512729835497 -0.0049262747119302713 0 0.003005716230360576 -0.0050359454139092766 0 0.0027919582612698306 -0.0051103005758843774 0 0.0029055965371879594 -0.0051541608228101452 0 0.0027312659965655493 -0.0051528202274188249 0 0.0027496088254266482 -0.0052899976490984393 0 0.0030416276086363187 -0.0047659377767244266 0 0.0030031512729835497 -0.0049262747119302713 0 0.0028226024845979516 -0.0049582415444969028 0 0.0029621882280311982 -0.005161317917039371 0 0.0029055965371879594 -0.0051541608228101452 0 0.0027496088254266482 -0.0052899976490984393 0 0.0029637911615093965 -0.0051612624466013486 0 0.0029055965371879594 -0.0051541608228101452 0 0.0029822572566557078 -0.0051462086025438197 0 0.003005716230360576 -0.0050359454139092766 0 0.0029547345662680529 -0.0050646949875774849 0 0.0029055965371879594 -0.0051541608228101452 0 0.0029822572566557078 -0.0051462086025438197 0 0.0027057918935638097 -0.0049999649067479926 0 0.0024663641003998195 -0.0051353513899129377 0 0.0027057918935638097 -0.0049999649067479926 0 0.0025832596413014777 -0.0051962039608631399 0 0.0029055965371879594 -0.0051541608228101452 0 0.0027057918935638097 -0.0049999649067479926 0 0.0027312659965655493 -0.0051528202274188249 0 0.0027057918935638097 -0.0049999649067479926 0 0.0027312659965655493 -0.0051528202274188249 0 0.0025832596413014777 -0.0051962039608631399 0 0.0027312659965655493 -0.0051528202274188249 0 0.0025832596413014777 -0.0051962039608631399 0 0.0027496088254266482 -0.0052899976490984393 0 0.0024663641003998195 -0.0051353513899129377 0 0.0024670520546835879 -0.0052720691559692357 0 0.0025832596413014777 -0.0051962039608631399 0 0.0024670520546835879 -0.0052720691559692357 0 0.0025832596413014777 -0.0051962039608631399 0 0.002547947985766354 -0.005382157288940064 0 0.0025832596413014777 -0.0051962039608631399 0 0.0027496088254266482 -0.0052899976490984393 0 0.002547947985766354 -0.005382157288940064 0 0.0027919582612698306 -0.0051103005758843774 0 0.0025792734895551629 -0.00527412627149577 0 0.0028226024845979516 -0.0049582415444969028 0 0.0028340172690773076 -0.005248491704322459 0 0.0026059562668763552 -0.0051666340310865359 0 0.0028340172690773076 -0.005248491704322459 0 0.0026059562668763552 -0.0051666340310865359 0 0.0026517040903739431 -0.0054199185206519366 0 0.0024176909277124825 -0.0053936567060201505 0 0.0026059562668763552 -0.0051666340310865359 0 0.0026517040903739431 -0.0054199185206519366 0 0.0024176909277124825 -0.0053936567060201505 0 0.0024944517933165149 -0.0056274359462726627 0 0.0026517040903739431 -0.0054199185206519366 0 0.0018468499496160546 -0.005079295798315178 0 0.0022507848046909879 -0.0050425727188011284 0 0.0024944517933165149 -0.0056274359462726627 0 0.0026517040903739431 -0.0054199185206519366 0 0.0027738773308274983 -0.0056041011224562415 0 0.0026517040903739431 -0.0054199185206519366 0 0.0027738773308274983 -0.0056041011224562415 0 0.0028757855484137004 -0.0054375385931771641 0 0.0028340172690773076 -0.005248491704322459 0 0.0026517040903739431 -0.0054199185206519366 0 0.0028757855484137004 -0.0054375385931771641 0 0.0028340172690773076 -0.005248491704322459 0 0.0028757855484137004 -0.0054375385931771641 0 0.0030465395630887501 -0.0053498177780116974 0 0.0028757855484137004 -0.0054375385931771641 0 0.0030465395630887501 -0.0053498177780116974 0 0.0030825324386247774 -0.0055659681079542264 0 0.0032929811983522629 -0.0053793879484950301 0 0.0032011212097954114 -0.0052241191910054278 0 0.0030465395630887501 -0.0053498177780116974 0 0.0032929811983522629 -0.0053793879484950301 0 0.0030465395630887501 -0.0053498177780116974 0 0.0030825324386247774 -0.0055659681079542264 0 0.0027738773308274983 -0.0056041011224562415 0 0.0028757855484137004 -0.0054375385931771641 0 0.0030825324386247774 -0.0055659681079542264 0 0.0022507848046909879 -0.0050425727188011284 0 0.002327526278193286 -0.0050884013300895228 0 0.0016359147790968309 -0.0044980035984309675 0 0.001759007647313036 -0.0045128925865726907 0 0.0017416859998251742 -0.0045720372245490861 0 0.0016359147790968309 -0.0044980035984309675 0 0.0017416859998251742 -0.0045720372245490861 0 0.0016249019830527898 -0.0046124917152110196 0 0.0017779063931238127 -0.0045419632709196084 0 0.001759007647313036 -0.0045128925865726907 0 0.0017416859998251742 -0.0045720372245490861 0 0.0017842229461210778 -0.0045304826026634744 0 0.0017416859998251742 -0.0045720372245490861 0 0.0017699884937630826 -0.0045868573777496039 0 0.0017842229461210778 -0.0045304826026634744 0 0.0017779063931238127 -0.0045419632709196084 0 0.0017416859998251742 -0.0045720372245490861 0 0.0017416859998251742 -0.0045720372245490861 0 0.0016249019830527898 -0.0046124917152110196 0 0.0016735137177180323 -0.0046829925727540798 0 0.0017416859998251742 -0.0045720372245490861 0 0.0016735137177180323 -0.0046829925727540798 0 0.0017699884937630826 -0.0045868573777496039 0 0.0016249019830527898 -0.0046124917152110196 0 0.001537246663956375 -0.0047786926232361669 0 0.0016735137177180323 -0.0046829925727540798 0 0.0016249019830527898 -0.0046124917152110196 0 0.0014983877222950021 -0.0046165727351307802 0 0.001537246663956375 -0.0047786926232361669 0 0.0014469697548562613 -0.004714080286637271 0 0.0015438240525673956 -0.0048233961062294304 0 0.001502200061425937 -0.004879702085834008 0 0.0014680469166522699 -0.0049516530316459015 0 0.001537246663956375 -0.0047786926232361669 0 0.0014971465253509155 -0.0049547416520398947 0 0.001502200061425937 -0.004879702085834008 0 0.0014680469166522699 -0.0049516530316459015 0 0.0014514824425805354 -0.0045158132853413508 0 0.0016359147790968309 -0.0044980035984309675 0 0.0014983877222950021 -0.0046165727351307802 0 0.0018468499496160546 -0.005079295798315178 0 0.0014469697548562613 -0.004714080286637271 0 0.0016359147790968309 -0.0044980035984309675 0 0.0016249019830527898 -0.0046124917152110196 0 0.0014983877222950021 -0.0046165727351307802 0 0.0019429749258574631 -0.0037157314740060197 0 0.0019227156765496114 -0.0038153760116725684 0 0.0019438041294275383 -0.0036922733893273133 0 0.0017431278701141536 -0.0042817455179877967 0 0.001809550727007662 -0.004260068162853496 0 0.0015012597116460325 -0.0048964866679877608 0 0.0014908800212280302 -0.0049164203132032059 0 0.0015576738740993349 -0.0048510555837834009 0 0.0019449017827823109 -0.0036490173739674105 0 0.0019429749258574631 -0.0037157314740060197 0 0.0019443948871243121 -0.0036653141486837045 0 0.0017119048690955826 -0.0042851351216417538 0 0.0017431278701141536 -0.0042817455179877967 0 0.0019429749258574631 -0.0037157314740060197 0 0.0019438041294275383 -0.0036922733893273133 0 0.0019443948871243121 -0.0036653141486837045 0 0.0015576738740993349 -0.0048510555837834009 0 0.0015032901043363278 -0.0048701648867754471 0 0.001537246663956375 -0.0047786926232361669 0 0.0015012597116460325 -0.0048964866679877608 0 0.0015576738740993349 -0.0048510555837834009 0 0.0015032901043363278 -0.0048701648867754471 0 0.0015009395899855018 -0.0049308331383728409 0 0.001502200061425937 -0.004879702085834008 0 0.0015032901043363278 -0.0048701648867754471 0 0.001502200061425937 -0.004879702085834008 0 0.0015032901043363278 -0.0048701648867754471 0 0.001537246663956375 -0.0047786926232361669 0 0.0015576738740993349 -0.0048510555837834009 0 0.001537246663956375 -0.0047786926232361669 0 0.0016735137177180323 -0.0046829925727540798 0 0.0016735137177180323 -0.0046829925727540798 0 0.0017699884937630826 -0.0045868573777496039 0 0.0017264442921446702 -0.0047064637975210016 0 0.0015576738740993349 -0.0048510555837834009 0 0.0016735137177180323 -0.0046829925727540798 0 0.0017264442921446702 -0.0047064637975210016 0 0.0017699884937630826 -0.0045868573777496039 0 0.0017264442921446702 -0.0047064637975210016 0 0.0018044239881247566 -0.0044889847263600811 0 0.001809550727007662 -0.004260068162853496 0 0.001807501331409332 -0.0042286025450555481 0 0.0019227156765496114 -0.0038153760116725684 0 0.0019061477284196928 -0.0037863477784819046 0 0.0018669602160432928 -0.0039605028302248674 0 0.0019227156765496114 -0.0038153760116725684 0 0.0019323203417260079 -0.003709025842307272 0 0.0019438041294275383 -0.0036922733893273133 0 0.0019227156765496114 -0.0038153760116725684 0 0.0019323203417260079 -0.003709025842307272 0 0.0019061477284196928 -0.0037863477784819046 0 0.0019061477284196928 -0.0037863477784819046 0 0.0018946518421968049 -0.0036753633774266629 0 0.0018498210744111536 -0.0038105415277687304 0 0.0019323203417260079 -0.003709025842307272 0 0.0019061477284196928 -0.0037863477784819046 0 0.0018946518421968049 -0.0036753633774266629 0 0.0019323203417260079 -0.003709025842307272 0 0.0018946518421968049 -0.0036753633774266629 0 0.0019357849119340236 -0.0036244288996767704 0 0.0019323203417260079 -0.003709025842307272 0 0.0019449115483436156 -0.0036477908422991663 0 0.0019357849119340236 -0.0036244288996767704 0 0.0019323203417260079 -0.003709025842307272 0 0.0019449115483436156 -0.0036477908422991663 0 0.0019438041294275383 -0.0036922733893273133 0 0.0019438041294275383 -0.0036922733893273133 0 0.0019443948871243121 -0.0036653141486837045 0 0.001942695296491035 -0.0036242475400075297 0 0.0019437970505401378 -0.0036385915705830691 0 0.0019443948871243121 -0.0036653141486837045 0 0.001942695296491035 -0.0036242475400075297 0 0.0019449115483436156 -0.0036477908422991663 0 0.001942695296491035 -0.0036242475400075297 0 0.0019541039069128152 -0.0035870764761954739 0 0.0019449115483436156 -0.0036477908422991663 0 0.0019438041294275383 -0.0036922733893273133 0 0.001942695296491035 -0.0036242475400075297 0 0.0018974785143632403 -0.0034985061782879319 0 0.0019295555428626306 -0.0035603704913721363 0 0.0019541039069128152 -0.0035870764761954739 0 0.0019295555428626306 -0.0035603704913721363 0 0.001942695296491035 -0.0036242475400075297 0 0.0019541039069128152 -0.0035870764761954739 0 0.0019449115483436156 -0.0036477908422991663 0 0.0019541039069128152 -0.0035870764761954739 0 0.0019357849119340236 -0.0036244288996767704 0 0.0019541039069128152 -0.0035870764761954739 0 0.0019357849119340236 -0.0036244288996767704 0 0.0019561294491817851 -0.0035483659625664206 0 0.0019860722575566984 -0.0035203205374288102 0 0.0019527543200872097 -0.0035732032921292315 0 0.0020397956851408031 -0.0035357962456822076 0 0.0019541039069128152 -0.0035870764761954739 0 0.0019561294491817851 -0.0035483659625664206 0 0.0020397956851408031 -0.0035357962456822076 0 0.0019561294491817851 -0.0035483659625664206 0 0.0019810322277614848 -0.0034768904108765258 0 0.0020397956851408031 -0.0035357962456822076 0 0.0020398253127256695 -0.003469777083925471 0 0.0019810322277614848 -0.0034768904108765258 0 0.0019561294491817851 -0.0035483659625664206 0 0.0019810322277614848 -0.0034768904108765258 0 0.0019274789735985337 -0.0034807513544074156 0 0.0019810322277614848 -0.0034768904108765258 0 0.0019274789735985337 -0.0034807513544074156 0 0.0019513548643475579 -0.0033874587086073268 0 0.0019810322277614848 -0.0034768904108765258 0 0.0020088500689113419 -0.003413693028237436 0 0.0019513548643475579 -0.0033874587086073268 0 0.0020398253127256695 -0.003469777083925471 0 0.0019810322277614848 -0.0034768904108765258 0 0.0020088500689113419 -0.003413693028237436 0 0.0020398253127256695 -0.003469777083925471 0 0.0020088500689113419 -0.003413693028237436 0 0.0020614244327966632 -0.0034039868667251724 0 0.0018847447005991452 -0.0034391793467814908 0 0.0019274789735985337 -0.0034807513544074156 0 0.0019513548643475579 -0.0033874587086073268 0 0.0019561294491817851 -0.0035483659625664206 0 0.0019274789735985337 -0.0034807513544074156 0 0.0019094274811755046 -0.0035688526312608326 0 0.0019274789735985337 -0.0034807513544074156 0 0.0018739325708541845 -0.0035093678375715254 0 0.0019094274811755046 -0.0035688526312608326 0 0.0018847447005991452 -0.0034391793467814908 0 0.0018739325708541845 -0.0035093678375715254 0 0.0018066946119772193 -0.0034868479642854097 0 0.0018847447005991452 -0.0034391793467814908 0 0.0019274789735985337 -0.0034807513544074156 0 0.0018739325708541845 -0.0035093678375715254 0 0.0018739325708541845 -0.0035093678375715254 0 0.0019094274811755046 -0.0035688526312608326 0 0.0018456963759353497 -0.0035788114360247986 0 0.0019357849119340236 -0.0036244288996767704 0 0.0019561294491817851 -0.0035483659625664206 0 0.0019094274811755046 -0.0035688526312608326 0 0.0018946518421968049 -0.0036753633774266629 0 0.0019357849119340236 -0.0036244288996767704 0 0.0019094274811755046 -0.0035688526312608326 0 0.0018946518421968049 -0.0036753633774266629 0 0.0019094274811755046 -0.0035688526312608326 0 0.0018456963759353497 -0.0035788114360247986 0 0.0018946518421968049 -0.0036753633774266629 0 0.0017964240281855535 -0.0036789946414505408 0 0.0018456963759353497 -0.0035788114360247986 0 0.0017964240281855535 -0.0036789946414505408 0 0.0017720907756217392 -0.0035784137093172012 0 0.0018456963759353497 -0.0035788114360247986 0 0.0017964240281855535 -0.0036789946414505408 0 0.001708148446511789 -0.0036138754374753414 0 0.001685076572338982 -0.0037260194346296852 0 0.0017964240281855535 -0.0036789946414505408 0 0.0017720907756217392 -0.0035784137093172012 0 0.001708148446511789 -0.0036138754374753414 0 0.0017720907756217392 -0.0035784137093172012 0 0.0017108723518990049 -0.0035531107374172769 0 0.001708148446511789 -0.0036138754374753414 0 0.0017720907756217392 -0.0035784137093172012 0 0.0018066946119772193 -0.0034868479642854097 0 0.0017108723518990049 -0.0035531107374172769 0 0.0017720907756217392 -0.0035784137093172012 0 0.0018456963759353497 -0.0035788114360247986 0 0.0018066946119772193 -0.0034868479642854097 0 0.0018739325708541845 -0.0035093678375715254 0 0.0018456963759353497 -0.0035788114360247986 0 0.0018066946119772193 -0.0034868479642854097 0 0.0035738827847876633 -0.0016147275891769289 0 0.003752866132701582 -0.0016671311026640646 0 0.0037184074412598312 -0.0014330437580870345 0 0.0026795264373147198 -0.0025634931632283232 0 0.0027682201288780459 -0.0024018750155937775 0 0.0035738827847876633 -0.0016147275891769289 0 0.003630940707993819 -0.001726080387720563 0 0.003752866132701582 -0.0016671311026640646 0 0.0026975462866043014 -0.0025612417281488551 0 0.0026795264373147198 -0.0025634931632283232 0 0.0035089612914832209 -0.0016976840211310041 0 0.0035738827847876633 -0.0016147275891769289 0 0.003630940707993819 -0.001726080387720563 0 0.0040469269716257809 -0.001739530985059172 0 0.003752866132701582 -0.0016671311026640646 0 0.0039932910156810818 -0.001556624658655087 0 0.0040469269716257809 -0.001739530985059172 0 0.003752866132701582 -0.0016671311026640646 0 0.0038649536334954921 -0.0018676165496709243 0 0.0038392612665018393 -0.0015206671439465657 0 0.003936586364119807 -0.0014079649068801309 0 0.0037184074412598312 -0.0014330437580870345 0 0.003752866132701582 -0.0016671311026640646 0 0.0038392612665018393 -0.0015206671439465657 0 0.0039932910156810818 -0.001556624658655087 0 0.003752866132701582 -0.0016671311026640646 0 0.0038392612665018393 -0.0015206671439465657 0 0.0037184074412598312 -0.0014330437580870345 0 0.0038392612665018393 -0.0015206671439465657 0 0.0039932910156810818 -0.001556624658655087 0 0.003936586364119807 -0.0014079649068801309 0 0.0039932910156810818 -0.001556624658655087 0 0.003936586364119807 -0.0014079649068801309 0 0.0041998456263062358 -0.0014034901770857866 0 0.003936586364119807 -0.0014079649068801309 0 0.0037184074412598312 -0.0014330437580870345 0 0.0040033869435912566 -0.0011717855513171402 0 0.003936586364119807 -0.0014079649068801309 0 0.0040033869435912566 -0.0011717855513171402 0 0.0041998456263062358 -0.0014034901770857866 0 0.0027682201288780459 -0.0024018750155937775 0 0.0027271607900721004 -0.0029282664307538155 0 0.0017108723518990049 -0.0035531107374172769 0 0.001708148446511789 -0.0036138754374753414 0 0.0016751713121123306 -0.0035875829265889715 0 0.001708148446511789 -0.0036138754374753414 0 0.0015841012903712616 -0.0036891772942694479 0 0.0014943025829965444 -0.0036038732292073697 0 0.0012345200511739544 -0.0037465928212409402 0 0.0027271607900721004 -0.0029282664307538155 0 0.001708148446511789 -0.0036138754374753414 0 0.0015841012903712616 -0.0036891772942694479 0 0.001685076572338982 -0.0037260194346296852 0 0.0015841012903712616 -0.0036891772942694479 0 0.0014943025829965444 -0.0036038732292073697 0 0.0014913335906021994 -0.0037160639022090804 0 0.0014943025829965444 -0.0036038732292073697 0 0.0014913335906021994 -0.0037160639022090804 0 0.0013921185079985067 -0.003681150693793842 0 0.0014913335906021994 -0.0037160639022090804 0 0.0015484818444718952 -0.0037862228178065704 0 0.0014295963442376583 -0.003790856906461445 0 0.0015841012903712616 -0.0036891772942694479 0 0.0014913335906021994 -0.0037160639022090804 0 0.0015484818444718952 -0.0037862228178065704 0 0.0015484818444718952 -0.0037862228178065704 0 0.0014824845852979553 -0.0039132879414162883 0 0.0014295963442376583 -0.003790856906461445 0 0.0014824845852979553 -0.0039132879414162883 0 0.0014558721487366642 -0.0040577467099582156 0 0.0013776273886864756 -0.003898813844259419 0 0.0015484818444718952 -0.0037862228178065704 0 0.0014824845852979553 -0.0039132879414162883 0 0.0015973419159167771 -0.003885159052240746 0 0.0014824845852979553 -0.0039132879414162883 0 0.0015973419159167771 -0.003885159052240746 0 0.0015030706345486105 -0.0040163362927417004 0 0.0015973419159167771 -0.003885159052240746 0 0.0015030706345486105 -0.0040163362927417004 0 0.0016433752332943967 -0.0040011763521622685 0 0.0015973419159167771 -0.003885159052240746 0 0.001728051442593366 -0.0038338480549143703 0 0.0016433752332943967 -0.0040011763521622685 0 0.0015484818444718952 -0.0037862228178065704 0 0.0015973419159167771 -0.003885159052240746 0 0.001685076572338982 -0.0037260194346296852 0 0.0015841012903712616 -0.0036891772942694479 0 0.0015484818444718952 -0.0037862228178065704 0 0.001685076572338982 -0.0037260194346296852 0 0.0015973419159167771 -0.003885159052240746 0 0.001685076572338982 -0.0037260194346296852 0 0.001728051442593366 -0.0038338480549143703 0 0.0017964240281855535 -0.0036789946414505408 0 0.0018498210744111536 -0.0038105415277687304 0 0.001728051442593366 -0.0038338480549143703 0 0.0017964240281855535 -0.0036789946414505408 0 0.001685076572338982 -0.0037260194346296852 0 0.001728051442593366 -0.0038338480549143703 0 0.0018946518421968049 -0.0036753633774266629 0 0.0017964240281855535 -0.0036789946414505408 0 0.0018498210744111536 -0.0038105415277687304 0 0.0019061477284196928 -0.0037863477784819046 0 0.0018498210744111536 -0.0038105415277687304 0 0.0018669602160432928 -0.0039605028302248674 0 0.0018498210744111536 -0.0038105415277687304 0 0.001728051442593366 -0.0038338480549143703 0 0.0017768632428014832 -0.0039628672618603486 0 0.001728051442593366 -0.0038338480549143703 0 0.0017768632428014832 -0.0039628672618603486 0 0.0016433752332943967 -0.0040011763521622685 0 0.0017768632428014832 -0.0039628672618603486 0 0.0016433752332943967 -0.0040011763521622685 0 0.0016952055266001476 -0.0042212945781045395 0 0.001807501331409332 -0.0042286025450555481 0 0.001678160750789307 -0.0042237952743654225 0 0.0017768632428014832 -0.0039628672618603486 0 0.0018669602160432928 -0.0039605028302248674 0 0.0016952055266001476 -0.0042212945781045395 0 0.0018498210744111536 -0.0038105415277687304 0 0.0017768632428014832 -0.0039628672618603486 0 0.0018669602160432928 -0.0039605028302248674 0 0.0017842229461210778 -0.0045304826026634744 0 0.0017699884937630826 -0.0045868573777496039 0 0.0018044239881247566 -0.0044889847263600811 0 0.0017356719919503884 -0.0044498405773936728 0 0.0017842229461210778 -0.0045304826026634744 0 0.0018044239881247566 -0.0044889847263600811 0 0.0017356719919503884 -0.0044498405773936728 0 0.0018044239881247566 -0.0044889847263600811 0 0.0016952055266001476 -0.0042212945781045395 0 0.0017356719919503884 -0.0044498405773936728 0 0.0015674261655188012 -0.004406679592377255 0 0.0016952055266001476 -0.0042212945781045395 0 0.0015674261655188012 -0.004406679592377255 0 0.0016952055266001476 -0.0042212945781045395 0 0.0015544315724768682 -0.0041678243453231508 0 0.0015674261655188012 -0.004406679592377255 0 0.0013800584973686892 -0.0041170977733311805 0 0.0015544315724768682 -0.0041678243453231508 0 0.0037504174080754001 -0.0043430475757627119 0 0.0039788666585865093 -0.0043662794280143764 0 0.0039459613733827045 -0.0046308172718185067 0 0.0026506293033903613 -0.0044134736178653702 0 0.0029020224833343194 -0.00420777248951859 0 0.0014824845852979553 -0.0039132879414162883 0 0.0014558721487366642 -0.0040577467099582156 0 0.0015030706345486105 -0.0040163362927417004 0 0.0029020224833343194 -0.00420777248951859 0 0.0015959522694755312 -0.0044040509175017487 0 0.0013800584973686892 -0.0041170977733311805 0 0.0015030706345486105 -0.0040163362927417004 0 0.0015544315724768682 -0.0041678243453231508 0 0.0015030706345486105 -0.0040163362927417004 0 0.0016433752332943967 -0.0040011763521622685 0 0.0015544315724768682 -0.0041678243453231508 0 0.0016433752332943967 -0.0040011763521622685 0 0.0016952055266001476 -0.0042212945781045395 0 0.0015544315724768682 -0.0041678243453231508 0 0.0045301500041474412 -0.0043011900183727901 0 0.0043847400894635345 -0.0043136039597798789 0 0.0044846427731381608 -0.004424704738417517 0 0.0045301500041474412 -0.0043011900183727901 0 0.0043847400894635345 -0.0043136039597798789 0 0.00441492099516553 -0.0041598409389985817 0 0.0042257378929074765 -0.0042818023335991868 0 0.0043847400894635345 -0.0043136039597798789 0 0.0043406597551789361 -0.0044382375315175004 0 0.0042257378929074765 -0.0042818023335991868 0 0.0043847400894635345 -0.0043136039597798789 0 0.00441492099516553 -0.0041598409389985817 0 0.0029020224833343194 -0.00420777248951859 0 0.0045100894300080172 -0.0042631500159211657 0 0.0039788666585865093 -0.0043662794280143764 0 0.0039459613733827045 -0.0046308172718185067 0 0.0042271293268639921 -0.0044267708713930272 0 0.0045138078256728182 -0.0041480818628363298 0 0.0045100894300080172 -0.0042631500159211657 0 0.0045301500041474412 -0.0043011900183727901 0 0.00441492099516553 -0.0041598409389985817 0 0.0046360695217987037 -0.0041957843145894944 0 0.0045982254317932115 -0.0040541368935458569 0 0.00441492099516553 -0.0041598409389985817 0 0.0046360695217987037 -0.0041957843145894944 0 0.0045982254317932115 -0.0040541368935458569 0 0.0046360695217987037 -0.0041957843145894944 0 0.0047854235064768063 -0.004116128828317453 0 0.0046360695217987037 -0.0041957843145894944 0 0.0047854235064768063 -0.004116128828317453 0 0.0047807012897602679 -0.0042335429953041653 0 0.0046360695217987037 -0.0041957843145894944 0 0.0047807012897602679 -0.0042335429953041653 0 0.0046509478044154976 -0.0042913160402722724 0 0.0047807012897602679 -0.0042335429953041653 0 0.0047318304540709425 -0.0043388675883735319 0 0.0049330791870936062 -0.0043140574749862687 0 0.0047807012897602679 -0.0042335429953041653 0 0.0047318304540709425 -0.0043388675883735319 0 0.0046509478044154976 -0.0042913160402722724 0 0.0045301500041474412 -0.0043011900183727901 0 0.0046360695217987037 -0.0041957843145894944 0 0.0046509478044154976 -0.0042913160402722724 0 0.0047318304540709425 -0.0043388675883735319 0 0.0046509478044154976 -0.0042913160402722724 0 0.0046151570726545698 -0.0043908294497396246 0 0.0045301500041474412 -0.0043011900183727901 0 0.0046509478044154976 -0.0042913160402722724 0 0.0046151570726545698 -0.0043908294497396246 0 0.0045301500041474412 -0.0043011900183727901 0 0.0046151570726545698 -0.0043908294497396246 0 0.0044846427731381608 -0.004424704738417517 0 0.0047695608314632064 -0.0035766241708340809 0 0.0043902786877741571 -0.0036342237423733176 0 0.0046151570726545698 -0.0043908294497396246 0 0.004722112232200113 -0.0044323876705554049 0 0.004586832033480006 -0.0045124572905365723 0 0.0046151570726545698 -0.0043908294497396246 0 0.004586832033480006 -0.0045124572905365723 0 0.0044846427731381608 -0.004424704738417517 0 0.0054537208063018833 -0.0032244503335589407 0 0.0054094699569016214 -0.0031586804635668599 0 0.005347234702528245 -0.0032003984801622165 0 0.0047318304540709425 -0.0043388675883735319 0 0.0047252689941800147 -0.0044284103969835474 0 0.0049330791870936062 -0.0043140574749862687 0 0.0047155862413221922 -0.0044994950731426994 0 0.0047695608314632064 -0.0035766241708340809 0 0.0047318304540709425 -0.0043388675883735319 0 0.0046151570726545698 -0.0043908294497396246 0 0.004722112232200113 -0.0044323876705554049 0 0.0047695608314632064 -0.0035766241708340809 0 0.0048981049267436613 -0.0030832495326510827 0 0.0054537208063018833 -0.0032244503335589407 0 0.0054622421829867169 -0.003105059992119481 0 0.0054094699569016214 -0.0031586804635668599 0 0.0054622421829867169 -0.003105059992119481 0 0.0054094699569016214 -0.0031586804635668599 0 0.0053880200339701178 -0.0030558974570123391 0 0.0040950580392552843 -0.002819738213421576 0 0.003822975190191623 -0.0029689059009840048 0 0.0041022072542051553 -0.0031063906775646772 0 0.0043247643775033325 -0.00299589551186473 0 0.0040950580392552843 -0.002819738213421576 0 0.0041022072542051553 -0.0031063906775646772 0 0.0043480969343801541 -0.0026722665640928223 0 0.0043247643775033325 -0.00299589551186473 0 0.0040950580392552843 -0.002819738213421576 0 0.004586832033480006 -0.0045124572905365723 0 0.0044485085515580019 -0.0045900368834486749 0 0.0044846427731381608 -0.004424704738417517 0 0.0043902786877741571 -0.0036342237423733176 0 0.0035150246821725535 -0.0038073452412353773 0 0.0043847400894635345 -0.0043136039597798789 0 0.0044846427731381608 -0.004424704738417517 0 0.0043406597551789361 -0.0044382375315175004 0 0.0044485085515580019 -0.0045900368834486749 0 0.0044846427731381608 -0.004424704738417517 0 0.0043406597551789361 -0.0044382375315175004 0 0.0029020224833343194 -0.00420777248951859 0 0.002799759083629518 -0.0041805812161134839 0 0.0014824845852979553 -0.0039132879414162883 0 0.0013776273886864756 -0.003898813844259419 0 0.0014295963442376583 -0.003790856906461445 0 0.0013015358658344917 -0.0037505494458189778 0 0.0014295963442376583 -0.003790856906461445 0 0.0013921185079985067 -0.003681150693793842 0 0.0035150246821725535 -0.0038073452412353773 0 0.002799759083629518 -0.0041805812161134839 0 0.0013015358658344917 -0.0037505494458189778 0 0.0013776273886864756 -0.003898813844259419 0 0.0014295963442376583 -0.003790856906461445 0 0.0014913335906021994 -0.0037160639022090804 0 0.0014295963442376583 -0.003790856906461445 0 0.0013921185079985067 -0.003681150693793842 0 0.0033000346084454406 -0.0032744033727492511 0 0.003563578795661109 -0.0031155030134428713 0 0.003797340312251065 -0.0033070729952088965 0 0.0027271607900721004 -0.0029282664307538155 0 0.0043065970651255878 -0.0021429550155948086 0 0.0035150246821725535 -0.0038073452412353773 0 0.0023472406843950385 -0.0035082234486967915 0 0.0027271607900721004 -0.0029282664307538155 0 0.0023472406843950385 -0.0035082234486967915 0 0.003797340312251065 -0.0033070729952088965 0 0.0039688452944299148 -0.0032029734581950349 0 0.0041362876822816251 -0.0033042013270448592 0 0.003822975190191623 -0.0029689059009840048 0 0.003797340312251065 -0.0033070729952088965 0 0.0039688452944299148 -0.0032029734581950349 0 0.003822975190191623 -0.0029689059009840048 0 0.003563578795661109 -0.0031155030134428713 0 0.003797340312251065 -0.0033070729952088965 0 0.003822975190191623 -0.0029689059009840048 0 0.0039688452944299148 -0.0032029734581950349 0 0.0041022072542051553 -0.0031063906775646772 0 0.0044207876020562831 -0.0011603356626946853 0 0.0041998456263062358 -0.0014034901770857866 0 0.0045599673630634056 -0.0014477082855039716 0 0.0040033869435912566 -0.0011717855513171402 0 0.0044207876020562831 -0.0011603356626946853 0 0.0041998456263062358 -0.0014034901770857866 0 0.0039932910156810818 -0.001556624658655087 0 0.0041998456263062358 -0.0014034901770857866 0 0.0043269371858073412 -0.0016751300527136281 0 0.0045599673630634056 -0.0014477082855039716 0 0.0043269371858073412 -0.0016751300527136281 0 0.0046474487088341513 -0.0017389576425466237 0 0.0041998456263062358 -0.0014034901770857866 0 0.0045599673630634056 -0.0014477082855039716 0 0.0043269371858073412 -0.0016751300527136281 0 0.0043269371858073412 -0.0016751300527136281 0 0.0046474487088341513 -0.0017389576425466237 0 0.0045387250685359976 -0.0020083198999780814 0 0.0040469269716257809 -0.001739530985059172 0 0.0043269371858073412 -0.0016751300527136281 0 0.0042100223533147922 -0.0020269602842499603 0 0.0040469269716257809 -0.001739530985059172 0 0.0039932910156810818 -0.001556624658655087 0 0.0043269371858073412 -0.0016751300527136281 0 0.0051671843184481481 -0.0019718510491421527 0 0.0050076930530035682 -0.001771209975991773 0 0.0049394880595786464 -0.0020301021165746872 0 0.0049720798223318674 -0.0014563410540904902 0 0.0049312096635061326 -0.0021069696124509014 0 0.0046474487088341513 -0.0017389576425466237 0 0.0049394880595786464 -0.0020301021165746872 0 0.0045387250685359976 -0.0020083198999780814 0 0.0046474487088341513 -0.0017389576425466237 0 0.0048989547214621666 -0.0015772016309127399 0 0.0049394880595786464 -0.0020301021165746872 0 0.0045599673630634056 -0.0014477082855039716 0 0.0046474487088341513 -0.0017389576425466237 0 0.0048989547214621666 -0.0015772016309127399 0 0.0045599673630634056 -0.0014477082855039716 0 0.0048989547214621666 -0.0015772016309127399 0 0.0048497378700909054 -0.001182975125973402 0 0.0051671843184481481 -0.0019718510491421527 0 0.0050076930530035682 -0.001771209975991773 0 0.0052290503968743119 -0.0017235732503264704 0 0.0050076930530035682 -0.001771209975991773 0 0.0051319798863796494 -0.0016334400173982448 0 0.0052290503968743119 -0.0017235732503264704 0 0.0051319798863796494 -0.0016334400173982448 0 0.0050383480421019025 -0.0014981131179072837 0 0.0052403628711888729 -0.001543063565341252 0 0.0048733585054334056 -0.002345092650120444 0 0.005375923272649713 -0.0022605527440769705 0 0.0050076930530035682 -0.001771209975991773 0 0.0051319798863796494 -0.0016334400173982448 0 0.0050383480421019025 -0.0014981131179072837 0 0.0049720798223318674 -0.0014563410540904902 0 0.0048733585054334056 -0.002345092650120444 0 0.0048989547214621666 -0.0015772016309127399 0 0.0049023424375379335 -0.001188097019166831 0 0.0048497378700909054 -0.001182975125973402 0 0.0048733585054334056 -0.002345092650120444 0 0.0044935033448699983 -0.0024730838576396646 0 0.003797340312251065 -0.0033070729952088965 0 0.0042549680670782844 -0.0033234933287608166 0 0.0041362876822816251 -0.0033042013270448592 0 0.0044207876020562831 -0.0011603356626946853 0 0.0045599673630634056 -0.0014477082855039716 0 0.0048497378700909054 -0.001182975125973402 0 0.0043065970651255878 -0.0021429550155948086 0 0.0044935033448699983 -0.0024730838576396646 0 0.0044935033448699983 -0.0024730838576396646 0 0.0043204204056823924 -0.0027460551609992949 0 0.0043247643775033325 -0.00299589551186473 0 0.0042483103182442321 -0.0033247566799410617 0 0.0041022072542051553 -0.0031063906775646772 0 0.0039688452944299148 -0.0032029734581950349 0 0.0041362876822816251 -0.0033042013270448592 0 0.0041022072542051553 -0.0031063906775646772 0 0.0042483103182442321 -0.0033247566799410617 0 0.0041362876822816251 -0.0033042013270448592 0 0.0041022072542051553 -0.0031063906775646772 0 0.0043247643775033325 -0.00299589551186473 0 0.0043041998553837264 -0.0033281319998332134 0 0.0042483103182442321 -0.0033247566799410617 0 0.0054622421829867169 -0.003105059992119481 0 0.0054678409085571452 -0.0029854423888923333 0 0.0053880200339701178 -0.0030558974570123391 0 0.0054678409085571452 -0.0029854423888923333 0 0.0053880200339701178 -0.0030558974570123391 0 0.0053708960692770338 -0.0029642440136465405 0 0.0048981049267436613 -0.0030832495326510827 0 0.0048733585054334056 -0.002345092650120444 0 0.0053880200339701178 -0.0030558974570123391 0 0.0052987731042018916 -0.0030820377272126097 0 0.0053494668657700795 -0.0031324707177555265 0 0.0053880200339701178 -0.0030558974570123391 0 0.0053100603090932823 -0.0030078878365367057 0 0.0052987731042018916 -0.0030820377272126097 0 0.0053880200339701178 -0.0030558974570123391 0 0.0053100603090932823 -0.0030078878365367057 0 0.0053708960692770338 -0.0029642440136465405 0 0.0052987731042018916 -0.0030820377272126097 0 0.0052474350194687599 -0.003032291563998213 0 0.0052281366393505712 -0.0031159189622216817 0 0.0052414323264909808 -0.0030719580079504867 0 0.0052410026654679835 -0.0030822043097771959 0 0.0053100603090932823 -0.0030078878365367057 0 0.0052987731042018916 -0.0030820377272126097 0 0.0052474350194687599 -0.003032291563998213 0 0.0052570915845352667 -0.00247832044108811 0 0.005192869194478456 -0.0027939027800437536 0 0.0052874234420657255 -0.0029969064746563157 0 0.0053329804422712441 -0.0028698829747495127 0 0.0052043792875093925 -0.0029851793023643308 0 0.0052414323264909808 -0.0030719580079504867 0 0.0052570915845352667 -0.00247832044108811 0 0.0053100603090932823 -0.0030078878365367057 0 0.0052474350194687599 -0.003032291563998213 0 0.0052728797153649637 -0.0029433584728571099 0 0.0052570915845352667 -0.00247832044108811 0 0.005375923272649713 -0.0022605527440769705 0 0.0054429258663954774 -0.0015879667395329177 0 0.0052403628711888729 -0.001543063565341252 0 0.0052290503968743119 -0.0017235732503264704 0 0.0053100603090932823 -0.0030078878365367057 0 0.0052728797153649637 -0.0029433584728571099 0 0.0053708960692770338 -0.0029642440136465405 0 0.0051319798863796494 -0.0016334400173982448 0 0.0052403628711888729 -0.001543063565341252 0 0.0052290503968743119 -0.0017235732503264704 0 0.0054429258663954774 -0.0015879667395329177 0 0.0052290503968743119 -0.0017235732503264704 0 0.0053668027438489542 -0.0018578127026086144 0 0.0052570915845352667 -0.00247832044108811 0 0.0053626027402526475 -0.0021296188385864015 0 0.0052777122335791928 -0.0027605293264931423 0 0.0052234374068697359 -0.0026161692637602044 0 0.0051546698428942229 -0.0027432698648091206 0 0.0052777122335791928 -0.0027605293264931423 0 0.0052234374068697359 -0.0026161692637602044 0 0.0053270112414120297 -0.0025318425414334244 0 0.0052234374068697359 -0.0026161692637602044 0 0.0053270112414120297 -0.0025318425414334244 0 0.0052476154666208901 -0.0023782481888093036 0 0.0052234374068697359 -0.0026161692637602044 0 0.0051688173216665884 -0.0023892707733439763 0 0.0052476154666208901 -0.0023782481888093036 0 0.0051671843184481481 -0.0019718510491421527 0 0.0053668027438489542 -0.0018578127026086144 0 0.0052809029869033191 -0.0022250265616491085 0 0.0053626027402526475 -0.0021296188385864015 0 0.0052801454230421221 -0.0022637791745215834 0 0.0053270112414120297 -0.0025318425414334244 0 0.0052809029869033191 -0.0022250265616491085 0 0.0052476154666208901 -0.0023782481888093036 0 0.0051671843184481481 -0.0019718510491421527 0 0.0052290503968743119 -0.0017235732503264704 0 0.0053668027438489542 -0.0018578127026086144 0 0.0049999579205243574 -0.0026266047268801111 0 0.0051155254896748902 -0.0026089665982930348 0 0.0050762363223591303 -0.0024432817186441393 0 0.0051155254896748902 -0.0026089665982930348 0 0.0051688173216665884 -0.0023892707733439763 0 0.0050762363223591303 -0.0024432817186441393 0 0.0052234374068697359 -0.0026161692637602044 0 0.0051155254896748902 -0.0026089665982930348 0 0.0051688173216665884 -0.0023892707733439763 0 0.0052234374068697359 -0.0026161692637602044 0 0.0051155254896748902 -0.0026089665982930348 0 0.0051546698428942229 -0.0027432698648091206 0 0.0051155254896748902 -0.0026089665982930348 0 0.0050584311771641865 -0.0027797429028522998 0 0.0051546698428942229 -0.0027432698648091206 0 0.0049999579205243574 -0.0026266047268801111 0 0.0051155254896748902 -0.0026089665982930348 0 0.0050584311771641865 -0.0027797429028522998 0 0.0049999579205243574 -0.0026266047268801111 0 0.0050584311771641865 -0.0027797429028522998 0 0.0049999692607239805 -0.0028976698414884027 0 0.0050584311771641865 -0.0027797429028522998 0 0.0051254198872929821 -0.0029362712173431247 0 0.0049999692607239805 -0.0028976698414884027 0 0.0051254198872929821 -0.0029362712173431247 0 0.0049999692607239805 -0.0028976698414884027 0 0.0050442796128813494 -0.0030006629562080722 0 0.0051254198872929821 -0.0029362712173431247 0 0.0052019817119842802 -0.0028389381214862829 0 0.0052043792875093925 -0.0029851793023643308 0 0.0050584311771641865 -0.0027797429028522998 0 0.0051254198872929821 -0.0029362712173431247 0 0.0052019817119842802 -0.0028389381214862829 0 0.0053329804422712441 -0.0028698829747495127 0 0.0052019817119842802 -0.0028389381214862829 0 0.0052043792875093925 -0.0029851793023643308 0 0.0050600807635096771 -0.0027753748192560785 0 0.005192869194478456 -0.0027939027800437536 0 0.0052874234420657255 -0.0029969064746563157 0 0.0052043792875093925 -0.0029851793023643308 0 0.0052281366393505712 -0.0031159189622216817 0 0.0052043792875093925 -0.0029851793023643308 0 0.0051456099960693466 -0.0030546152253783962 0 0.0052281366393505712 -0.0031159189622216817 0 0.0051254198872929821 -0.0029362712173431247 0 0.0052043792875093925 -0.0029851793023643308 0 0.0051456099960693466 -0.0030546152253783962 0 0.0049999692607239805 -0.0028976698414884027 0 0.0050442796128813494 -0.0030006629562080722 0 0.0049999996303527663 -0.0031687291594657196 0 0.0051456099960693466 -0.0030546152253783962 0 0.0050442796128813494 -0.0030006629562080722 0 0.0050971761911657379 -0.003147650006666581 0 0.0050485630124861213 -0.0030106639583700459 0 0.0051059711573118536 -0.0031903908903895776 0 0.0051254198872929821 -0.0029362712173431247 0 0.0051456099960693466 -0.0030546152253783962 0 0.0050442796128813494 -0.0030006629562080722 0 0.0050442796128813494 -0.0030006629562080722 0 0.0049999996303527663 -0.0031687291594657196 0 0.0051152514518256363 -0.0032214331949074735 0 0.0049999996303527663 -0.0031687291594657196 0 0.0051152514518256363 -0.0032214331949074735 0 0.0050778771329877655 -0.0033339425209303365 0 0.0051059711573118536 -0.0031903908903895776 0 0.0051488993924036662 -0.0033164770642752422 0 0.0051152514518256363 -0.0032214331949074735 0 0.0050778771329877655 -0.0033339425209303365 0 0.0051691296967331336 -0.0034424865518556868 0 0.0050778771329877655 -0.0033339425209303365 0 0.0051691296967331336 -0.0034424865518556868 0 0.0049999896315284491 -0.0034397241403435665 0 0.0049999996303527663 -0.0031687291594657196 0 0.0050778771329877655 -0.0033339425209303365 0 0.0049999896315284491 -0.0034397241403435665 0 0.0050971761911657379 -0.003147650006666581 0 0.0051396154046089914 -0.0032805587833447756 0 0.0051812107156888002 -0.0031966147902080071 0 0.0051396154046089914 -0.0032805587833447756 0 0.0051812107156888002 -0.0031966147902080071 0 0.0052187921810968336 -0.003295553739397611 0 0.0051812107156888002 -0.0031966147902080071 0 0.0051620637227203624 -0.0031252432248863658 0 0.0052281366393505712 -0.0031159189622216817 0 0.0050971761911657379 -0.003147650006666581 0 0.0051812107156888002 -0.0031966147902080071 0 0.0051620637227203624 -0.0031252432248863658 0 0.0051456099960693466 -0.0030546152253783962 0 0.0050971761911657379 -0.003147650006666581 0 0.0051620637227203624 -0.0031252432248863658 0 0.0051456099960693466 -0.0030546152253783962 0 0.0051620637227203624 -0.0031252432248863658 0 0.0052281366393505712 -0.0031159189622216817 0 0.0052281366393505712 -0.0031159189622216817 0 0.0052896612622914188 -0.003153950550723819 0 0.0052594873986508937 -0.0032177193438998005 0 0.0051812107156888002 -0.0031966147902080071 0 0.0052281366393505712 -0.0031159189622216817 0 0.0052594873986508937 -0.0032177193438998005 0 0.0052987731042018916 -0.0030820377272126097 0 0.0052281366393505712 -0.0031159189622216817 0 0.0052896612622914188 -0.003153950550723819 0 0.0054094699569016214 -0.0031586804635668599 0 0.0053880200339701178 -0.0030558974570123391 0 0.0053494668657700795 -0.0031324707177555265 0 0.0052987731042018916 -0.0030820377272126097 0 0.0052896612622914188 -0.003153950550723819 0 0.0053494668657700795 -0.0031324707177555265 0 0.0052896612622914188 -0.003153950550723819 0 0.0053494668657700795 -0.0031324707177555265 0 0.005347234702528245 -0.0032003984801622165 0 0.0054094699569016214 -0.0031586804635668599 0 0.0053494668657700795 -0.0031324707177555265 0 0.005347234702528245 -0.0032003984801622165 0 0.005347234702528245 -0.0032003984801622165 0 0.0052594873986508937 -0.0032177193438998005 0 0.0053208289130335972 -0.0033161079895985745 0 0.0047695608314632064 -0.0035766241708340809 0 0.0051863571036343476 -0.0038420606824911174 0 0.0054537208063018833 -0.0032244503335589407 0 0.005347234702528245 -0.0032003984801622165 0 0.0053208289130335972 -0.0033161079895985745 0 0.0052896612622914188 -0.003153950550723819 0 0.005347234702528245 -0.0032003984801622165 0 0.0052594873986508937 -0.0032177193438998005 0 0.0052594873986508937 -0.0032177193438998005 0 0.0052187921810968336 -0.003295553739397611 0 0.0053208289130335972 -0.0033161079895985745 0 0.0051812107156888002 -0.0031966147902080071 0 0.0052594873986508937 -0.0032177193438998005 0 0.0052187921810968336 -0.003295553739397611 0 0.0051863571036343476 -0.0038420606824911174 0 0.0051301874648661287 -0.0037896906295886421 0 0.0052187921810968336 -0.003295553739397611 0 0.0053208289130335972 -0.0033161079895985745 0 0.0051794238812679855 -0.0034125495340661936 0 0.0047854235064768063 -0.004116128828317453 0 0.0047807012897602679 -0.0042335429953041653 0 0.0049510987804787252 -0.0041451589965457837 0 0.0047807012897602679 -0.0042335429953041653 0 0.0049330791870936062 -0.0043140574749862687 0 0.0049510987804787252 -0.0041451589965457837 0 0.0049330791870936062 -0.0043140574749862687 0 0.0049510987804787252 -0.0041451589965457837 0 0.0051550981074255731 -0.0041884244771655662 0 0.0050864177496491433 -0.0039330462351161513 0 0.0051784066899376504 -0.003705285611462013 0 0.0051901681733830434 -0.0036983772428302616 0 0.0050866072655638365 -0.0038707232832442648 0 0.0051784066899376504 -0.003705285611462013 0 0.0050834929080788216 -0.0037159661697451335 0 0.005138889058842638 -0.003782422331148646 0 0.0051301874648661287 -0.0037896906295886421 0 0.0051784066899376504 -0.003705285611462013 0 0.0051396383357733832 -0.0036294386789369267 0 0.0050834929080788216 -0.0037159661697451335 0 0.0051784066899376504 -0.003705285611462013 0 0.0052003036467601644 -0.0036894160340014991 0 0.0051396383357733832 -0.0036294386789369267 0 0.0050866072655638365 -0.0038707232832442648 0 0.0050834929080788216 -0.0037159661697451335 0 0.0049999145824149065 -0.003710923060449733 0 0.0050834929080788216 -0.0037159661697451335 0 0.0049999145824149065 -0.003710923060449733 0 0.0050745496340787863 -0.0035891340419578919 0 0.0051396383357733832 -0.0036294386789369267 0 0.0050834929080788216 -0.0037159661697451335 0 0.0050745496340787863 -0.0035891340419578919 0 0.0051691296967331336 -0.0034424865518556868 0 0.0051396383357733832 -0.0036294386789369267 0 0.0050745496340787863 -0.0035891340419578919 0 0.0049999145824149065 -0.003710923060449733 0 0.0050745496340787863 -0.0035891340419578919 0 0.0049999896315284491 -0.0034397241403435665 0 0.0051691296967331336 -0.0034424865518556868 0 0.0050745496340787863 -0.0035891340419578919 0 0.0049999896315284491 -0.0034397241403435665 0 0.0051691296967331336 -0.0034424865518556868 0 0.0052003036467601644 -0.0036894160340014991 0 0.0051396383357733832 -0.0036294386789369267 0 0.0051396154046089914 -0.0032805587833447756 0 0.0052187921810968336 -0.003295553739397611 0 0.0051794238812679855 -0.0034125495340661936 0 0.0051488993924036662 -0.0033164770642752422 0 0.0051301874648661287 -0.0037896906295886421 0 0.0051425026773032284 -0.0015697371109447489 0 0.0050771795422579055 -0.0016290148446492382 0 0.0051487397573998445 -0.0016816234209941054 0 0.0051425026773032284 -0.0015697371109447489 0 0.005214125232138587 -0.0016448486556269308 0 0.0051487397573998445 -0.0016816234209941054 0 0.0052163853198502301 -0.0015385098822238523 0 0.0050807928968641921 -0.0015717635767159843 0 0.005138433512289038 -0.0013892284529166349 0 0.0051752110783571444 -0.0013879447021830646 0 0.0050932223771893888 -0.0015116436827998742 0 0.0051842475069417285 -0.0015160115003218946 0 0.0052163853198502301 -0.0015385098822238523 0 0.0050932223771893888 -0.0015116436827998742 0 0.004999955762679505 -0.0014246716926430421 0 0.0050000123822503875 -0.0016329054125623138 0 0.0050932223771893888 -0.0015116436827998742 0 0.004999955762679505 -0.0014246716926430421 0 0.0050740042289455578 -0.0014096691742684765 0 0.005138433512289038 -0.0013892284529166349 0 0.0050932223771893888 -0.0015116436827998742 0 0.0050740042289455578 -0.0014096691742684765 0 0.004999955762679505 -0.0014246716926430421 0 0.0050635686865139308 -0.0013185653233100101 0 0.0050000644621673645 -0.0012167191792791117 0 0.0050635686865139308 -0.0013185653233100101 0 0.0051355311147501803 -0.0012389541028741786 0 0.0050000644621673645 -0.0012167191792791117 0 0.005138433512289038 -0.0013892284529166349 0 0.0050635686865139308 -0.0013185653233100101 0 0.0051355311147501803 -0.0012389541028741786 0 0.005138433512289038 -0.0013892284529166349 0 0.0050740042289455578 -0.0014096691742684765 0 0.0050635686865139308 -0.0013185653233100101 0 0.004999955762679505 -0.0014246716926430421 0 0.0050740042289455578 -0.0014096691742684765 0 0.0050635686865139308 -0.0013185653233100101 0 0.005138433512289038 -0.0013892284529166349 0 0.0051611999035060079 -0.0013839184508532298 0 0.0051355311147501803 -0.0012389541028741786 0 0.0051611999035060079 -0.0013839184508532298 0 0.0052459959604151387 -0.0012268137348934599 0 0.0051355311147501803 -0.0012389541028741786 0 0.0053636408357547643 -0.0016729676962809641 0 0.0053217834995588943 -0.0016741059566154448 0 0.0053226111865847248 -0.0017201865948778656 0 0.0052163853198502301 -0.0015385098822238523 0 0.005294686655915171 -0.0014686243987619009 0 0.0052869142256058545 -0.0017104514432974953 0 0.0053217834995588943 -0.0016741059566154448 0 0.0053226111865847248 -0.0017201865948778656 0 0.0052869142256058545 -0.0017104514432974953 0 0.0052773082723942604 -0.0016745603701124952 0 0.0053217834995588943 -0.0016741059566154448 0 0.0052896872342591238 -0.0021348500778669388 0 0.0053050239961515925 -0.0020267277265119191 0 0.0052790904021049337 -0.0021355418287781554 0 0.0053050239961515925 -0.0020267277265119191 0 0.00530588089483336 -0.0019796296834446066 0 0.0052790904021049337 -0.0021355418287781554 0 0.00530588089483336 -0.0019796296834446066 0 0.0052641669430310281 -0.002040229734963568 0 0.0052799083982820521 -0.002098354360318432 0 0.0054547333410839647 -0.0015731161740288888 0 0.0053661956855543102 -0.0016323545364431856 0 0.0054030430659626977 -0.0017176368401990382 0 0.005297012246720678 -0.0020421840205882991 0 0.0052877599280147219 -0.0019794875514113405 0 0.0054547333410839647 -0.0015731161740288888 0 0.0053661956855543102 -0.0016323545364431856 0 0.0052866558490001518 -0.0015716451256408768 0 0.0052963966242462095 -0.0018421358034489506 0 0.0053533967001072741 -0.001873413258957395 0 0.0052963966242462095 -0.0018421358034489506 0 0.0053246038609575403 -0.0016158238943663555 0 0.0053661956855543102 -0.0016323545364431856 0 0.005297887121676787 -0.0016800515535821253 0 0.0054030430659626977 -0.0017176368401990382 0 0.0052163853198502301 -0.0015385098822238523 0 0.0053246038609575403 -0.0016158238943663555 0 0.0051425026773032284 -0.0015697371109447489 0 0.0052866558490001518 -0.0015716451256408768 0 0.005214125232138587 -0.0016448486556269308 0 0.0053661956855543102 -0.0016323545364431856 0 0.0052866558490001518 -0.0015716451256408768 0 0.005297887121676787 -0.0016800515535821253 0 0.0052866558490001518 -0.0015716451256408768 0 0.005297887121676787 -0.0016800515535821253 0 0.005214125232138587 -0.0016448486556269308 0 0.005297887121676787 -0.0016800515535821253 0 0.005214125232138587 -0.0016448486556269308 0 0.0052289097786832207 -0.0017476882452361461 0 0.005297887121676787 -0.0016800515535821253 0 0.0052289097786832207 -0.0017476882452361461 0 0.0052893586641394874 -0.0017826334776543616 0 0.0052289097786832207 -0.0017476882452361461 0 0.0052426745391827645 -0.0018425723534308868 0 0.0051719606344422173 -0.001812029440144693 0 0.0052289097786832207 -0.0017476882452361461 0 0.0052893586641394874 -0.0017826334776543616 0 0.0052426745391827645 -0.0018425723534308868 0 0.0053533967001072741 -0.001873413258957395 0 0.0053204719128002826 -0.0019114008145673029 0 0.0053050239961515925 -0.0020267277265119191 0 0.00530588089483336 -0.0019796296834446066 0 0.0053127063402933668 -0.00191191288479811 0 0.0052893586641394874 -0.0017826334776543616 0 0.0054030430659626977 -0.0017176368401990382 0 0.0053127063402933668 -0.00191191288479811 0 0.00530588089483336 -0.0019796296834446066 0 0.0052679294435353944 -0.0019937062420570268 0 0.0052641669430310281 -0.002040229734963568 0 0.005297887121676787 -0.0016800515535821253 0 0.0052893586641394874 -0.0017826334776543616 0 0.0054030430659626977 -0.0017176368401990382 0 0.00530588089483336 -0.0019796296834446066 0 0.0052772849727015783 -0.001960984052004836 0 0.0052679294435353944 -0.0019937062420570268 0 0.0052772849727015783 -0.001960984052004836 0 0.0053127063402933668 -0.00191191288479811 0 0.0052635875126809976 -0.0019714351732450027 0 0.00530588089483336 -0.0019796296834446066 0 0.0052772849727015783 -0.001960984052004836 0 0.0053127063402933668 -0.00191191288479811 0 0.0052426745391827645 -0.0018425723534308868 0 0.0052495205406935487 -0.0019216605804870308 0 0.0051719606344422173 -0.001812029440144693 0 0.0053127063402933668 -0.00191191288479811 0 0.0052426745391827645 -0.0018425723534308868 0 0.0052495205406935487 -0.0019216605804870308 0 0.0052893586641394874 -0.0017826334776543616 0 0.0053127063402933668 -0.00191191288479811 0 0.0052426745391827645 -0.0018425723534308868 0 0.0051719606344422173 -0.001812029440144693 0 0.0050893874511537159 -0.0018006324064510776 0 0.0051577031171121416 -0.0019578365269502141 0 0.0052495205406935487 -0.0019216605804870308 0 0.0051719606344422173 -0.001812029440144693 0 0.0051577031171121416 -0.0019578365269502141 0 0.0051719606344422173 -0.001812029440144693 0 0.0050984856678113685 -0.0017098593348509677 0 0.0050893874511537159 -0.0018006324064510776 0 0.0051719606344422173 -0.001812029440144693 0 0.0051487397573998445 -0.0016816234209941054 0 0.0050984856678113685 -0.0017098593348509677 0 0.0052289097786832207 -0.0017476882452361461 0 0.0051719606344422173 -0.001812029440144693 0 0.0051487397573998445 -0.0016816234209941054 0 0.005214125232138587 -0.0016448486556269308 0 0.0052289097786832207 -0.0017476882452361461 0 0.0051487397573998445 -0.0016816234209941054 0 0.0050807928968641921 -0.0015717635767159843 0 0.0050000212897993663 -0.0016328910098058018 0 0.0050771795422579055 -0.0016290148446492382 0 0.0051487397573998445 -0.0016816234209941054 0 0.0050984856678113685 -0.0017098593348509677 0 0.0050771795422579055 -0.0016290148446492382 0 0.0050000097286390724 -0.0016331236621847768 0 0.0050984856678113685 -0.0017098593348509677 0 0.0050000097286390724 -0.0016331236621847768 0 0.0050984856678113685 -0.0017098593348509677 0 0.0050893874511537159 -0.0018006324064510776 0 0.0050000097286390724 -0.0016331236621847768 0 0.0049999730649759487 -0.001873824619754956 0 0.0050893874511537159 -0.0018006324064510776 0 0.0049999730649759487 -0.001873824619754956 0 0.0050893874511537159 -0.0018006324064510776 0 0.0051577031171121416 -0.0019578365269502141 0 0.0049999730649759487 -0.001873824619754956 0 0.0051577031171121416 -0.0019578365269502141 0 0.0049999887940599137 -0.002114742878594411 0 0.0051577031171121416 -0.0019578365269502141 0 0.0051821490824056834 -0.0021623152302602073 0 0.0053036752440547693 -0.0019941138883068656 0 0.0051577031171121416 -0.0019578365269502141 0 0.0049999887940599137 -0.002114742878594411 0 0.0051821490824056834 -0.0021623152302602073 0 0.0049999887940599137 -0.002114742878594411 0 0.0051821490824056834 -0.0021623152302602073 0 0.0049999947684185742 -0.0023556592851301122 0 0.0051150283824145625 -0.0022026514256113 0 0.0050762363223591303 -0.0024432817186441393 0 0.0049999276528091639 -0.0023557101821048186 0 0.005147311741023038 -0.0021831824520345184 0 0.0050000246816896887 -0.0023556541189135938 0 0.0051150283824145625 -0.0022026514256113 0 0.0051688173216665884 -0.0023892707733439763 0 0.0050762363223591303 -0.0024432817186441393 0 0.0049999579205243574 -0.0026266047268801111 0 0.0050762363223591303 -0.0024432817186441393 0 0.0049999276528091639 -0.0023557101821048186 0 0.0052809029869033191 -0.0022250265616491085 0 0.0052476154666208901 -0.0023782481888093036 0 0.0052243939948440465 -0.0022165043744568611 0 0.0051688173216665884 -0.0023892707733439763 0 0.0052476154666208901 -0.0023782481888093036 0 0.0052243939948440465 -0.0022165043744568611 0 0.0051150283824145625 -0.0022026514256113 0 0.0051688173216665884 -0.0023892707733439763 0 0.0052243939948440465 -0.0022165043744568611 0 0.0052809029869033191 -0.0022250265616491085 0 0.0052243939948440465 -0.0022165043744568611 0 0.0052311873695248369 -0.0021944202148308249 0 0.0052243939948440465 -0.0022165043744568611 0 0.0052311873695248369 -0.0021944202148308249 0 0.0052333035960233651 -0.0021163139165753203 0 0.0052809029869033191 -0.0022250265616491085 0 0.0052311873695248369 -0.0021944202148308249 0 0.0051776758272733944 -0.0021991309914304218 0 0.0052243939948440465 -0.0022165043744568611 0 0.0052333035960233651 -0.0021163139165753203 0 0.0051849134644516848 -0.0020949385336365913 0 0.0051150283824145625 -0.0022026514256113 0 0.0052243939948440465 -0.0022165043744568611 0 0.0051849134644516848 -0.0020949385336365913 0 0.005147311741023038 -0.0021831824520345184 0 0.0052424228607616738 -0.0020454181961706433 0 0.0052495205406935487 -0.0019216605804870308 0 0.0051577031171121416 -0.0019578365269502141 0 0.0053036752440547693 -0.0019941138883068656 0 0.0053127063402933668 -0.00191191288479811 0 0.0052495205406935487 -0.0019216605804870308 0 0.0053036752440547693 -0.0019941138883068656 0 0.0053127063402933668 -0.00191191288479811 0 0.0053036752440547693 -0.0019941138883068656 0 0.0052635875126809976 -0.0019714351732450027 0 0.0052333035960233651 -0.0021163139165753203 0 0.0051849134644516848 -0.0020949385336365913 0 0.0052635875126809976 -0.0019714351732450027 0 0.0052424228607616738 -0.0020454181961706433 0 0.0052673490612611361 -0.0019785787103142301 0 0.0052333035960233651 -0.0021163139165753203 0 0.0052635044075659667 -0.0020378347788610599 0 0.0052635875126809976 -0.0019714351732450027 0 0.0052635044075659667 -0.0020378347788610599 0 0.0052508693567954135 -0.0019720118550305391 0 0.0052635875126809976 -0.0019714351732450027 0 0.0052635044075659667 -0.0020378347788610599 0 0.0052508693567954135 -0.0019720118550305391 0 0.0052927676840108795 -0.0020474303332838227 0 0.0052635044075659667 -0.0020378347788610599 0 0.0052927676840108795 -0.0020474303332838227 0 0.0052747488846335731 -0.0021456498973405412 0 0.0046775529722025873 -0.0027449989135036319 0 0.004911075656175927 -0.0024632728854677727 0 0.0046451153028450902 -0.0024930586389929682 0 0.0049744810894590914 -0.0024413560790902348 0 0.0050969643283361619 -0.0022914933404536322 0 0.0052333035960233651 -0.0021163139165753203 0 0.0052635044075659667 -0.0020378347788610599 0 0.0052747488846335731 -0.0021456498973405412 0 0.0052311873695248369 -0.0021944202148308249 0 0.0052747488846335731 -0.0021456498973405412 0 0.0051776758272733944 -0.0021991309914304218 0 0.0052311873695248369 -0.0021944202148308249 0 0.0052333035960233651 -0.0021163139165753203 0 0.0052747488846335731 -0.0021456498973405412 0 0.004911075656175927 -0.0024632728854677727 0 0.0049232717907886758 -0.0022396422449101421 0 0.0051776758272733944 -0.0021991309914304218 0 0.0050969643283361619 -0.0022914933404536322 0 0.005172848507809082 -0.0022039573106733368 0 0.004911075656175927 -0.0024632728854677727 0 0.0046866221537476211 -0.0022629836078136355 0 0.0046451153028450902 -0.0024930586389929682 0 0.004911075656175927 -0.0024632728854677727 0 0.0046866221537476211 -0.0022629836078136355 0 0.0049232717907886758 -0.0022396422449101421 0 0.0046866221537476211 -0.0022629836078136355 0 0.0049394880595786464 -0.0020301021165746872 0 0.0045387250685359976 -0.0020083198999780814 0 0.0046866221537476211 -0.0022629836078136355 0 0.0049232717907886758 -0.0022396422449101421 0 0.0049394880595786464 -0.0020301021165746872 0 0.0051671843184481481 -0.0019718510491421527 0 0.0049394880595786464 -0.0020301021165746872 0 0.0051776758272733944 -0.0021991309914304218 0 0.0051671843184481481 -0.0019718510491421527 0 0.0052809029869033191 -0.0022250265616491085 0 0.0051776758272733944 -0.0021991309914304218 0 0.0049232717907886758 -0.0022396422449101421 0 0.0049394880595786464 -0.0020301021165746872 0 0.0051776758272733944 -0.0021991309914304218 0 0.0043269371858073412 -0.0016751300527136281 0 0.0042100223533147922 -0.0020269602842499603 0 0.0045387250685359976 -0.0020083198999780814 0 0.0042100223533147922 -0.0020269602842499603 0 0.0045387250685359976 -0.0020083198999780814 0 0.0044250688768550416 -0.0023251545096227249 0 0.0046866221537476211 -0.0022629836078136355 0 0.0045387250685359976 -0.0020083198999780814 0 0.0044250688768550416 -0.0023251545096227249 0 0.0046866221537476211 -0.0022629836078136355 0 0.0044250688768550416 -0.0023251545096227249 0 0.0046451153028450902 -0.0024930586389929682 0 0.0042100223533147922 -0.0020269602842499603 0 0.0044250688768550416 -0.0023251545096227249 0 0.0041821553345027015 -0.0024711463836590759 0 0.0042100223533147922 -0.0020269602842499603 0 0.0041821553345027015 -0.0024711463836590759 0 0.0039073583629697477 -0.0023398639097598601 0 0.0041821553345027015 -0.0024711463836590759 0 0.0043409138927515273 -0.0027042123508176485 0 0.0039597241285795927 -0.0027243652910409507 0 0.0044250688768550416 -0.0023251545096227249 0 0.0041821553345027015 -0.0024711463836590759 0 0.0043409138927515273 -0.0027042123508176485 0 0.0044250688768550416 -0.0023251545096227249 0 0.0043409138927515273 -0.0027042123508176485 0 0.0046451153028450902 -0.0024930586389929682 0 0.0046775529722025873 -0.0027449989135036319 0 0.0043409138927515273 -0.0027042123508176485 0 0.0046451153028450902 -0.0024930586389929682 0 0.0046775529722025873 -0.0027449989135036319 0 0.0043409138927515273 -0.0027042123508176485 0 0.0044498802827301689 -0.0030414633400421046 0 0.0049744810894590914 -0.0024413560790902348 0 0.0048048499352816541 -0.0021880288549146953 0 0.0052508693567954135 -0.0019720118550305391 0 0.0052927676840108795 -0.0020474303332838227 0 0.0053310972392175745 -0.0019621959261751313 0 0.0043409138927515273 -0.0027042123508176485 0 0.0042124947031549082 -0.0029253320609746503 0 0.0044498802827301689 -0.0030414633400421046 0 0.0043409138927515273 -0.0027042123508176485 0 0.0042124947031549082 -0.0029253320609746503 0 0.0039597241285795927 -0.0027243652910409507 0 0.0042124947031549082 -0.0029253320609746503 0 0.0041671954394562859 -0.0030825602514039842 0 0.0044498802827301689 -0.0030414633400421046 0 0.0044126325770973912 -0.0020226389535184038 0 0.0044221256639491464 -0.0020951193181356453 0 0.0045084601486167462 -0.0019582921909927862 0 0.0044221256639491464 -0.0020951193181356453 0 0.0045377499903508619 -0.0019425309566418812 0 0.0045084601486167462 -0.0019582921909927862 0 0.0042124947031549082 -0.0029253320609746503 0 0.0041671954394562859 -0.0030825602514039842 0 0.0039999577801916111 -0.0030829654460619704 0 0.0044245503733135452 -0.0019569206175807739 0 0.0044126325770973912 -0.0020226389535184038 0 0.0045084601486167462 -0.0019582921909927862 0 0.0047486989184309467 -0.0020289559590061165 0 0.0048048499352816541 -0.0021880288549146953 0 0.0044245503733135452 -0.0019569206175807739 0 0.0044126325770973912 -0.0020226389535184038 0 0.0043571364264201337 -0.0019560665664980778 0 0.00429056391153215 -0.0022754789198093667 0 0.0048048499352816541 -0.0021880288549146953 0 0.00429056391153215 -0.0022754789198093667 0 0.0045143693110472069 -0.0020508739903698074 0 0.0044258666544996893 -0.0019620037006633654 0 0.0045377499903508619 -0.0019425309566418812 0 0.0045084601486167462 -0.0019582921909927862 0 0.0050270459612228235 -0.0020216165570930639 0 0.0051253870213895441 -0.0020248871345246921 0 0.0050330805296321009 -0.0020851631437914337 0 0.0050270459612228235 -0.0020216165570930639 0 0.0051253870213895441 -0.0020248871345246921 0 0.0051362032814246525 -0.0019426480539018168 0 0.0044126325770973912 -0.0020226389535184038 0 0.0044221256639491464 -0.0020951193181356453 0 0.0043650951722991665 -0.0021388866542465458 0 0.0051253870213895441 -0.0020248871345246921 0 0.0051851493363488403 -0.001982479889113758 0 0.0052134826133721059 -0.0019933364102153162 0 0.0053874069035851433 -0.0019495380392344649 0 0.0048048499352816541 -0.0021880288549146953 0 0.0052508693567954135 -0.0019720118550305391 0 0.0051851493363488403 -0.001982479889113758 0 0.0051362032814246525 -0.0019426480539018168 0 0.0051253870213895441 -0.0020248871345246921 0 0.0051851493363488403 -0.001982479889113758 0 0.0051362032814246525 -0.0019426480539018168 0 0.0052508693567954135 -0.0019720118550305391 0 0.0051851493363488403 -0.001982479889113758 0 0.0052134826133721059 -0.0019933364102153162 0 0.0052508693567954135 -0.0019720118550305391 0 0.0052499894196098226 -0.0019773979737031525 0 0.0052134826133721059 -0.0019933364102153162 0 0.0052508693567954135 -0.0019720118550305391 0 0.0052635875126809976 -0.0019714351732450027 0 0.0052499894196098226 -0.0019773979737031525 0 0.0052772849727015783 -0.001960984052004836 0 0.0052635875126809976 -0.0019714351732450027 0 0.0052499894196098226 -0.0019773979737031525 0 0.0052772849727015783 -0.001960984052004836 0 0.0052499894196098226 -0.0019773979737031525 0 0.0052679294435353944 -0.0019937062420570268 0 0.0052499894196098226 -0.0019773979737031525 0 0.0052679294435353944 -0.0019937062420570268 0 0.0052368293824577262 -0.0020199044766612225 0 0.0052679294435353944 -0.0019937062420570268 0 0.0052368293824577262 -0.0020199044766612225 0 0.0052641669430310281 -0.002040229734963568 0 0.0051253870213895441 -0.0020248871345246921 0 0.0052134826133721059 -0.0019933364102153162 0 0.0051776751792110484 -0.0020475156868376117 0 0.0052499894196098226 -0.0019773979737031525 0 0.0052368293824577262 -0.0020199044766612225 0 0.0052134826133721059 -0.0019933364102153162 0 0.0052368293824577262 -0.0020199044766612225 0 0.0052134826133721059 -0.0019933364102153162 0 0.0051776751792110484 -0.0020475156868376117 0 0.0051776751792110484 -0.0020475156868376117 0 0.0051969631700319249 -0.0021080096701782008 0 0.0050728165650135255 -0.0021083488842446292 0 0.0052368293824577262 -0.0020199044766612225 0 0.0051776751792110484 -0.0020475156868376117 0 0.0051969631700319249 -0.0021080096701782008 0 0.0051845287143415415 -0.0021023460946352599 0 0.0052877599280147219 -0.0019794875514113405 0 0.0052368293824577262 -0.0020199044766612225 0 0.0051969631700319249 -0.0021080096701782008 0 0.0052641669430310281 -0.002040229734963568 0 0.0051969631700319249 -0.0021080096701782008 0 0.0052641669430310281 -0.002040229734963568 0 0.0052799083982820521 -0.002098354360318432 0 0.0052963966242462095 -0.0018421358034489506 0 0.0052877599280147219 -0.0019794875514113405 0 0.005222995963768632 -0.001842302496768566 0 0.0052259056171963863 -0.001842404128550306 0 0.0052365233581639194 -0.0018111652446076943 0 0.0052963966242462095 -0.0018421358034489506 0 0.0052412011023375985 -0.0017524635884559455 0 0.0052877599280147219 -0.0019794875514113405 0 0.0052433712018052437 -0.0020226218960144753 0 0.0051705629303083591 -0.0020838634288926168 0 0.0053152249520624743 -0.0020820088982465503 0 0.0052557382427330665 -0.0022269492814951273 0 0.005222995963768632 -0.001842302496768566 0 0.0052365233581639194 -0.0018111652446076943 0 0.0052341983160019831 -0.0018060389036874921 0 0.0052869142256058545 -0.0017104514432974953 0 0.0052773082723942604 -0.0016745603701124952 0 0.0052549695181534854 -0.0017318238701862945 0 0.0051705629303083591 -0.0020838634288926168 0 0.0051143150294585271 -0.002168166103234725 0 0.0052557382427330665 -0.0022269492814951273 0 0.0051705629303083591 -0.0020838634288926168 0 0.0051143150294585271 -0.002168166103234725 0 0.0050728165650135255 -0.0021083488842446292 0 0.0051143150294585271 -0.002168166103234725 0 0.0050728165650135255 -0.0021083488842446292 0 0.0050147349790243346 -0.002186399281358969 0 0.004918886918972059 -0.002108172310306476 0 0.0049971978214330163 -0.0021700702684939632 0 0.0050053320313990114 -0.0021484845462116358 0 0.0050728165650135255 -0.0021083488842446292 0 0.0050147349790243346 -0.002186399281358969 0 0.0050053320313990114 -0.0021484845462116358 0 0.0050330805296321009 -0.0020851631437914337 0 0.0050728165650135255 -0.0021083488842446292 0 0.0051253870213895441 -0.0020248871345246921 0 0.0051776751792110484 -0.0020475156868376117 0 0.0050728165650135255 -0.0021083488842446292 0 0.0051253870213895441 -0.0020248871345246921 0 0.0050330805296321009 -0.0020851631437914337 0 0.0050728165650135255 -0.0021083488842446292 0 0.0051845287143415415 -0.0021023460946352599 0 0.0050839329339309718 -0.0021041747039251837 0 0.0042442926789738782 -0.0021636120056037923 0 0.0042859730301300393 -0.0022768811610593296 0 0.0040887672160588515 -0.0021633957392991543 0 0.0045316690023108593 -0.0020952194275837403 0 0.0041541342471237003 -0.0019744159311014938 0 0.0045103570834959614 -0.0019777493359520735 0 0.0043471543343346387 -0.0020247382043081115 0 0.0042641081786758015 -0.0017942660865558461 0 0.0045485650789164021 -0.0019253045616747014 0 0.0045103570834959614 -0.0019777493359520735 0 0.0042641081786758015 -0.0017942660865558461 0 0.0047486989184309467 -0.0020289559590061165 0 0.0045316690023108593 -0.0020952194275837403 0 0.0050053320313990114 -0.0021484845462116358 0 0.0050330805296321009 -0.0020851631437914337 0 0.0049450610386790909 -0.0021114171173723089 0 0.0044221256639491464 -0.0020951193181356453 0 0.0042859730301300393 -0.0022768811610593296 0 0.0043650951722991665 -0.0021388866542465458 0 0.0050270459612228235 -0.0020216165570930639 0 0.0050330805296321009 -0.0020851631437914337 0 0.0049450610386790909 -0.0021114171173723089 0 0.0042442926789738782 -0.0021636120056037923 0 0.0042859730301300393 -0.0022768811610593296 0 0.0043650951722991665 -0.0021388866542465458 0 0.0045583587061524622 -0.0019133481494103377 0 0.0045103570834959614 -0.0019777493359520735 0 0.0046237285615358453 -0.002086523043117859 0 0.0047808621362346948 -0.0020358455078547098 0 0.0046237285615358453 -0.002086523043117859 0 0.0047504461939930978 -0.002263641921214869 0 0.0045316690023108593 -0.0020952194275837403 0 0.004556425189383418 -0.0020233494882016573 0 0.004918886918972059 -0.002108172310306476 0 0.0045316690023108593 -0.0020952194275837403 0 0.0047808621362346948 -0.0020358455078547098 0 0.0045583587061524622 -0.0019133481494103377 0 0.0046237285615358453 -0.002086523043117859 0 0.0045103570834959614 -0.0019777493359520735 0 0.0046237285615358453 -0.002086523043117859 0 0.004488294958497039 -0.0020638497139020017 0 0.0046237285615358453 -0.002086523043117859 0 0.004488294958497039 -0.0020638497139020017 0 0.0044763703135828293 -0.0021672991122734359 0 0.004488294958497039 -0.0020638497139020017 0 0.0043471543343346387 -0.0020247382043081115 0 0.0044763703135828293 -0.0021672991122734359 0 0.0043471543343346387 -0.0020247382043081115 0 0.0042638186090946497 -0.0021742195031045834 0 0.0044763703135828293 -0.0021672991122734359 0 0.0045103570834959614 -0.0019777493359520735 0 0.004488294958497039 -0.0020638497139020017 0 0.0043471543343346387 -0.0020247382043081115 0 0.004105224377554951 -0.0019854513512553096 0 0.0040925233973189111 -0.0021727288998391135 0 0.0042638186090946497 -0.0021742195031045834 0 0.0043471543343346387 -0.0020247382043081115 0 0.004105224377554951 -0.0019854513512553096 0 0.0042638186090946497 -0.0021742195031045834 0 0.004105224377554951 -0.0019854513512553096 0 0.0038644283584282398 -0.0021411515300287292 0 0.0040925233973189111 -0.0021727288998391135 0 0.004105224377554951 -0.0019854513512553096 0 0.003845788444151118 -0.0019546282981139241 0 0.0038644283584282398 -0.0021411515300287292 0 0.004105224377554951 -0.0019854513512553096 0 0.0039969406754842901 -0.0016876310387738912 0 0.003845788444151118 -0.0019546282981139241 0 0.0043471543343346387 -0.0020247382043081115 0 0.004105224377554951 -0.0019854513512553096 0 0.0042641081786758015 -0.0017942660865558461 0 0.004105224377554951 -0.0019854513512553096 0 0.0042641081786758015 -0.0017942660865558461 0 0.0039969406754842901 -0.0016876310387738912 0 0.0040887672160588515 -0.0021633957392991543 0 0.0040088607976763585 -0.002041652928423602 0 0.0041219552172387999 -0.0020571010464151499 0 0.0040088607976763585 -0.002041652928423602 0 0.0038536487621498752 -0.0019954672985842401 0 0.0040464082562664504 -0.0020080545016566424 0 0.0041541342471237003 -0.0019744159311014938 0 0.0039658869756469938 -0.0018670414409989523 0 0.0040887672160588515 -0.0021633957392991543 0 0.0040088607976763585 -0.002041652928423602 0 0.0038851967137974565 -0.0020371110008543763 0 0.0040464082562664504 -0.0020080545016566424 0 0.0041208807107053222 -0.002009231539466862 0 0.0041219552172387999 -0.0020571010464151499 0 0.0040088607976763585 -0.002041652928423602 0 0.0040464082562664504 -0.0020080545016566424 0 0.0041219552172387999 -0.0020571010464151499 0 0.0040088607976763585 -0.002041652928423602 0 0.0038851967137974565 -0.0020371110008543763 0 0.0038536487621498752 -0.0019954672985842401 0 0.003894810779819772 -0.0019327048038806766 0 0.0038536487621498752 -0.0019954672985842401 0 0.0040255622973549522 -0.0019652631500989386 0 0.003894810779819772 -0.0019327048038806766 0 0.0038536487621498752 -0.0019954672985842401 0 0.0037113006500173766 -0.0019223965894154356 0 0.003894810779819772 -0.0019327048038806766 0 0.0040255622973549522 -0.0019652631500989386 0 0.0040429451865572289 -0.0019353311908380699 0 0.003854780577876242 -0.0020014149414686005 0 0.004083508502121122 -0.0019311512658796227 0 0.0038536487621498752 -0.0019954672985842401 0 0.0040464082562664504 -0.0020080545016566424 0 0.0041029981645163268 -0.0019561692564135035 0 0.0037648552956997309 -0.0019173603957657259 0 0.0038285330443344097 -0.0019019777676564842 0 0.0040464082562664504 -0.0020080545016566424 0 0.0041029981645163268 -0.0019561692564135035 0 0.0041208807107053222 -0.002009231539466862 0 0.0041029981645163268 -0.0019561692564135035 0 0.0041853895038379205 -0.0020084447112784639 0 0.0043465353124275564 -0.0019106230118163007 0 0.0040255622973549522 -0.0019652631500989386 0 0.0040429451865572289 -0.0019353311908380699 0 0.004180390626654696 -0.0019394163641957242 0 0.004083508502121122 -0.0019311512658796227 0 0.0041877929819822621 -0.0021402483912091124 0 0.0037027359540914031 -0.0019098195131255758 0 0.003768167581351115 -0.0019169251427098191 0 0.0037345764498344499 -0.0018886718894181856 0 0.0038285330443344097 -0.0019019777676564842 0 0.0041877929819822621 -0.0021402483912091124 0 0.0041029981645163268 -0.0019561692564135035 0 0.0041853895038379205 -0.0020084447112784639 0 0.0041208807107053222 -0.002009231539466862 0 0.0041853895038379205 -0.0020084447112784639 0 0.0041219552172387999 -0.0020571010464151499 0 0.0041962435201427818 -0.0020872694354458709 0 0.0042442926789738782 -0.0021636120056037923 0 0.0040887672160588515 -0.0021633957392991543 0 0.0041962435201427818 -0.0020872694354458709 0 0.0041853895038379205 -0.0020084447112784639 0 0.0041208807107053222 -0.002009231539466862 0 0.0041219552172387999 -0.0020571010464151499 0 0.0041853895038379205 -0.0020084447112784639 0 0.004244612714006224 -0.0020365274937802053 0 0.0041962435201427818 -0.0020872694354458709 0 0.004244612714006224 -0.0020365274937802053 0 0.0041962435201427818 -0.0020872694354458709 0 0.0042893331535512934 -0.0020950558024423046 0 0.0042442926789738782 -0.0021636120056037923 0 0.0041962435201427818 -0.0020872694354458709 0 0.0042893331535512934 -0.0020950558024423046 0 0.0040887672160588515 -0.0021633957392991543 0 0.0041219552172387999 -0.0020571010464151499 0 0.0041962435201427818 -0.0020872694354458709 0 0.004395918051886093 -0.0020449247976257116 0 0.0041877929819822621 -0.0021402483912091124 0 0.0043650951722991665 -0.0021388866542465458 0 0.0042893331535512934 -0.0020950558024423046 0 0.0043465353124275564 -0.0019106230118163007 0 0.0042442926789738782 -0.0021636120056037923 0 0.0043650951722991665 -0.0021388866542465458 0 0.0042893331535512934 -0.0020950558024423046 0 0.0041853895038379205 -0.0020084447112784639 0 0.004244612714006224 -0.0020365274937802053 0 0.0043465353124275564 -0.0019106230118163007 0 0.004244612714006224 -0.0020365274937802053 0 0.0042893331535512934 -0.0020950558024423046 0 0.0043465353124275564 -0.0019106230118163007 0 0.0044126325770973912 -0.0020226389535184038 0 0.0043650951722991665 -0.0021388866542465458 0 0.0043571364264201337 -0.0019560665664980778 0 0.00429056391153215 -0.0022754789198093667 0 0.0041877929819822621 -0.0021402483912091124 0 0.0042124947031549082 -0.0029253320609746503 0 0.0039999577801916111 -0.0030829654460619704 0 0.0039597241285795927 -0.0027243652910409507 0 0.0041877929819822621 -0.0021402483912091124 0 0.0038489873048485617 -0.0023638601057081104 0 0.003768167581351115 -0.0019169251427098191 0 0.0037345764498344499 -0.0018886718894181856 0 0.003762202918677945 -0.0018704521657592732 0 0.0037345764498344499 -0.0018886718894181856 0 0.0037012287457894883 -0.0018484335402089355 0 0.003762202918677945 -0.0018704521657592732 0 0.0037027359540914031 -0.0019098195131255758 0 0.0037345764498344499 -0.0018886718894181856 0 0.0037012287457894883 -0.0018484335402089355 0 0.0037012287457894883 -0.0018484335402089355 0 0.003762202918677945 -0.0018704521657592732 0 0.0037731731269812722 -0.0018511350827037025 0 0.0038489873048485617 -0.0023638601057081104 0 0.0038462014797020151 -0.0020728825303670483 0 0.0041821553345027015 -0.0024711463836590759 0 0.0039597241285795927 -0.0027243652910409507 0 0.0039073583629697477 -0.0023398639097598601 0 0.0037012287457894883 -0.0018484335402089355 0 0.0037532814363090122 -0.0018416525586464612 0 0.0036655518149115631 -0.0018070079129115955 0 0.0037012287457894883 -0.0018484335402089355 0 0.0037731731269812722 -0.0018511350827037025 0 0.0037532814363090122 -0.0018416525586464612 0 0.003630940707993819 -0.001726080387720563 0 0.003752866132701582 -0.0016671311026640646 0 0.0037532814363090122 -0.0018416525586464612 0 0.003752866132701582 -0.0016671311026640646 0 0.0037532814363090122 -0.0018416525586464612 0 0.0038649536334954921 -0.0018676165496709243 0 0.0038462014797020151 -0.0020728825303670483 0 0.0038542572265793992 -0.0018875667790193785 0 0.0042100223533147922 -0.0020269602842499603 0 0.0039073583629697477 -0.0023398639097598601 0 0.0038649536334954921 -0.0018676165496709243 0 0.0037731731269812722 -0.0018511350827037025 0 0.0037532814363090122 -0.0018416525586464612 0 0.0038649536334954921 -0.0018676165496709243 0 0.0040469269716257809 -0.001739530985059172 0 0.0042100223533147922 -0.0020269602842499603 0 0.0038649536334954921 -0.0018676165496709243 0 0.0035089612914832209 -0.0016976840211310041 0 0.003630940707993819 -0.001726080387720563 0 0.0035784411144685665 -0.0017637561911428431 0 0.003630940707993819 -0.001726080387720563 0 0.0037532814363090122 -0.0018416525586464612 0 0.0036655518149115631 -0.0018070079129115955 0 0.003630940707993819 -0.001726080387720563 0 0.0036655518149115631 -0.0018070079129115955 0 0.0035784411144685665 -0.0017637561911428431 0 0.0037012287457894883 -0.0018484335402089355 0 0.0036655518149115631 -0.0018070079129115955 0 0.0036270163335007412 -0.0018090439552068361 0 0.0035784411144685665 -0.0017637561911428431 0 0.0036270163335007412 -0.0018090439552068361 0 0.0035570639503930395 -0.0017817065705674543 0 0.0036655518149115631 -0.0018070079129115955 0 0.0035784411144685665 -0.0017637561911428431 0 0.0036270163335007412 -0.0018090439552068361 0 0.0036270163335007412 -0.0018090439552068361 0 0.0036252844146905609 -0.0018372813491380985 0 0.0035570639503930395 -0.0017817065705674543 0 0.0036252844146905609 -0.0018372813491380985 0 0.0035507090061869702 -0.0018057314968831441 0 0.0035570639503930395 -0.0017817065705674543 0 0.0037012287457894883 -0.0018484335402089355 0 0.0036270163335007412 -0.0018090439552068361 0 0.0036252844146905609 -0.0018372813491380985 0 0.0037027359540914031 -0.0019098195131255758 0 0.0037012287457894883 -0.0018484335402089355 0 0.0036252844146905609 -0.0018372813491380985 0 0.0036180582668945221 -0.001885666032593302 0 0.0037027359540914031 -0.0019098195131255758 0 0.0036252844146905609 -0.0018372813491380985 0 0.0036180582668945221 -0.001885666032593302 0 0.0036252844146905609 -0.0018372813491380985 0 0.0035507090061869702 -0.0018057314968831441 0 0.0035507090061869702 -0.0018057314968831441 0 0.0034921161839545391 -0.0017600391337537782 0 0.0035334299826164628 -0.0018398387357819418 0 0.0036180582668945221 -0.001885666032593302 0 0.0035507090061869702 -0.0018057314968831441 0 0.0035334299826164628 -0.0018398387357819418 0 0.0035507090061869702 -0.0018057314968831441 0 0.0034921161839545391 -0.0017600391337537782 0 0.0034983136344383264 -0.0017442135844954936 0 0.0034921161839545391 -0.0017600391337537782 0 0.0034983136344383264 -0.0017442135844954936 0 0.0034859170177607814 -0.0017205587898115845 0 0.0035507090061869702 -0.0018057314968831441 0 0.0034983136344383264 -0.0017442135844954936 0 0.0035570639503930395 -0.0017817065705674543 0 0.0034983136344383264 -0.0017442135844954936 0 0.0035570639503930395 -0.0017817065705674543 0 0.0035106495072666217 -0.0017474481124561208 0 0.0035784411144685665 -0.0017637561911428431 0 0.0035570639503930395 -0.0017817065705674543 0 0.0035106495072666217 -0.0017474481124561208 0 0.0034983136344383264 -0.0017442135844954936 0 0.0035106495072666217 -0.0017474481124561208 0 0.0034803791874402244 -0.0017301759882855342 0 0.0035106495072666217 -0.0017474481124561208 0 0.003476840250744398 -0.0017318834664708487 0 0.0034803791874402244 -0.0017301759882855342 0 0.0026975462866043014 -0.0025612417281488551 0 0.0027357303835662864 -0.0025821692003727905 0 0.0035089612914832209 -0.0016976840211310041 0 0.0035106495072666217 -0.0017474481124561208 0 0.003476840250744398 -0.0017318834664708487 0 0.0035089612914832209 -0.0016976840211310041 0 0.0035784411144685665 -0.0017637561911428431 0 0.0035106495072666217 -0.0017474481124561208 0 0.0020088500689113419 -0.003413693028237436 0 0.0019513548643475579 -0.0033874587086073268 0 0.0020237419559743551 -0.0033323488837587942 0 0.0026022045172989427 -0.0023355253188910422 0 0.0017338617691074457 -0.003268978468803814 0 0.0020088500689113419 -0.003413693028237436 0 0.0020237419559743551 -0.0033323488837587942 0 0.0020614244327966632 -0.0034039868667251724 0 0.0027357303835662864 -0.0025821692003727905 0 0.0026022045172989427 -0.0023355253188910422 0 0.003476840250744398 -0.0017318834664708487 0 0.0034803791874402244 -0.0017301759882855342 0 0.0034888707365800225 -0.0017350441866547152 0 0.0034803791874402244 -0.0017301759882855342 0 0.0034888707365800225 -0.0017350441866547152 0 0.0034771462528352714 -0.0016875647956600926 0 0.0033814227266226334 -0.0015288448487710115 0 0.0033704372769197835 -0.0016133385102333516 0 0.0034771462528352714 -0.0016875647956600926 0 0.0026022045172989427 -0.0023355253188910422 0 0.0036057976978241609 -0.0015439093727975704 0 0.0033704372769197835 -0.0016133385102333516 0 0.0034771462528352714 -0.0016875647956600926 0 0.0034219159520573719 -0.0016698820659056491 0 0.0033704372769197835 -0.0016133385102333516 0 0.0034219159520573719 -0.0016698820659056491 0 0.0033118458006214033 -0.001608971781617812 0 0.0034983136344383264 -0.0017442135844954936 0 0.0034803791874402244 -0.0017301759882855342 0 0.0034771462528352714 -0.0016875647956600926 0 0.0034983136344383264 -0.0017442135844954936 0 0.0034771462528352714 -0.0016875647956600926 0 0.0034859170177607814 -0.0017205587898115845 0 0.0034859170177607814 -0.0017205587898115845 0 0.0034202837701585707 -0.0017034828750952273 0 0.0034979441812110997 -0.001708878756929332 0 0.0034771462528352714 -0.0016875647956600926 0 0.0034859170177607814 -0.0017205587898115845 0 0.0034219159520573719 -0.0016698820659056491 0 0.0034921161839545391 -0.0017600391337537782 0 0.0034859170177607814 -0.0017205587898115845 0 0.0034979441812110997 -0.001708878756929332 0 0.0034859170177607814 -0.0017205587898115845 0 0.0034219159520573719 -0.0016698820659056491 0 0.0034202837701585707 -0.0017034828750952273 0 0.0034219159520573719 -0.0016698820659056491 0 0.0034202837701585707 -0.0017034828750952273 0 0.0033118458006214033 -0.001608971781617812 0 0.0034202837701585707 -0.0017034828750952273 0 0.0034462143810873283 -0.0017462705495325751 0 0.0033362996501896409 -0.0017263259227469883 0 0.0034202837701585707 -0.0017034828750952273 0 0.0034462143810873283 -0.0017462705495325751 0 0.0034979441812110997 -0.001708878756929332 0 0.0034301586171347977 -0.0017984175591299386 0 0.0035214440601031203 -0.0018058870044986358 0 0.0034353865146580557 -0.0018610613694786187 0 0.0034462143810873283 -0.0017462705495325751 0 0.0034301586171347977 -0.0017984175591299386 0 0.0035214440601031203 -0.0018058870044986358 0 0.0035214440601031203 -0.0018058870044986358 0 0.0034979441812110997 -0.001708878756929332 0 0.0036143209848305672 -0.0017323736246262541 0 0.0034462143810873283 -0.0017462705495325751 0 0.0035214440601031203 -0.0018058870044986358 0 0.0034979441812110997 -0.001708878756929332 0 0.0034921161839545391 -0.0017600391337537782 0 0.0034979441812110997 -0.001708878756929332 0 0.0034807041410885877 -0.0017627038342791048 0 0.0034979441812110997 -0.001708878756929332 0 0.0037526212789899655 -0.0016032536319679816 0 0.0036143209848305672 -0.0017323736246262541 0 0.0035070736948590781 -0.0016760354739916964 0 0.0036316139371787544 -0.0017939041101404202 0 0.0034736220058979497 -0.0017521857935210541 0 0.0036316139371787544 -0.0017939041101404202 0 0.0037648552956997309 -0.0019173603957657259 0 0.0036316139371787544 -0.0017939041101404202 0 0.0039658869756469938 -0.0018670414409989523 0 0.0036316139371787544 -0.0017939041101404202 0 0.0038851967137974565 -0.0020371110008543763 0 0.0038536487621498752 -0.0019954672985842401 0 0.0037113006500173766 -0.0019223965894154356 0 0.0039969406754842901 -0.0016876310387738912 0 0.003715527384612614 -0.0017958788407547105 0 0.003845788444151118 -0.0019546282981139241 0 0.0039969406754842901 -0.0016876310387738912 0 0.0037526212789899655 -0.0016032536319679816 0 0.003715527384612614 -0.0017958788407547105 0 0.0037526212789899655 -0.0016032536319679816 0 0.0036143209848305672 -0.0017323736246262541 0 0.003715527384612614 -0.0017958788407547105 0 0.0035214440601031203 -0.0018058870044986358 0 0.0036143209848305672 -0.0017323736246262541 0 0.003715527384612614 -0.0017958788407547105 0 0.0035214440601031203 -0.0018058870044986358 0 0.003715527384612614 -0.0017958788407547105 0 0.0036223935026465722 -0.0019082323912511204 0 0.0037157521153124554 -0.0017971850670013723 0 0.0036482103324133328 -0.001949856182688804 0 0.003715527384612614 -0.0017958788407547105 0 0.0036954427177247474 -0.0019808087662422122 0 0.003845788444151118 -0.0019546282981139241 0 0.003845788444151118 -0.0019546282981139241 0 0.0037568312015234216 -0.0020958275153068803 0 0.0038644283584282398 -0.0021411515300287292 0 0.0036954427177247474 -0.0019808087662422122 0 0.003845788444151118 -0.0019546282981139241 0 0.0037568312015234216 -0.0020958275153068803 0 0.0036482103324133328 -0.001949856182688804 0 0.0037683810857112557 -0.0020189352459901609 0 0.0036954427177247474 -0.0019808087662422122 0 0.0037568312015234216 -0.0020958275153068803 0 0.0036707577489918678 -0.0021373795641271491 0 0.0036223935026465722 -0.0019082323912511204 0 0.0035211705522122157 -0.001949923264703578 0 0.0035630990665570157 -0.0019747988802646822 0 0.0036223935026465722 -0.0019082323912511204 0 0.0035006713945352295 -0.0019042473974844232 0 0.0035211705522122157 -0.001949923264703578 0 0.0035006713945352295 -0.0019042473974844232 0 0.0034735070124537397 -0.0019526718709099392 0 0.0034288355434024865 -0.0019171929545410376 0 0.0035006713945352295 -0.0019042473974844232 0 0.0034353865146580557 -0.0018610613694786187 0 0.0034288355434024865 -0.0019171929545410376 0 0.0035006713945352295 -0.0019042473974844232 0 0.0035211705522122157 -0.001949923264703578 0 0.0034735070124537397 -0.0019526718709099392 0 0.0034735070124537397 -0.0019526718709099392 0 0.0034288355434024865 -0.0019171929545410376 0 0.0034159534184500357 -0.0019644218253212302 0 0.0035214440601031203 -0.0018058870044986358 0 0.0035006713945352295 -0.0019042473974844232 0 0.0034353865146580557 -0.0018610613694786187 0 0.0035214440601031203 -0.0018058870044986358 0 0.0036223935026465722 -0.0019082323912511204 0 0.0035006713945352295 -0.0019042473974844232 0 0.0035258899100847414 -0.0020407362796377631 0 0.003496980369534206 -0.0020227777760827214 0 0.0035070924456536284 -0.0019854529491567436 0 0.003868350216443175 -0.0012407230729662767 0 0.0037683810857112557 -0.0020189352459901609 0 0.003868350216443175 -0.0012407230729662767 0 0.0036236775966193755 -0.0017491658129863584 0 0.0036236775966193755 -0.0017491658129863584 0 0.0034145974574366633 -0.0020183013961384325 0 0.0034665003103553039 -0.0020246519702852564 0 0.0034706075040449626 -0.0020109208379161863 0 0.0034080490104649148 -0.0019931948370822865 0 0.003749136267384864 -0.00098403159903650119 0 0.0038790555774284039 -0.0010038055586558828 0 0.0038602441509998807 -0.0010581448215965263 0 0.003786830058191163 -0.00083641875122458982 0 0.0036236775966193755 -0.0017491658129863584 0 0.0036236775966193755 -0.0017491658129863584 0 0.0034763109658422198 -0.0020810404760613437 0 0.0034811517325324635 -0.0020481827075254323 0 0.0034551099075153333 -0.0019881628823966522 0 0.0034080490104649148 -0.0019931948370822865 0 0.0034811517325324635 -0.0020481827075254323 0 0.0035070924456536284 -0.0019854529491567436 0 0.0034551099075153333 -0.0019881628823966522 0 0.0034735070124537397 -0.0019526718709099392 0 0.0034551099075153333 -0.0019881628823966522 0 0.0034159534184500357 -0.0019644218253212302 0 0.0035211705522122157 -0.001949923264703578 0 0.0034735070124537397 -0.0019526718709099392 0 0.0035070924456536284 -0.0019854529491567436 0 0.0034735070124537397 -0.0019526718709099392 0 0.0035070924456536284 -0.0019854529491567436 0 0.0034551099075153333 -0.0019881628823966522 0 0.0035211705522122157 -0.001949923264703578 0 0.0035070924456536284 -0.0019854529491567436 0 0.0035342478042529281 -0.0019808239779609332 0 0.0035258899100847414 -0.0020407362796377631 0 0.0035070924456536284 -0.0019854529491567436 0 0.0035342478042529281 -0.0019808239779609332 0 0.0035258899100847414 -0.0020407362796377631 0 0.0035342478042529281 -0.0019808239779609332 0 0.0035630990665570157 -0.0019747988802646822 0 0.0035211705522122157 -0.001949923264703578 0 0.0035342478042529281 -0.0019808239779609332 0 0.0035630990665570157 -0.0019747988802646822 0 0.0037683810857112557 -0.0020189352459901609 0 0.0038229146177520047 -0.0019737293825243351 0 0.0037568312015234216 -0.0020958275153068803 0 0.0036707577489918678 -0.0021373795641271491 0 0.0037944765283449635 -0.0022599736250705563 0 0.0037568312015234216 -0.0020958275153068803 0 0.0038644283584282398 -0.0021411515300287292 0 0.0037944765283449635 -0.0022599736250705563 0 0.0038839555007581139 -0.0022284150303229708 0 0.0037944765283449635 -0.0022599736250705563 0 0.0039120284012068504 -0.0022824506328912066 0 0.0038644283584282398 -0.0021411515300287292 0 0.0038839555007581139 -0.0022284150303229708 0 0.0037944765283449635 -0.0022599736250705563 0 0.0041568290206991983 -0.0014269724260540016 0 0.0040445314021420311 -0.0017325454557907299 0 0.0038708356604817374 -0.0014737715048018924 0 0.0042288380590546079 -3.3539204176393158e-05 0 0.0042120958986530998 -6.3137125983772502e-05 0 0.004163309615786431 -2.8731711260565703e-05 0 0.0041568290206991983 -0.0014269724260540016 0 0.0038708356604817374 -0.0014737715048018924 0 0.0039196457771265058 -0.001272054584373722 0 0.0037944765283449635 -0.0022599736250705563 0 0.0038822296011493686 -0.0023432387538605643 0 0.0039120284012068504 -0.0022824506328912066 0 0.0038229146177520047 -0.0019737293825243351 0 0.0041319583308090961 -0.0010391709524434187 0 0.0041440004887900268 -0.0003746499989552401 0 0.0041319583308090961 -0.0010391709524434187 0 0.0038708356604817374 -0.0014737715048018924 0 0.0039196457771265058 -0.001272054584373722 0 0.0037030874334781404 -0.0012179459135854551 0 0.0042465639214513181 -5.0957572507558972e-05 0 0.0043231170579054838 -5.9791072960040106e-05 0 0.0043216285454662825 -8.7677749004613588e-05 0 0.0042288380590546079 -3.3539204176393158e-05 0 0.0043216285454662825 -8.7677749004613588e-05 0 0.0042582418191033124 -7.7398746369634466e-05 0 0.0041440004887900268 -0.0003746499989552401 0 0.0043084199055100194 -2.1808510472515314e-05 0 0.0042799675289035303 -0.00010968985909243761 0 0.0043216285454662825 -8.7677749004613588e-05 0 0.0042582418191033124 -7.7398746369634466e-05 0 0.0042799675289035303 -0.00010968985909243761 0 0.0043216285454662825 -8.7677749004613588e-05 0 0.0043144605417178641 -0.00013576316283750759 0 0.0042288380590546079 -3.3539204176393158e-05 0 0.0042120958986530998 -6.3137125983772502e-05 0 0.0042582418191033124 -7.7398746369634466e-05 0 0.0042120958986530998 -6.3137125983772502e-05 0 0.0042582418191033124 -7.7398746369634466e-05 0 0.0042299091882707996 -0.00010178606100548487 0 0.0042799675289035303 -0.00010968985909243761 0 0.0042582418191033124 -7.7398746369634466e-05 0 0.0042299091882707996 -0.00010178606100548487 0 0.0042120958986530998 -6.3137125983772502e-05 0 0.0042299091882707996 -0.00010178606100548487 0 0.0041722110743758391 -8.4096253978079442e-05 0 0.0041722110743758391 -8.4096253978079442e-05 0 0.004104538121971325 -8.2762680962288231e-05 0 0.0041417687976583878 -3.5656795747169152e-05 0 0.0041722110743758391 -8.4096253978079442e-05 0 0.004104538121971325 -8.2762680962288231e-05 0 0.0041829318580991594 -0.00013151228646487894 0 0.004104538121971325 -8.2762680962288231e-05 0 0.0041417687976583878 -3.5656795747169152e-05 0 0.004082807569194281 -3.3116375481840017e-05 0 0.0041417687976583878 -3.5656795747169152e-05 0 0.0041051454509918213 -6.1902406168383005e-06 0 0.004082807569194281 -3.3116375481840017e-05 0 0.0042120958986530998 -6.3137125983772502e-05 0 0.0041722110743758391 -8.4096253978079442e-05 0 0.0041417687976583878 -3.5656795747169152e-05 0 0.003868350216443175 -0.0012407230729662767 0 0.0041440004887900268 -0.0003746499989552401 0 0.0041691886971032014 -1.4360764624937442e-05 0 0.0042288380590546079 -3.3539204176393158e-05 0 0.004163309615786431 -2.8731711260565703e-05 0 0.0042284459707821994 -4.0646615880410195e-06 0 0.0039876511492492632 -0.00022518899682178606 0 0.0042120958986530998 -6.3137125983772502e-05 0 0.0041417687976583878 -3.5656795747169152e-05 0 0.0041006160343697775 4.3038314510204884e-05 0 0.0041051454509918213 -6.1902406168383005e-06 0 0.0040913521677071766 1.7678985606147504e-05 0 0.004082807569194281 -3.3116375481840017e-05 0 0.0041417687976583878 -3.5656795747169152e-05 0 0.0041051454509918213 -6.1902406168383005e-06 0 0.0041006160343697775 4.3038314510204884e-05 0 0.0041051454509918213 -6.1902406168383005e-06 0 0.0040913521677071766 1.7678985606147504e-05 0 0.0041006160343697775 4.3038314510204884e-05 0 0.003749136267384864 -0.00098403159903650119 0 0.0038790555774284039 -0.0010038055586558828 0 0.0037776660626684974 -0.00090629581413327631 0 0.0040353247291293999 -0.00010225370332420921 0 0.0039876511492492632 -0.00022518899682178606 0 0.003868350216443175 -0.0012407230729662767 0 0.0039876511492492632 -0.00022518899682178606 0 0.0035966732305312476 -0.00063337198503410938 0 0.003595885390545262 -0.0005961003342934522 0 0.0036093453684252082 -0.00062187649363055824 0 0.0040522354618571996 7.1393873279415685e-05 0 0.0040913521677071766 1.7678985606147504e-05 0 0.0040054820847132393 -3.083544669156593e-05 0 0.003786830058191163 -0.00083641875122458982 0 0.0038234660395984484 -0.00019754894917047665 0 0.003786830058191163 -0.00083641875122458982 0 0.0039876511492492632 -0.00022518899682178606 0 0.0040522354618571996 7.1393873279415685e-05 0 0.0040913521677071766 1.7678985606147504e-05 0 0.0040970941782469128 3.4410164653248444e-05 0 0.0040913521677071766 1.7678985606147504e-05 0 0.0040054820847132393 -3.083544669156593e-05 0 0.004082807569194281 -3.3116375481840017e-05 0 0.004104538121971325 -8.2762680962288231e-05 0 0.0040054820847132393 -3.083544669156593e-05 0 0.0040605100030466565 -0.00014911632574270448 0 0.004104538121971325 -8.2762680962288231e-05 0 0.0040054820847132393 -3.083544669156593e-05 0 0.004082807569194281 -3.3116375481840017e-05 0 0.0040054820847132393 -3.083544669156593e-05 0 0.0040605100030466565 -0.00014911632574270448 0 0.0039277830077530003 -0.00013941321363178033 0 0.004104538121971325 -8.2762680962288231e-05 0 0.0040605100030466565 -0.00014911632574270448 0 0.0041829318580991594 -0.00013151228646487894 0 0.0040605100030466565 -0.00014911632574270448 0 0.0041829318580991594 -0.00013151228646487894 0 0.0041960391046699397 -0.00020855755099662493 0 0.0040605100030466565 -0.00014911632574270448 0 0.0041282309906502468 -0.00025353145620327886 0 0.0041960391046699397 -0.00020855755099662493 0 0.0041282309906502468 -0.00025353145620327886 0 0.0042276172720365334 -0.00028380799261380833 0 0.0041960391046699397 -0.00020855755099662493 0 0.0040605100030466565 -0.00014911632574270448 0 0.0041282309906502468 -0.00025353145620327886 0 0.0040095892632824974 -0.00028113871865778281 0 0.0040605100030466565 -0.00014911632574270448 0 0.0040095892632824974 -0.00028113871865778281 0 0.0039277830077530003 -0.00013941321363178033 0 0.0040095892632824974 -0.00028113871865778281 0 0.0041400006453920614 -0.00031197241876692623 0 0.0040116112908054743 -0.00040589188700941467 0 0.0041282309906502468 -0.00025353145620327886 0 0.0040095892632824974 -0.00028113871865778281 0 0.0041400006453920614 -0.00031197241876692623 0 0.0041400006453920614 -0.00031197241876692623 0 0.0042458740882181049 -0.00033922448302092767 0 0.0042276172720365334 -0.00028380799261380833 0 0.0041282309906502468 -0.00025353145620327886 0 0.0041400006453920614 -0.00031197241876692623 0 0.0042276172720365334 -0.00028380799261380833 0 0.0041400006453920614 -0.00031197241876692623 0 0.0042458740882181049 -0.00033922448302092767 0 0.0040116112908054743 -0.00040589188700941467 0 0.0042458740882181049 -0.00033922448302092767 0 0.0040116112908054743 -0.00040589188700941467 0 0.0041729832312634779 -0.00040530337419295844 0 0.0043299993412880258 -0.00034069645353871606 0 0.0043654160461689684 -0.000360220492907974 0 0.0043067724695293776 -0.00037665157589945083 0 0.0042873340306865309 -0.00032322620643392716 0 0.0043299993412880258 -0.00034069645353871606 0 0.0043067724695293776 -0.00037665157589945083 0 0.0042873340306865309 -0.00032322620643392716 0 0.0043299993412880258 -0.00034069645353871606 0 0.0043419922171456437 -0.00029760459438772738 0 0.0042458740882181049 -0.00033922448302092767 0 0.0042873340306865309 -0.00032322620643392716 0 0.0042276172720365334 -0.00028380799261380833 0 0.0042458740882181049 -0.00033922448302092767 0 0.0042873340306865309 -0.00032322620643392716 0 0.0043067724695293776 -0.00037665157589945083 0 0.0042873340306865309 -0.00032322620643392716 0 0.0042276172720365334 -0.00028380799261380833 0 0.0043032469353216007 -0.00026782905618865559 0 0.0042873340306865309 -0.00032322620643392716 0 0.0043032469353216007 -0.00026782905618865559 0 0.0043419922171456437 -0.00029760459438772738 0 0.0043032469353216007 -0.00026782905618865559 0 0.0043508150417028929 -0.00025018341112231595 0 0.0043419922171456437 -0.00029760459438772738 0 0.0043032469353216007 -0.00026782905618865559 0 0.0043216372520746083 -0.0001995026653828068 0 0.0042646498017991285 -0.00022055217982310831 0 0.0043032469353216007 -0.00026782905618865559 0 0.0043216372520746083 -0.0001995026653828068 0 0.0043508150417028929 -0.00025018341112231595 0 0.0042276172720365334 -0.00028380799261380833 0 0.0043032469353216007 -0.00026782905618865559 0 0.0042646498017991285 -0.00022055217982310831 0 0.0042276172720365334 -0.00028380799261380833 0 0.0042646498017991285 -0.00022055217982310831 0 0.0041960391046699397 -0.00020855755099662493 0 0.0042646498017991285 -0.00022055217982310831 0 0.0041960391046699397 -0.00020855755099662493 0 0.0042639289617232559 -0.00014779165421742425 0 0.0041829318580991594 -0.00013151228646487894 0 0.0041960391046699397 -0.00020855755099662493 0 0.0042639289617232559 -0.00014779165421742425 0 0.0042299091882707996 -0.00010178606100548487 0 0.0041829318580991594 -0.00013151228646487894 0 0.0042639289617232559 -0.00014779165421742425 0 0.0042799675289035303 -0.00010968985909243761 0 0.0042299091882707996 -0.00010178606100548487 0 0.0042639289617232559 -0.00014779165421742425 0 0.0042299091882707996 -0.00010178606100548487 0 0.0041722110743758391 -8.4096253978079442e-05 0 0.0041829318580991594 -0.00013151228646487894 0 0.0043216372520746083 -0.0001995026653828068 0 0.0042639289617232559 -0.00014779165421742425 0 0.0043144605417178641 -0.00013576316283750759 0 0.0043216372520746083 -0.0001995026653828068 0 0.0042646498017991285 -0.00022055217982310831 0 0.0042639289617232559 -0.00014779165421742425 0 0.0042799675289035303 -0.00010968985909243761 0 0.0042639289617232559 -0.00014779165421742425 0 0.0043144605417178641 -0.00013576316283750759 0 0.0043216372520746083 -0.0001995026653828068 0 0.004379586241292404 -0.00013476027599980023 0 0.0043763348454687028 -0.0002211409821659084 0 0.004379586241292404 -0.00013476027599980023 0 0.0044298273345118773 -0.00023564019734677801 0 0.0043763348454687028 -0.0002211409821659084 0 0.0043216372520746083 -0.0001995026653828068 0 0.0043144605417178641 -0.00013576316283750759 0 0.004379586241292404 -0.00013476027599980023 0 0.0044959894460887984 -0.000312608176887619 0 0.0044440343711886808 -0.00029685761754247861 0 0.0044298273345118773 -0.00023564019734677801 0 0.0044440343711886808 -0.00029685761754247861 0 0.0044194469291435508 -0.00024426840473893899 0 0.0044275053723793886 -0.00036982079909545911 0 0.0046086500049919189 -0.00047113069771438789 0 0.0043115493930379412 -0.0014578022817118947 0 0.0044152032062119229 -0.00011778233762775241 0 0.0044496963377085698 -0.0002673911448375409 0 0.0044959894460887984 -0.000312608176887619 0 0.0044440343711886808 -0.00029685761754247861 0 0.0044643598415270653 -0.00033766625542831682 0 0.0044440343711886808 -0.00029685761754247861 0 0.0044298273345118773 -0.00023564019734677801 0 0.0044194469291435508 -0.00024426840473893899 0 0.0044298273345118773 -0.00023564019734677801 0 0.0044329610989344848 -0.0002600395292046617 0 0.0044194469291435508 -0.00024426840473893899 0 0.0044298273345118773 -0.00023564019734677801 0 0.0044329610989344848 -0.0002600395292046617 0 0.0043971884326775325 -0.00026574831455117152 0 0.0044298273345118773 -0.00023564019734677801 0 0.0043763348454687028 -0.0002211409821659084 0 0.0043971884326775325 -0.00026574831455117152 0 0.0043216372520746083 -0.0001995026653828068 0 0.0043763348454687028 -0.0002211409821659084 0 0.0043508150417028929 -0.00025018341112231595 0 0.0043763348454687028 -0.0002211409821659084 0 0.0043508150417028929 -0.00025018341112231595 0 0.0043971884326775325 -0.00026574831455117152 0 0.0043419922171456437 -0.00029760459438772738 0 0.0043971884326775325 -0.00026574831455117152 0 0.0043875756009134348 -0.0003178327856628618 0 0.0043508150417028929 -0.00025018341112231595 0 0.0043419922171456437 -0.00029760459438772738 0 0.0043971884326775325 -0.00026574831455117152 0 0.004423906306997555 -0.00028412103814824273 0 0.0043875756009134348 -0.0003178327856628618 0 0.0044407530842872972 -0.00031745423758181463 0 0.0043971884326775325 -0.00026574831455117152 0 0.004423906306997555 -0.00028412103814824273 0 0.0043875756009134348 -0.0003178327856628618 0 0.0044329610989344848 -0.0002600395292046617 0 0.004423906306997555 -0.00028412103814824273 0 0.004443526903228588 -0.0002878519865066047 0 0.0044329610989344848 -0.0002600395292046617 0 0.0043971884326775325 -0.00026574831455117152 0 0.004423906306997555 -0.00028412103814824273 0 0.004423906306997555 -0.00028412103814824273 0 0.0044407530842872972 -0.00031745423758181463 0 0.004443526903228588 -0.0002878519865066047 0 0.0044063106678644244 -0.00035467978423621774 0 0.0043875756009134348 -0.0003178327856628618 0 0.0044407530842872972 -0.00031745423758181463 0 0.0044063106678644244 -0.00035467978423621774 0 0.0044444099599357696 -0.0003574424089135858 0 0.0044407530842872972 -0.00031745423758181463 0 0.0043299993412880258 -0.00034069645353871606 0 0.0043419922171456437 -0.00029760459438772738 0 0.0043875756009134348 -0.0003178327856628618 0 0.0044063106678644244 -0.00035467978423621774 0 0.0043654160461689684 -0.000360220492907974 0 0.0043875756009134348 -0.0003178327856628618 0 0.0043299993412880258 -0.00034069645353871606 0 0.0043654160461689684 -0.000360220492907974 0 0.0043875756009134348 -0.0003178327856628618 0 0.0045171334921584915 -0.00053394997723247499 0 0.004467796876088846 -0.00042013683621654164 0 0.0045011540367325817 -0.00039476159629598138 0 0.004550787907063176 -0.00048734968116263583 0 0.0045059563884192024 -0.00038623775023070205 0 0.004467796876088846 -0.00042013683621654164 0 0.0044616634653405433 -0.00059228448704873402 0 0.0043802988517763495 -0.00059337578550540762 0 0.0045171334921584915 -0.00053394997723247499 0 0.004467796876088846 -0.00042013683621654164 0 0.0044616634653405433 -0.00059228448704873402 0 0.0045171334921584915 -0.00053394997723247499 0 0.0046292663752511374 -0.00062123695420415639 0 0.0045011540367325817 -0.00039476159629598138 0 0.0044676600005542078 -0.00034800930506160768 0 0.0044765586401607944 -0.00029319296104384201 0 0.0045011540367325817 -0.00039476159629598138 0 0.0044676600005542078 -0.00034800930506160768 0 0.0044444099599357696 -0.0003574424089135858 0 0.0044747277701902401 -0.00037722035387066855 0 0.0044676600005542078 -0.00034800930506160768 0 0.0044444099599357696 -0.0003574424089135858 0 0.0044407530842872972 -0.00031745423758181463 0 0.0044676600005542078 -0.00034800930506160768 0 0.0044407530842872972 -0.00031745423758181463 0 0.0044765586401607944 -0.00029319296104384201 0 0.0046292663752511374 -0.00062123695420415639 0 0.0045732724214214981 -0.00077469073302872309 0 0.0046269978335360734 -0.00085220417682431871 0 0.0044407530842872972 -0.00031745423758181463 0 0.0044765586401607944 -0.00029319296104384201 0 0.004443526903228588 -0.0002878519865066047 0 0.0044329610989344848 -0.0002600395292046617 0 0.0044765586401607944 -0.00029319296104384201 0 0.004443526903228588 -0.0002878519865066047 0 0.0046292663752511374 -0.00062123695420415639 0 0.0045095735890402595 -0.00066518419049737469 0 0.0045732724214214981 -0.00077469073302872309 0 0.0045095735890402595 -0.00066518419049737469 0 0.0045107374261179282 -0.00077907189267844624 0 0.0045732724214214981 -0.00077469073302872309 0 0.0045171334921584915 -0.00053394997723247499 0 0.0046292663752511374 -0.00062123695420415639 0 0.0045095735890402595 -0.00066518419049737469 0 0.0044616634653405433 -0.00059228448704873402 0 0.0044313712529240289 -0.00074818683952626369 0 0.0043802988517763495 -0.00059337578550540762 0 0.0045171334921584915 -0.00053394997723247499 0 0.0045095735890402595 -0.00066518419049737469 0 0.0044616634653405433 -0.00059228448704873402 0 0.0045095735890402595 -0.00066518419049737469 0 0.0044616634653405433 -0.00059228448704873402 0 0.0044313712529240289 -0.00074818683952626369 0 0.0045107428094635473 -0.00071628255087454959 0 0.0045283122744105078 -0.00082092695561348866 0 0.0045095735890402595 -0.00066518419049737469 0 0.0044012493647123327 -0.0007728855043797712 0 0.0045107374261179282 -0.00077907189267844624 0 0.0045283122744105078 -0.00082092695561348866 0 0.0045037830501180806 -0.0011279510674576888 0 0.0044012493647123327 -0.0007728855043797712 0 0.0045107374261179282 -0.00077907189267844624 0 0.0045594255464884931 -0.00090416699985333975 0 0.0044012493647123327 -0.0007728855043797712 0 0.0045297495933990777 -0.00095312065422234157 0 0.0045312366848782315 -0.0011168884538717751 0 0.0044764526706427771 -0.00099270785756091096 0 0.0044879788256160227 -0.0010685197095016601 0 0.0044699087171336154 -0.0010440551725509071 0 0.0045732724214214981 -0.00077469073302872309 0 0.0045594255464884931 -0.00090416699985333975 0 0.0046269978335360734 -0.00085220417682431871 0 0.0045107374261179282 -0.00077907189267844624 0 0.0045732724214214981 -0.00077469073302872309 0 0.0045594255464884931 -0.00090416699985333975 0 0.0044012493647123327 -0.0007728855043797712 0 0.0045594255464884931 -0.00090416699985333975 0 0.0045297495933990777 -0.00095312065422234157 0 0.0044329610989344848 -0.0002600395292046617 0 0.0044765586401607944 -0.00029319296104384201 0 0.0044194469291435508 -0.00024426840473893899 0 0.0046292663752511374 -0.00062123695420415639 0 0.0046269978335360734 -0.00085220417682431871 0 0.0047503809607538508 -0.00094368142330715087 0 0.004550787907063176 -0.00048734968116263583 0 0.0046086500049919189 -0.00047113069771438789 0 0.0046269978335360734 -0.00085220417682431871 0 0.0047503809607538508 -0.00094368142330715087 0 0.004621586779969781 -0.0010169529349868972 0 0.0045594255464884931 -0.00090416699985333975 0 0.0046269978335360734 -0.00085220417682431871 0 0.004621586779969781 -0.0010169529349868972 0 0.0047503809607538508 -0.00094368142330715087 0 0.0046390636335730791 -0.0011929191491243819 0 0.0048518439919730018 -0.0012449476438126125 0 0.0047503809607538508 -0.00094368142330715087 0 0.004621586779969781 -0.0010169529349868972 0 0.0046390636335730791 -0.0011929191491243819 0 0.004621586779969781 -0.0010169529349868972 0 0.0045312366848782315 -0.0011168884538717751 0 0.0046390636335730791 -0.0011929191491243819 0 0.0044764526706427771 -0.00099270785756091096 0 0.0044879788256160227 -0.0010685197095016601 0 0.0045312366848782315 -0.0011168884538717751 0 0.0044879788256160227 -0.0010685197095016601 0 0.0044822832925369722 -0.0011033170599083597 0 0.0044656393080026845 -0.0010779766926496842 0 0.004621586779969781 -0.0010169529349868972 0 0.0045297495933990777 -0.00095312065422234157 0 0.0045312366848782315 -0.0011168884538717751 0 0.0045594255464884931 -0.00090416699985333975 0 0.004621586779969781 -0.0010169529349868972 0 0.0045297495933990777 -0.00095312065422234157 0 0.0044879788256160227 -0.0010685197095016601 0 0.0045312366848782315 -0.0011168884538717751 0 0.0044822832925369722 -0.0011033170599083597 0 0.0045312366848782315 -0.0011168884538717751 0 0.0044822832925369722 -0.0011033170599083597 0 0.0044725527180175745 -0.0011410624714674944 0 0.0045115170744228703 -0.0023136798069619303 0 0.0044560116917593158 -0.0022791862190066829 0 0.0047349043168985906 -0.0028410108331746783 0 0.0047112536151467533 -0.0028383613581131036 0 0.0047407858717615058 -0.0028147804638896153 0 0.0047310334885400148 -0.0027621494294731244 0 0.0047336320840853392 -0.0026604886977047376 0 0.0044364153408964916 -0.00263829718039418 0 0.0044560116917593158 -0.0022791862190066829 0 0.0043692254454017337 -0.0017889987505604842 0 0.0047112536151467533 -0.0028383613581131036 0 0.0047310334885400148 -0.0027621494294731244 0 0.0047407858717615058 -0.0028147804638896153 0 0.0047112536151467533 -0.0028383613581131036 0 0.0047310334885400148 -0.0027621494294731244 0 0.0044364153408964916 -0.00263829718039418 0 0.0044560116917593158 -0.0022791862190066829 0 0.004274627856654477 -0.0025404664293215188 0 0.0045312366848782315 -0.0011168884538717751 0 0.0044725527180175745 -0.0011410624714674944 0 0.0046390636335730791 -0.0011929191491243819 0 0.0046676536355686358 -0.0025336791638186709 0 0.0044364153408964916 -0.00263829718039418 0 0.0045218119428901494 -0.0024575121359628827 0 0.0047336320840853392 -0.0026604886977047376 0 0.0046676536355686358 -0.0025336791638186709 0 0.0044364153408964916 -0.00263829718039418 0 0.0044364153408964916 -0.00263829718039418 0 0.0045218119428901494 -0.0024575121359628827 0 0.0043691202905605233 -0.002436592585646837 0 0.0043692254454017337 -0.0017889987505604842 0 0.0043115493930379412 -0.0014578022817118947 0 0.0040819419288520087 -0.0023152549172920597 0 0.0041050076240416065 -0.0023961580343507282 0 0.0040357390732421632 -0.0023337938888436213 0 0.0041050076240416065 -0.0023961580343507282 0 0.004006939319590383 -0.0023720065189876795 0 0.0040357390732421632 -0.0023337938888436213 0 0.004209666980757895 -0.002416813269617608 0 0.0040819419288520087 -0.0023152549172920597 0 0.0041050076240416065 -0.0023961580343507282 0 0.0044440343711886808 -0.00029685761754247861 0 0.0044643598415270653 -0.00033766625542831682 0 0.0044275053723793886 -0.00036982079909545911 0 0.0043115493930379412 -0.0014578022817118947 0 0.0042733926591418383 -0.0022566191566766938 0 0.004006939319590383 -0.0023720065189876795 0 0.0040357390732421632 -0.0023337938888436213 0 0.0039898334300523556 -0.0023315989891996933 0 0.0043231170579054838 -5.9791072960040106e-05 0 0.0043216285454662825 -8.7677749004613588e-05 0 0.004379586241292404 -0.00013476027599980023 0 0.0041319583308090961 -0.0010391709524434187 0 0.0043115493930379412 -0.0014578022817118947 0 0.0038822296011493686 -0.0023432387538605643 0 0.0040062028315714449 -0.0023661447961024137 0 0.0039898334300523556 -0.0023315989891996933 0 0.0041319583308090961 -0.0010391709524434187 0 0.0044152032062119229 -0.00011778233762775241 0 0.0045555453209646978 -0.0004118128970899613 0 0.0044643598415270653 -0.00033766625542831682 0 0.0044275053723793886 -0.00036982079909545911 0 0.0045555453209646978 -0.0004118128970899613 0 0.0044959894460887984 -0.000312608176887619 0 0.0044643598415270653 -0.00033766625542831682 0 0.0043216285454662825 -8.7677749004613588e-05 0 0.0043144605417178641 -0.00013576316283750759 0 0.004379586241292404 -0.00013476027599980023 0 0.0039120284012068504 -0.0022824506328912066 0 0.0039898334300523556 -0.0023315989891996933 0 0.0039672684171830497 -0.0022313677877548828 0 0.0038822296011493686 -0.0023432387538605643 0 0.0039120284012068504 -0.0022824506328912066 0 0.0039898334300523556 -0.0023315989891996933 0 0.004274627856654477 -0.0025404664293215188 0 0.0040460967222317214 -0.0023022581212613948 0 0.0040819419288520087 -0.0023152549172920597 0 0.0040357390732421632 -0.0023337938888436213 0 0.0039672684171830497 -0.0022313677877548828 0 0.0040357390732421632 -0.0023337938888436213 0 0.0039898334300523556 -0.0023315989891996933 0 0.0039672684171830497 -0.0022313677877548828 0 0.0044364153408964916 -0.00263829718039418 0 0.0041385794883204118 -0.0024057371268307853 0 0.0043691202905605233 -0.002436592585646837 0 0.0041385794883204118 -0.0024057371268307853 0 0.0044076513725138629 -0.0022778403074782275 0 0.0043691202905605233 -0.002436592585646837 0 0.0038839555007581139 -0.0022284150303229708 0 0.0039120284012068504 -0.0022824506328912066 0 0.0039672684171830497 -0.0022313677877548828 0 0.0038644283584282398 -0.0021411515300287292 0 0.0038839555007581139 -0.0022284150303229708 0 0.0039672684171830497 -0.0022313677877548828 0 0.0038644283584282398 -0.0021411515300287292 0 0.0041385794883204118 -0.0024057371268307853 0 0.0040925233973189111 -0.0021727288998391135 0 0.0038763067390013839 -0.0021554511489544244 0 0.0040460967222317214 -0.0023022581212613948 0 0.0041385794883204118 -0.0024057371268307853 0 0.0042638186090946497 -0.0021742195031045834 0 0.0044076513725138629 -0.0022778403074782275 0 0.0041385794883204118 -0.0024057371268307853 0 0.0040925233973189111 -0.0021727288998391135 0 0.0042638186090946497 -0.0021742195031045834 0 0.0042638186090946497 -0.0021742195031045834 0 0.0044076513725138629 -0.0022778403074782275 0 0.0044763703135828293 -0.0021672991122734359 0 0.0044076513725138629 -0.0022778403074782275 0 0.0044763703135828293 -0.0021672991122734359 0 0.0045598518778728189 -0.0023264621690175188 0 0.0046237285615358453 -0.002086523043117859 0 0.0044763703135828293 -0.0021672991122734359 0 0.0046022330466279557 -0.0022115474609071132 0 0.0046237285615358453 -0.002086523043117859 0 0.0046022330466279557 -0.0022115474609071132 0 0.0047504461939930978 -0.002263641921214869 0 0.0046022330466279557 -0.0022115474609071132 0 0.0045598518778728189 -0.0023264621690175188 0 0.0047504461939930978 -0.002263641921214869 0 0.0044763703135828293 -0.0021672991122734359 0 0.0046022330466279557 -0.0022115474609071132 0 0.0045598518778728189 -0.0023264621690175188 0 0.0045598518778728189 -0.0023264621690175188 0 0.0046656318452498007 -0.0024177649964244262 0 0.0045218119428901494 -0.0024575121359628827 0 0.0045598518778728189 -0.0023264621690175188 0 0.0046656318452498007 -0.0024177649964244262 0 0.0047504461939930978 -0.002263641921214869 0 0.0046676536355686358 -0.0025336791638186709 0 0.0046656318452498007 -0.0024177649964244262 0 0.004812203778131509 -0.0024438306795249573 0 0.0046676536355686358 -0.0025336791638186709 0 0.0046656318452498007 -0.0024177649964244262 0 0.0045218119428901494 -0.0024575121359628827 0 0.0044076513725138629 -0.0022778403074782275 0 0.0045218119428901494 -0.0024575121359628827 0 0.0043691202905605233 -0.002436592585646837 0 0.0044076513725138629 -0.0022778403074782275 0 0.0045598518778728189 -0.0023264621690175188 0 0.0045218119428901494 -0.0024575121359628827 0 0.004987729180669519 -0.0024843229680661877 0 0.005094363962801142 -0.0022964494463555089 0 0.0051900342272407259 -0.0024250054411655468 0 0.0049423487737997734 -0.0023368550722246478 0 0.004987729180669519 -0.0024843229680661877 0 0.005094363962801142 -0.0022964494463555089 0 0.0049423487737997734 -0.0023368550722246478 0 0.004812203778131509 -0.0024438306795249573 0 0.0047504461939930978 -0.002263641921214869 0 0.0049423487737997734 -0.0023368550722246478 0 0.004987729180669519 -0.0024843229680661877 0 0.004812203778131509 -0.0024438306795249573 0 0.0046656318452498007 -0.0024177649964244262 0 0.004812203778131509 -0.0024438306795249573 0 0.0047504461939930978 -0.002263641921214869 0 0.0049423487737997734 -0.0023368550722246478 0 0.0047504461939930978 -0.002263641921214869 0 0.0050147349790243346 -0.002186399281358969 0 0.0047808621362346948 -0.0020358455078547098 0 0.0047504461939930978 -0.002263641921214869 0 0.0050147349790243346 -0.002186399281358969 0 0.0051143150294585271 -0.002168166103234725 0 0.0050147349790243346 -0.002186399281358969 0 0.005094363962801142 -0.0022964494463555089 0 0.0049423487737997734 -0.0023368550722246478 0 0.0050147349790243346 -0.002186399281358969 0 0.005094363962801142 -0.0022964494463555089 0 0.005094363962801142 -0.0022964494463555089 0 0.0052557382427330665 -0.0022269492814951273 0 0.0051900342272407259 -0.0024250054411655468 0 0.0052433712018052437 -0.0020226218960144753 0 0.0052194683642948457 -0.0020910587682710529 0 0.0051143150294585271 -0.002168166103234725 0 0.005094363962801142 -0.0022964494463555089 0 0.0052557382427330665 -0.0022269492814951273 0 0.0052365233581639194 -0.0018111652446076943 0 0.0052341983160019831 -0.0018060389036874921 0 0.0052387304972801446 -0.0017926945207762405 0 0.0052869142256058545 -0.0017104514432974953 0 0.0052549695181534854 -0.0017318238701862945 0 0.0052774997220873263 -0.0017710791592291883 0 0.0052412011023375985 -0.0017524635884559455 0 0.0052379146974226801 -0.0017957519538515626 0 0.0052549695181534854 -0.0017318238701862945 0 0.0052376613316096133 -0.0017909290721097987 0 0.0052774997220873263 -0.0017710791592291883 0 0.0052341983160019831 -0.0018060389036874921 0 0.0052387304972801446 -0.0017926945207762405 0 0.0052376613316096133 -0.0017909290721097987 0 0.0052194683642948457 -0.0020910587682710529 0 0.0051199534869726983 -0.0023236468348832666 0 0.004987729180669519 -0.0024843229680661877 0 0.0051900342272407259 -0.0024250054411655468 0 0.0050747726451816633 -0.0026545825798070122 0 0.0052387304972801446 -0.0017926945207762405 0 0.0052376613316096133 -0.0017909290721097987 0 0.0052249859923283 -0.0018057272022100771 0 0.0052376613316096133 -0.0017909290721097987 0 0.0052249859923283 -0.0018057272022100771 0 0.0052377083641125411 -0.0018072426930267138 0 0.0053419188181425869 -0.0013444820564307229 0 0.0052799113976738808 -0.0014678550491931642 0 0.0052376613316096133 -0.0017909290721097987 0 0.0052377083641125411 -0.0018072426930267138 0 0.0052774997220873263 -0.0017710791592291883 0 0.0053603327565068882 -0.0010494781218642279 0 0.005285340565112707 -0.0010519781006472382 0 0.0053102166481424897 -0.0011263946988887147 0 0.0053603327565068882 -0.0010494781218642279 0 0.005304354583828351 -0.00099397293559034161 0 0.0053400618745319487 -0.00098808334316968435 0 0.0053603327565068882 -0.0010494781218642279 0 0.005304354583828351 -0.00099397293559034161 0 0.005285340565112707 -0.0010519781006472382 0 0.0053419188181425869 -0.0013444820564307229 0 0.0051735942704340832 -0.0018300583796641864 0 0.0052249859923283 -0.0018057272022100771 0 0.0052377083641125411 -0.0018072426930267138 0 0.0052118350532046132 -0.0018284639188436368 0 0.0051199534869726983 -0.0023236468348832666 0 0.0051735942704340832 -0.0018300583796641864 0 0.0050747726451816633 -0.0026545825798070122 0 0.0049306021638999969 -0.0026559365396847429 0 0.0049812053475318504 -0.0028040140663756264 0 0.004987729180669519 -0.0024843229680661877 0 0.0050747726451816633 -0.0026545825798070122 0 0.0049306021638999969 -0.0026559365396847429 0 0.004987729180669519 -0.0024843229680661877 0 0.0049306021638999969 -0.0026559365396847429 0 0.0048295399468437439 -0.002567526239456028 0 0.0047336320840853392 -0.0026604886977047376 0 0.0049306021638999969 -0.0026559365396847429 0 0.0048295399468437439 -0.002567526239456028 0 0.0046676536355686358 -0.0025336791638186709 0 0.004812203778131509 -0.0024438306795249573 0 0.0048295399468437439 -0.002567526239456028 0 0.004987729180669519 -0.0024843229680661877 0 0.004812203778131509 -0.0024438306795249573 0 0.0048295399468437439 -0.002567526239456028 0 0.0047336320840853392 -0.0026604886977047376 0 0.0046676536355686358 -0.0025336791638186709 0 0.0048295399468437439 -0.002567526239456028 0 0.0049306021638999969 -0.0026559365396847429 0 0.0048091147374935547 -0.0027510055979797234 0 0.004829730369516446 -0.0028336308542002272 0 0.0049206988584297243 -0.0030408272733663346 0 0.0049000486843023367 -0.0020691619583847859 0 0.0047310334885400148 -0.0027621494294731244 0 0.0047336320840853392 -0.0026604886977047376 0 0.0048091147374935547 -0.0027510055979797234 0 0.0049306021638999969 -0.0026559365396847429 0 0.004829730369516446 -0.0028336308542002272 0 0.0048827588194870902 -0.002989984912138441 0 0.0047336320840853392 -0.0026604886977047376 0 0.0049306021638999969 -0.0026559365396847429 0 0.0048091147374935547 -0.0027510055979797234 0 0.0048091147374935547 -0.0027510055979797234 0 0.0047824046333315214 -0.0028168211696211281 0 0.004829730369516446 -0.0028336308542002272 0 0.0047310334885400148 -0.0027621494294731244 0 0.0048091147374935547 -0.0027510055979797234 0 0.0047824046333315214 -0.0028168211696211281 0 0.0047310334885400148 -0.0027621494294731244 0 0.0047824046333315214 -0.0028168211696211281 0 0.0047407858717615058 -0.0028147804638896153 0 0.0047349043168985906 -0.0028410108331746783 0 0.0047824046333315214 -0.0028168211696211281 0 0.0047407858717615058 -0.0028147804638896153 0 0.0047349043168985906 -0.0028410108331746783 0 0.0047824046333315214 -0.0028168211696211281 0 0.0047738952250233205 -0.002867786327970895 0 0.0047738952250233205 -0.002867786327970895 0 0.004829730369516446 -0.0028336308542002272 0 0.0048096250277126218 -0.0029200935758199845 0 0.0047349043168985906 -0.0028410108331746783 0 0.0047141820176953815 -0.0028370725044369952 0 0.0047738952250233205 -0.002867786327970895 0 0.0044560116917593158 -0.0022791862190066829 0 0.0047444882620095831 -0.0021391379176570195 0 0.0047141820176953815 -0.0028370725044369952 0 0.0047738952250233205 -0.002867786327970895 0 0.0048078090448729158 -0.0029099763071633185 0 0.0044822832925369722 -0.0011033170599083597 0 0.0044725527180175745 -0.0011410624714674944 0 0.0044450086600146847 -0.0010955866006190816 0 0.004910596448211132 -0.002572843595271893 0 0.0047444882620095831 -0.0021391379176570195 0 0.0047824046333315214 -0.0028168211696211281 0 0.0047738952250233205 -0.002867786327970895 0 0.004829730369516446 -0.0028336308542002272 0 0.004829730369516446 -0.0028336308542002272 0 0.0048827588194870902 -0.002989984912138441 0 0.0048096250277126218 -0.0029200935758199845 0 0.0049000486843023367 -0.0020691619583847859 0 0.0047444882620095831 -0.0021391379176570195 0 0.0048209979851096705 -0.0020287368882600464 0 0.0047854129357117097 -0.0019987906263629601 0 0.0048133315477532704 -0.0020364641750829425 0 0.0044473046355853673 -0.0010652775471627447 0 0.0044450086600146847 -0.0010955866006190816 0 0.0044237969959831248 -0.00105916239640543 0 0.0047444882620095831 -0.0021391379176570195 0 0.0049012263567152041 -0.0014674201628529691 0 0.0049000486843023367 -0.0020691619583847859 0 0.0049012263567152041 -0.0014674201628529691 0 0.0044822832925369722 -0.0011033170599083597 0 0.0044656393080026845 -0.0010779766926496842 0 0.0044450086600146847 -0.0010955866006190816 0 0.0044879788256160227 -0.0010685197095016601 0 0.0044656393080026845 -0.0010779766926496842 0 0.0044699087171336154 -0.0010440551725509071 0 0.0044473046355853673 -0.0010652775471627447 0 0.0044656393080026845 -0.0010779766926496842 0 0.0044699087171336154 -0.0010440551725509071 0 0.0044473046355853673 -0.0010652775471627447 0 0.0044656393080026845 -0.0010779766926496842 0 0.0044450086600146847 -0.0010955866006190816 0 0.0049306021638999969 -0.0026559365396847429 0 0.0049299731661503043 -0.0028569203329699201 0 0.0049812053475318504 -0.0028040140663756264 0 0.0051000227680562974 -0.0018087139455094446 0 0.0051286112557524053 -0.0017814857507240981 0 0.0051101174314645125 -0.0018174046642516471 0 0.0053978889624512237 -0.00099764359574977296 0 0.005388286819680576 -0.00097993123855499398 0 0.0054048193016771658 -0.00097535893077073464 0 0.0049000486843023367 -0.0020691619583847859 0 0.0051735942704340832 -0.0018300583796641864 0 0.0051735942704340832 -0.0018300583796641864 0 0.0050713907530414827 -0.0012479206107785848 0 0.0053978889624512237 -0.00099764359574977296 0 0.005388286819680576 -0.00097993123855499398 0 0.0053725225678648717 -0.00098276984245164261 0 0.0054279581746203591 -0.00072121370826135956 0 0.0053483164707251816 -0.00064246428725521206 0 0.0053136939691401782 -0.0007166052387318631 0 0.005388286819680576 -0.00097993123855499398 0 0.0054015759870919729 -0.0009720617464358815 0 0.0053610455096683388 -0.00096762946027132844 0 0.0050786768887134855 -0.00088363452049112861 0 0.0051998270426355233 -0.0004444834974328445 0 0.0052080266361447421 -0.00059769530844331698 0 0.0052359886692879328 -0.00053607923494041984 0 0.0051020198755329614 -0.00043063207148972692 0 0.0053893638352630951 -0.00067404938129202781 0 0.0054184423484592899 -0.00065904852622217767 0 0.0053098604106428951 -0.00048514468612731221 0 0.0052192428412050212 -0.0010113538727467709 0 0.005294439680676331 -0.00057709060569460812 0 0.0052192428412050212 -0.0010113538727467709 0 0.0053811510985762008 -0.0008255883505990276 0 0.0053893638352630951 -0.00067404938129202781 0 0.0053098604106428951 -0.00048514468612731221 0 0.0052551800489870019 -0.00054144744636478511 0 0.005388286819680576 -0.00097993123855499398 0 0.0054015759870919729 -0.0009720617464358815 0 0.0054048193016771658 -0.00097535893077073464 0 0.0051841888386495233 -0.0010233359212740668 0 0.005040262234671352 -0.00089109735444377087 0 0.00498198530681466 -0.0010192870480258544 0 0.0052192428412050212 -0.0010113538727467709 0 0.0050968068324483444 -0.0010346142448510326 0 0.0050713907530414827 -0.0012479206107785848 0 0.0050968068324483444 -0.0010346142448510326 0 0.005136948548713216 -0.0012866762725179436 0 0.0050791655007779418 -0.0014136611808578303 0 0.0049892432898079155 -0.001280628870893869 0 0.0052192428412050212 -0.0010113538727467709 0 0.0050713907530414827 -0.0012479206107785848 0 0.0053893638352630951 -0.00067404938129202781 0 0.0054112767571053624 -0.00067470920156367776 0 0.0054184423484592899 -0.00065904852622217767 0 0.0044473046355853673 -0.0010652775471627447 0 0.0044699087171336154 -0.0010440551725509071 0 0.0044342318584611679 -0.0010472099361503717 0 0.0044656647965268656 -0.0010958762577389241 0 0.0047450462023362356 -0.0011473495686273342 0 0.0044764526706427771 -0.00099270785756091096 0 0.0044699087171336154 -0.0010440551725509071 0 0.0044340378274041695 -0.001043731172735761 0 0.0044473046355853673 -0.0010652775471627447 0 0.0044342318584611679 -0.0010472099361503717 0 0.0044237969959831248 -0.00105916239640543 0 0.0049426222381724399 -0.00096106860140774124 0 0.004885333218301772 -0.00091584768498175525 0 0.0049642328574075016 -0.00074095954007421757 0 0.0046860827625696414 -0.00091611732374906427 0 0.0046463286061993458 -0.00091538249281014237 0 0.0046566308031399696 -0.00080433140999632338 0 0.0047450462023362356 -0.0011473495686273342 0 0.0049012263567152041 -0.0014674201628529691 0 0.0048543269309957934 -0.0011621003072082648 0 0.0049646946716185789 -0.0010485453634538041 0 0.0049953875736846211 -0.0011649754232706667 0 0.0047450462023362356 -0.0011473495686273342 0 0.0049359561921704159 -0.0010532366001905103 0 0.0049000486843023367 -0.0020691619583847859 0 0.0050713907530414827 -0.0012479206107785848 0 0.0048984208002147388 -0.0010680391445756115 0 0.005136948548713216 -0.0012866762725179436 0 0.0049892432898079155 -0.001280628870893869 0 0.0048984208002147388 -0.0010680391445756115 0 0.0049892432898079155 -0.001280628870893869 0 0.0047747390603746203 -0.0011957280298578868 0 0.0049892432898079155 -0.001280628870893869 0 0.0047747390603746203 -0.0011957280298578868 0 0.0048309932938057796 -0.001408728312409839 0 0.0049012263567152041 -0.0014674201628529691 0 0.0049359561921704159 -0.0010532366001905103 0 0.0050791655007779418 -0.0014136611808578303 0 0.0049892432898079155 -0.001280628870893869 0 0.0048309932938057796 -0.001408728312409839 0 0.0050968068324483444 -0.0010346142448510326 0 0.0049359561921704159 -0.0010532366001905103 0 0.0049359561921704159 -0.0010532366001905103 0 0.0050786768887134855 -0.00088363452049112861 0 0.0051207188759963647 -0.0010564458050076725 0 0.0050033505209494565 -0.0010541133163922127 0 0.0050906680658608632 -0.001122474658300107 0 0.0050968068324483444 -0.0010346142448510326 0 0.0050786768887134855 -0.00088363452049112861 0 0.0049359561921704159 -0.0010532366001905103 0 0.0049455719058952297 -0.00069767423496227491 0 0.0050786768887134855 -0.00088363452049112861 0 0.0049455719058952297 -0.00069767423496227491 0 0.0045283122744105078 -0.00082092695561348866 0 0.0047450462023362356 -0.0011473495686273342 0 0.0048115010334135212 -0.00078357774609260191 0 0.0046860827625696414 -0.00091611732374906427 0 0.0046566308031399696 -0.00080433140999632338 0 0.0049455719058952297 -0.00069767423496227491 0 0.0046496569958269351 -0.00050142570833570444 0 0.0048371519940809769 -0.00063841416466624431 0 0.0049085864496006904 -0.00047534532858115226 0 0.0048501445855014614 -0.00049070889132276415 0 0.0045283122744105078 -0.00082092695561348866 0 0.0046496569958269351 -0.00050142570833570444 0 0.0048115010334135212 -0.00078357774609260191 0 0.0046566308031399696 -0.00080433140999632338 0 0.0047485719091923248 -0.00059708660856703437 0 0.0049455719058952297 -0.00069767423496227491 0 0.0050374937357688439 -0.00042315960264813972 0 0.0052487164468489906 -0.00040556629541633392 0 0.0051020198755329614 -0.00043063207148972692 0 0.0051285023497829188 -0.00029649328395687494 0 0.0052359886692879328 -0.00053607923494041984 0 0.0052487164468489906 -0.00040556629541633392 0 0.0051020198755329614 -0.00043063207148972692 0 0.0051285023497829188 -0.00029649328395687494 0 0.0052602561019980208 -0.00027837586214336601 0 0.0050912323916940828 -0.00015696810244418378 0 0.0045053963325955623 -0.00037151465252277174 0 0.0046496569958269351 -0.00050142570833570444 0 0.0045520476256012549 -0.00031429695334886441 0 0.0045845443153461401 -0.00025221654030045535 0 0.0046022125044208979 -0.00030291178999365318 0 0.0052487164468489906 -0.00040556629541633392 0 0.0051285023497829188 -0.00029649328395687494 0 0.0052602561019980208 -0.00027837586214336601 0 0.0046496569958269351 -0.00050142570833570444 0 0.0048110444699857183 -0.00032996283386696717 0 0.0049085864496006904 -0.00047534532858115226 0 0.0048501445855014614 -0.00049070889132276415 0 0.0048636677383985024 -0.00034374375477187838 0 0.0050374937357688439 -0.00042315960264813972 0 0.0048110444699857183 -0.00032996283386696717 0 0.005379541315002759 -0.00029597056509803358 0 0.0054034883975643171 0.00011566348446605819 0 0.0054982983589447259 -0.00023878909412609398 0 0.0053488057581700327 -0.00020261152474503234 0 0.0053070490137794397 -5.9001829295567967e-05 0 0.005547634891444525 2.8963203695845354e-05 0 0.0055357138247085439 0.00010292403260869036 0 0.0054217217484189891 0.00015068571497778852 0 0.005547634891444525 2.8963203695845354e-05 0 0.0055357138247085439 0.00010292403260869036 0 0.0056055556049061719 9.8711171230660629e-05 0 0.0051020198755329614 -0.00043063207148972692 0 0.0051285023497829188 -0.00029649328395687494 0 0.0049993978887621941 -0.00026855383381887889 0 0.0051998270426355233 -0.0004444834974328445 0 0.0053506316330680734 -0.00011264728595306943 0 0.0053098604106428951 -0.00048514468612731221 0 0.005120053380299504 -0.00041127527795030194 0 0.0052001495758461766 -0.00031396093859839232 0 0.005379541315002759 -0.00029597056509803358 0 0.0053506316330680734 -0.00011264728595306943 0 0.005379541315002759 -0.00029597056509803358 0 0.005294439680676331 -0.00057709060569460812 0 0.0053098604106428951 -0.00048514468612731221 0 0.005120053380299504 -0.00041127527795030194 0 0.0052551800489870019 -0.00054144744636478511 0 0.0052672938089558859 -0.00056320254555074808 0 0.0053483164707251816 -0.00064246428725521206 0 0.0052316760440990276 -0.00060684957291642352 0 0.0054982983589447259 -0.00023878909412609398 0 0.0054350524537546451 -0.00031552672342801536 0 0.0053488057581700327 -0.00020261152474503234 0 0.005379541315002759 -0.00029597056509803358 0 0.0053794064645629781 -0.00046923232853842523 0 0.0053794064645629781 -0.00046923232853842523 0 0.0053815278510298131 -0.00023761667454594575 0 0.0053547357933275384 -0.00062208377354697273 0 0.0053533533268430118 -0.00072774767108406077 0 0.0052694903120615632 -0.00072606946310368201 0 0.0053547357933275384 -0.00062208377354697273 0 0.0053533533268430118 -0.00072774767108406077 0 0.0054371812955776901 -0.00072984274739391355 0 0.0053314224368813945 -0.00083844807168778027 0 0.0053811510985762008 -0.0008255883505990276 0 0.0053794064645629781 -0.00046923232853842523 0 0.0053811510985762008 -0.0008255883505990276 0 0.0053483164707251816 -0.00064246428725521206 0 0.0052316760440990276 -0.00060684957291642352 0 0.0053136939691401782 -0.0007166052387318631 0 0.0053603327565068882 -0.0010494781218642279 0 0.0053725225678648717 -0.00098276984245164261 0 0.0053400618745319487 -0.00098808334316968435 0 0.0053603327565068882 -0.0010494781218642279 0 0.0053978889624512237 -0.00099764359574977296 0 0.0053725225678648717 -0.00098276984245164261 0 0.005388286819680576 -0.00097993123855499398 0 0.0053610455096683388 -0.00096762946027132844 0 0.0053725225678648717 -0.00098276984245164261 0 0.0053811510985762008 -0.0008255883505990276 0 0.0054057867830629887 -0.00096213044578431664 0 0.0053574587222136958 -0.00095827187915971846 0 0.0053725225678648717 -0.00098276984245164261 0 0.0053400618745319487 -0.00098808334316968435 0 0.0053160453153004309 -0.00095328251926729535 0 0.005304354583828351 -0.00099397293559034161 0 0.0053400618745319487 -0.00098808334316968435 0 0.0053160453153004309 -0.00095328251926729535 0 0.0053574587222136958 -0.00095827187915971846 0 0.0053400618745319487 -0.00098808334316968435 0 0.0053160453153004309 -0.00095328251926729535 0 0.005304354583828351 -0.00099397293559034161 0 0.0052876715777083342 -0.00096794641489667205 0 0.0053001509174550486 -0.0010098353688376355 0 0.0052326200406029328 -0.00090181177746810159 0 0.0052876715777083342 -0.00096794641489667205 0 0.0052331797197130133 -0.00096971347309727791 0 0.0052696969017748856 -0.00095480760990308247 0 0.005304354583828351 -0.00099397293559034161 0 0.0052154752598811208 -0.00095939084276397445 0 0.0052564654255425189 -0.0010070881633461456 0 0.005304354583828351 -0.00099397293559034161 0 0.0052876715777083342 -0.00096794641489667205 0 0.0052331797197130133 -0.00096971347309727791 0 0.0052107618139003 -0.00091259297579008691 0 0.0051698837520399851 -0.0009661466599895659 0 0.0052179538593573318 -0.0010259329586206638 0 0.0052326200406029328 -0.00090181177746810159 0 0.0052157261631753122 -0.0010328616011176127 0 0.0051664452032534024 -0.00058881692310356107 0 0.005338158669913105 -0.00059237557893390171 0 0.0052718186984580112 -0.0004215290715148835 0 0.0051924333553651026 -0.00066771744796181799 0 0.005309061027164612 -0.00076173329817255219 0 0.0052309043296251516 -0.00094627286754139729 0 0.0052696969017748856 -0.00095480760990308247 0 0.0052746755575887126 -0.00094869690036728232 0 0.0052326200406029328 -0.00090181177746810159 0 0.0051924333553651026 -0.00066771744796181799 0 0.0052331797197130133 -0.00096971347309727791 0 0.0052309043296251516 -0.00094627286754139729 0 0.0052696969017748856 -0.00095480760990308247 0 0.0053794064645629781 -0.00046923232853842523 0 0.005309061027164612 -0.00076173329817255219 0 0.0053160453153004309 -0.00095328251926729535 0 0.0052876715777083342 -0.00096794641489667205 0 0.0052746010536957261 -0.0009492034184790468 0 0.0053314224368813945 -0.00083844807168778027 0 0.005309061027164612 -0.00076173329817255219 0 0.0052876715777083342 -0.00096794641489667205 0 0.0052696969017748856 -0.00095480760990308247 0 0.0052746010536957261 -0.0009492034184790468 0 0.0052837454277573455 -0.00080443586359213361 0 0.005309061027164612 -0.00076173329817255219 0 0.0055058269170788817 -0.00038894544002500414 0 0.005338158669913105 -0.00059237557893390171 0 0.0053713722347520946 -0.00038749612792030161 0 0.005338158669913105 -0.00059237557893390171 0 0.0053713722347520946 -0.00038749612792030161 0 0.0052718186984580112 -0.0004215290715148835 0 0.0055058269170788817 -0.00038894544002500414 0 0.0053713722347520946 -0.00038749612792030161 0 0.0054107983184204555 -0.00026519559364422479 0 0.0053713722347520946 -0.00038749612792030161 0 0.0052718186984580112 -0.0004215290715148835 0 0.0052813039037906996 -0.00029218908838074206 0 0.0051664452032534024 -0.00058881692310356107 0 0.0052718186984580112 -0.0004215290715148835 0 0.0051406269170353588 -0.00029529493524058597 0 0.0051924333553651026 -0.00066771744796181799 0 0.0052380378181882308 -0.00018817194881425961 0 0.0052718186984580112 -0.0004215290715148835 0 0.0052813039037906996 -0.00029218908838074206 0 0.0051406269170353588 -0.00029529493524058597 0 0.0053059318354753996 -6.0972604576445051e-05 0 0.0052930877928937126 -6.9847400780854885e-05 0 0.0052812331957597606 6.7085439229106278e-05 0 0.0052559938687089976 -0.00010012260084318525 0 0.005347014568126798 1.0244362208025457e-05 0 0.0052600709810180588 -0.00010983715977413305 0 0.0052812914398037139 5.3834626425896547e-05 0 0.0052559938687089976 -0.00010012260084318525 0 0.0053469493296971352 0.00015012448667853234 0 0.0052813039037906996 -0.00029218908838074206 0 0.0051530314735062834 -0.00025375575751780308 0 0.0053155510649808687 -0.00014123369898271675 0 0.0052813039037906996 -0.00029218908838074206 0 0.0051406269170353588 -0.00029529493524058597 0 0.0051530314735062834 -0.00025375575751780308 0 0.0052380378181882308 -0.00018817194881425961 0 0.0052600709810180588 -0.00010983715977413305 0 0.0052380378181882308 -0.00018817194881425961 0 0.0052559938687089976 -0.00010012260084318525 0 0.005243612771074076 -0.00014802106860759896 0 0.0052536801921080458 -0.00011393459149633337 0 0.0052413122748310838 -0.0001225284786860368 0 0.0052559938687089976 -0.00010012260084318525 0 0.0052600709810180588 -0.00010983715977413305 0 0.0052813039037906996 -0.00029218908838074206 0 0.0054107983184204555 -0.00026519559364422479 0 0.0053155510649808687 -0.00014123369898271675 0 0.0053488057581700327 -0.00020261152474503234 0 0.0053070490137794397 -5.9001829295567967e-05 0 0.0052626311386060696 -8.9686380762713129e-05 0 0.0053815278510298131 -0.00023761667454594575 0 0.005347014568126798 1.0244362208025457e-05 0 0.0053713722347520946 -0.00038749612792030161 0 0.0052813039037906996 -0.00029218908838074206 0 0.0054107983184204555 -0.00026519559364422479 0 0.0049999898570747426 -6.6994161742016823e-05 0 0.0051541204248228504 -3.1981763061309978e-05 0 0.005152022192662825 -0.00020872464822125684 0 0.0052875181298735197 -0.00016101554081410539 0 0.005285121030681475 -0.00013449546952817065 0 0.0051449267406956075 -0.0002312821990614719 0 0.0053038556022883803 -9.4805056182223774e-05 0 0.0051541204248228504 -3.1981763061309978e-05 0 0.005152022192662825 -0.00020872464822125684 0 0.0053038556022883803 -9.4805056182223774e-05 0 0.0052342891791212357 2.877335267975627e-08 0 0.0052812331957597606 6.7085439229106278e-05 0 0.0053038556022883803 -9.4805056182223774e-05 0 0.0051541204248228504 -3.1981763061309978e-05 0 0.0052342891791212357 2.877335267975627e-08 0 0.0052600709810180588 -0.00010983715977413305 0 0.0051517886338976375 -0.000218446517448077 0 0.0052875181298735197 -0.00016101554081410539 0 0.0051449267406956075 -0.0002312821990614719 0 0.0051467416821276476 -0.00032841906920455012 0 0.0052875181298735197 -0.00016101554081410539 0 0.0051467416821276476 -0.00032841906920455012 0 0.0052139949264837504 -0.00041148730153436598 0 0.0052380378181882308 -0.00018817194881425961 0 0.0051719213998715485 -0.00052788029096716312 0 0.0051449267406956075 -0.0002312821990614719 0 0.0049999986617418985 -0.00032483464678965387 0 0.0050725187906203433 -0.0003374160789209936 0 0.0051517886338976375 -0.000218446517448077 0 0.0050000317005932313 -0.00032478699120723237 0 0.0051449267406956075 -0.0002312821990614719 0 0.0050725187906203433 -0.0003374160789209936 0 0.0051467416821276476 -0.00032841906920455012 0 0.0049999898570747426 -6.6994161742016823e-05 0 0.005152022192662825 -0.00020872464822125684 0 0.0049999994401062316 -0.00032480160584107587 0 0.0050725187906203433 -0.0003374160789209936 0 0.0049999999299888019 -0.00039962744343329936 0 0.0050659014627782318 -0.00041660586544039699 0 0.0049999986617418985 -0.00032483464678965387 0 0.0050725187906203433 -0.0003374160789209936 0 0.0049999999299888019 -0.00039962744343329936 0 0.0050756263621755063 -0.00046012878183876259 0 0.0051719213998715485 -0.00052788029096716312 0 0.0050725187906203433 -0.0003374160789209936 0 0.0050659014627782318 -0.00041660586544039699 0 0.0051467416821276476 -0.00032841906920455012 0 0.0050756263621755063 -0.00046012878183876259 0 0.0051450549897075794 -0.00064967731716223732 0 0.0049999994649455931 -0.0003996535784065589 0 0.0050714176919194652 -0.00042226749915239399 0 0.0050802397011231537 -0.00053648598596061801 0 0.0050000362812779873 -0.00039970106745196104 0 0.0050756263621755063 -0.00046012878183876259 0 0.0050824220857726508 -0.00052689138297059245 0 0.0051399041536849387 -0.00054495099331945934 0 0.0051455345900794838 -0.00052607701935781506 0 0.0052532367473880496 -0.00057129807010186673 0 0.0052224776629215038 -0.00022630582789568636 0 0.005120756635275947 -0.00056842465317388704 0 0.0050659014627782318 -0.00041660586544039699 0 0.0051467416821276476 -0.00032841906920455012 0 0.0052139949264837504 -0.00041148730153436598 0 0.0051450549897075794 -0.00064967731716223732 0 0.0051719213998715485 -0.00052788029096716312 0 0.0052123796865179142 -0.00068422447472395599 0 0.0051562947979528753 -0.00070519174019666089 0 0.0051629690830779749 -0.00068276380394968587 0 0.0052159768992306706 -0.00072412646683531103 0 0.0052123796865179142 -0.00068422447472395599 0 0.0051562947979528753 -0.00070519174019666089 0 0.0051924333553651026 -0.00066771744796181799 0 0.0051719213998715485 -0.00052788029096716312 0 0.0051465374369710796 -0.00089396677912135733 0 0.0051698837520399851 -0.0009661466599895659 0 0.0051131809372609643 -0.0010106654984532648 0 0.0051450549897075794 -0.00064967731716223732 0 0.0051341949303336694 -0.00086949859237680767 0 0.0052107618139003 -0.00091259297579008691 0 0.0051465374369710796 -0.00089396677912135733 0 0.0051698837520399851 -0.0009661466599895659 0 0.0052326200406029328 -0.00090181177746810159 0 0.0051450549897075794 -0.00064967731716223732 0 0.0052215488416438877 -0.00046933185020640595 0 0.0050802397011231537 -0.00053648598596061801 0 0.0051480998620625582 -0.00071764972692077943 0 0.0049999994649455931 -0.0003996535784065589 0 0.0050802397011231537 -0.00053648598596061801 0 0.0049999992459419332 -0.00067196049241245585 0 0.0050714176919194652 -0.00042226749915239399 0 0.0052215488416438877 -0.00046933185020640595 0 0.0050802397011231537 -0.00053648598596061801 0 0.0050802397011231537 -0.00053648598596061801 0 0.0049999992459419332 -0.00067196049241245585 0 0.0051480998620625582 -0.00071764972692077943 0 0.0049999992459419332 -0.00067196049241245585 0 0.0051480998620625582 -0.00071764972692077943 0 0.0049999996333629174 -0.00094426959131434533 0 0.0051341949303336694 -0.00086949859237680767 0 0.00507078878729114 -0.0010393747132374847 0 0.0051480998620625582 -0.00071764972692077943 0 0.0049999996333629174 -0.00094426959131434533 0 0.0050741950013048669 -0.00096696906839634277 0 0.0051131809372609643 -0.0010106654984532648 0 0.0052038043115384281 -0.0011084240240542245 0 0.0050713780815861177 -0.001110778990445988 0 0.0051131809372609643 -0.0010106654984532648 0 0.0052179538593573318 -0.0010259329586206638 0 0.0052038043115384281 -0.0011084240240542245 0 0.0051698837520399851 -0.0009661466599895659 0 0.0051131809372609643 -0.0010106654984532648 0 0.0052179538593573318 -0.0010259329586206638 0 0.0052154752598811208 -0.00095939084276397445 0 0.0052179538593573318 -0.0010259329586206638 0 0.0052564654255425189 -0.0010070881633461456 0 0.005304354583828351 -0.00099397293559034161 0 0.0052564654255425189 -0.0010070881633461456 0 0.005285340565112707 -0.0010519781006472382 0 0.0052179538593573318 -0.0010259329586206638 0 0.0052564654255425189 -0.0010070881633461456 0 0.005285340565112707 -0.0010519781006472382 0 0.005285340565112707 -0.0010519781006472382 0 0.0052038043115384281 -0.0011084240240542245 0 0.0053102166481424897 -0.0011263946988887147 0 0.0052179538593573318 -0.0010259329586206638 0 0.005285340565112707 -0.0010519781006472382 0 0.0052038043115384281 -0.0011084240240542245 0 0.0052038043115384281 -0.0011084240240542245 0 0.0053102166481424897 -0.0011263946988887147 0 0.0052459959604151387 -0.0012268137348934599 0 0.0052799113976738808 -0.0014678550491931642 0 0.005294686655915171 -0.0014686243987619009 0 0.0052869142256058545 -0.0017104514432974953 0 0.0052774997220873263 -0.0017710791592291883 0 0.0053226111865847248 -0.0017201865948778656 0 0.0052038043115384281 -0.0011084240240542245 0 0.0052459959604151387 -0.0012268137348934599 0 0.0051355311147501803 -0.0012389541028741786 0 0.0051355311147501803 -0.0012389541028741786 0 0.0050000644621673645 -0.0012167191792791117 0 0.0050713780815861177 -0.001110778990445988 0 0.0049999997907588202 -0.0012165783701264959 0 0.0049999996333629174 -0.00094426959131434533 0 0.0050741950013048669 -0.00096696906839634277 0 0.0050000159745039576 -0.0012165537042394593 0 0.00507078878729114 -0.0010393747132374847 0 0.0052038043115384281 -0.0011084240240542245 0 0.0051355311147501803 -0.0012389541028741786 0 0.0050713780815861177 -0.001110778990445988 0 0.0025540151598958207 -0.0007750778101308039 0 0.0025215884233267061 -0.00089590526110928568 0 0.0024925726499005515 -0.00074960307387147225 0 0.0024452425592293115 -0.00073797344729276018 0 0.0028674358011963838 -0.00096293960782000397 0 0.0025540151598958207 -0.0007750778101308039 0 0.0025739131326502286 -0.00076271415493008759 0 0.0025812309715731469 -0.00071640283176882557 0 0.0025540151598958207 -0.0007750778101308039 0 0.0025739131326502286 -0.00076271415493008759 0 0.0026165111467702988 -0.00084726993149508462 0 0.0025739131326502286 -0.00076271415493008759 0 0.0026165111467702988 -0.00084726993149508462 0 0.002473834060612504 -0.00070544329259094967 0 0.0025739131326502286 -0.00076271415493008759 0 0.0025812309715731469 -0.00071640283176882557 0 0.002473834060612504 -0.00070544329259094967 0 0.0023227294957900166 -0.00074057748688664002 0 0.002473834060612504 -0.00070544329259094967 0 0.0023538475414271601 -0.00077844134143858926 0 0.0024558193127973468 -0.0008083781867194472 0 0.0024702219135838291 -0.00072461517406662945 0 0.0025540151598958207 -0.0007750778101308039 0 0.0026165111467702988 -0.00084726993149508462 0 0.0025215884233267061 -0.00089590526110928568 0 0.0026165111467702988 -0.00084726993149508462 0 0.0025215884233267061 -0.00089590526110928568 0 0.0025553962942533918 -0.0011203548104327117 0 0.0024558193127973468 -0.0008083781867194472 0 0.0024070495317419999 -0.00092198310718587478 0 0.0025215884233267061 -0.00089590526110928568 0 0.0024128821023116911 -0.0011248434621815902 0 0.0025553962942533918 -0.0011203548104327117 0 0.0025215884233267061 -0.00089590526110928568 0 0.0023926636754591948 -0.00084529913659715859 0 0.0024128821023116911 -0.0011248434621815902 0 0.0022432990530154907 -0.00098856694354235663 0 0.0023926636754591948 -0.00084529913659715859 0 0.0024128821023116911 -0.0011248434621815902 0 0.0030182396952892574 -0.001733370712231469 0 0.0028970227567515741 -0.0013021629673022421 0 0.0032447807774211765 -0.0018865971560892568 0 0.0034074292633544385 -0.0017495951696533591 0 0.0034517847223445009 -0.0015774746690222147 0 0.0030182396952892574 -0.001733370712231469 0 0.0035015554341969964 -0.0016575552098191425 0 0.0031806744264169279 -0.0017051218555148777 0 0.0034517847223445009 -0.0015774746690222147 0 0.0032797828692496772 -0.0015635040579727959 0 0.0032401567188940477 -0.0019774863624317175 0 0.0031806744264169279 -0.0017051218555148777 0 0.0034517847223445009 -0.0015774746690222147 0 0.0025215884233267061 -0.00089590526110928568 0 0.0023926636754591948 -0.00084529913659715859 0 0.0024925726499005515 -0.00074960307387147225 0 0.0028970227567515741 -0.0013021629673022421 0 0.0028674358011963838 -0.00096293960782000397 0 0.0034074292633544385 -0.0017495951696533591 0 0.0035712578516130097 -0.0016109908091772708 0 0.0034517847223445009 -0.0015774746690222147 0 0.0029070485651207238 -0.00033361308014821193 0 0.00291356737279135 -0.00045171756968835706 0 0.003033988159023194 -0.00039777803326033557 0 0.00291356737279135 -0.00045171756968835706 0 0.003033988159023194 -0.00039777803326033557 0 0.0029669127982814006 -0.00055396311800151392 0 0.0035712578516130097 -0.0016109908091772708 0 0.0034517847223445009 -0.0015774746690222147 0 0.003379662884592126 -0.0015304646929673339 0 0.0028674358011963838 -0.00096293960782000397 0 0.003236883074609829 -0.00097300221227288356 0 0.003033988159023194 -0.00039777803326033557 0 0.0029669127982814006 -0.00055396311800151392 0 0.0031459516631732166 -0.0004474653466577558 0 0.0031806744264169279 -0.0017051218555148777 0 0.0032797828692496772 -0.0015635040579727959 0 0.0031654100610952057 -0.0014327792352968082 0 0.0032797828692496772 -0.0015635040579727959 0 0.003379662884592126 -0.0015304646929673339 0 0.0031654100610952057 -0.0014327792352968082 0 0.0034517847223445009 -0.0015774746690222147 0 0.0032797828692496772 -0.0015635040579727959 0 0.003379662884592126 -0.0015304646929673339 0 0.003236883074609829 -0.00097300221227288356 0 0.0033754450800559019 -0.00076562904719281832 0 0.0029293789836004722 -0.00045146256181260297 0 0.0033754450800559019 -0.00076562904719281832 0 0.0029669127982814006 -0.00055396311800151392 0 0.0032131345220134584 -0.00037665357642751847 0 0.0032751405768610214 -0.00051547848023617709 0 0.00291356737279135 -0.00045171756968835706 0 0.0029669127982814006 -0.00055396311800151392 0 0.0028234498877345322 -0.00053845705241225661 0 0.0029669127982814006 -0.00055396311800151392 0 0.0028234498877345322 -0.00053845705241225661 0 0.0027776086842768886 -0.00063099703688576463 0 0.0028234498877345322 -0.00053845705241225661 0 0.0026303123102503897 -0.0006063612085853245 0 0.0027776086842768886 -0.00063099703688576463 0 0.0028234498877345322 -0.00053845705241225661 0 0.0027881993148751198 -0.00042218749829587979 0 0.0026303123102503897 -0.0006063612085853245 0 0.00291356737279135 -0.00045171756968835706 0 0.0028234498877345322 -0.00053845705241225661 0 0.0027881993148751198 -0.00042218749829587979 0 0.0026959486064904951 -0.0005562870315036167 0 0.0026311917386575606 -0.00059960026778773561 0 0.0025540151598958207 -0.0007750778101308039 0 0.0025408683004324818 -0.00068432798348837026 0 0.0025812309715731469 -0.00071640283176882557 0 0.0025540151598958207 -0.0007750778101308039 0 0.0024832841935492028 -0.00074510033193176035 0 0.0025408683004324818 -0.00068432798348837026 0 0.0028674358011963838 -0.00096293960782000397 0 0.0026959486064904951 -0.0005562870315036167 0 0.0029070485651207238 -0.00033361308014821193 0 0.00291356737279135 -0.00045171756968835706 0 0.0027881993148751198 -0.00042218749829587979 0 0.0025408683004324818 -0.00068432798348837026 0 0.0025812309715731469 -0.00071640283176882557 0 0.0026303123102503897 -0.0006063612085853245 0 0.0025812309715731469 -0.00071640283176882557 0 0.0026303123102503897 -0.0006063612085853245 0 0.0025514048805876524 -0.00067957957582361354 0 0.0026303123102503897 -0.0006063612085853245 0 0.0025847604505612539 -0.00066414219128479611 0 0.0025514048805876524 -0.00067957957582361354 0 0.0026303123102503897 -0.0006063612085853245 0 0.0026508098579021517 -0.00065952118796721345 0 0.0027776086842768886 -0.00063099703688576463 0 0.0026303123102503897 -0.0006063612085853245 0 0.0025847604505612539 -0.00066414219128479611 0 0.0026508098579021517 -0.00065952118796721345 0 0.0025847604505612539 -0.00066414219128479611 0 0.0025111901507838888 -0.00069427965574834019 0 0.0025935357282267516 -0.00070796280992169278 0 0.0025847604505612539 -0.00066414219128479611 0 0.0025111901507838888 -0.00069427965574834019 0 0.0025514048805876524 -0.00067957957582361354 0 0.0025111901507838888 -0.00069427965574834019 0 0.0024501563248663823 -0.00070404993951735562 0 0.0024724584822411579 -0.00068953231518394337 0 0.0025111901507838888 -0.00069427965574834019 0 0.0024501563248663823 -0.00070404993951735562 0 0.0024561348375193811 -0.00072875581444130626 0 0.0024724584822411579 -0.00068953231518394337 0 0.0024127368069195108 -0.00069662167252342543 0 0.0024183027656958897 -0.00070124550470869115 0 0.0024501563248663823 -0.00070404993951735562 0 0.0024724584822411579 -0.00068953231518394337 0 0.0024127368069195108 -0.00069662167252342543 0 0.0025111901507838888 -0.00069427965574834019 0 0.0024724584822411579 -0.00068953231518394337 0 0.0025514048805876524 -0.00067957957582361354 0 0.0025812309715731469 -0.00071640283176882557 0 0.0025514048805876524 -0.00067957957582361354 0 0.002473834060612504 -0.00070544329259094967 0 0.0024724584822411579 -0.00068953231518394337 0 0.0025514048805876524 -0.00067957957582361354 0 0.002473834060612504 -0.00070544329259094967 0 0.0023323705008663747 -0.00072701871965450348 0 0.0023932738461057996 -0.00072650331369089713 0 0.0023555806744589448 -0.00070214921701178712 0 0.0023035432698697523 -0.00070404742608575648 0 0.0023323705008663747 -0.00072701871965450348 0 0.0023555806744589448 -0.00070214921701178712 0 0.0024501563248663823 -0.00070404993951735562 0 0.0023932738461057996 -0.00072650331369089713 0 0.0024127368069195108 -0.00069662167252342543 0 0.0023932738461057996 -0.00072650331369089713 0 0.0024127368069195108 -0.00069662167252342543 0 0.0023555806744589448 -0.00070214921701178712 0 0.0024501563248663823 -0.00070404993951735562 0 0.0023932738461057996 -0.00072650331369089713 0 0.0024561348375193811 -0.00072875581444130626 0 0.0024127368069195108 -0.00069662167252342543 0 0.0023555806744589448 -0.00070214921701178712 0 0.0023645433015928481 -0.00069905345691836625 0 0.0023266386520140467 -0.00069591234475696736 0 0.0023555806744589448 -0.00070214921701178712 0 0.0023645433015928481 -0.00069905345691836625 0 0.0023035432698697523 -0.00070404742608575648 0 0.0023266386520140467 -0.00069591234475696736 0 0.0023555806744589448 -0.00070214921701178712 0 0.0023266386520140467 -0.00069591234475696736 0 0.0023225148617094199 -0.00070731552777225377 0 0.0023645433015928481 -0.00069905345691836625 0 0.0023645433015928481 -0.00069905345691836625 0 0.0023687361490233897 -0.00072620464870298156 0 0.0024183027656958897 -0.00070124550470869115 0 0.0024127368069195108 -0.00069662167252342543 0 0.0023645433015928481 -0.00069905345691836625 0 0.0024183027656958897 -0.00070124550470869115 0 0.0023225148617094199 -0.00070731552777225377 0 0.0023645433015928481 -0.00069905345691836625 0 0.0023687361490233897 -0.00072620464870298156 0 0.0023225148617094199 -0.00070731552777225377 0 0.0023687361490233897 -0.00072620464870298156 0 0.0023345078801805352 -0.00075876227033462584 0 0.002473834060612504 -0.00070544329259094967 0 0.0024183027656958897 -0.00070124550470869115 0 0.0023863664387194818 -0.00074192998407942071 0 0.0024724584822411579 -0.00068953231518394337 0 0.002473834060612504 -0.00070544329259094967 0 0.0024183027656958897 -0.00070124550470869115 0 0.0023687361490233897 -0.00072620464870298156 0 0.0024183027656958897 -0.00070124550470869115 0 0.0023863664387194818 -0.00074192998407942071 0 0.002473834060612504 -0.00070544329259094967 0 0.0023863664387194818 -0.00074192998407942071 0 0.0023538475414271601 -0.00077844134143858926 0 0.0023863664387194818 -0.00074192998407942071 0 0.0023538475414271601 -0.00077844134143858926 0 0.0023423803875410264 -0.00080552703560858748 0 0.0023687361490233897 -0.00072620464870298156 0 0.0023863664387194818 -0.00074192998407942071 0 0.0023465121474456753 -0.00077857616366236307 0 0.0023863664387194818 -0.00074192998407942071 0 0.0023423803875410264 -0.00080552703560858748 0 0.0023465121474456753 -0.00077857616366236307 0 0.0023423803875410264 -0.00080552703560858748 0 0.0023465121474456753 -0.00077857616366236307 0 0.0023257482996611105 -0.00083521855957871343 0 0.0023423803875410264 -0.00080552703560858748 0 0.0023198587491623465 -0.00085356619174401665 0 0.0023257482996611105 -0.00083521855957871343 0 0.0023423803875410264 -0.00080552703560858748 0 0.0023198587491623465 -0.00085356619174401665 0 0.0023188310945853694 -0.00082883619163361436 0 0.0023538475414271601 -0.00077844134143858926 0 0.0023423803875410264 -0.00080552703560858748 0 0.0023188310945853694 -0.00082883619163361436 0 0.0023225148617094199 -0.00070731552777225377 0 0.0023159639037627988 -0.00078618073968876395 0 0.0023345078801805352 -0.00075876227033462584 0 0.0023687361490233897 -0.00072620464870298156 0 0.0023345078801805352 -0.00075876227033462584 0 0.0023465121474456753 -0.00077857616366236307 0 0.0023465121474456753 -0.00077857616366236307 0 0.0023175320677229719 -0.00082235287340201287 0 0.0023257482996611105 -0.00083521855957871343 0 0.0023345078801805352 -0.00075876227033462584 0 0.0023465121474456753 -0.00077857616366236307 0 0.0023175320677229719 -0.00082235287340201287 0 0.0023159639037627988 -0.00078618073968876395 0 0.0023345078801805352 -0.00075876227033462584 0 0.0023175320677229719 -0.00082235287340201287 0 0.0023159639037627988 -0.00078618073968876395 0 0.0023175320677229719 -0.00082235287340201287 0 0.0022998425938158202 -0.00088084671814357121 0 0.0023175320677229719 -0.00082235287340201287 0 0.0022998425938158202 -0.00088084671814357121 0 0.002306914460752524 -0.00088217094336249093 0 0.002306914460752524 -0.00088217094336249093 0 0.0023257482996611105 -0.00083521855957871343 0 0.0023147441760835558 -0.00087546812988771149 0 0.0023175320677229719 -0.00082235287340201287 0 0.002306914460752524 -0.00088217094336249093 0 0.0023257482996611105 -0.00083521855957871343 0 0.0022898063755407406 -0.00093863419415793022 0 0.0023049798178856789 -0.00091851591245994838 0 0.002306914460752524 -0.00088217094336249093 0 0.0023049798178856789 -0.00091851591245994838 0 0.002306914460752524 -0.00088217094336249093 0 0.0023147441760835558 -0.00087546812988771149 0 0.0022898063755407406 -0.00093863419415793022 0 0.0022998425938158202 -0.00088084671814357121 0 0.002306914460752524 -0.00088217094336249093 0 0.0023198587491623465 -0.00085356619174401665 0 0.0023017127606531924 -0.00087650785589364958 0 0.0023188310945853694 -0.00082883619163361436 0 0.0023198587491623465 -0.00085356619174401665 0 0.0023257482996611105 -0.00083521855957871343 0 0.0023147441760835558 -0.00087546812988771149 0 0.0023049798178856789 -0.00091851591245994838 0 0.0023147441760835558 -0.00087546812988771149 0 0.0023102090952672148 -0.00089401440879208617 0 0.0023198587491623465 -0.00085356619174401665 0 0.0023147441760835558 -0.00087546812988771149 0 0.0023102090952672148 -0.00089401440879208617 0 0.0022971902441078149 -0.00092009809333019194 0 0.0023102090952672148 -0.00089401440879208617 0 0.0023017127606531924 -0.00087650785589364958 0 0.0023198587491623465 -0.00085356619174401665 0 0.0023102090952672148 -0.00089401440879208617 0 0.0023017127606531924 -0.00087650785589364958 0 0.0022971902441078149 -0.00092009809333019194 0 0.0022788396185995691 -0.00089694007818738608 0 0.0023017127606531924 -0.00087650785589364958 0 0.0024606441965385876 -0.0017509397762269115 0 0.0023604431322251044 -0.0015893397490894137 0 0.0022788396185995691 -0.00089694007818738608 0 0.0022845821770750038 -0.00085336472999303955 0 0.0022510552603785369 -0.00086653596847677738 0 0.0022845821770750038 -0.00085336472999303955 0 0.0022527262335222437 -0.0008296347226153972 0 0.0022510552603785369 -0.00086653596847677738 0 0.0022788396185995691 -0.00089694007818738608 0 0.0022845821770750038 -0.00085336472999303955 0 0.0023017127606531924 -0.00087650785589364958 0 0.0022845821770750038 -0.00085336472999303955 0 0.0023017127606531924 -0.00087650785589364958 0 0.0023188310945853694 -0.00082883619163361436 0 0.0022845821770750038 -0.00085336472999303955 0 0.0023188310945853694 -0.00082883619163361436 0 0.0023027918032173717 -0.00079632293314514462 0 0.0022845821770750038 -0.00085336472999303955 0 0.0023027918032173717 -0.00079632293314514462 0 0.0022527262335222437 -0.0008296347226153972 0 0.0023227294957900166 -0.00074057748688664002 0 0.0023027918032173717 -0.00079632293314514462 0 0.0022600964137374602 -0.00078763563127868489 0 0.0023027918032173717 -0.00079632293314514462 0 0.0022600964137374602 -0.00078763563127868489 0 0.0022527262335222437 -0.0008296347226153972 0 0.0023538475414271601 -0.00077844134143858926 0 0.0023188310945853694 -0.00082883619163361436 0 0.0023027918032173717 -0.00079632293314514462 0 0.0023227294957900166 -0.00074057748688664002 0 0.0023538475414271601 -0.00077844134143858926 0 0.0023027918032173717 -0.00079632293314514462 0 0.0023117963778183912 -0.001380335041864286 0 0.0024128821023116911 -0.0011248434621815902 0 0.0023735105692059351 -0.0014384044643567099 0 0.0022432990530154907 -0.00098856694354235663 0 0.0023117963778183912 -0.001380335041864286 0 0.0024128821023116911 -0.0011248434621815902 0 0.0024070495317419999 -0.00092198310718587478 0 0.002333553379239758 -0.0014217810745921202 0 0.0024128821023116911 -0.0011248434621815902 0 0.0025553962942533918 -0.0011203548104327117 0 0.0023735105692059351 -0.0014384044643567099 0 0.0022600964137374602 -0.00078763563127868489 0 0.0022527262335222437 -0.0008296347226153972 0 0.0022163984239040643 -0.00082914493641139209 0 0.002333553379239758 -0.0014217810745921202 0 0.0023604431322251044 -0.0015893397490894137 0 0.0022527262335222437 -0.0008296347226153972 0 0.0022163984239040643 -0.00082914493641139209 0 0.0022510552603785369 -0.00086653596847677738 0 0.0023109200996181676 -0.0020490799793901619 0 0.0022427187224698442 -0.0022868862187577104 0 0.0019837110939627863 -0.0022150767372145284 0 0.0023117963778183912 -0.001380335041864286 0 0.0024935758647339329 -0.0015951093172486988 0 0.0019614503841772304 -0.0014813334057465252 0 0.0023479379083022277 -0.0014293064230864053 0 0.002333553379239758 -0.0014217810745921202 0 0.0023109200996181676 -0.0020490799793901619 0 0.0022427187224698442 -0.0022868862187577104 0 0.0024939209952090017 -0.0023191663285360717 0 0.0022427187224698442 -0.0022868862187577104 0 0.0022399461934246817 -0.0025242283062859947 0 0.0021074959009623135 -0.0024561869029164169 0 0.0022427187224698442 -0.0022868862187577104 0 0.0024939209952090017 -0.0023191663285360717 0 0.0024173037975002785 -0.002515273431163798 0 0.002643634818274722 -0.0025981535661605574 0 0.0024939209952090017 -0.0023191663285360717 0 0.0024173037975002785 -0.002515273431163798 0 0.0023810957605881048 -0.0027250234611651074 0 0.002643634818274722 -0.0025981535661605574 0 0.0024173037975002785 -0.002515273431163798 0 0.0021076527845926246 -0.0026909853939581546 0 0.0023810957605881048 -0.0027250234611651074 0 0.0022399461934246817 -0.0025242283062859947 0 0.0022427187224698442 -0.0022868862187577104 0 0.0024173037975002785 -0.002515273431163798 0 0.0022399461934246817 -0.0025242283062859947 0 0.0023810957605881048 -0.0027250234611651074 0 0.0024173037975002785 -0.002515273431163798 0 0.0022399461934246817 -0.0025242283062859947 0 0.0021076527845926246 -0.0026909853939581546 0 0.0022399461934246817 -0.0025242283062859947 0 0.0021074959009623135 -0.0024561869029164169 0 0.0021076527845926246 -0.0026909853939581546 0 0.0019330674993983145 -0.0025336969278793781 0 0.0021074959009623135 -0.0024561869029164169 0 0.0019330674993983145 -0.0025336969278793781 0 0.0021074959009623135 -0.0024561869029164169 0 0.0019837110939627863 -0.0022150767372145284 0 0.0022427187224698442 -0.0022868862187577104 0 0.0021074959009623135 -0.0024561869029164169 0 0.0019837110939627863 -0.0022150767372145284 0 0.0019330674993983145 -0.0025336969278793781 0 0.0019837110939627863 -0.0022150767372145284 0 0.001742590885926591 -0.0022423545823334352 0 0.0028110877288503758 -0.0026855384068171207 0 0.0026247759028233345 -0.0027429097567487955 0 0.0026504106236063104 -0.0025754638959134958 0 0.0019330674993983145 -0.0025336969278793781 0 0.001742590885926591 -0.0022423545823334352 0 0.0016982659903789581 -0.0026625864399282728 0 0.0022857549778434391 -0.0024521972719453956 0 0.002144338195686634 -0.0028241804594917454 0 0.0019806059839021094 -0.0028505399591562232 0 0.0019330674993983145 -0.0025336969278793781 0 0.0016982659903789581 -0.0026625864399282728 0 0.0025834372944254927 -0.0030057329463776131 0 0.002278621133510331 -0.0029649468459021495 0 0.0024565204398006185 -0.0026998202114707896 0 0.002278621133510331 -0.0029649468459021495 0 0.0022619177413918195 -0.0026897930154541638 0 0.0024565204398006185 -0.0026998202114707896 0 0.002278621133510331 -0.0029649468459021495 0 0.0022619177413918195 -0.0026897930154541638 0 0.0021436760232574131 -0.0028106730556038749 0 0.0022619177413918195 -0.0026897930154541638 0 0.0024565204398006185 -0.0026998202114707896 0 0.0023612883465770002 -0.0024740496643906916 0 0.0025834372944254927 -0.0030057329463776131 0 0.0026247759028233345 -0.0027429097567487955 0 0.0024565204398006185 -0.0026998202114707896 0 0.0028110877288503758 -0.0026855384068171207 0 0.0025834372944254927 -0.0030057329463776131 0 0.0026247759028233345 -0.0027429097567487955 0 0.0026247759028233345 -0.0027429097567487955 0 0.0024565204398006185 -0.0026998202114707896 0 0.0026504106236063104 -0.0025754638959134958 0 0.0026504106236063104 -0.0025754638959134958 0 0.0025193555732526819 -0.0025013588211208154 0 0.0026806495105582222 -0.0024289000527938343 0 0.0024565204398006185 -0.0026998202114707896 0 0.0026504106236063104 -0.0025754638959134958 0 0.0025193555732526819 -0.0025013588211208154 0 0.0025193555732526819 -0.0025013588211208154 0 0.0023612883465770002 -0.0024740496643906916 0 0.0025668473194448527 -0.0023390185688554749 0 0.0025193555732526819 -0.0025013588211208154 0 0.0026806495105582222 -0.0024289000527938343 0 0.0025668473194448527 -0.0023390185688554749 0 0.0026806495105582222 -0.0024289000527938343 0 0.0025668473194448527 -0.0023390185688554749 0 0.0027089368243751254 -0.0023108703367113979 0 0.0024565204398006185 -0.0026998202114707896 0 0.0025193555732526819 -0.0025013588211208154 0 0.0023612883465770002 -0.0024740496643906916 0 0.0024023758693647312 -0.002253040605027931 0 0.0025276801686552088 -0.0021572141521454891 0 0.0023651115390011992 -0.0019501868554842833 0 0.0024023758693647312 -0.002253040605027931 0 0.00219079299879869 -0.0022874559192911526 0 0.0023651115390011992 -0.0019501868554842833 0 0.0022349780036223063 -0.0023369156618701882 0 0.0030316686289522028 -0.0016095794334812555 0 0.0023612883465770002 -0.0024740496643906916 0 0.0024023758693647312 -0.002253040605027931 0 0.00219079299879869 -0.0022874559192911526 0 0.0023612883465770002 -0.0024740496643906916 0 0.0024023758693647312 -0.002253040605027931 0 0.0025668473194448527 -0.0023390185688554749 0 0.0025668473194448527 -0.0023390185688554749 0 0.0026574942648038354 -0.0021921091006126053 0 0.0027089368243751254 -0.0023108703367113979 0 0.0024023758693647312 -0.002253040605027931 0 0.0025668473194448527 -0.0023390185688554749 0 0.0025276801686552088 -0.0021572141521454891 0 0.0025668473194448527 -0.0023390185688554749 0 0.0025276801686552088 -0.0021572141521454891 0 0.0026574942648038354 -0.0021921091006126053 0 0.0025276801686552088 -0.0021572141521454891 0 0.0026574942648038354 -0.0021921091006126053 0 0.0025986295661824463 -0.0020541858845450336 0 0.0026574942648038354 -0.0021921091006126053 0 0.0028123698158074627 -0.0022250842604419653 0 0.0027228130128403166 -0.0020694327424262272 0 0.0028123698158074627 -0.0022250842604419653 0 0.0028758798604379544 -0.0020944217537768486 0 0.0027228130128403166 -0.0020694327424262272 0 0.0028123698158074627 -0.0022250842604419653 0 0.0027089368243751254 -0.0023108703367113979 0 0.0027827043313014819 -0.0023676336078086524 0 0.0026574942648038354 -0.0021921091006126053 0 0.0028123698158074627 -0.0022250842604419653 0 0.0027089368243751254 -0.0023108703367113979 0 0.0028123698158074627 -0.0022250842604419653 0 0.0028807672957408322 -0.0023399545679158805 0 0.0029783830646200335 -0.0022300428579463531 0 0.0028123698158074627 -0.0022250842604419653 0 0.0028807672957408322 -0.0023399545679158805 0 0.0027827043313014819 -0.0023676336078086524 0 0.0028123698158074627 -0.0022250842604419653 0 0.0029783830646200335 -0.0022300428579463531 0 0.0028758798604379544 -0.0020944217537768486 0 0.0030182396952892574 -0.001733370712231469 0 0.0024791097111235873 -0.0018774069961079948 0 0.0022432990530154907 -0.00098856694354235663 0 0.0023117963778183912 -0.001380335041864286 0 0.0019614503841772304 -0.0014813334057465252 0 0.0032426243116691618 -0.0019767749345347657 0 0.0029783830646200335 -0.0022300428579463531 0 0.0030338628099822206 -0.0023353817133725478 0 0.0030182396952892574 -0.001733370712231469 0 0.0030315599901179339 -0.0022509910252670753 0 0.0028807672957408322 -0.0023399545679158805 0 0.0029783830646200335 -0.0022300428579463531 0 0.0030338628099822206 -0.0023353817133725478 0 0.0024935758647339329 -0.0015951093172486988 0 0.0019837110939627863 -0.0022150767372145284 0 0.0019614503841772304 -0.0014813334057465252 0 0.002333553379239758 -0.0014217810745921202 0 0.0019768128984489273 -0.0023204380810856523 0 0.0019837110939627863 -0.0022150767372145284 0 0.001742590885926591 -0.0022423545823334352 0 0.0019614503841772304 -0.0014813334057465252 0 0.0022857549778434391 -0.0024521972719453956 0 0.0024791097111235873 -0.0018774069961079948 0 0.0028110877288503758 -0.0026855384068171207 0 0.0030338628099822206 -0.0023353817133725478 0 0.0028073353990273062 -0.0024562264852652743 0 0.0028110877288503758 -0.0026855384068171207 0 0.0026504106236063104 -0.0025754638959134958 0 0.0028073353990273062 -0.0024562264852652743 0 0.0026504106236063104 -0.0025754638959134958 0 0.0026806495105582222 -0.0024289000527938343 0 0.0028073353990273062 -0.0024562264852652743 0 0.0026806495105582222 -0.0024289000527938343 0 0.0028073353990273062 -0.0024562264852652743 0 0.0027827043313014819 -0.0023676336078086524 0 0.0026806495105582222 -0.0024289000527938343 0 0.0027089368243751254 -0.0023108703367113979 0 0.0027827043313014819 -0.0023676336078086524 0 0.0028807672957408322 -0.0023399545679158805 0 0.0030338628099822206 -0.0023353817133725478 0 0.0028073353990273062 -0.0024562264852652743 0 0.0028807672957408322 -0.0023399545679158805 0 0.0028073353990273062 -0.0024562264852652743 0 0.0027827043313014819 -0.0023676336078086524 0 0.0026022045172989427 -0.0023355253188910422 0 0.0024330445979769393 -0.0020560483668558699 0 0.0013750199651310405 -0.0027335330026197757 0 0.0015801015413137655 -0.0027434898372466665 0 0.0015547776731721231 -0.0029953135095863621 0 0.0013750199651310405 -0.0027335330026197757 0 0.0015801015413137655 -0.0027434898372466665 0 0.0016272455299915726 -0.0025551563953862926 0 0.0015801015413137655 -0.0027434898372466665 0 0.001766320968377894 -0.0026610205583592213 0 0.0016272455299915726 -0.0025551563953862926 0 0.0015801015413137655 -0.0027434898372466665 0 0.0015547776731721231 -0.0029953135095863621 0 0.0017252907658627599 -0.0028112499953633569 0 0.0017414602643941286 -0.0030687553670879913 0 0.0015547776731721231 -0.0029953135095863621 0 0.0018182066994015954 -0.0029448763691544218 0 0.0015547776731721231 -0.0029953135095863621 0 0.0018182066994015954 -0.0029448763691544218 0 0.0017252907658627599 -0.0028112499953633569 0 0.0018862354169199682 -0.0030755517376088674 0 0.0017414602643941286 -0.0030687553670879913 0 0.0018182066994015954 -0.0029448763691544218 0 0.0018182066994015954 -0.0029448763691544218 0 0.0018457689152772728 -0.0028106878090922776 0 0.0017252907658627599 -0.0028112499953633569 0 0.0018457689152772728 -0.0028106878090922776 0 0.0017252907658627599 -0.0028112499953633569 0 0.001766320968377894 -0.0026610205583592213 0 0.0015801015413137655 -0.0027434898372466665 0 0.0017252907658627599 -0.0028112499953633569 0 0.001766320968377894 -0.0026610205583592213 0 0.0018457689152772728 -0.0028106878090922776 0 0.001766320968377894 -0.0026610205583592213 0 0.0019321550902309333 -0.0026691202642546248 0 0.0019321550902309333 -0.0026691202642546248 0 0.0019521997215727091 -0.0029074959517429119 0 0.0021905382086470364 -0.002597659769929061 0 0.0019614331637258869 -0.0028887807881609931 0 0.0021303838775028794 -0.0025896408532415888 0 0.0018457689152772728 -0.0028106878090922776 0 0.0019321550902309333 -0.0026691202642546248 0 0.0019521997215727091 -0.0029074959517429119 0 0.0019521997215727091 -0.0029074959517429119 0 0.0020101391758113947 -0.0029332318416364577 0 0.0020414478671635572 -0.0026220018234962262 0 0.0018182066994015954 -0.0029448763691544218 0 0.0018457689152772728 -0.0028106878090922776 0 0.0019521997215727091 -0.0029074959517429119 0 0.0018874818910428123 -0.0031038577623242747 0 0.0020022837131567568 -0.0029543408746883497 0 0.0018862354169199682 -0.0030755517376088674 0 0.0019521997215727091 -0.0029074959517429119 0 0.0020101391758113947 -0.0029332318416364577 0 0.0018862354169199682 -0.0030755517376088674 0 0.0018182066994015954 -0.0029448763691544218 0 0.0019521997215727091 -0.0029074959517429119 0 0.0020156133640697803 -0.0031138979964003702 0 0.0018835063082646695 -0.0031396938494185197 0 0.0020101391758113947 -0.0029332318416364577 0 0.0021235751760651416 -0.0031808277219960127 0 0.002278621133510331 -0.0029649468459021495 0 0.0021138059131948056 -0.0030019704692000422 0 0.0020101391758113947 -0.0029332318416364577 0 0.0021138059131948056 -0.0030019704692000422 0 0.0021436760232574131 -0.0028106730556038749 0 0.0020156133640697803 -0.0031138979964003702 0 0.0020101391758113947 -0.0029332318416364577 0 0.0021138059131948056 -0.0030019704692000422 0 0.002278621133510331 -0.0029649468459021495 0 0.0021138059131948056 -0.0030019704692000422 0 0.0021436760232574131 -0.0028106730556038749 0 0.0020101391758113947 -0.0029332318416364577 0 0.0021436760232574131 -0.0028106730556038749 0 0.0020414478671635572 -0.0026220018234962262 0 0.0022619177413918195 -0.0026897930154541638 0 0.0021436760232574131 -0.0028106730556038749 0 0.0020414478671635572 -0.0026220018234962262 0 0.0021303838775028794 -0.0025896408532415888 0 0.0022349780036223063 -0.0023369156618701882 0 0.0022619177413918195 -0.0026897930154541638 0 0.0023612883465770002 -0.0024740496643906916 0 0.0020414478671635572 -0.0026220018234962262 0 0.0023612883465770002 -0.0024740496643906916 0 0.0020414478671635572 -0.0026220018234962262 0 0.00219079299879869 -0.0022874559192911526 0 0.0021905382086470364 -0.002597659769929061 0 0.0021714984302623917 -0.0023460586636762566 0 0.0024260022133589508 -0.0022389697957401005 0 0.0024260022133589508 -0.0022389697957401005 0 0.0022614490731735219 -0.0020845990129381054 0 0.0026683032827885668 -0.0018222326840997107 0 0.0021714984302623917 -0.0023460586636762566 0 0.0024260022133589508 -0.0022389697957401005 0 0.0022614490731735219 -0.0020845990129381054 0 0.003514280826137208 -0.0013772739747010124 0 0.0033825207952418749 -0.0013801169761104703 0 0.0033628279012628682 -0.0015205637028019045 0 0.0029158400198988237 -0.001714305689288233 0 0.0026362492885394963 -0.0019309623222272746 0 0.0021714984302623917 -0.0023460586636762566 0 0.0022614490731735219 -0.0020845990129381054 0 0.0019105487466185376 -0.0023360405398754757 0 0.0019321550902309333 -0.0026691202642546248 0 0.0021905382086470364 -0.002597659769929061 0 0.0019105487466185376 -0.0023360405398754757 0 0.0021905382086470364 -0.002597659769929061 0 0.0021714984302623917 -0.0023460586636762566 0 0.0019105487466185376 -0.0023360405398754757 0 0.0033628279012628682 -0.0015205637028019045 0 0.0033002547172291305 -0.0015116224435022087 0 0.0032872908783668098 -0.001594661613098161 0 0.001766320968377894 -0.0026610205583592213 0 0.0019321550902309333 -0.0026691202642546248 0 0.0019105487466185376 -0.0023360405398754757 0 0.001766320968377894 -0.0026610205583592213 0 0.0019105487466185376 -0.0023360405398754757 0 0.0016272455299915726 -0.0025551563953862926 0 0.0026362492885394963 -0.0019309623222272746 0 0.0024330445979769393 -0.0020560483668558699 0 0.0033825207952418749 -0.0013801169761104703 0 0.0033628279012628682 -0.0015205637028019045 0 0.0033002547172291305 -0.0015116224435022087 0 0.0033825207952418749 -0.0013801169761104703 0 0.0033002547172291305 -0.0015116224435022087 0 0.0032189095905690297 -0.0013565992332556639 0 0.0034202837701585707 -0.0017034828750952273 0 0.0033118458006214033 -0.001608971781617812 0 0.0033362996501896409 -0.0017263259227469883 0 0.0033052230835391933 -0.0015930470862441613 0 0.0032903856330263174 -0.0015234463431858367 0 0.0033002547172291305 -0.0015116224435022087 0 0.0033118458006214033 -0.001608971781617812 0 0.0032189095905690297 -0.0013565992332556639 0 0.0033704372769197835 -0.0016133385102333516 0 0.0033118458006214033 -0.001608971781617812 0 0.0032872908783668098 -0.001594661613098161 0 0.0033002547172291305 -0.0015116224435022087 0 0.0033118458006214033 -0.001608971781617812 0 0.0032872908783668098 -0.001594661613098161 0 0.0033814227266226334 -0.0015288448487710115 0 0.0033704372769197835 -0.0016133385102333516 0 0.0032872908783668098 -0.001594661613098161 0 0.0034301586171347977 -0.0017984175591299386 0 0.0033362996501896409 -0.0017263259227469883 0 0.003377006150664105 -0.0018261119264255728 0 0.0034462143810873283 -0.0017462705495325751 0 0.0034301586171347977 -0.0017984175591299386 0 0.0033362996501896409 -0.0017263259227469883 0 0.0033825207952418749 -0.0013801169761104703 0 0.0032189095905690297 -0.0013565992332556639 0 0.003373536584924315 -0.001208056987839354 0 0.0032903856330263174 -0.0015234463431858367 0 0.0032643266661999859 -0.0014883126632220232 0 0.0033362996501896409 -0.0017263259227469883 0 0.0033203056911384568 -0.0018082887726864657 0 0.003377006150664105 -0.0018261119264255728 0 0.0032189095905690297 -0.0013565992332556639 0 0.0032561985472433991 -0.0010795870297801479 0 0.003373536584924315 -0.001208056987839354 0 0.0032561985472433991 -0.0010795870297801479 0 0.0033989412936103686 -0.0010641760411738681 0 0.003373536584924315 -0.001208056987839354 0 0.0033989412936103686 -0.0010641760411738681 0 0.0034728525218937108 -0.0011229885154086122 0 0.003474291677707817 -0.00099525304020319514 0 0.003373536584924315 -0.001208056987839354 0 0.0034600163705717645 -0.0012544273455959171 0 0.0034728525218937108 -0.0011229885154086122 0 0.0033989412936103686 -0.0010641760411738681 0 0.003373536584924315 -0.001208056987839354 0 0.0034728525218937108 -0.0011229885154086122 0 0.0033825207952418749 -0.0013801169761104703 0 0.003373536584924315 -0.001208056987839354 0 0.0034600163705717645 -0.0012544273455959171 0 0.003514280826137208 -0.0013772739747010124 0 0.0033825207952418749 -0.0013801169761104703 0 0.0034600163705717645 -0.0012544273455959171 0 0.003514280826137208 -0.0013772739747010124 0 0.0035555900212161885 -0.0011782689998931525 0 0.0036738124943995715 -0.0012245242691756107 0 0.003514280826137208 -0.0013772739747010124 0 0.0034600163705717645 -0.0012544273455959171 0 0.0035555900212161885 -0.0011782689998931525 0 0.0029158400198988237 -0.001714305689288233 0 0.0030316686289522028 -0.0016095794334812555 0 0.0035555900212161885 -0.0011782689998931525 0 0.0034728525218937108 -0.0011229885154086122 0 0.0035398659105508297 -0.0010315449673362206 0 0.0034600163705717645 -0.0012544273455959171 0 0.0035555900212161885 -0.0011782689998931525 0 0.0034728525218937108 -0.0011229885154086122 0 0.0034728525218937108 -0.0011229885154086122 0 0.0035398659105508297 -0.0010315449673362206 0 0.003474291677707817 -0.00099525304020319514 0 0.0035555900212161885 -0.0011782689998931525 0 0.0035398659105508297 -0.0010315449673362206 0 0.0036266692043767719 -0.0010567951672459891 0 0.0035398659105508297 -0.0010315449673362206 0 0.003474291677707817 -0.00099525304020319514 0 0.003548398545765598 -0.00091961203382526636 0 0.0035398659105508297 -0.0010315449673362206 0 0.003548398545765598 -0.00091961203382526636 0 0.0035907868908927726 -0.00097900636512321176 0 0.003474291677707817 -0.00099525304020319514 0 0.0034814406726422797 -0.00089681455217151176 0 0.003548398545765598 -0.00091961203382526636 0 0.003548398545765598 -0.00091961203382526636 0 0.0035506619491947867 -0.00078477699265477755 0 0.0036154297698459651 -0.00089434651836261181 0 0.0034814406726422797 -0.00089681455217151176 0 0.003548398545765598 -0.00091961203382526636 0 0.0035506619491947867 -0.00078477699265477755 0 0.0035506619491947867 -0.00078477699265477755 0 0.0034489141138613374 -0.0007709072014581152 0 0.0035284268618708007 -0.00071674146094552428 0 0.0035506619491947867 -0.00078477699265477755 0 0.003459275236142621 -0.00083483575843147889 0 0.0034489141138613374 -0.0007709072014581152 0 0.0034814406726422797 -0.00089681455217151176 0 0.0035506619491947867 -0.00078477699265477755 0 0.003459275236142621 -0.00083483575843147889 0 0.003459275236142621 -0.00083483575843147889 0 0.0033770838401043887 -0.00084589562246085417 0 0.0034314248911498416 -0.00088436595833170102 0 0.0036132592850926125 -0.00063932184329302795 0 0.0036148780143264239 -0.00063702151587406003 0 0.0036106314975184409 -0.00063251069104343848 0 0.0034489141138613374 -0.0007709072014581152 0 0.0033602635649731768 -0.00082559403953358184 0 0.0034719063557841897 -0.00069613578238053218 0 0.003459275236142621 -0.00083483575843147889 0 0.0034489141138613374 -0.0007709072014581152 0 0.0033770838401043887 -0.00084589562246085417 0 0.0034687954488364062 -0.0011639432336795874 0 0.0035663483589570889 -0.00059797088669871236 0 0.0034489141138613374 -0.0007709072014581152 0 0.0033602635649731768 -0.00082559403953358184 0 0.0033770838401043887 -0.00084589562246085417 0 0.0034687954488364062 -0.0011639432336795874 0 0.0034151121076264391 -0.001094108160005296 0 0.0032561985472433991 -0.0010795870297801479 0 0.0033523620270714716 -0.00082362890783971516 0 0.0033770838401043887 -0.00084589562246085417 0 0.0032561985472433991 -0.0010795870297801479 0 0.0033770838401043887 -0.00084589562246085417 0 0.0034032418802824507 -0.00095851321909976039 0 0.0033770838401043887 -0.00084589562246085417 0 0.0034314248911498416 -0.00088436595833170102 0 0.0034032418802824507 -0.00095851321909976039 0 0.0034814406726422797 -0.00089681455217151176 0 0.0034314248911498416 -0.00088436595833170102 0 0.0034032418802824507 -0.00095851321909976039 0 0.0034814406726422797 -0.00089681455217151176 0 0.003459275236142621 -0.00083483575843147889 0 0.0034314248911498416 -0.00088436595833170102 0 0.0033989412936103686 -0.0010641760411738681 0 0.003474291677707817 -0.00099525304020319514 0 0.0034032418802824507 -0.00095851321909976039 0 0.003474291677707817 -0.00099525304020319514 0 0.0034814406726422797 -0.00089681455217151176 0 0.0034032418802824507 -0.00095851321909976039 0 0.0032561985472433991 -0.0010795870297801479 0 0.0033989412936103686 -0.0010641760411738681 0 0.0034032418802824507 -0.00095851321909976039 0 0.0033203056911384568 -0.0018082887726864657 0 0.0033452998665062382 -0.001900018814844303 0 0.0033778479132185531 -0.0018789384618607106 0 0.0033203056911384568 -0.0018082887726864657 0 0.0032844236727748504 -0.0018957771058024542 0 0.0033452998665062382 -0.001900018814844303 0 0.0032643266661999859 -0.0014883126632220232 0 0.0034687954488364062 -0.0011639432336795874 0 0.0032844236727748504 -0.0018957771058024542 0 0.0033452998665062382 -0.001900018814844303 0 0.0033801564646315121 -0.0019830599523999602 0 0.0034687954488364062 -0.0011639432336795874 0 0.0034711041328790351 -0.0014035415720531311 0 0.0033452998665062382 -0.001900018814844303 0 0.003386510362832002 -0.001930181332281528 0 0.0033801564646315121 -0.0019830599523999602 0 0.0033452998665062382 -0.001900018814844303 0 0.003386510362832002 -0.001930181332281528 0 0.0033778479132185531 -0.0018789384618607106 0 0.003386510362832002 -0.001930181332281528 0 0.0034288355434024865 -0.0019171929545410376 0 0.0034159534184500357 -0.0019644218253212302 0 0.003386510362832002 -0.001930181332281528 0 0.0034288355434024865 -0.0019171929545410376 0 0.0033778479132185531 -0.0018789384618607106 0 0.0034353865146580557 -0.0018610613694786187 0 0.0034288355434024865 -0.0019171929545410376 0 0.0033778479132185531 -0.0018789384618607106 0 0.0033203056911384568 -0.0018082887726864657 0 0.0033778479132185531 -0.0018789384618607106 0 0.003377006150664105 -0.0018261119264255728 0 0.0034353865146580557 -0.0018610613694786187 0 0.0033778479132185531 -0.0018789384618607106 0 0.003377006150664105 -0.0018261119264255728 0 0.0034301586171347977 -0.0017984175591299386 0 0.0034353865146580557 -0.0018610613694786187 0 0.003377006150664105 -0.0018261119264255728 0 0.0029370463846102104 -0.0017739383182799376 0 0.0027936482291426421 -0.0018822515454075706 0 0.0026364004560801234 -0.0017720256100349453 0 0.0029370463846102104 -0.0017739383182799376 0 0.0026364004560801234 -0.0017720256100349453 0 0.0029052106189491333 -0.0015988203892442657 0 0.0037291875673009039 -0.0011954778187667817 0 0.0037808189007070953 -0.0010232802927837854 0 0.003956418633896115 -0.0010276307388602617 0 0.0031565720540278688 -0.0014964673730895322 0 0.0034517189539776338 -0.0013303852996935383 0 0.0031806744264169279 -0.0017051218555148777 0 0.0029370463846102104 -0.0017739383182799376 0 0.0029809421465597655 -0.0019503934350141908 0 0.0031806744264169279 -0.0017051218555148777 0 0.0029370463846102104 -0.0017739383182799376 0 0.0029052106189491333 -0.0015988203892442657 0 0.0032401567188940477 -0.0019774863624317175 0 0.0031806744264169279 -0.0017051218555148777 0 0.0029809421465597655 -0.0019503934350141908 0 0.0029783830646200335 -0.0022300428579463531 0 0.0029809421465597655 -0.0019503934350141908 0 0.0028758798604379544 -0.0020944217537768486 0 0.0032401567188940477 -0.0019774863624317175 0 0.0029783830646200335 -0.0022300428579463531 0 0.0029809421465597655 -0.0019503934350141908 0 0.0029809421465597655 -0.0019503934350141908 0 0.0028758798604379544 -0.0020944217537768486 0 0.002826428721400084 -0.0020010013674919926 0 0.0029370463846102104 -0.0017739383182799376 0 0.0029809421465597655 -0.0019503934350141908 0 0.0027936482291426421 -0.0018822515454075706 0 0.0029809421465597655 -0.0019503934350141908 0 0.002826428721400084 -0.0020010013674919926 0 0.0027936482291426421 -0.0018822515454075706 0 0.002826428721400084 -0.0020010013674919926 0 0.0027936482291426421 -0.0018822515454075706 0 0.0026447121721671976 -0.0019326613733172426 0 0.002826428721400084 -0.0020010013674919926 0 0.0027228130128403166 -0.0020694327424262272 0 0.0026447121721671976 -0.0019326613733172426 0 0.0028758798604379544 -0.0020944217537768486 0 0.002826428721400084 -0.0020010013674919926 0 0.0027228130128403166 -0.0020694327424262272 0 0.0030316686289522028 -0.0016095794334812555 0 0.0031565720540278688 -0.0014964673730895322 0 0.0026574942648038354 -0.0021921091006126053 0 0.0027228130128403166 -0.0020694327424262272 0 0.0025986295661824463 -0.0020541858845450336 0 0.0026447121721671976 -0.0019326613733172426 0 0.0023651115390011992 -0.0019501868554842833 0 0.0026364004560801234 -0.0017720256100349453 0 0.0027228130128403166 -0.0020694327424262272 0 0.0025986295661824463 -0.0020541858845450336 0 0.0026447121721671976 -0.0019326613733172426 0 0.0025986295661824463 -0.0020541858845450336 0 0.0026447121721671976 -0.0019326613733172426 0 0.0023651115390011992 -0.0019501868554842833 0 0.0025276801686552088 -0.0021572141521454891 0 0.0025986295661824463 -0.0020541858845450336 0 0.0023651115390011992 -0.0019501868554842833 0 0.0027936482291426421 -0.0018822515454075706 0 0.0026447121721671976 -0.0019326613733172426 0 0.0026364004560801234 -0.0017720256100349453 0 0.0035555900212161885 -0.0011782689998931525 0 0.0036738124943995715 -0.0012245242691756107 0 0.0036266692043767719 -0.0010567951672459891 0 0.0030316686289522028 -0.0016095794334812555 0 0.0037370943300112916 -0.00098175997388048539 0 0.0036738124943995715 -0.0012245242691756107 0 0.0036266692043767719 -0.0010567951672459891 0 0.0037336669726677979 -0.001033672442951047 0 0.0036266692043767719 -0.0010567951672459891 0 0.0037336669726677979 -0.001033672442951047 0 0.0036589859023052149 -0.00097817459985567973 0 0.0036266692043767719 -0.0010567951672459891 0 0.0035907868908927726 -0.00097900636512321176 0 0.0036589859023052149 -0.00097817459985567973 0 0.0035398659105508297 -0.0010315449673362206 0 0.0036266692043767719 -0.0010567951672459891 0 0.0035907868908927726 -0.00097900636512321176 0 0.0034471379251867344 -0.0013787877517755696 0 0.0037291875673009039 -0.0011954778187667817 0 0.0036139665177395189 -0.0010947193288881004 0 0.0037291875673009039 -0.0011954778187667817 0 0.0036139665177395189 -0.0010947193288881004 0 0.0037808189007070953 -0.0010232802927837854 0 0.0036139665177395189 -0.0010947193288881004 0 0.0037808189007070953 -0.0010232802927837854 0 0.0037780280952013157 -0.00086033029488444593 0 0.0037370943300112916 -0.00098175997388048539 0 0.0037475628019898594 -0.0009169409025617766 0 0.0037336669726677979 -0.001033672442951047 0 0.0036864910253540301 -0.00091451532313584802 0 0.0037780280952013157 -0.00086033029488444593 0 0.0037336669726677979 -0.001033672442951047 0 0.0036864910253540301 -0.00091451532313584802 0 0.0036589859023052149 -0.00097817459985567973 0 0.0036864910253540301 -0.00091451532313584802 0 0.0037780280952013157 -0.00086033029488444593 0 0.0036397150846893666 -0.00080639267353761919 0 0.003548398545765598 -0.00091961203382526636 0 0.0035907868908927726 -0.00097900636512321176 0 0.0036154297698459651 -0.00089434651836261181 0 0.0035907868908927726 -0.00097900636512321176 0 0.0036589859023052149 -0.00097817459985567973 0 0.0036154297698459651 -0.00089434651836261181 0 0.0036864910253540301 -0.00091451532313584802 0 0.0036589859023052149 -0.00097817459985567973 0 0.0036154297698459651 -0.00089434651836261181 0 0.0036864910253540301 -0.00091451532313584802 0 0.0036154297698459651 -0.00089434651836261181 0 0.0036397150846893666 -0.00080639267353761919 0 0.0035506619491947867 -0.00078477699265477755 0 0.0036397150846893666 -0.00080639267353761919 0 0.0036246225158871699 -0.00065564392358567292 0 0.0035506619491947867 -0.00078477699265477755 0 0.0036246225158871699 -0.00065564392358567292 0 0.0035853259663421152 -0.00066532452528766755 0 0.0035506619491947867 -0.00078477699265477755 0 0.0036154297698459651 -0.00089434651836261181 0 0.0036397150846893666 -0.00080639267353761919 0 0.0037780280952013157 -0.00086033029488444593 0 0.0036246225158871699 -0.00065564392358567292 0 0.003902892159212776 -0.00077481108862977326 0 0.0036049030518370308 -0.00064061789414220701 0 0.0037128253285020557 -0.00062874261786240138 0 0.0037780280952013157 -0.00086033029488444593 0 0.0036397150846893666 -0.00080639267353761919 0 0.0036246225158871699 -0.00065564392358567292 0 0.0034214084936706637 -0.00047597662124532008 0 0.0032751405768610214 -0.00051547848023617709 0 0.0034485547044464898 -0.00061798677078425462 0 0.0036246225158871699 -0.00065564392358567292 0 0.0034214084936706637 -0.00047597662124532008 0 0.0034485547044464898 -0.00061798677078425462 0 0.0037808189007070953 -0.0010232802927837854 0 0.0037780280952013157 -0.00086033029488444593 0 0.0039080612360081497 -0.00090978246622263638 0 0.0037780280952013157 -0.00086033029488444593 0 0.003902892159212776 -0.00077481108862977326 0 0.0039080612360081497 -0.00090978246622263638 0 0.0037808189007070953 -0.0010232802927837854 0 0.0039080612360081497 -0.00090978246622263638 0 0.003956418633896115 -0.0010276307388602617 0 0.0031806744264169279 -0.0017051218555148777 0 0.0029052106189491333 -0.0015988203892442657 0 0.0031654100610952057 -0.0014327792352968082 0 0.003902892159212776 -0.00077481108862977326 0 0.0039080612360081497 -0.00090978246622263638 0 0.0041525945676070212 -0.00089177053597698237 0 0.0034517189539776338 -0.0013303852996935383 0 0.0033754450800559019 -0.00076562904719281832 0 0.0039080612360081497 -0.00090978246622263638 0 0.003956418633896115 -0.0010276307388602617 0 0.0041525945676070212 -0.00089177053597698237 0 0.0037128253285020557 -0.00062874261786240138 0 0.0033754450800559019 -0.00076562904719281832 0 0.0034214084936706637 -0.00047597662124532008 0 0.0032131345220134584 -0.00037665357642751847 0 0.0032751405768610214 -0.00051547848023617709 0 0.0032751405768610214 -0.00051547848023617709 0 0.0032537037222996014 -0.0006395374385516463 0 0.0034485547044464898 -0.00061798677078425462 0 0.0032537037222996014 -0.0006395374385516463 0 0.00346141552540248 -0.00069029085961803125 0 0.0032582190240976719 -0.00073057930882242854 0 0.0032537037222996014 -0.0006395374385516463 0 0.00346141552540248 -0.00069029085961803125 0 0.0034485547044464898 -0.00061798677078425462 0 0.00346141552540248 -0.00069029085961803125 0 0.0034485547044464898 -0.00061798677078425462 0 0.0035741132082661117 -0.00065964070226110373 0 0.0036246225158871699 -0.00065564392358567292 0 0.0034485547044464898 -0.00061798677078425462 0 0.0035741132082661117 -0.00065964070226110373 0 0.0036246225158871699 -0.00065564392358567292 0 0.0035853259663421152 -0.00066532452528766755 0 0.0035741132082661117 -0.00065964070226110373 0 0.0035853259663421152 -0.00066532452528766755 0 0.0035967186099990687 -0.00064958730745207278 0 0.0035741132082661117 -0.00065964070226110373 0 0.0035967186099990687 -0.00064958730745207278 0 0.0035741132082661117 -0.00065964070226110373 0 0.0035962258545691708 -0.00067052721735283167 0 0.00346141552540248 -0.00069029085961803125 0 0.0035741132082661117 -0.00065964070226110373 0 0.0035962258545691708 -0.00067052721735283167 0 0.0034688896745900255 -0.00068187757043377444 0 0.0035461740852661184 -0.00068393755463511195 0 0.003505424135398766 -0.00070298594493036664 0 0.0034634631167495705 -0.00073875279652913265 0 0.0033651411620399013 -0.00077085766826415832 0 0.00346141552540248 -0.00069029085961803125 0 0.003505424135398766 -0.00070298594493036664 0 0.0033651411620399013 -0.00077085766826415832 0 0.0035967186099990687 -0.00064958730745207278 0 0.0035962258545691708 -0.00067052721735283167 0 0.0036201592022108405 -0.0006357102336328192 0 0.0035461740852661184 -0.00068393755463511195 0 0.0035992504789138023 -0.00063032480455777926 0 0.003505424135398766 -0.00070298594493036664 0 0.0035426226502853933 -0.00065326489954797406 0 0.0035077846111697241 -0.00069546742780831196 0 0.003505424135398766 -0.00070298594493036664 0 0.0034634631167495705 -0.00073875279652913265 0 0.0035077846111697241 -0.00069546742780831196 0 0.0033651411620399013 -0.00077085766826415832 0 0.0032563355516663536 -0.00088046415408772681 0 0.0031075024879484562 -0.00083214663625526047 0 0.0033651411620399013 -0.00077085766826415832 0 0.0032582190240976719 -0.00073057930882242854 0 0.0031075024879484562 -0.00083214663625526047 0 0.00346141552540248 -0.00069029085961803125 0 0.0033651411620399013 -0.00077085766826415832 0 0.0032582190240976719 -0.00073057930882242854 0 0.0036114079302687631 -0.00063304528741155955 0 0.0036157075494982955 -0.000641130111797246 0 0.0036174624978828674 -0.00063504500631752581 0 0.0035966732305312476 -0.00063337198503410938 0 0.0036114079302687631 -0.00063304528741155955 0 0.0036093453684252082 -0.00062187649363055824 0 0.0035966732305312476 -0.00063337198503410938 0 0.0036114079302687631 -0.00063304528741155955 0 0.0036157075494982955 -0.000641130111797246 0 0.0034665003103553039 -0.0020246519702852564 0 0.0034080490104649148 -0.0019931948370822865 0 0.0033801564646315121 -0.0019830599523999602 0 0.003786830058191163 -0.00083641875122458982 0 0.0034711041328790351 -0.0014035415720531311 0 0.0036114079302687631 -0.00063304528741155955 0 0.0036207957720289629 -0.00062741304908677062 0 0.0036093453684252082 -0.00062187649363055824 0 0.0036114079302687631 -0.00063304528741155955 0 0.0036174624978828674 -0.00063504500631752581 0 0.0036207957720289629 -0.00062741304908677062 0 0.0034551099075153333 -0.0019881628823966522 0 0.0034080490104649148 -0.0019931948370822865 0 0.0034159534184500357 -0.0019644218253212302 0 0.0034080490104649148 -0.0019931948370822865 0 0.0034159534184500357 -0.0019644218253212302 0 0.0033801564646315121 -0.0019830599523999602 0 0.003386510362832002 -0.001930181332281528 0 0.0034159534184500357 -0.0019644218253212302 0 0.0033801564646315121 -0.0019830599523999602 0 0.0036157075494982955 -0.000641130111797246 0 0.0036171989881093334 -0.00063611964283588987 0 0.0036174624978828674 -0.00063504500631752581 0 0.0036132592850926125 -0.00063932184329302795 0 0.0036157075494982955 -0.000641130111797246 0 0.0036148780143264239 -0.00063702151587406003 0 0.0036157075494982955 -0.000641130111797246 0 0.0036148780143264239 -0.00063702151587406003 0 0.0036171989881093334 -0.00063611964283588987 0 0.0036148780143264239 -0.00063702151587406003 0 0.0036171989881093334 -0.00063611964283588987 0 0.003614425257143521 -0.00063283833622357582 0 0.0036171989881093334 -0.00063611964283588987 0 0.0036210926025212154 -0.00063352781098169613 0 0.003614425257143521 -0.00063283833622357582 0 0.0036210926025212154 -0.00063352781098169613 0 0.0036292234579014429 -0.00062832187399421396 0 0.0036207957720289629 -0.00062741304908677062 0 0.0036171989881093334 -0.00063611964283588987 0 0.0036210926025212154 -0.00063352781098169613 0 0.0036174624978828674 -0.00063504500631752581 0 0.0036210926025212154 -0.00063352781098169613 0 0.0036174624978828674 -0.00063504500631752581 0 0.0036207957720289629 -0.00062741304908677062 0 0.0036210926025212154 -0.00063352781098169613 0 0.0035893628344238373 -0.00063451294970809325 0 0.0036292234579014429 -0.00062832187399421396 0 0.0036210926025212154 -0.00063352781098169613 0 0.003614425257143521 -0.00063283833622357582 0 0.0035893628344238373 -0.00063451294970809325 0 0.003614425257143521 -0.00063283833622357582 0 0.0036106314975184409 -0.00063251069104343848 0 0.0035893628344238373 -0.00063451294970809325 0 0.0035663483589570889 -0.00059797088669871236 0 0.0035654781378278194 -0.00066663099055610153 0 0.0036148780143264239 -0.00063702151587406003 0 0.003614425257143521 -0.00063283833622357582 0 0.0036106314975184409 -0.00063251069104343848 0 0.0034489141138613374 -0.0007709072014581152 0 0.0034719063557841897 -0.00069613578238053218 0 0.0035284268618708007 -0.00071674146094552428 0 0.0034719063557841897 -0.00069613578238053218 0 0.0035284268618708007 -0.00071674146094552428 0 0.0035893628344238373 -0.00063451294970809325 0 0.0035506619491947867 -0.00078477699265477755 0 0.0035853259663421152 -0.00066532452528766755 0 0.0035284268618708007 -0.00071674146094552428 0 0.0035853259663421152 -0.00066532452528766755 0 0.0035284268618708007 -0.00071674146094552428 0 0.0035893628344238373 -0.00063451294970809325 0 0.0035853259663421152 -0.00066532452528766755 0 0.0035967186099990687 -0.00064958730745207278 0 0.0035893628344238373 -0.00063451294970809325 0 0.0035967186099990687 -0.00064958730745207278 0 0.0035893628344238373 -0.00063451294970809325 0 0.0036201592022108405 -0.0006357102336328192 0 0.0036201592022108405 -0.0006357102336328192 0 0.0036496718759720108 -0.00061030121037440425 0 0.0036491742727510893 -0.00060874074161334937 0 0.0035962258545691708 -0.00067052721735283167 0 0.0036201592022108405 -0.0006357102336328192 0 0.0036496718759720108 -0.00061030121037440425 0 0.0036491742727510893 -0.00060874074161334937 0 0.0036292234579014429 -0.00062832187399421396 0 0.0036469851226878141 -0.00059031570939538413 0 0.0036201592022108405 -0.0006357102336328192 0 0.0036491742727510893 -0.00060874074161334937 0 0.0036292234579014429 -0.00062832187399421396 0 0.0035893628344238373 -0.00063451294970809325 0 0.0036201592022108405 -0.0006357102336328192 0 0.0036292234579014429 -0.00062832187399421396 0 0.0036207957720289629 -0.00062741304908677062 0 0.0036469851226878141 -0.00059031570939538413 0 0.0036174054774504353 -0.0006098518910990175 0 0.0036292234579014429 -0.00062832187399421396 0 0.0036207957720289629 -0.00062741304908677062 0 0.0036469851226878141 -0.00059031570939538413 0 0.003595885390545262 -0.0005961003342934522 0 0.0036469851226878141 -0.00059031570939538413 0 0.0036174054774504353 -0.0006098518910990175 0 0.003595885390545262 -0.0005961003342934522 0 0.0036469851226878141 -0.00059031570939538413 0 0.0036180181275578499 -0.00051968126203294691 0 0.003595885390545262 -0.0005961003342934522 0 0.0036174054774504353 -0.0006098518910990175 0 0.0036093453684252082 -0.00062187649363055824 0 0.0036207957720289629 -0.00062741304908677062 0 0.0036174054774504353 -0.0006098518910990175 0 0.0036093453684252082 -0.00062187649363055824 0 0.003766999459193458 -0.00036122605600744085 0 0.0037714705331154835 -0.00035037949032718408 0 0.0040095892632824974 -0.00028113871865778281 0 0.0039277830077530003 -0.00013941321363178033 0 0.0037730741323166866 -0.00035358470555653686 0 0.0036180181275578499 -0.00051968126203294691 0 0.0037041127963991318 -0.00047473234597941304 0 0.0037730741323166866 -0.00035358470555653686 0 0.0038234660395984484 -0.00019754894917047665 0 0.003766999459193458 -0.00036122605600744085 0 0.0036469851226878141 -0.00059031570939538413 0 0.0036180181275578499 -0.00051968126203294691 0 0.0037041127963991318 -0.00047473234597941304 0 0.0036469851226878141 -0.00059031570939538413 0 0.0037041127963991318 -0.00047473234597941304 0 0.0037044069913113142 -0.00052251639494564281 0 0.003664024565356477 -0.0005376803750973293 0 0.0037716946647311021 -0.00041436948369980329 0 0.0036209108781141892 -0.00055971272307156342 0 0.0037034105556281683 -0.00050734510775537632 0 0.0037635214916819219 -0.00046354367008779289 0 0.0037041127963991318 -0.00047473234597941304 0 0.0037044069913113142 -0.00052251639494564281 0 0.003759777615618656 -0.00035852959693985948 0 0.0037041127963991318 -0.00047473234597941304 0 0.003759777615618656 -0.00035852959693985948 0 0.0037730741323166866 -0.00035358470555653686 0 0.0036209108781141892 -0.00055971272307156342 0 0.0036562901986915818 -0.00053965635246937824 0 0.0037034105556281683 -0.00050734510775537632 0 0.0036209108781141892 -0.00055971272307156342 0 0.0035963637044265453 -0.00058389436687042299 0 0.0036562901986915818 -0.00053965635246937824 0 0.0035992504789138023 -0.00063032480455777926 0 0.003664024565356477 -0.0005376803750973293 0 0.0036496718759720108 -0.00061030121037440425 0 0.0036491742727510893 -0.00060874074161334937 0 0.0037044069913113142 -0.00052251639494564281 0 0.0036491742727510893 -0.00060874074161334937 0 0.0036469851226878141 -0.00059031570939538413 0 0.0037044069913113142 -0.00052251639494564281 0 0.0035426226502853933 -0.00065326489954797406 0 0.0036209108781141892 -0.00055971272307156342 0 0.0035503990496965998 -0.00063053166125227162 0 0.0035963637044265453 -0.00058389436687042299 0 0.0035503990496965998 -0.00063053166125227162 0 0.0035439852573721535 -0.00062367650022474399 0 0.0036209108781141892 -0.00055971272307156342 0 0.0035963637044265453 -0.00058389436687042299 0 0.0035503990496965998 -0.00063053166125227162 0 0.0035963637044265453 -0.00058389436687042299 0 0.0035863924153527972 -0.00059460347165290117 0 0.0035439852573721535 -0.00062367650022474399 0 0.0035963637044265453 -0.00058389436687042299 0 0.0036264864321573762 -0.00056698834484632233 0 0.0035863924153527972 -0.00059460347165290117 0 0.0036264864321573762 -0.00056698834484632233 0 0.0035863924153527972 -0.00059460347165290117 0 0.0036076592625085696 -0.00058660612946975874 0 0.0035863924153527972 -0.00059460347165290117 0 0.0036076592625085696 -0.00058660612946975874 0 0.0035687393112041562 -0.00061089861356811485 0 0.0036017054465752492 -0.00059867477280712005 0 0.0036076592625085696 -0.00058660612946975874 0 0.0035687393112041562 -0.00061089861356811485 0 0.0036017054465752492 -0.00059867477280712005 0 0.0035818051600420039 -0.00061109119937492729 0 0.0035687393112041562 -0.00061089861356811485 0 0.0036017054465752492 -0.00059867477280712005 0 0.0036279247866835415 -0.00059454271042852828 0 0.0035987552264296922 -0.00061034820522572252 0 0.0036017054465752492 -0.00059867477280712005 0 0.0035818051600420039 -0.00061109119937492729 0 0.0035987552264296922 -0.00061034820522572252 0 0.0036279247866835415 -0.00059454271042852828 0 0.0036276308793316094 -0.00058280236654045141 0 0.0036599093255617536 -0.00057041337633540465 0 0.0036017054465752492 -0.00059867477280712005 0 0.0036279247866835415 -0.00059454271042852828 0 0.0036276308793316094 -0.00058280236654045141 0 0.0036017054465752492 -0.00059867477280712005 0 0.0036276308793316094 -0.00058280236654045141 0 0.0036076592625085696 -0.00058660612946975874 0 0.0036264864321573762 -0.00056698834484632233 0 0.0036076592625085696 -0.00058660612946975874 0 0.0036438686591050299 -0.00056602396941647887 0 0.0036276308793316094 -0.00058280236654045141 0 0.0036076592625085696 -0.00058660612946975874 0 0.0036438686591050299 -0.00056602396941647887 0 0.0036264864321573762 -0.00056698834484632233 0 0.0036438686591050299 -0.00056602396941647887 0 0.0036701418493051453 -0.00054337016516733038 0 0.0036720140433551566 -0.00055300688827629734 0 0.0036438686591050299 -0.00056602396941647887 0 0.0036701418493051453 -0.00054337016516733038 0 0.0036720140433551566 -0.00055300688827629734 0 0.0036438686591050299 -0.00056602396941647887 0 0.0036599093255617536 -0.00057041337633540465 0 0.0036599093255617536 -0.00057041337633540465 0 0.0037060018206977116 -0.0005622083783724521 0 0.0036607173250774866 -0.0005873122718320935 0 0.0036276308793316094 -0.00058280236654045141 0 0.0036438686591050299 -0.00056602396941647887 0 0.0036599093255617536 -0.00057041337633540465 0 0.0036720140433551566 -0.00055300688827629734 0 0.0036599093255617536 -0.00057041337633540465 0 0.0036950901246114061 -0.00054939050327625582 0 0.0036279247866835415 -0.00059454271042852828 0 0.0036599093255617536 -0.00057041337633540465 0 0.0036607173250774866 -0.0005873122718320935 0 0.0037307870213973472 -0.00053348313163917673 0 0.003758387837667688 -0.00053823351932065554 0 0.0037060018206977116 -0.0005622083783724521 0 0.0036950901246114061 -0.00054939050327625582 0 0.0037307870213973472 -0.00053348313163917673 0 0.0037060018206977116 -0.0005622083783724521 0 0.0036599093255617536 -0.00057041337633540465 0 0.0036950901246114061 -0.00054939050327625582 0 0.0037060018206977116 -0.0005622083783724521 0 0.0036950901246114061 -0.00054939050327625582 0 0.0037056632300686543 -0.00053272709704962212 0 0.0037307870213973472 -0.00053348313163917673 0 0.0037056632300686543 -0.00053272709704962212 0 0.0036701418493051453 -0.00054337016516733038 0 0.0037256195663462948 -0.00050736142951386307 0 0.0036720140433551566 -0.00055300688827629734 0 0.0036950901246114061 -0.00054939050327625582 0 0.0037056632300686543 -0.00053272709704962212 0 0.0036720140433551566 -0.00055300688827629734 0 0.0037056632300686543 -0.00053272709704962212 0 0.0036701418493051453 -0.00054337016516733038 0 0.0036701418493051453 -0.00054337016516733038 0 0.0036562901986915818 -0.00053965635246937824 0 0.0037256195663462948 -0.00050736142951386307 0 0.0036264864321573762 -0.00056698834484632233 0 0.0036701418493051453 -0.00054337016516733038 0 0.0036562901986915818 -0.00053965635246937824 0 0.0035963637044265453 -0.00058389436687042299 0 0.0036264864321573762 -0.00056698834484632233 0 0.0036562901986915818 -0.00053965635246937824 0 0.0036562901986915818 -0.00053965635246937824 0 0.0037034105556281683 -0.00050734510775537632 0 0.0037256195663462948 -0.00050736142951386307 0 0.0037034105556281683 -0.00050734510775537632 0 0.0037635214916819219 -0.00046354367008779289 0 0.0037418570373558874 -0.00048915078583595918 0 0.0037635214916819219 -0.00046354367008779289 0 0.0037749845580671211 -0.00048158521452470332 0 0.0038559388204451508 -0.00045909790419931037 0 0.0037635214916819219 -0.00046354367008779289 0 0.0037749845580671211 -0.00048158521452470332 0 0.0037418570373558874 -0.00048915078583595918 0 0.0037749845580671211 -0.00048158521452470332 0 0.0037256195663462948 -0.00050736142951386307 0 0.0037631079850178732 -0.00049749542183735902 0 0.0037749845580671211 -0.00048158521452470332 0 0.0037418570373558874 -0.00048915078583595918 0 0.0037256195663462948 -0.00050736142951386307 0 0.0037034105556281683 -0.00050734510775537632 0 0.0037418570373558874 -0.00048915078583595918 0 0.0037256195663462948 -0.00050736142951386307 0 0.0037056632300686543 -0.00053272709704962212 0 0.0037256195663462948 -0.00050736142951386307 0 0.0037473626122552233 -0.00051350561196923845 0 0.0037256195663462948 -0.00050736142951386307 0 0.0037631079850178732 -0.00049749542183735902 0 0.0037473626122552233 -0.00051350561196923845 0 0.0037056632300686543 -0.00053272709704962212 0 0.0037473626122552233 -0.00051350561196923845 0 0.0037307870213973472 -0.00053348313163917673 0 0.0037473626122552233 -0.00051350561196923845 0 0.0037307870213973472 -0.00053348313163917673 0 0.0037811165958819225 -0.00051421250565049327 0 0.0037307870213973472 -0.00053348313163917673 0 0.0037811165958819225 -0.00051421250565049327 0 0.003758387837667688 -0.00053823351932065554 0 0.0037811165958819225 -0.00051421250565049327 0 0.0038361098303803542 -0.00051060027464074238 0 0.003758387837667688 -0.00053823351932065554 0 0.0037811165958819225 -0.00051421250565049327 0 0.0038063151363457075 -0.00048962837441786659 0 0.0038361098303803542 -0.00051060027464074238 0 0.0037749845580671211 -0.00048158521452470332 0 0.0038063151363457075 -0.00048962837441786659 0 0.0038559388204451508 -0.00045909790419931037 0 0.0037473626122552233 -0.00051350561196923845 0 0.0037811165958819225 -0.00051421250565049327 0 0.0038063151363457075 -0.00048962837441786659 0 0.0037749845580671211 -0.00048158521452470332 0 0.0037631079850178732 -0.00049749542183735902 0 0.0038063151363457075 -0.00048962837441786659 0 0.0037631079850178732 -0.00049749542183735902 0 0.0037473626122552233 -0.00051350561196923845 0 0.0038063151363457075 -0.00048962837441786659 0 0.0038063151363457075 -0.00048962837441786659 0 0.0039142573278538343 -0.0004688997236508782 0 0.0038361098303803542 -0.00051060027464074238 0 0.0038063151363457075 -0.00048962837441786659 0 0.0038559388204451508 -0.00045909790419931037 0 0.0039142573278538343 -0.0004688997236508782 0 0.0040116112908054743 -0.00040589188700941467 0 0.0038559388204451508 -0.00045909790419931037 0 0.0039142573278538343 -0.0004688997236508782 0 0.0040116112908054743 -0.00040589188700941467 0 0.0037635214916819219 -0.00046354367008779289 0 0.0038559388204451508 -0.00045909790419931037 0 0.0040095892632824974 -0.00028113871865778281 0 0.0040116112908054743 -0.00040589188700941467 0 0.0037730741323166866 -0.00035358470555653686 0 0.0040116112908054743 -0.00040589188700941467 0 0.003759777615618656 -0.00035852959693985948 0 0.0037730741323166866 -0.00035358470555653686 0 0.0039844110460343458 -0.00042306239746406203 0 0.0037716946647311021 -0.00041436948369980329 0 0.003453021908690406 -0.00079202765377025803 0 0.0034880105032024816 -0.00067785378630219649 0 0.003464735478793504 -0.00069050308058521903 0 0.003478467360293998 -0.00069980317942908859 0 0.003453021908690406 -0.00079202765377025803 0 0.003464735478793504 -0.00069050308058521903 0 0.0033692651642004234 -0.00088969297421161696 0 0.0034406915562421093 -0.00080484755313892727 0 0.0032713673624612033 -0.0010473277165192457 0 0.0032563355516663536 -0.00088046415408772681 0 0.003453021908690406 -0.00079202765377025803 0 0.0032713673624612033 -0.0010473277165192457 0 0.0032563355516663536 -0.00088046415408772681 0 0.0031443544978000519 -0.0010334606772401211 0 0.0033651411620399013 -0.00077085766826415832 0 0.0032563355516663536 -0.00088046415408772681 0 0.003453021908690406 -0.00079202765377025803 0 0.0034634631167495705 -0.00073875279652913265 0 0.0033651411620399013 -0.00077085766826415832 0 0.003453021908690406 -0.00079202765377025803 0 0.0034634631167495705 -0.00073875279652913265 0 0.003453021908690406 -0.00079202765377025803 0 0.0035077846111697241 -0.00069546742780831196 0 0.0035426226502853933 -0.00065326489954797406 0 0.0035077846111697241 -0.00069546742780831196 0 0.0035503990496965998 -0.00063053166125227162 0 0.0035503990496965998 -0.00063053166125227162 0 0.0034880105032024816 -0.00067785378630219649 0 0.0035439852573721535 -0.00062367650022474399 0 0.0035077846111697241 -0.00069546742780831196 0 0.0035503990496965998 -0.00063053166125227162 0 0.0034880105032024816 -0.00067785378630219649 0 0.003453021908690406 -0.00079202765377025803 0 0.0035077846111697241 -0.00069546742780831196 0 0.0034880105032024816 -0.00067785378630219649 0 0.0034880105032024816 -0.00067785378630219649 0 0.0035054076531026335 -0.00064857515523985925 0 0.0035439852573721535 -0.00062367650022474399 0 0.0034880105032024816 -0.00067785378630219649 0 0.0035054076531026335 -0.00064857515523985925 0 0.0034793337793113835 -0.00065386669965307204 0 0.0034880105032024816 -0.00067785378630219649 0 0.0034793337793113835 -0.00065386669965307204 0 0.003464735478793504 -0.00069050308058521903 0 0.0035054076531026335 -0.00064857515523985925 0 0.0035439852573721535 -0.00062367650022474399 0 0.0035357066680510186 -0.00063092812949777925 0 0.0035863924153527972 -0.00059460347165290117 0 0.0035439852573721535 -0.00062367650022474399 0 0.0035687393112041562 -0.00061089861356811485 0 0.0035439852573721535 -0.00062367650022474399 0 0.0035687393112041562 -0.00061089861356811485 0 0.0035357066680510186 -0.00063092812949777925 0 0.0035687393112041562 -0.00061089861356811485 0 0.0035357066680510186 -0.00063092812949777925 0 0.0035464927053152281 -0.00062721350555727752 0 0.0035357066680510186 -0.00063092812949777925 0 0.0035464927053152281 -0.00062721350555727752 0 0.0035259525623470116 -0.00063763079863250218 0 0.0035464927053152281 -0.00062721350555727752 0 0.0035259525623470116 -0.00063763079863250218 0 0.0035482985705695626 -0.00063243863386742516 0 0.0035464927053152281 -0.00062721350555727752 0 0.0035643683885363516 -0.00062329524903096572 0 0.0035482985705695626 -0.00063243863386742516 0 0.0035687393112041562 -0.00061089861356811485 0 0.0035464927053152281 -0.00062721350555727752 0 0.0035643683885363516 -0.00062329524903096572 0 0.0035818051600420039 -0.00061109119937492729 0 0.0035687393112041562 -0.00061089861356811485 0 0.0035643683885363516 -0.00062329524903096572 0 0.0035054076531026335 -0.00064857515523985925 0 0.0034793337793113835 -0.00065386669965307204 0 0.0035259525623470116 -0.00063763079863250218 0 0.0035054076531026335 -0.00064857515523985925 0 0.0035357066680510186 -0.00063092812949777925 0 0.0035259525623470116 -0.00063763079863250218 0 0.0034793337793113835 -0.00065386669965307204 0 0.0034820575010080278 -0.00067098572778231838 0 0.0034684383234074843 -0.00067660788705649723 0 0.0034805295020810564 -0.00064135723632934949 0 0.003511106065548001 -0.00067313149300164004 0 0.0034150198232371525 -0.00063829701043584925 0 0.0033419168700386304 -0.00060842737432328833 0 0.0034793337793113835 -0.00065386669965307204 0 0.0034161414974841994 -0.00063704469341793789 0 0.0034684383234074843 -0.00067660788705649723 0 0.0034793337793113835 -0.00065386669965307204 0 0.003464735478793504 -0.00069050308058521903 0 0.0034519814225576623 -0.00066813515378903884 0 0.0034793337793113835 -0.00065386669965307204 0 0.0034519814225576623 -0.00066813515378903884 0 0.0034161414974841994 -0.00063704469341793789 0 0.003478467360293998 -0.00069980317942908859 0 0.003464735478793504 -0.00069050308058521903 0 0.0034519814225576623 -0.00066813515378903884 0 0.003478467360293998 -0.00069980317942908859 0 0.0034519814225576623 -0.00066813515378903884 0 0.0034831483652589096 -0.00066970384011293225 0 0.0034519814225576623 -0.00066813515378903884 0 0.0034760614083380287 -0.00064316680804064614 0 0.0034831483652589096 -0.00066970384011293225 0 0.0034519814225576623 -0.00066813515378903884 0 0.0034161414974841994 -0.00063704469341793789 0 0.0034760614083380287 -0.00064316680804064614 0 0.0034161414974841994 -0.00063704469341793789 0 0.0034760614083380287 -0.00064316680804064614 0 0.0034341651701019077 -0.00056258081200238777 0 0.0034760614083380287 -0.00064316680804064614 0 0.0035076696416188953 -0.00061117989589073876 0 0.0034341651701019077 -0.00056258081200238777 0 0.0035076696416188953 -0.00061117989589073876 0 0.0035288767160798645 -0.00057134146410413832 0 0.0034341651701019077 -0.00056258081200238777 0 0.0034760614083380287 -0.00064316680804064614 0 0.0035152270113296426 -0.0006345016310456401 0 0.0035024051869164663 -0.00065650176298621607 0 0.0034760614083380287 -0.00064316680804064614 0 0.0035152270113296426 -0.0006345016310456401 0 0.0035076696416188953 -0.00061117989589073876 0 0.0035152270113296426 -0.0006345016310456401 0 0.0035076696416188953 -0.00061117989589073876 0 0.0035325811025486409 -0.0006149713206672604 0 0.0035076696416188953 -0.00061117989589073876 0 0.0035325811025486409 -0.0006149713206672604 0 0.0035288767160798645 -0.00057134146410413832 0 0.0031155801403945386 -0.00020163265254928927 0 0.0033139964738753392 -0.00032780412638089561 0 0.0033187744660508611 -0.00029062486769742917 0 0.0031785994783221539 -0.00016628103605060722 0 0.0031155801403945386 -0.00020163265254928927 0 0.0033187744660508611 -0.00029062486769742917 0 0.0024465929272989555 -0.00010459077245440169 0 0.0035830732653285833 -0.00040849042610021096 0 0.0029738524113146511 -0.0004628678532028867 0 0.0034755159606215569 -0.00044896841919976252 0 0.0035325811025486409 -0.0006149713206672604 0 0.0035774039472021304 -0.00064977167265605081 0 0.0035288767160798645 -0.00057134146410413832 0 0.0031874836138068865 -0.00021039551482311878 0 0.0032377845007634364 -0.00029301333898116053 0 0.0033139964738753392 -0.00032780412638089561 0 0.0035325811025486409 -0.0006149713206672604 0 0.0035382144710180649 -0.00063690757691012235 0 0.0035774039472021304 -0.00064977167265605081 0 0.0035152270113296426 -0.0006345016310456401 0 0.0035325811025486409 -0.0006149713206672604 0 0.0035382144710180649 -0.00063690757691012235 0 0.0035152270113296426 -0.0006345016310456401 0 0.0035382144710180649 -0.00063690757691012235 0 0.0035269519612023785 -0.00065615734259478 0 0.0035269519612023785 -0.00065615734259478 0 0.0035774039472021304 -0.00064977167265605081 0 0.0035193926240449924 -0.00067863604094463867 0 0.0035382144710180649 -0.00063690757691012235 0 0.0035269519612023785 -0.00065615734259478 0 0.0035774039472021304 -0.00064977167265605081 0 0.0032552065868578233 -0.00077262507724447393 0 0.00286137930616837 -0.00083501072040423905 0 0.0028497935562766682 -0.00081120371589578431 0 0.0031666543391478726 -0.0006359047698411153 0 0.0027357250535919482 -0.00046159643407149553 0 0.0029738524113146511 -0.0004628678532028867 0 0.0032552065868578233 -0.00077262507724447393 0 0.003478467360293998 -0.00069980317942908859 0 0.003512685518671255 -0.00067596696729046611 0 0.0035093664184769344 -0.0006745897111973591 0 0.003478467360293998 -0.00069980317942908859 0 0.0034831483652589096 -0.00066970384011293225 0 0.0035093664184769344 -0.0006745897111973591 0 0.0033692651642004234 -0.00088969297421161696 0 0.0032552065868578233 -0.00077262507724447393 0 0.0032552065868578233 -0.00077262507724447393 0 0.0032894242537476171 -0.00077738952775349235 0 0.0034760614083380287 -0.00064316680804064614 0 0.0034831483652589096 -0.00066970384011293225 0 0.0035024051869164663 -0.00065650176298621607 0 0.0034831483652589096 -0.00066970384011293225 0 0.0035024051869164663 -0.00065650176298621607 0 0.0035093664184769344 -0.0006745897111973591 0 0.0035152270113296426 -0.0006345016310456401 0 0.0035269519612023785 -0.00065615734259478 0 0.0035024051869164663 -0.00065650176298621607 0 0.0035269519612023785 -0.00065615734259478 0 0.0035193926240449924 -0.00067863604094463867 0 0.0035093664184769344 -0.0006745897111973591 0 0.0035269519612023785 -0.00065615734259478 0 0.0035024051869164663 -0.00065650176298621607 0 0.0035093664184769344 -0.0006745897111973591 0 0.0012080619595160544 0.00026677948969708955 0 0.0012384831409232562 0.00027525142287421406 0 0.0012525598481084748 0.00032174791083200394 0 0.0012151229802002711 0.00025489723530983316 0 0.0012177255684402101 0.00024164847131896068 0 0.0011976056492271556 0.0002525271802274179 0 0.0012296026375817684 0.00025823512497370337 0 0.0012341093708015977 0.0002385494581746683 0 0.0012502589033397181 0.00024207078309090299 0 0.0012296026375817684 0.00025823512497370337 0 0.0012177255684402101 0.00024164847131896068 0 0.0012341093708015977 0.0002385494581746683 0 0.0012296026375817684 0.00025823512497370337 0 0.0012151229802002711 0.00025489723530983316 0 0.0012177255684402101 0.00024164847131896068 0 0.0012296026375817684 0.00025823512497370337 0 0.0012080619595160544 0.00026677948969708955 0 0.0012384831409232562 0.00027525142287421406 0 0.0015779769915610549 0.00014569174467012316 0 0.0014432354043192434 0.00026784257436763615 0 0.0012296026375817684 0.00025823512497370337 0 0.0012080619595160544 0.00026677948969708955 0 0.0012151229802002711 0.00025489723530983316 0 0.0015779769915610549 0.00014569174467012316 0 0.0024465929272989555 -0.00010459077245440169 0 0.0012133306315047347 0.00026068915844381778 0 0.0012151229802002711 0.00025489723530983316 0 0.0011976056492271556 0.0002525271802274179 0 0.0031069671604940638 -0.0002497593786673271 0 0.0031874836138068865 -0.00021039551482311878 0 0.0031829842727036971 -0.00028242759659871045 0 0.0031874836138068865 -0.00021039551482311878 0 0.0031829842727036971 -0.00028242759659871045 0 0.0032377845007634364 -0.00029301333898116053 0 0.0029738524113146511 -0.0004628678532028867 0 0.0024465929272989555 -0.00010459077245440169 0 0.0019721761782733344 -0.00039447843882997439 0 0.0018884722874759903 -0.00013226244856370806 0 0.0016315324550489221 -0.00014287313822226882 0 0.0020990943336739666 -0.00032615429551753101 0 0.0019721761782733344 -0.00039447843882997439 0 0.0018884722874759903 -0.00013226244856370806 0 0.0028497935562766682 -0.00081120371589578431 0 0.002576979960489393 -0.00054958124850011908 0 0.0027357250535919482 -0.00046159643407149553 0 0.0029738524113146511 -0.0004628678532028867 0 0.0021458985140606402 -0.00026213095317296548 0 0.0012177255684402101 0.00024164847131896068 0 0.0011976056492271556 0.0002525271802274179 0 0.0012204533111433886 0.00020384427742391021 0 0.0024465929272989555 -0.00010459077245440169 0 0.0012620102352856547 8.0814414909863901e-05 0 0.0012204533111433886 0.00020384427742391021 0 0.0012341093708015977 0.0002385494581746683 0 0.0012448858500868395 0.00022685330265973259 0 0.0012177255684402101 0.00024164847131896068 0 0.0012204533111433886 0.00020384427742391021 0 0.0012341093708015977 0.0002385494581746683 0 0.0016315324550489221 -0.00014287313822226882 0 0.0016887807328722882 3.1836109172666246e-05 0 0.0014445155578580171 0.00011074732875534387 0 0.0018884722874759903 -0.00013226244856370806 0 0.0016315324550489221 -0.00014287313822226882 0 0.0016887807328722882 3.1836109172666246e-05 0 0.0027486571919690798 -0.0010886497619674773 0 0.0027624965256572791 -0.0010215365546334938 0 0.0027002333970713582 -0.0010391389036003749 0 0.0021458985140606402 -0.00026213095317296548 0 0.0022738572867189327 -0.00044269443380970982 0 0.0022738572867189327 -0.00044269443380970982 0 0.00286137930616837 -0.00083501072040423905 0 0.002576979960489393 -0.00054958124850011908 0 0.0023046142716584808 -0.00029067982021862784 0 0.0027357250535919482 -0.00046159643407149553 0 0.0029118067523634349 -0.0011304210259576767 0 0.0028368576071940298 -0.0009998008780557567 0 0.0029627900205511826 -0.00096040173195684816 0 0.0027486571919690798 -0.0010886497619674773 0 0.0029118067523634349 -0.0011304210259576767 0 0.0028368576071940298 -0.0009998008780557567 0 0.0028368576071940298 -0.0009998008780557567 0 0.0029627900205511826 -0.00096040173195684816 0 0.0028817412181001843 -0.00088474532665333355 0 0.0028368576071940298 -0.0009998008780557567 0 0.0028817412181001843 -0.00088474532665333355 0 0.0027318363647137783 -0.00095205620078579224 0 0.0027486571919690798 -0.0010886497619674773 0 0.0028368576071940298 -0.0009998008780557567 0 0.0027624965256572791 -0.0010215365546334938 0 0.0028368576071940298 -0.0009998008780557567 0 0.0027624965256572791 -0.0010215365546334938 0 0.0027318363647137783 -0.00095205620078579224 0 0.0027624965256572791 -0.0010215365546334938 0 0.002693327804142324 -0.001008558062048715 0 0.0027318363647137783 -0.00095205620078579224 0 0.002693327804142324 -0.001008558062048715 0 0.0027318363647137783 -0.00095205620078579224 0 0.0026578424048571778 -0.00098510611307350729 0 0.0027624965256572791 -0.0010215365546334938 0 0.002693327804142324 -0.001008558062048715 0 0.0027002333970713582 -0.0010391389036003749 0 0.0030856466272790317 -0.0011852126644978302 0 0.0031443544978000519 -0.0010334606772401211 0 0.0030357394169080493 -0.0010480257947124991 0 0.0032713673624612033 -0.0010473277165192457 0 0.0030856466272790317 -0.0011852126644978302 0 0.0031443544978000519 -0.0010334606772401211 0 0.0031443544978000519 -0.0010334606772401211 0 0.0030357394169080493 -0.0010480257947124991 0 0.0030960488596219163 -0.00095312422210407099 0 0.0029118067523634349 -0.0011304210259576767 0 0.0030357394169080493 -0.0010480257947124991 0 0.0029627900205511826 -0.00096040173195684816 0 0.0030856466272790317 -0.0011852126644978302 0 0.0029118067523634349 -0.0011304210259576767 0 0.0030357394169080493 -0.0010480257947124991 0 0.0029627900205511826 -0.00096040173195684816 0 0.0030960488596219163 -0.00095312422210407099 0 0.0031075024879484562 -0.00083214663625526047 0 0.0030357394169080493 -0.0010480257947124991 0 0.0029627900205511826 -0.00096040173195684816 0 0.0030960488596219163 -0.00095312422210407099 0 0.0032563355516663536 -0.00088046415408772681 0 0.0031443544978000519 -0.0010334606772401211 0 0.0030960488596219163 -0.00095312422210407099 0 0.0032563355516663536 -0.00088046415408772681 0 0.0030960488596219163 -0.00095312422210407099 0 0.0031075024879484562 -0.00083214663625526047 0 0.0032582190240976719 -0.00073057930882242854 0 0.0031075024879484562 -0.00083214663625526047 0 0.0030683627973122044 -0.00071729897429419556 0 0.0031075024879484562 -0.00083214663625526047 0 0.0029671138720992942 -0.0007968278302290158 0 0.0030683627973122044 -0.00071729897429419556 0 0.0031075024879484562 -0.00083214663625526047 0 0.0029671138720992942 -0.0007968278302290158 0 0.0028817412181001843 -0.00088474532665333355 0 0.0029627900205511826 -0.00096040173195684816 0 0.0031075024879484562 -0.00083214663625526047 0 0.0028817412181001843 -0.00088474532665333355 0 0.0028817412181001843 -0.00088474532665333355 0 0.0027318363647137783 -0.00095205620078579224 0 0.0027403238628051956 -0.00087083828674049645 0 0.0027318363647137783 -0.00095205620078579224 0 0.0027403238628051956 -0.00087083828674049645 0 0.0026480656424038023 -0.00092338585133474867 0 0.0027403238628051956 -0.00087083828674049645 0 0.0026582971155913121 -0.00085791125940655726 0 0.0026480656424038023 -0.00092338585133474867 0 0.0027403238628051956 -0.00087083828674049645 0 0.0027010243413432039 -0.00081041143198492768 0 0.0026582971155913121 -0.00085791125940655726 0 0.0027403238628051956 -0.00087083828674049645 0 0.0027010243413432039 -0.00081041143198492768 0 0.0028210662278752917 -0.00079399117821181886 0 0.0028817412181001843 -0.00088474532665333355 0 0.0027403238628051956 -0.00087083828674049645 0 0.0028210662278752917 -0.00079399117821181886 0 0.0029671138720992942 -0.0007968278302290158 0 0.0028817412181001843 -0.00088474532665333355 0 0.0028210662278752917 -0.00079399117821181886 0 0.0029671138720992942 -0.0007968278302290158 0 0.0028210662278752917 -0.00079399117821181886 0 0.0028500769686619497 -0.00071111682849554227 0 0.0028210662278752917 -0.00079399117821181886 0 0.0028500769686619497 -0.00071111682849554227 0 0.0027411139513832928 -0.00075616540317178388 0 0.0028500769686619497 -0.00071111682849554227 0 0.0027411139513832928 -0.00075616540317178388 0 0.0026958021330152023 -0.00070447325544736568 0 0.0027010243413432039 -0.00081041143198492768 0 0.0027411139513832928 -0.00075616540317178388 0 0.0026492158960457245 -0.00075979906236965146 0 0.0027010243413432039 -0.00081041143198492768 0 0.0028210662278752917 -0.00079399117821181886 0 0.0027411139513832928 -0.00075616540317178388 0 0.0027411139513832928 -0.00075616540317178388 0 0.0026958021330152023 -0.00070447325544736568 0 0.0026492158960457245 -0.00075979906236965146 0 0.0026958021330152023 -0.00070447325544736568 0 0.0025935357282267516 -0.00070796280992169278 0 0.0026492158960457245 -0.00075979906236965146 0 0.0026958021330152023 -0.00070447325544736568 0 0.0026508098579021517 -0.00065952118796721345 0 0.0027776086842768886 -0.00063099703688576463 0 0.0026958021330152023 -0.00070447325544736568 0 0.0026508098579021517 -0.00065952118796721345 0 0.0025935357282267516 -0.00070796280992169278 0 0.0028500769686619497 -0.00071111682849554227 0 0.0026958021330152023 -0.00070447325544736568 0 0.0027776086842768886 -0.00063099703688576463 0 0.0029669127982814006 -0.00055396311800151392 0 0.0028500769686619497 -0.00071111682849554227 0 0.0027776086842768886 -0.00063099703688576463 0 0.0029669127982814006 -0.00055396311800151392 0 0.0028500769686619497 -0.00071111682849554227 0 0.0030683627973122044 -0.00071729897429419556 0 0.0029669127982814006 -0.00055396311800151392 0 0.0032537037222996014 -0.0006395374385516463 0 0.0030683627973122044 -0.00071729897429419556 0 0.0029669127982814006 -0.00055396311800151392 0 0.0032751405768610214 -0.00051547848023617709 0 0.0032537037222996014 -0.0006395374385516463 0 0.0032537037222996014 -0.0006395374385516463 0 0.0032582190240976719 -0.00073057930882242854 0 0.0030683627973122044 -0.00071729897429419556 0 0.0029671138720992942 -0.0007968278302290158 0 0.0028500769686619497 -0.00071111682849554227 0 0.0030683627973122044 -0.00071729897429419556 0 0.0024549131376286307 -0.00077438512737241507 0 0.0024041969767330017 -0.00082437357518332891 0 0.0023713084421763233 -0.00077179466329905665 0 0.0024549131376286307 -0.00077438512737241507 0 0.0024658920658921835 -0.00081698815238631997 0 0.0024041969767330017 -0.00082437357518332891 0 0.0024041969767330017 -0.00082437357518332891 0 0.0023374251369613309 -0.00081667884283984386 0 0.0023713084421763233 -0.00077179466329905665 0 0.0023374251369613309 -0.00081667884283984386 0 0.0023228646949331805 -0.00078691365256657595 0 0.0023713084421763233 -0.00077179466329905665 0 0.0023015999230680821 -0.00075793107262194653 0 0.0023323705008663747 -0.00072701871965450348 0 0.0023713084421763233 -0.00077179466329905665 0 0.0023015999230680821 -0.00075793107262194653 0 0.0023228646949331805 -0.00078691365256657595 0 0.0023713084421763233 -0.00077179466329905665 0 0.0023323705008663747 -0.00072701871965450348 0 0.0023932738461057996 -0.00072650331369089713 0 0.0023713084421763233 -0.00077179466329905665 0 0.0023932738461057996 -0.00072650331369089713 0 0.0023713084421763233 -0.00077179466329905665 0 0.0024186727218132608 -0.00074978518539728302 0 0.0023932738461057996 -0.00072650331369089713 0 0.0024186727218132608 -0.00074978518539728302 0 0.0024561348375193811 -0.00072875581444130626 0 0.0024549131376286307 -0.00077438512737241507 0 0.0023713084421763233 -0.00077179466329905665 0 0.0024186727218132608 -0.00074978518539728302 0 0.0024549131376286307 -0.00077438512737241507 0 0.0024186727218132608 -0.00074978518539728302 0 0.0024561348375193811 -0.00072875581444130626 0 0.0025111901507838888 -0.00069427965574834019 0 0.0024561348375193811 -0.00072875581444130626 0 0.0025162503276227534 -0.00074228503150721228 0 0.0024549131376286307 -0.00077438512737241507 0 0.0024561348375193811 -0.00072875581444130626 0 0.0025162503276227534 -0.00074228503150721228 0 0.0025111901507838888 -0.00069427965574834019 0 0.0025162503276227534 -0.00074228503150721228 0 0.0025935357282267516 -0.00070796280992169278 0 0.0025847604505612539 -0.00066414219128479611 0 0.0026508098579021517 -0.00065952118796721345 0 0.0025935357282267516 -0.00070796280992169278 0 0.0025162503276227534 -0.00074228503150721228 0 0.0025935357282267516 -0.00070796280992169278 0 0.0025714347358208787 -0.00077279829390473518 0 0.0025935357282267516 -0.00070796280992169278 0 0.0026492158960457245 -0.00075979906236965146 0 0.0025714347358208787 -0.00077279829390473518 0 0.0025714347358208787 -0.00077279829390473518 0 0.002526698775649875 -0.00082652266116888429 0 0.0026154667341380497 -0.00081696366676335154 0 0.0026492158960457245 -0.00075979906236965146 0 0.0025714347358208787 -0.00077279829390473518 0 0.0026154667341380497 -0.00081696366676335154 0 0.0027010243413432039 -0.00081041143198492768 0 0.0026492158960457245 -0.00075979906236965146 0 0.0026154667341380497 -0.00081696366676335154 0 0.0024549131376286307 -0.00077438512737241507 0 0.0025162503276227534 -0.00074228503150721228 0 0.0025110870246602881 -0.00078395459550820038 0 0.0025162503276227534 -0.00074228503150721228 0 0.0025714347358208787 -0.00077279829390473518 0 0.0025110870246602881 -0.00078395459550820038 0 0.0025714347358208787 -0.00077279829390473518 0 0.0025110870246602881 -0.00078395459550820038 0 0.002526698775649875 -0.00082652266116888429 0 0.0024549131376286307 -0.00077438512737241507 0 0.0024658920658921835 -0.00081698815238631997 0 0.0025110870246602881 -0.00078395459550820038 0 0.0024658920658921835 -0.00081698815238631997 0 0.0025110870246602881 -0.00078395459550820038 0 0.002526698775649875 -0.00082652266116888429 0 0.0024658920658921835 -0.00081698815238631997 0 0.002526698775649875 -0.00082652266116888429 0 0.0024568813294131831 -0.00086833006005461553 0 0.002526698775649875 -0.00082652266116888429 0 0.0025169924578046002 -0.00088041732302975625 0 0.0025891217970827737 -0.00087355964202457152 0 0.002526698775649875 -0.00082652266116888429 0 0.0025169924578046002 -0.00088041732302975625 0 0.0024568813294131831 -0.00086833006005461553 0 0.0025169924578046002 -0.00088041732302975625 0 0.0024815410713793866 -0.00090878036218946829 0 0.0024568813294131831 -0.00086833006005461553 0 0.0027010243413432039 -0.00081041143198492768 0 0.0026154667341380497 -0.00081696366676335154 0 0.0026582971155913121 -0.00085791125940655726 0 0.002526698775649875 -0.00082652266116888429 0 0.0026154667341380497 -0.00081696366676335154 0 0.0025891217970827737 -0.00087355964202457152 0 0.0026154667341380497 -0.00081696366676335154 0 0.0025891217970827737 -0.00087355964202457152 0 0.0026582971155913121 -0.00085791125940655726 0 0.0025891217970827737 -0.00087355964202457152 0 0.0026480656424038023 -0.00092338585133474867 0 0.002523816973407686 -0.00093935192980621298 0 0.0026480656424038023 -0.00092338585133474867 0 0.002523816973407686 -0.00093935192980621298 0 0.0025986639535673503 -0.00099963849476931467 0 0.0027318363647137783 -0.00095205620078579224 0 0.0026480656424038023 -0.00092338585133474867 0 0.0025986639535673503 -0.00099963849476931467 0 0.0025891217970827737 -0.00087355964202457152 0 0.0026582971155913121 -0.00085791125940655726 0 0.0026480656424038023 -0.00092338585133474867 0 0.002523816973407686 -0.00093935192980621298 0 0.0024299703653217152 -0.00094716471245284717 0 0.0024842024889580256 -0.001017390807301947 0 0.0024815410713793866 -0.00090878036218946829 0 0.002523816973407686 -0.00093935192980621298 0 0.0024299703653217152 -0.00094716471245284717 0 0.0025169924578046002 -0.00088041732302975625 0 0.0024815410713793866 -0.00090878036218946829 0 0.002523816973407686 -0.00093935192980621298 0 0.0025169924578046002 -0.00088041732302975625 0 0.0025891217970827737 -0.00087355964202457152 0 0.002523816973407686 -0.00093935192980621298 0 0.0024299703653217152 -0.00094716471245284717 0 0.0023446174391995181 -0.00095401122309143481 0 0.0024842024889580256 -0.001017390807301947 0 0.0024299703653217152 -0.00094716471245284717 0 0.0024568813294131831 -0.00086833006005461553 0 0.002391344016720491 -0.00088846930431386861 0 0.0024299703653217152 -0.00094716471245284717 0 0.002391344016720491 -0.00088846930431386861 0 0.0023796967488129424 -0.00092347059965886154 0 0.0024815410713793866 -0.00090878036218946829 0 0.0024299703653217152 -0.00094716471245284717 0 0.0024568813294131831 -0.00086833006005461553 0 0.0024041969767330017 -0.00082437357518332891 0 0.0024568813294131831 -0.00086833006005461553 0 0.002391344016720491 -0.00088846930431386861 0 0.0024658920658921835 -0.00081698815238631997 0 0.0024041969767330017 -0.00082437357518332891 0 0.0024568813294131831 -0.00086833006005461553 0 0.0022991175043752779 -0.00085115143167883924 0 0.0023374251369613309 -0.00081667884283984386 0 0.0023447926021945664 -0.00086340277987690848 0 0.0024041969767330017 -0.00082437357518332891 0 0.002391344016720491 -0.00088846930431386861 0 0.0023447926021945664 -0.00086340277987690848 0 0.0024041969767330017 -0.00082437357518332891 0 0.0023374251369613309 -0.00081667884283984386 0 0.0023447926021945664 -0.00086340277987690848 0 0.002391344016720491 -0.00088846930431386861 0 0.0023447926021945664 -0.00086340277987690848 0 0.0023539971033953088 -0.00090473707127128203 0 0.0023103273627014171 -0.00089207223015732586 0 0.0023447926021945664 -0.00086340277987690848 0 0.0023539971033953088 -0.00090473707127128203 0 0.0023103273627014171 -0.00089207223015732586 0 0.0022991175043752779 -0.00085115143167883924 0 0.0023447926021945664 -0.00086340277987690848 0 0.0023103273627014171 -0.00089207223015732586 0 0.0023539971033953088 -0.00090473707127128203 0 0.0023446174391995181 -0.00095401122309143481 0 0.0024299703653217152 -0.00094716471245284717 0 0.0023796967488129424 -0.00092347059965886154 0 0.0023446174391995181 -0.00095401122309143481 0 0.0023539971033953088 -0.00090473707127128203 0 0.0023796967488129424 -0.00092347059965886154 0 0.0023446174391995181 -0.00095401122309143481 0 0.002391344016720491 -0.00088846930431386861 0 0.0023539971033953088 -0.00090473707127128203 0 0.0023796967488129424 -0.00092347059965886154 0 0.0011654425256535205 3.6242140128039336e-05 0 0.0011715416832821554 -0.00010195445253019906 0 0.00099672493211006952 -3.4550663490841832e-07 0 0.0013732503789791264 -0.00023511035703782575 0 0.0014117226146047304 -0.00021496885462998324 0 0.0014396992612482789 -0.00029029460915339371 0 0.0012764793698612829 -0.00017498439683166745 0 0.0012842875756611562 -1.9597178662283934e-06 0 0.0012489296141871551 7.6464661026389244e-05 0 0.0012842875756611562 -1.9597178662283934e-06 0 0.0014282511566820534 7.6762683901472191e-05 0 0.0014105182583170493 8.1197726884014326e-05 0 0.0014091556085490465 8.1548085838567481e-05 0 0.0018948044356180526 -0.00060130164368474412 0 0.001966502337466842 -0.00055643777273990842 0 0.0014117226146047304 -0.00021496885462998324 0 0.0014396992612482789 -0.00029029460915339371 0 0.0015655786990423847 -0.00026900182413730749 0 0.0012842875756611562 -1.9597178662283934e-06 0 0.001966502337466842 -0.00055643777273990842 0 0.0013293533207031894 0.0001415431353083751 0 0.0013196208382962218 0.00018450190374584644 0 0.0012883616794716248 0.00018807463985521635 0 0.0013196208382962218 0.00018450190374584644 0 0.0012883616794716248 0.00018807463985521635 0 0.0013064233843109161 0.00022063058418509603 0 0.0012842875756611562 -1.9597178662283934e-06 0 0.0013680684728627648 0.00015755488793915579 0 0.0014282511566820534 7.6762683901472191e-05 0 0.0014091556085490465 8.1548085838567481e-05 0 0.0014245279351911512 9.8253757244462159e-05 0 0.0013293533207031894 0.0001415431353083751 0 0.0013196208382962218 0.00018450190374584644 0 0.0013435198957679963 0.00016433155460067464 0 0.0013196208382962218 0.00018450190374584644 0 0.0013435198957679963 0.00016433155460067464 0 0.0013364849560717792 0.00021461413886424827 0 0.0013518878955678876 0.00013437961821658592 0 0.0013293533207031894 0.0001415431353083751 0 0.0013435198957679963 0.00016433155460067464 0 0.0026891083519871564 -0.00095917914948003534 0 0.0026677943319154684 -0.00096455944469328711 0 0.0027318363647137783 -0.00095205620078579224 0 0.0026578424048571778 -0.00098510611307350729 0 0.0025961863652553267 -0.00094989049798746528 0 0.002693327804142324 -0.001008558062048715 0 0.0027002333970713582 -0.0010391389036003749 0 0.0026017664614361993 -0.001045027198131253 0 0.002693327804142324 -0.001008558062048715 0 0.0026578424048571778 -0.00098510611307350729 0 0.0026017664614361993 -0.001045027198131253 0 0.0026578424048571778 -0.00098510611307350729 0 0.0025961863652553267 -0.00094989049798746528 0 0.0026017664614361993 -0.001045027198131253 0 0.002523816973407686 -0.00093935192980621298 0 0.0025986639535673503 -0.00099963849476931467 0 0.0024842024889580256 -0.001017390807301947 0 0.0014445155578580171 0.00011074732875534387 0 0.0014105182583170493 8.1197726884014326e-05 0 0.0014091556085490465 8.1548085838567481e-05 0 0.0025961863652553267 -0.00094989049798746528 0 0.0026017664614361993 -0.001045027198131253 0 0.002427070812080768 -0.00097681679768165915 0 0.002010749919649381 -0.00046352910124014979 0 0.001966502337466842 -0.00055643777273990842 0 0.0026677943319154684 -0.00096455944469328711 0 0.001966502337466842 -0.00055643777273990842 0 0.0013680684728627648 0.00015755488793915579 0 0.0012683476059623694 0.00020701793297526924 0 0.0014445155578580171 0.00011074732875534387 0 0.0014091556085490465 8.1548085838567481e-05 0 0.0013911157125917921 7.5836711008626443e-05 0 0.0014245279351911512 9.8253757244462159e-05 0 0.0013911157125917921 7.5836711008626443e-05 0 0.0012692351043118123 0.00021565917230135031 0 0.0014091556085490465 8.1548085838567481e-05 0 0.0014245279351911512 9.8253757244462159e-05 0 0.0013911157125917921 7.5836711008626443e-05 0 0.0016315324550489221 -0.00014287313822226882 0 0.0014445155578580171 0.00011074732875534387 0 0.0013911157125917921 7.5836711008626443e-05 0 0.0027486571919690798 -0.0010886497619674773 0 0.0027002333970713582 -0.0010391389036003749 0 0.0026017664614361993 -0.001045027198131253 0 0.0022738572867189327 -0.00044269443380970982 0 0.002010749919649381 -0.00046352910124014979 0 0.0012620102352856547 8.0814414909863901e-05 0 0.0014572205464627244 4.0618983882270912e-05 0 0.0012204533111433886 0.00020384427742391021 0 0.0013911157125917921 7.5836711008626443e-05 0 0.0012692351043118123 0.00021565917230135031 0 0.0012502589033397181 0.00024207078309090299 0 0.0012692351043118123 0.00021565917230135031 0 0.0012680041538674352 0.00023109946349353223 0 0.0012502589033397181 0.00024207078309090299 0 0.0012448858500868395 0.00022685330265973259 0 0.0012692351043118123 0.00021565917230135031 0 0.0012341093708015977 0.0002385494581746683 0 0.0012502589033397181 0.00024207078309090299 0 0.0012448858500868395 0.00022685330265973259 0 0.0012204533111433886 0.00020384427742391021 0 0.0012448858500868395 0.00022685330265973259 0 0.0012692351043118123 0.00021565917230135031 0 0.0012692351043118123 0.00021565917230135031 0 0.0012680041538674352 0.00023109946349353223 0 0.0012807967717355997 0.00021537216497895335 0 0.0012680041538674352 0.00023109946349353223 0 0.0012807967717355997 0.00021537216497895335 0 0.0012680749261936514 0.00025648361615539564 0 0.0012883616794716248 0.00018807463985521635 0 0.0012692351043118123 0.00021565917230135031 0 0.0012807967717355997 0.00021537216497895335 0 0.0012883616794716248 0.00018807463985521635 0 0.0012807967717355997 0.00021537216497895335 0 0.0013064233843109161 0.00022063058418509603 0 0.0012807967717355997 0.00021537216497895335 0 0.0012933011040051417 0.00025442409480689845 0 0.0013064233843109161 0.00022063058418509603 0 0.0012807967717355997 0.00021537216497895335 0 0.0012933011040051417 0.00025442409480689845 0 0.0012680749261936514 0.00025648361615539564 0 0.0012933011040051417 0.00025442409480689845 0 0.0012680749261936514 0.00025648361615539564 0 0.001292668791920068 0.00031154295160520571 0 0.0012680749261936514 0.00025648361615539564 0 0.0012384831409232562 0.00027525142287421406 0 0.0012525598481084748 0.00032174791083200394 0 0.0012502589033397181 0.00024207078309090299 0 0.0012680041538674352 0.00023109946349353223 0 0.0012680749261936514 0.00025648361615539564 0 0.0012502589033397181 0.00024207078309090299 0 0.0012680749261936514 0.00025648361615539564 0 0.0012384831409232562 0.00027525142287421406 0 0.0012296026375817684 0.00025823512497370337 0 0.0012502589033397181 0.00024207078309090299 0 0.0012384831409232562 0.00027525142287421406 0 0.0013640582919198906 0.00019468894063336573 0 0.0013435198957679963 0.00016433155460067464 0 0.0013364849560717792 0.00021461413886424827 0 0.0013640582919198906 0.00019468894063336573 0 0.0013364849560717792 0.00021461413886424827 0 0.0013615747736072318 0.00026031244235237376 0 0.0013364849560717792 0.00021461413886424827 0 0.0013064233843109161 0.00022063058418509603 0 0.0013324530748855092 0.00028597929051447799 0 0.0013196208382962218 0.00018450190374584644 0 0.0013364849560717792 0.00021461413886424827 0 0.0013064233843109161 0.00022063058418509603 0 0.0012933011040051417 0.00025442409480689845 0 0.0013064233843109161 0.00022063058418509603 0 0.0013324530748855092 0.00028597929051447799 0 0.0012933011040051417 0.00025442409480689845 0 0.0013324530748855092 0.00028597929051447799 0 0.001292668791920068 0.00031154295160520571 0 0.0013364849560717792 0.00021461413886424827 0 0.0013324530748855092 0.00028597929051447799 0 0.0013615747736072318 0.00026031244235237376 0 0.0013324530748855092 0.00028597929051447799 0 0.0013615747736072318 0.00026031244235237376 0 0.0013819811531897643 0.00032085456305307208 0 0.0013324530748855092 0.00028597929051447799 0 0.0013732171032170861 0.00037940156098009839 0 0.0013819811531897643 0.00032085456305307208 0 0.0013324530748855092 0.00028597929051447799 0 0.0013297509293522737 0.00037236787541181543 0 0.0013732171032170861 0.00037940156098009839 0 0.0013324530748855092 0.00028597929051447799 0 0.0013297509293522737 0.00037236787541181543 0 0.001292668791920068 0.00031154295160520571 0 0.0013297509293522737 0.00037236787541181543 0 0.0013732171032170861 0.00037940156098009839 0 0.0013617376395843341 0.00045475063629199215 0 0.0013297509293522737 0.00037236787541181543 0 0.0012602951130209466 0.00038262597549010638 0 0.0013617376395843341 0.00045475063629199215 0 0.0012525598481084748 0.00032174791083200394 0 0.0012602951130209466 0.00038262597549010638 0 0.0012126272036735801 0.00033442776148051573 0 0.0012680749261936514 0.00025648361615539564 0 0.0012525598481084748 0.00032174791083200394 0 0.001292668791920068 0.00031154295160520571 0 0.0012525598481084748 0.00032174791083200394 0 0.001292668791920068 0.00031154295160520571 0 0.0012602951130209466 0.00038262597549010638 0 0.0013297509293522737 0.00037236787541181543 0 0.001292668791920068 0.00031154295160520571 0 0.0012602951130209466 0.00038262597549010638 0 0.0012602951130209466 0.00038262597549010638 0 0.0012700781815862664 0.00048278421186164828 0 0.0012057963235273343 0.00042454217914282034 0 0.0014263371364845628 0.00058185525665895531 0 0.0013073450314444002 0.00062132868425609296 0 0.0012602951130209466 0.00038262597549010638 0 0.0012700781815862664 0.00048278421186164828 0 0.0013617376395843341 0.00045475063629199215 0 0.0015228238444610883 0.0006835042841462234 0 0.0013848082219834498 0.00056399125401377325 0 0.0014918980550304136 0.00058344607186753986 0 0.0014263371364845628 0.00058185525665895531 0 0.0013783103986414491 0.00056700059676084323 0 0.0015228238444610883 0.0006835042841462234 0 0.0014918980550304136 0.00058344607186753986 0 0.0016139460612613671 0.00061689447689101192 0 0.0015228238444610883 0.0006835042841462234 0 0.0016139460612613671 0.00061689447689101192 0 0.0016657604202995123 0.00074282885507550222 0 0.0013732171032170861 0.00037940156098009839 0 0.0013617376395843341 0.00045475063629199215 0 0.0014156138649873608 0.00045914709874014472 0 0.0013617376395843341 0.00045475063629199215 0 0.0014052738052797269 0.00051379789147095942 0 0.0014156138649873608 0.00045914709874014472 0 0.0012700781815862664 0.00048278421186164828 0 0.0013617376395843341 0.00045475063629199215 0 0.0013848082219834498 0.00056399125401377325 0 0.0013617376395843341 0.00045475063629199215 0 0.0013848082219834498 0.00056399125401377325 0 0.0014052738052797269 0.00051379789147095942 0 0.0013848082219834498 0.00056399125401377325 0 0.0014052738052797269 0.00051379789147095942 0 0.0014140012550423252 0.00054846458621923204 0 0.0013848082219834498 0.00056399125401377325 0 0.0014140012550423252 0.00054846458621923204 0 0.0014141356547000012 0.00057479577035941863 0 0.0014140012550423252 0.00054846458621923204 0 0.0014141356547000012 0.00057479577035941863 0 0.0014307338999771464 0.00055530637672778621 0 0.0014141356547000012 0.00057479577035941863 0 0.0014336050709766437 0.00057559934594697993 0 0.001425410540024413 0.00057741260811260348 0 0.0014141356547000012 0.00057479577035941863 0 0.0014336050709766437 0.00057559934594697993 0 0.0014822228871166868 0.00058672435525718191 0 0.0014243180972469218 0.00057610130293929223 0 0.0014855918727965907 0.00057783418697118598 0 0.0014141356547000012 0.00057479577035941863 0 0.001508372026283408 0.00063776252972398586 0 0.0014822228871166868 0.00058672435525718191 0 0.0013848082219834498 0.00056399125401377325 0 0.0014141356547000012 0.00057479577035941863 0 0.0014491376646067829 0.00052043386378080106 0 0.0013848082219834498 0.00056399125401377325 0 0.0014918980550304136 0.00058344607186753986 0 0.0014491376646067829 0.00052043386378080106 0 0.0014918980550304136 0.00058344607186753986 0 0.0015490550217793205 0.00055180095861106105 0 0.0014491376646067829 0.00052043386378080106 0 0.0014918980550304136 0.00058344607186753986 0 0.0016139460612613671 0.00061689447689101192 0 0.0015490550217793205 0.00055180095861106105 0 0.0016139460612613671 0.00061689447689101192 0 0.0015490550217793205 0.00055180095861106105 0 0.0016362306009092334 0.00055023412099777899 0 0.0015490550217793205 0.00055180095861106105 0 0.0015992187610187377 0.00048424001229738857 0 0.0016362306009092334 0.00055023412099777899 0 0.0016326765548641577 0.00057141566120840566 0 0.0014855918727965907 0.00057783418697118598 0 0.0015490550217793205 0.00055180095861106105 0 0.0015992187610187377 0.00048424001229738857 0 0.0014491376646067829 0.00052043386378080106 0 0.0016650558541164723 0.00065751973592945308 0 0.001508372026283408 0.00063776252972398586 0 0.0015724145259157309 0.00060582478161604774 0 0.001508372026283408 0.00063776252972398586 0 0.0015724145259157309 0.00060582478161604774 0 0.0014822228871166868 0.00058672435525718191 0 0.0015724145259157309 0.00060582478161604774 0 0.0015589990342174671 0.00056379154942851409 0 0.0014822228871166868 0.00058672435525718191 0 0.0015724145259157309 0.00060582478161604774 0 0.0015589990342174671 0.00056379154942851409 0 0.0016318827462024519 0.00057987493570085564 0 0.0015589990342174671 0.00056379154942851409 0 0.0015127917980788592 0.0005372528169502311 0 0.0014822228871166868 0.00058672435525718191 0 0.0016318827462024519 0.00057987493570085564 0 0.0016554741078622795 0.0005082036874654287 0 0.0017323769344516988 0.00062679287913062381 0 0.0016650558541164723 0.00065751973592945308 0 0.0016318827462024519 0.00057987493570085564 0 0.0017323769344516988 0.00062679287913062381 0 0.0016650558541164723 0.00065751973592945308 0 0.0015724145259157309 0.00060582478161604774 0 0.0016318827462024519 0.00057987493570085564 0 0.0015589990342174671 0.00056379154942851409 0 0.0016318827462024519 0.00057987493570085564 0 0.0016044564071030969 0.00053393884430382756 0 0.0016044564071030969 0.00053393884430382756 0 0.0016554741078622795 0.0005082036874654287 0 0.0015755613714342625 0.00049596463868351612 0 0.0016318827462024519 0.00057987493570085564 0 0.0016044564071030969 0.00053393884430382756 0 0.0016554741078622795 0.0005082036874654287 0 0.0015589990342174671 0.00056379154942851409 0 0.0015755613714342625 0.00049596463868351612 0 0.0015127917980788592 0.0005372528169502311 0 0.0015755613714342625 0.00049596463868351612 0 0.0015127917980788592 0.0005372528169502311 0 0.001501065739238971 0.00047789490879059386 0 0.0015589990342174671 0.00056379154942851409 0 0.0016044564071030969 0.00053393884430382756 0 0.0015755613714342625 0.00049596463868351612 0 0.0015127917980788592 0.0005372528169502311 0 0.0014560777395524582 0.00055423349803672536 0 0.001501065739238971 0.00047789490879059386 0 0.00083437151779913916 0.0015428626718116353 0 0.0012709200638312296 0.0012829219470700379 0 0.0014560777395524582 0.00055423349803672536 0 0.0014174760949074705 0.00054905278718654865 0 0.001501065739238971 0.00047789490879059386 0 0.0009086921474657267 0.0021190534029120207 0 0.00092307495177688015 0.0021226087793317278 0 0.00090583531175644999 0.0021167809023243298 0 0.00083437151779913916 0.0015428626718116353 0 0.00031005770882979236 0.0020197477053390139 0 0.0014174760949074705 0.00054905278718654865 0 0.0014238373164879752 0.00055917403095797724 0 0.0014233010807430861 0.00056612689548348675 0 0.0014174760949074705 0.00054905278718654865 0 0.0014238373164879752 0.00055917403095797724 0 0.0014331025936192108 0.0005610620040258211 0 0.0014238373164879752 0.00055917403095797724 0 0.0014272532282607773 0.00056786791535420216 0 0.0014233010807430861 0.00056612689548348675 0 0.0014238373164879752 0.00055917403095797724 0 0.0014331025936192108 0.0005610620040258211 0 0.0014272532282607773 0.00056786791535420216 0 0.0014560777395524582 0.00055423349803672536 0 0.0014174760949074705 0.00054905278718654865 0 0.0014331025936192108 0.0005610620040258211 0 0.0014560777395524582 0.00055423349803672536 0 0.0014331025936192108 0.0005610620040258211 0 0.0014336050709766437 0.00057559934594697993 0 0.0014272532282607773 0.00056786791535420216 0 0.0014336050709766437 0.00057559934594697993 0 0.0014247474213521024 0.00057411946313593758 0 0.0014331025936192108 0.0005610620040258211 0 0.0014272532282607773 0.00056786791535420216 0 0.0014336050709766437 0.00057559934594697993 0 0.0014336050709766437 0.00057559934594697993 0 0.0014247474213521024 0.00057411946313593758 0 0.001425410540024413 0.00057741260811260348 0 0.0014560777395524582 0.00055423349803672536 0 0.0014336050709766437 0.00057559934594697993 0 0.0014822228871166868 0.00058672435525718191 0 0.0015127917980788592 0.0005372528169502311 0 0.0014560777395524582 0.00055423349803672536 0 0.0014822228871166868 0.00058672435525718191 0 0.0018297539439689301 0.00058361230268935086 0 0.001822964504772167 0.00057441376753037169 0 0.0018284737624469877 0.00058363855146249713 0 0.0018297539439689301 0.00058361230268935086 0 0.0018278785460461187 0.00062127938510594038 0 0.0018284737624469877 0.00058363855146249713 0 0.0018297539439689301 0.00058361230268935086 0 0.0018278785460461187 0.00062127938510594038 0 0.0018317568536981334 0.00062251234442507839 0 0.0018278785460461187 0.00062127938510594038 0 0.0018317568536981334 0.00062251234442507839 0 0.0018306962931092703 0.00065185838049759681 0 0.0018297539439689301 0.00058361230268935086 0 0.0018317568536981334 0.00062251234442507839 0 0.0018270976403415159 0.00061163706294524282 0 0.0018317568536981334 0.00062251234442507839 0 0.0018307010221925734 0.00062351143494015235 0 0.0018270976403415159 0.00061163706294524282 0 0.0018307010221925734 0.00062351143494015235 0 0.0018258572602836472 0.00061958230422929652 0 0.0018270976403415159 0.00061163706294524282 0 0.0018258572602836472 0.00061958230422929652 0 0.0018270976403415159 0.00061163706294524282 0 0.0017905771159265633 0.00061277468678861736 0 0.0017790284106904328 0.00066177422163260773 0 0.0017829663509984204 0.00062855026361138453 0 0.0017481827484343586 0.00069150309224815844 0 0.0017829663509984204 0.00062855026361138453 0 0.0017905771159265633 0.00061277468678861736 0 0.0017481827484343586 0.00069150309224815844 0 0.0018025403568087774 0.00063131582410448021 0 0.0017829663509984204 0.00062855026361138453 0 0.0017323769344516988 0.00062679287913062381 0 0.0018258572602836472 0.00061958230422929652 0 0.0017905771159265633 0.00061277468678861736 0 0.0018492715767493458 0.00063195934931612081 0 0.001794976346701029 0.00064049726359465681 0 0.0017911904214118778 0.00062078388752611301 0 0.0018025403568087774 0.00063131582410448021 0 0.0017790284106904328 0.00066177422163260773 0 0.0017829663509984204 0.00062855026361138453 0 0.0016650558541164723 0.00065751973592945308 0 0.0017323769344516988 0.00062679287913062381 0 0.0018142841467464999 0.00063453860063554556 0 0.001747232710018724 0.00047357468015256322 0 0.0017383536207873508 0.00066651992186000355 0 0.0017829663509984204 0.00062855026361138453 0 0.0017905771159265633 0.00061277468678861736 0 0.0017323769344516988 0.00062679287913062381 0 0.0017905771159265633 0.00061277468678861736 0 0.0017323769344516988 0.00062679287913062381 0 0.0018142841467464999 0.00063453860063554556 0 0.0018197154366002832 0.00058119289044586463 0 0.0017740255328845557 0.0005713993855643786 0 0.0018297539439689301 0.00058361230268935086 0 0.001748663403496982 0.00050568984545715527 0 0.0017726245469489718 0.00054495197882547999 0 0.0018297539439689301 0.00058361230268935086 0 0.0018270976403415159 0.00061163706294524282 0 0.0018142841467464999 0.00063453860063554556 0 0.0018270976403415159 0.00061163706294524282 0 0.0017905771159265633 0.00061277468678861736 0 0.0018142841467464999 0.00063453860063554556 0 0.001748663403496982 0.00050568984545715527 0 0.0017726245469489718 0.00054495197882547999 0 0.0016978989605194519 0.00053093676797426922 0 0.0017726245469489718 0.00054495197882547999 0 0.0016978989605194519 0.00053093676797426922 0 0.0017285770737707209 0.00056918296376249136 0 0.0017726245469489718 0.00054495197882547999 0 0.0018013589173882501 0.00061300490392292295 0 0.0018110550841229046 0.00056481397693648185 0 0.0016978989605194519 0.00053093676797426922 0 0.0016362306009092334 0.00055023412099777899 0 0.0017285770737707209 0.00056918296376249136 0 0.0016326765548641577 0.00057141566120840566 0 0.0017740255328845557 0.0005713993855643786 0 0.0015992187610187377 0.00048424001229738857 0 0.001748663403496982 0.00050568984545715527 0 0.0016978989605194519 0.00053093676797426922 0 0.0015992187610187377 0.00048424001229738857 0 0.0016978989605194519 0.00053093676797426922 0 0.0016362306009092334 0.00055023412099777899 0 0.0016139460612613671 0.00061689447689101192 0 0.0017285770737707209 0.00056918296376249136 0 0.0017309104008308462 0.00064617246385353846 0 0.0016139460612613671 0.00061689447689101192 0 0.0016362306009092334 0.00055023412099777899 0 0.0017285770737707209 0.00056918296376249136 0 0.0017285770737707209 0.00056918296376249136 0 0.001804792150751603 0.00058860216915491525 0 0.0017309104008308462 0.00064617246385353846 0 0.0017726245469489718 0.00054495197882547999 0 0.0017285770737707209 0.00056918296376249136 0 0.0018013589173882501 0.00061300490392292295 0 0.0017649818749354671 0.00058467124716979682 0 0.0017270428692363604 0.00056173903859890284 0 0.001804792150751603 0.00058860216915491525 0 0.0018912136539060637 0.0006165397617856215 0 0.0017980573791805652 0.00065286237471764215 0 0.0018013589173882501 0.00061300490392292295 0 0.0018561530059762335 0.00059845248022460528 0 0.0018839469130876171 0.00065089912888233149 0 0.0017270428692363604 0.00056173903859890284 0 0.0026443369327438992 0.00013550867207169322 0 0.0018013589173882501 0.00061300490392292295 0 0.0018561530059762335 0.00059845248022460528 0 0.0018110550841229046 0.00056481397693648185 0 0.0018297539439689301 0.00058361230268935086 0 0.001822964504772167 0.00057441376753037169 0 0.0018110550841229046 0.00056481397693648185 0 0.0018297539439689301 0.00058361230268935086 0 0.0017726245469489718 0.00054495197882547999 0 0.0018110550841229046 0.00056481397693648185 0 0.0018561530059762335 0.00059845248022460528 0 0.0018110550841229046 0.00056481397693648185 0 0.0019334549175488084 0.00055610542162266917 0 0.0016559668030388353 0.00059652956029211635 0 0.0023015525515491181 0.00032084203520576176 0 0.001822964504772167 0.00057441376753037169 0 0.0018110550841229046 0.00056481397693648185 0 0.0018282331222350928 0.00057859098424211514 0 0.0023015525515491181 0.00032084203520576176 0 0.0017433173226759902 0.00070664619701122549 0 0.001822964504772167 0.00057441376753037169 0 0.0018282331222350928 0.00057859098424211514 0 0.0018284737624469877 0.00058363855146249713 0 0.0033038453035231902 -0.00021214853780602893 0 0.0033261852084769728 -0.0002563148396168622 0 0.0032875802142517518 -0.00024723461742179456 0 0.0023015525515491181 0.00032084203520576176 0 0.0026443369327438992 0.00013550867207169322 0 0.0018561530059762335 0.00059845248022460528 0 0.0019334549175488084 0.00055610542162266917 0 0.0018839469130876171 0.00065089912888233149 0 0.00331020898121127 -0.00037231459317607721 0 0.003313292861509051 -0.00038160387611299189 0 0.0033046291534217171 -0.00038836446967832676 0 0.00331020898121127 -0.00037231459317607721 0 0.003313292861509051 -0.00038160387611299189 0 0.0033078946321639597 -0.00035894012219398933 0 0.0033261852084769728 -0.0002563148396168622 0 0.0032878683479708425 -0.0002887136268773029 0 0.0032875802142517518 -0.00024723461742179456 0 0.0026443369327438992 0.00013550867207169322 0 0.0033958565404935879 -0.00033097117189790227 0 0.0018912136539060637 0.0006165397617856215 0 0.0018447806749719178 0.0007033028510651932 0 0.0017980573791805652 0.00065286237471764215 0 0.0026443369327438992 0.00013550867207169322 0 0.0025865133313469806 0.00015185101767431166 0 0.0018447806749719178 0.0007033028510651932 0 0.0017980573791805652 0.00065286237471764215 0 0.0017672887216942067 0.0007108755015368661 0 0.0033046291534217171 -0.00038836446967832676 0 0.0032712353210785569 -0.0003982460446960922 0 0.0032717626366529739 -0.00039977251616108377 0 0.0025865133313469806 0.00015185101767431166 0 0.0021936664951672491 0.00010855045503330473 0 0.0018447806749719178 0.0007033028510651932 0 0.0017672887216942067 0.0007108755015368661 0 0.0017993987971702729 0.00078993489102684015 0 0.0033046291534217171 -0.00038836446967832676 0 0.00330675711691323 -0.00039559100191192807 0 0.0032717626366529739 -0.00039977251616108377 0 0.003313292861509051 -0.00038160387611299189 0 0.0033046291534217171 -0.00038836446967832676 0 0.00330675711691323 -0.00039559100191192807 0 0.00330675711691323 -0.00039559100191192807 0 0.0033238727479737171 -0.00039769552522920425 0 0.0033267703304819766 -0.00038873657418822023 0 0.003313292861509051 -0.00038160387611299189 0 0.0033078946321639597 -0.00035894012219398933 0 0.0033267703304819766 -0.00038873657418822023 0 0.003313292861509051 -0.00038160387611299189 0 0.00330675711691323 -0.00039559100191192807 0 0.0033267703304819766 -0.00038873657418822023 0 0.0016139460612613671 0.00061689447689101192 0 0.0017309104008308462 0.00064617246385353846 0 0.0016657604202995123 0.00074282885507550222 0 0.0017309104008308462 0.00064617246385353846 0 0.0017672887216942067 0.0007108755015368661 0 0.0016657604202995123 0.00074282885507550222 0 0.001804792150751603 0.00058860216915491525 0 0.0017309104008308462 0.00064617246385353846 0 0.0017980573791805652 0.00065286237471764215 0 0.0017309104008308462 0.00064617246385353846 0 0.0017980573791805652 0.00065286237471764215 0 0.0017672887216942067 0.0007108755015368661 0 0.0012057963235273343 0.00042454217914282034 0 0.0011950228963786105 0.00037828968653261789 0 0.0011579554548650608 0.00038433766582766872 0 0.0017672887216942067 0.0007108755015368661 0 0.0016657604202995123 0.00074282885507550222 0 0.0017993987971702729 0.00078993489102684015 0 0.0013073450314444002 0.00062132868425609296 0 0.0021936664951672491 0.00010855045503330473 0 0.0012602951130209466 0.00038262597549010638 0 0.0012057963235273343 0.00042454217914282034 0 0.0011950228963786105 0.00037828968653261789 0 0.0011950228963786105 0.00037828968653261789 0 0.0011753985929399368 0.00033967216559774749 0 0.0012126272036735801 0.00033442776148051573 0 0.0012602951130209466 0.00038262597549010638 0 0.0011950228963786105 0.00037828968653261789 0 0.0012126272036735801 0.00033442776148051573 0 0.0021936664951672491 0.00010855045503330473 0 0.002227644942453835 -7.2301740433233902e-05 0 0.003245253826835927 -0.00041110627962475256 0 0.0031761688199584701 -0.00034626957109124294 0 0.0032514096391915688 -0.0003747658075896836 0 0.0011950228963786105 0.00037828968653261789 0 0.0011579554548650608 0.00038433766582766872 0 0.0011753985929399368 0.00033967216559774749 0 0.0015779769915610549 0.00014569174467012316 0 0.002227644942453835 -7.2301740433233902e-05 0 0.0031069671604940638 -0.0002497593786673271 0 0.0031829842727036971 -0.00028242759659871045 0 0.0031761688199584701 -0.00034626957109124294 0 0.0031761688199584701 -0.00034626957109124294 0 0.0032514096391915688 -0.0003747658075896836 0 0.003234370035706328 -0.00033410138824462607 0 0.0031829842727036971 -0.00028242759659871045 0 0.003234370035706328 -0.00033410138824462607 0 0.0032377845007634364 -0.00029301333898116053 0 0.0031829842727036971 -0.00028242759659871045 0 0.0031761688199584701 -0.00034626957109124294 0 0.003234370035706328 -0.00033410138824462607 0 0.0015779769915610549 0.00014569174467012316 0 0.0011230529009814585 0.00032479024142378237 0 0.0011967219183673628 0.00029409433664689136 0 0.0011753985929399368 0.00033967216559774749 0 0.0012126272036735801 0.00033442776148051573 0 0.0011967219183673628 0.00029409433664689136 0 0.0012525598481084748 0.00032174791083200394 0 0.0012126272036735801 0.00033442776148051573 0 0.0033238727479737171 -0.00039769552522920425 0 0.0033745560859842678 -0.00042398554169611173 0 0.0033267703304819766 -0.00038873657418822023 0 0.0033238727479737171 -0.00039769552522920425 0 0.0032928696132325636 -0.00039080716568595217 0 0.0033060538501503496 -0.00037766234165534189 0 0.0033238727479737171 -0.00039769552522920425 0 0.0033060538501503496 -0.00037766234165534189 0 0.0033337509811969626 -0.0003796497660346723 0 0.0033238727479737171 -0.00039769552522920425 0 0.0033337509811969626 -0.0003796497660346723 0 0.0033745560859842678 -0.00042398554169611173 0 0.00330675711691323 -0.00039559100191192807 0 0.0032717626366529739 -0.00039977251616108377 0 0.0032928696132325636 -0.00039080716568595217 0 0.00330675711691323 -0.00039559100191192807 0 0.0033238727479737171 -0.00039769552522920425 0 0.0032928696132325636 -0.00039080716568595217 0 0.003245253826835927 -0.00041110627962475256 0 0.0032717626366529739 -0.00039977251616108377 0 0.0032514096391915688 -0.0003747658075896836 0 0.0032717626366529739 -0.00039977251616108377 0 0.0032514096391915688 -0.0003747658075896836 0 0.0032928696132325636 -0.00039080716568595217 0 0.0021936664951672491 0.00010855045503330473 0 0.00264636007198719 0.00012464272283036818 0 0.0032514096391915688 -0.0003747658075896836 0 0.0032928696132325636 -0.00039080716568595217 0 0.00327678245320716 -0.00036257953533780981 0 0.0032928696132325636 -0.00039080716568595217 0 0.0033060538501503496 -0.00037766234165534189 0 0.00327678245320716 -0.00036257953533780981 0 0.0032712432835516792 -0.00033512806359268095 0 0.0032974974317688801 -0.0003534691560262745 0 0.0033139964738753392 -0.00032780412638089561 0 0.0033060538501503496 -0.00037766234165534189 0 0.00327678245320716 -0.00036257953533780981 0 0.0032974974317688801 -0.0003534691560262745 0 0.00327678245320716 -0.00036257953533780981 0 0.0032712432835516792 -0.00033512806359268095 0 0.0032974974317688801 -0.0003534691560262745 0 0.0032514096391915688 -0.0003747658075896836 0 0.00327678245320716 -0.00036257953533780981 0 0.003234370035706328 -0.00033410138824462607 0 0.00327678245320716 -0.00036257953533780981 0 0.0032712432835516792 -0.00033512806359268095 0 0.003234370035706328 -0.00033410138824462607 0 0.0032712432835516792 -0.00033512806359268095 0 0.003234370035706328 -0.00033410138824462607 0 0.0032377845007634364 -0.00029301333898116053 0 0.0032712432835516792 -0.00033512806359268095 0 0.0032377845007634364 -0.00029301333898116053 0 0.0033139964738753392 -0.00032780412638089561 0 0.0033139964738753392 -0.00032780412638089561 0 0.0033187744660508611 -0.00029062486769742917 0 0.0033337509811969626 -0.0003796497660346723 0 0.0034755159606215569 -0.00044896841919976252 0 0.003360690252488677 -0.00040733549288342097 0 0.0033187744660508611 -0.00029062486769742917 0 0.0033337509811969626 -0.0003796497660346723 0 0.0033745560859842678 -0.00042398554169611173 0 0.0035288767160798645 -0.00057134146410413832 0 0.0034341651701019077 -0.00056258081200238777 0 0.0033745560859842678 -0.00042398554169611173 0 0.0032974974317688801 -0.0003534691560262745 0 0.0033139964738753392 -0.00032780412638089561 0 0.0033337509811969626 -0.0003796497660346723 0 0.0033060538501503496 -0.00037766234165534189 0 0.0032974974317688801 -0.0003534691560262745 0 0.0033337509811969626 -0.0003796497660346723 0 0.0034161414974841994 -0.00063704469341793789 0 0.0034341651701019077 -0.00056258081200238777 0 0.0032992003039485013 -0.00046631186156625331 0 0.0034341651701019077 -0.00056258081200238777 0 0.0033745560859842678 -0.00042398554169611173 0 0.0032992003039485013 -0.00046631186156625331 0 0.0033745560859842678 -0.00042398554169611173 0 0.0032880010335208771 -0.00039603383285161125 0 0.0033267703304819766 -0.00038873657418822023 0 0.0033745560859842678 -0.00042398554169611173 0 0.0032880010335208771 -0.00039603383285161125 0 0.0032992003039485013 -0.00046631186156625331 0 0.0032880010335208771 -0.00039603383285161125 0 0.0032992003039485013 -0.00046631186156625331 0 0.0032256035109190051 -0.00041221632241535003 0 0.0032992003039485013 -0.00046631186156625331 0 0.0032161513426231408 -0.00046379857164802153 0 0.0032256035109190051 -0.00041221632241535003 0 0.0032992003039485013 -0.00046631186156625331 0 0.0032324485560677424 -0.00054819979223730308 0 0.0032161513426231408 -0.00046379857164802153 0 0.0034161414974841994 -0.00063704469341793789 0 0.0032992003039485013 -0.00046631186156625331 0 0.0032324485560677424 -0.00054819979223730308 0 0.0033419168700386304 -0.00060842737432328833 0 0.0033811960022370816 -0.0005828419643998052 0 0.0032324485560677424 -0.00054819979223730308 0 0.0031889673245193168 -0.00048276360960907853 0 0.0031417555094542726 -0.00048532013320427429 0 0.0034820575010080278 -0.00067098572778231838 0 0.0034684383234074843 -0.00067660788705649723 0 0.0034896320825933448 -0.00068408197020395256 0 0.003511106065548001 -0.00067313149300164004 0 0.0033811960022370816 -0.0005828419643998052 0 0.0031889673245193168 -0.00048276360960907853 0 0.0031417555094542726 -0.00048532013320427429 0 0.0031676462217165172 -0.00044056773817406549 0 0.0032324485560677424 -0.00054819979223730308 0 0.0031889673245193168 -0.00048276360960907853 0 0.0032161513426231408 -0.00046379857164802153 0 0.0035745667743820649 -0.00062910704674072561 0 0.0035825333570458943 -0.00061956497417462429 0 0.0035940877080465295 -0.0006245707336610699 0 0.0035745667743820649 -0.00062910704674072561 0 0.0035825333570458943 -0.00061956497417462429 0 0.0035643683885363516 -0.00062329524903096572 0 0.0035818051600420039 -0.00061109119937492729 0 0.0035825333570458943 -0.00061956497417462429 0 0.0035643683885363516 -0.00062329524903096572 0 0.0035745667743820649 -0.00062910704674072561 0 0.0035643683885363516 -0.00062329524903096572 0 0.0035589946008420296 -0.0006349491274396632 0 0.0035259525623470116 -0.00063763079863250218 0 0.0035482985705695626 -0.00063243863386742516 0 0.0035504188914972849 -0.00064027994186524443 0 0.0035482985705695626 -0.00063243863386742516 0 0.0035504188914972849 -0.00064027994186524443 0 0.0035589946008420296 -0.0006349491274396632 0 0.0035643683885363516 -0.00062329524903096572 0 0.0035482985705695626 -0.00063243863386742516 0 0.0035589946008420296 -0.0006349491274396632 0 0.0034000340249830297 -0.00059397776348201273 0 0.0033588496932116753 -0.0005743030644160083 0 0.0033472788619159223 -0.00050504369871252311 0 0.0033811960022370816 -0.0005828419643998052 0 0.0034395441370359647 -0.00058363235372449506 0 0.0035504188914972849 -0.00064027994186524443 0 0.0035594031469531988 -0.00064449381691600467 0 0.0035589946008420296 -0.0006349491274396632 0 0.0035594031469531988 -0.00064449381691600467 0 0.0035805627898289499 -0.00063595681382218642 0 0.003610729702011295 -0.00064453575963064941 0 0.0035745667743820649 -0.00062910704674072561 0 0.0035589946008420296 -0.0006349491274396632 0 0.0035805627898289499 -0.00063595681382218642 0 0.0035594031469531988 -0.00064449381691600467 0 0.0035589946008420296 -0.0006349491274396632 0 0.0035805627898289499 -0.00063595681382218642 0 0.0035745667743820649 -0.00062910704674072561 0 0.0035805627898289499 -0.00063595681382218642 0 0.0035940877080465295 -0.0006245707336610699 0 0.0033163488539312545 -0.00048491153995108209 0 0.0032041461780919927 -0.00040020638991806437 0 0.0034318533127922473 -0.00054171539076693174 0 0.0034330830157902458 -0.00054903736630498791 0 0.0034489842486570754 -0.00055017795621190371 0 0.0034395441370359647 -0.00058363235372449506 0 0.0033163488539312545 -0.00048491153995108209 0 0.0033811960022370816 -0.0005828419643998052 0 0.0033163488539312545 -0.00048491153995108209 0 0.0031417555094542726 -0.00048532013320427429 0 0.0031186384054853176 -0.00043944383692347489 0 0.0031676462217165172 -0.00044056773817406549 0 0.0031186384054853176 -0.00043944383692347489 0 0.0031676462217165172 -0.00044056773817406549 0 0.0031632152748404165 -0.00038288397341733875 0 0.0033163488539312545 -0.00048491153995108209 0 0.0033751577931254357 -0.00051594826881810559 0 0.0031889673245193168 -0.00048276360960907853 0 0.0032161513426231408 -0.00046379857164802153 0 0.0031676462217165172 -0.00044056773817406549 0 0.0032161513426231408 -0.00046379857164802153 0 0.0031676462217165172 -0.00044056773817406549 0 0.0032256035109190051 -0.00041221632241535003 0 0.0031676462217165172 -0.00044056773817406549 0 0.0032256035109190051 -0.00041221632241535003 0 0.0031632152748404165 -0.00038288397341733875 0 0.0032256035109190051 -0.00041221632241535003 0 0.0031632152748404165 -0.00038288397341733875 0 0.0032478533024254915 -0.00033940505295099898 0 0.0031632152748404165 -0.00038288397341733875 0 0.0031642079493007977 -0.00032157021813868049 0 0.0032478533024254915 -0.00033940505295099898 0 0.0033100520590515826 -0.00047201800320269765 0 0.0033068453001188509 -0.00045164535134060811 0 0.0033003191999274616 -0.00045469618844337482 0 0.0031186384054853176 -0.00043944383692347489 0 0.0031632152748404165 -0.00038288397341733875 0 0.0031079815866845114 -0.00036252593887053079 0 0.0031632152748404165 -0.00038288397341733875 0 0.0031079815866845114 -0.00036252593887053079 0 0.0031642079493007977 -0.00032157021813868049 0 0.0031079815866845114 -0.00036252593887053079 0 0.0030966195245643036 -0.00029242802814126093 0 0.0031642079493007977 -0.00032157021813868049 0 0.0032087642818543162 -0.00035895525106000519 0 0.0031216786836965054 -0.00025890220502316233 0 0.0032041461780919927 -0.00040020638991806437 0 0.0032087642818543162 -0.00035895525106000519 0 0.0033068453001188509 -0.00045164535134060811 0 0.0033034061825234135 -0.00043227231924486924 0 0.0033000572148851807 -0.00044404893577212423 0 0.0030966195245643036 -0.00029242802814126093 0 0.0031642079493007977 -0.00032157021813868049 0 0.0031711440360047143 -0.00025593887533085537 0 0.0032053002053702459 -0.00029437202144603716 0 0.0031642079493007977 -0.00032157021813868049 0 0.0031711440360047143 -0.00025593887533085537 0 0.0032053002053702459 -0.00029437202144603716 0 0.0031642079493007977 -0.00032157021813868049 0 0.0032478533024254915 -0.00033940505295099898 0 0.0032053002053702459 -0.00029437202144603716 0 0.0032478533024254915 -0.00033940505295099898 0 0.0032384270365825077 -0.00026390605397152989 0 0.0032878683479708425 -0.0002887136268773029 0 0.0032478533024254915 -0.00033940505295099898 0 0.0032384270365825077 -0.00026390605397152989 0 0.0033958565404935879 -0.00033097117189790227 0 0.0032131718537402433 -0.00034926514463246017 0 0.0033078946321639597 -0.00035894012219398933 0 0.0033267703304819766 -0.00038873657418822023 0 0.0032478533024254915 -0.00033940505295099898 0 0.0032880010335208771 -0.00039603383285161125 0 0.0033267703304819766 -0.00038873657418822023 0 0.0032478533024254915 -0.00033940505295099898 0 0.0032880010335208771 -0.00039603383285161125 0 0.0032256035109190051 -0.00041221632241535003 0 0.0032478533024254915 -0.00033940505295099898 0 0.0039186923739028988 -0.00057688980099657151 0 0.0040440004555906224 -0.00047664667646059316 0 0.0040488557986851238 -0.00060188740610765245 0 0.0039186923739028988 -0.00057688980099657151 0 0.0039282175458617329 -0.00066125759138030849 0 0.0040488557986851238 -0.00060188740610765245 0 0.0039186923739028988 -0.00057688980099657151 0 0.0038391129363218963 -0.00065377707552991828 0 0.0039282175458617329 -0.00066125759138030849 0 0.0040116112908054743 -0.00040589188700941467 0 0.0039142573278538343 -0.0004688997236508782 0 0.0040440004555906224 -0.00047664667646059316 0 0.0039186923739028988 -0.00057688980099657151 0 0.0039087450941858014 -0.0005128357862827814 0 0.0040440004555906224 -0.00047664667646059316 0 0.0039142573278538343 -0.0004688997236508782 0 0.0039087450941858014 -0.0005128357862827814 0 0.0040440004555906224 -0.00047664667646059316 0 0.0039142573278538343 -0.0004688997236508782 0 0.0039087450941858014 -0.0005128357862827814 0 0.0038361098303803542 -0.00051060027464074238 0 0.0039186923739028988 -0.00057688980099657151 0 0.0039087450941858014 -0.0005128357862827814 0 0.0038320560106544846 -0.00055253926303794614 0 0.0039087450941858014 -0.0005128357862827814 0 0.0038320560106544846 -0.00055253926303794614 0 0.0038361098303803542 -0.00051060027464074238 0 0.0038320560106544846 -0.00055253926303794614 0 0.0038361098303803542 -0.00051060027464074238 0 0.0037548247252843663 -0.00057174024896231598 0 0.0038361098303803542 -0.00051060027464074238 0 0.003758387837667688 -0.00053823351932065554 0 0.0037548247252843663 -0.00057174024896231598 0 0.0038320560106544846 -0.00055253926303794614 0 0.0037548247252843663 -0.00057174024896231598 0 0.0037845804658019509 -0.00059348586657440993 0 0.0037548247252843663 -0.00057174024896231598 0 0.0037845804658019509 -0.00059348586657440993 0 0.0037276291985794772 -0.00060882728160041252 0 0.0037845804658019509 -0.00059348586657440993 0 0.0038401657988291083 -0.00060198886451681363 0 0.0037745718962094452 -0.00063622449848758152 0 0.0037845804658019509 -0.00059348586657440993 0 0.0037745718962094452 -0.00063622449848758152 0 0.0037276291985794772 -0.00060882728160041252 0 0.0038320560106544846 -0.00055253926303794614 0 0.0037845804658019509 -0.00059348586657440993 0 0.0038401657988291083 -0.00060198886451681363 0 0.0039186923739028988 -0.00057688980099657151 0 0.0038320560106544846 -0.00055253926303794614 0 0.0038401657988291083 -0.00060198886451681363 0 0.0038401657988291083 -0.00060198886451681363 0 0.0038391129363218963 -0.00065377707552991828 0 0.0037745718962094452 -0.00063622449848758152 0 0.0039186923739028988 -0.00057688980099657151 0 0.0038401657988291083 -0.00060198886451681363 0 0.0038391129363218963 -0.00065377707552991828 0 0.0037745718962094452 -0.00063622449848758152 0 0.0037300100495171341 -0.00066312156030648363 0 0.0037682404200861221 -0.000691376927226055 0 0.0038391129363218963 -0.00065377707552991828 0 0.0037745718962094452 -0.00063622449848758152 0 0.0037682404200861221 -0.000691376927226055 0 0.0037300100495171341 -0.00066312156030648363 0 0.0036411709696538143 -0.00066086783007860024 0 0.0037682404200861221 -0.000691376927226055 0 0.0036119038506475572 -0.00063060798431022029 0 0.0037591701029376749 -0.00069028162748251446 0 0.0037300100495171341 -0.00066312156030648363 0 0.0036817228637258791 -0.00065437515737516022 0 0.0037248235107974429 -0.00063981778143322454 0 0.0037745718962094452 -0.00063622449848758152 0 0.0037300100495171341 -0.00066312156030648363 0 0.0037248235107974429 -0.00063981778143322454 0 0.0037300100495171341 -0.00066312156030648363 0 0.0036817228637258791 -0.00065437515737516022 0 0.0036411709696538143 -0.00066086783007860024 0 0.0036960562260113213 -0.00062991480372344638 0 0.0037276291985794772 -0.00060882728160041252 0 0.0036790920032827865 -0.0006125699826943419 0 0.0036817228637258791 -0.00065437515737516022 0 0.0036960562260113213 -0.00062991480372344638 0 0.0037248235107974429 -0.00063981778143322454 0 0.0036817228637258791 -0.00065437515737516022 0 0.003658854484901775 -0.00064938163403727546 0 0.0036411709696538143 -0.00066086783007860024 0 0.0036817228637258791 -0.00065437515737516022 0 0.0036651377774846896 -0.00063599266151006877 0 0.003658854484901775 -0.00064938163403727546 0 0.0036817228637258791 -0.00065437515737516022 0 0.0036651377774846896 -0.00063599266151006877 0 0.0036960562260113213 -0.00062991480372344638 0 0.0036651377774846896 -0.00063599266151006877 0 0.0036960562260113213 -0.00062991480372344638 0 0.0036790920032827865 -0.0006125699826943419 0 0.0037745718962094452 -0.00063622449848758152 0 0.0037248235107974429 -0.00063981778143322454 0 0.0037276291985794772 -0.00060882728160041252 0 0.0036960562260113213 -0.00062991480372344638 0 0.0037248235107974429 -0.00063981778143322454 0 0.0037276291985794772 -0.00060882728160041252 0 0.0037276291985794772 -0.00060882728160041252 0 0.003696332146560921 -0.00059031979492410827 0 0.0036790920032827865 -0.0006125699826943419 0 0.0037548247252843663 -0.00057174024896231598 0 0.0037276291985794772 -0.00060882728160041252 0 0.003696332146560921 -0.00059031979492410827 0 0.003758387837667688 -0.00053823351932065554 0 0.0037548247252843663 -0.00057174024896231598 0 0.0037060018206977116 -0.0005622083783724521 0 0.0037548247252843663 -0.00057174024896231598 0 0.003696332146560921 -0.00059031979492410827 0 0.0037060018206977116 -0.0005622083783724521 0 0.003696332146560921 -0.00059031979492410827 0 0.0037060018206977116 -0.0005622083783724521 0 0.0036607173250774866 -0.0005873122718320935 0 0.003696332146560921 -0.00059031979492410827 0 0.0036607173250774866 -0.0005873122718320935 0 0.0036579931807642183 -0.00060498402068494684 0 0.0036607173250774866 -0.0005873122718320935 0 0.0036579931807642183 -0.00060498402068494684 0 0.0036395287623895785 -0.00060293176906415168 0 0.003696332146560921 -0.00059031979492410827 0 0.0036579931807642183 -0.00060498402068494684 0 0.0036790920032827865 -0.0006125699826943419 0 0.0036579931807642183 -0.00060498402068494684 0 0.0036790920032827865 -0.0006125699826943419 0 0.0036550880994748319 -0.0006222369302950982 0 0.0036651377774846896 -0.00063599266151006877 0 0.0036790920032827865 -0.0006125699826943419 0 0.0036550880994748319 -0.0006222369302950982 0 0.0036550880994748319 -0.0006222369302950982 0 0.0036358728394333124 -0.00061683457580549727 0 0.0036360274049527103 -0.00063525626227211381 0 0.0036358728394333124 -0.00061683457580549727 0 0.0036148813850854513 -0.00062799710703655229 0 0.0036360274049527103 -0.00063525626227211381 0 0.0036358728394333124 -0.00061683457580549727 0 0.0036171811426576011 -0.00061268833039446993 0 0.0036148813850854513 -0.00062799710703655229 0 0.0036579931807642183 -0.00060498402068494684 0 0.0036358728394333124 -0.00061683457580549727 0 0.0036395287623895785 -0.00060293176906415168 0 0.0036579931807642183 -0.00060498402068494684 0 0.0036550880994748319 -0.0006222369302950982 0 0.0036358728394333124 -0.00061683457580549727 0 0.0036358728394333124 -0.00061683457580549727 0 0.0036395287623895785 -0.00060293176906415168 0 0.0036171811426576011 -0.00061268833039446993 0 0.0036279247866835415 -0.00059454271042852828 0 0.0036395287623895785 -0.00060293176906415168 0 0.0036171811426576011 -0.00061268833039446993 0 0.0036279247866835415 -0.00059454271042852828 0 0.0036607173250774866 -0.0005873122718320935 0 0.0036395287623895785 -0.00060293176906415168 0 0.0035818051600420039 -0.00061109119937492729 0 0.0035825333570458943 -0.00061956497417462429 0 0.0035987552264296922 -0.00061034820522572252 0 0.0036279247866835415 -0.00059454271042852828 0 0.0036171811426576011 -0.00061268833039446993 0 0.0035987552264296922 -0.00061034820522572252 0 0.0036171811426576011 -0.00061268833039446993 0 0.0035987552264296922 -0.00061034820522572252 0 0.0035940877080465295 -0.0006245707336610699 0 0.0035825333570458943 -0.00061956497417462429 0 0.0035987552264296922 -0.00061034820522572252 0 0.0035940877080465295 -0.0006245707336610699 0 0.0035940877080465295 -0.0006245707336610699 0 0.0036148813850854513 -0.00062799710703655229 0 0.0035994756291779818 -0.00063415368524319838 0 0.0035805627898289499 -0.00063595681382218642 0 0.0035940877080465295 -0.0006245707336610699 0 0.0035994756291779818 -0.00063415368524319838 0 0.0036171811426576011 -0.00061268833039446993 0 0.0035940877080465295 -0.0006245707336610699 0 0.0036148813850854513 -0.00062799710703655229 0 0.0036148813850854513 -0.00062799710703655229 0 0.0035994756291779818 -0.00063415368524319838 0 0.003610729702011295 -0.00064453575963064941 0 0.0036148813850854513 -0.00062799710703655229 0 0.003610729702011295 -0.00064453575963064941 0 0.0036360274049527103 -0.00063525626227211381 0 0.0035805627898289499 -0.00063595681382218642 0 0.0035994756291779818 -0.00063415368524319838 0 0.003610729702011295 -0.00064453575963064941 0 0.0034330830157902458 -0.00054903736630498791 0 0.0034489842486570754 -0.00055017795621190371 0 0.0034419957758859651 -0.00056334830048549638 0 0.0034395441370359647 -0.00058363235372449506 0 0.003554515942866788 -0.00060555363253725987 0 0.0035594031469531988 -0.00064449381691600467 0 0.003610729702011295 -0.00064453575963064941 0 0.0036270178454514881 -0.00065814294102934311 0 0.003610729702011295 -0.00064453575963064941 0 0.0036337972961348465 -0.00064690016116806766 0 0.0036360274049527103 -0.00063525626227211381 0 0.0036337972961348465 -0.00064690016116806766 0 0.0036360274049527103 -0.00063525626227211381 0 0.0036477314151625449 -0.00064684201741895615 0 0.0036651377774846896 -0.00063599266151006877 0 0.0036360274049527103 -0.00063525626227211381 0 0.0036477314151625449 -0.00064684201741895615 0 0.0036651377774846896 -0.00063599266151006877 0 0.0036550880994748319 -0.0006222369302950982 0 0.0036360274049527103 -0.00063525626227211381 0 0.0036337972961348465 -0.00064690016116806766 0 0.0036477314151625449 -0.00064684201741895615 0 0.0036411709696538143 -0.00066086783007860024 0 0.0036651377774846896 -0.00063599266151006877 0 0.0036477314151625449 -0.00064684201741895615 0 0.003658854484901775 -0.00064938163403727546 0 0.0036477314151625449 -0.00064684201741895615 0 0.003658854484901775 -0.00064938163403727546 0 0.0036411709696538143 -0.00066086783007860024 0 0.003610729702011295 -0.00064453575963064941 0 0.0036270178454514881 -0.00065814294102934311 0 0.0036411709696538143 -0.00066086783007860024 0 0.003610729702011295 -0.00064453575963064941 0 0.0036337972961348465 -0.00064690016116806766 0 0.0036411709696538143 -0.00066086783007860024 0 0.003554515942866788 -0.00060555363253725987 0 0.0036119038506475572 -0.00063060798431022029 0 0.0035734615800856813 -0.00059474163613573131 0 0.0035998125616608324 -0.00060786640328459884 0 0.0036525901407438968 -0.00070423416604083417 0 0.0035734615800856813 -0.00059474163613573131 0 0.0036133007371717805 -0.00082306013490349172 0 0.0036525901407438968 -0.00070423416604083417 0 0.0034489842486570754 -0.00055017795621190371 0 0.0034419957758859651 -0.00056334830048549638 0 0.0034533602029952482 -0.00057645926362958819 0 0.003554515942866788 -0.00060555363253725987 0 0.0035325578987531149 -0.00062816310493159395 0 0.0034419957758859651 -0.00056334830048549638 0 0.0034533602029952482 -0.00057645926362958819 0 0.0034506181248352371 -0.00057752490339851837 0 0.0033751577931254357 -0.00051594826881810559 0 0.0034100717419352365 -0.00048912255275591096 0 0.0033003191999274616 -0.00045469618844337482 0 0.0033000572148851807 -0.00044404893577212423 0 0.0032911845849218644 -0.00043828720701661721 0 0.0033068453001188509 -0.00045164535134060811 0 0.0033003191999274616 -0.00045469618844337482 0 0.0033000572148851807 -0.00044404893577212423 0 0.0033034061825234135 -0.00043227231924486924 0 0.0033000572148851807 -0.00044404893577212423 0 0.0032911845849218644 -0.00043828720701661721 0 0.0032087642818543162 -0.00035895525106000519 0 0.0034100717419352365 -0.00048912255275591096 0 0.0032785808909493522 -0.00022683616347466553 0 0.0032195548694428085 -0.00022923410688437525 0 0.0032111001817849627 -0.00025690461115037599 0 0.0032785808909493522 -0.00022683616347466553 0 0.0032394680175057301 -0.00020852638402815401 0 0.0032195548694428085 -0.00022923410688437525 0 0.0032394680175057301 -0.00020852638402815401 0 0.0032195548694428085 -0.00022923410688437525 0 0.0031926030153925367 -0.00022481499270920257 0 0.0032470274557107842 -0.00032991595210264224 0 0.003536360648110211 -0.00039112206028067822 0 0.0032394680175057301 -0.00020852638402815401 0 0.0031890264921483479 -0.00022368542584945598 0 0.0031832349536331682 -0.00021407951311870198 0 0.003536360648110211 -0.00039112206028067822 0 0.0035554921549686099 -0.00030869535082373356 0 0.0032195548694428085 -0.00022923410688437525 0 0.0031926030153925367 -0.00022481499270920257 0 0.0032111001817849627 -0.00025690461115037599 0 0.003536360648110211 -0.00039112206028067822 0 0.0034100717419352365 -0.00048912255275591096 0 0.0035218412645697363 -0.00043338119455634612 0 0.0035312250269528929 -0.00054444624039597567 0 0.0035758711749948285 -0.00052484269132362029 0 0.003536360648110211 -0.00039112206028067822 0 0.0035325578987531149 -0.00062816310493159395 0 0.0035325578987531149 -0.00062816310493159395 0 0.0034100717419352365 -0.00048912255275591096 0 0.0036478035185391658 -0.00077997267694578619 0 0.0037826520623665053 -0.00072524661728542539 0 0.0037713321063517907 -0.00079797770057516283 0 0.0036520695631419402 -0.00082867033529798999 0 0.0036478035185391658 -0.00077997267694578619 0 0.0037713321063517907 -0.00079797770057516283 0 0.003536360648110211 -0.00039112206028067822 0 0.0038584798992514686 -0.00055104429134051746 0 0.0038715686400203359 -0.00032120573764387819 0 0.0039156310873082432 -0.0003364977158726313 0 0.0039438625721367948 -0.00030124336722952118 0 0.0038715686400203359 -0.00032120573764387819 0 0.0038758954923056852 -0.00032803942811970166 0 0.0039156310873082432 -0.0003364977158726313 0 0.0039156310873082432 -0.0003364977158726313 0 0.0039438625721367948 -0.00030124336722952118 0 0.0039651898794128941 -0.0003382487806522601 0 0.0035325578987531149 -0.00062816310493159395 0 0.0037851970025627206 -0.00074757042761509581 0 0.0035998125616608324 -0.00060786640328459884 0 0.0036525901407438968 -0.00070423416604083417 0 0.0037682404200861221 -0.000691376927226055 0 0.0036133007371717805 -0.00082306013490349172 0 0.003714266919372189 -0.00072404302099863898 0 0.003767424631863294 -0.00075822567672732366 0 0.0036133007371717805 -0.00082306013490349172 0 0.0036525901407438968 -0.00070423416604083417 0 0.003714266919372189 -0.00072404302099863898 0 0.003714266919372189 -0.00072404302099863898 0 0.0037682404200861221 -0.000691376927226055 0 0.003767424631863294 -0.00075822567672732366 0 0.0036525901407438968 -0.00070423416604083417 0 0.003714266919372189 -0.00072404302099863898 0 0.0037682404200861221 -0.000691376927226055 0 0.0037851970025627206 -0.00074757042761509581 0 0.003912273466291083 -0.00067050978850010431 0 0.0037826520623665053 -0.00072524661728542539 0 0.0038923183722919751 -0.00076955316571919734 0 0.0039119352970386576 -0.00074768840303639401 0 0.0038391129363218963 -0.00065377707552991828 0 0.003767424631863294 -0.00075822567672732366 0 0.0039282175458617329 -0.00066125759138030849 0 0.0037826520623665053 -0.00072524661728542539 0 0.0039119352970386576 -0.00074768840303639401 0 0.0039282175458617329 -0.00066125759138030849 0 0.0038391129363218963 -0.00065377707552991828 0 0.0037682404200861221 -0.000691376927226055 0 0.003767424631863294 -0.00075822567672732366 0 0.0038584798992514686 -0.00055104429134051746 0 0.0041158407909064158 -0.00046064050175637365 0 0.0039438625721367948 -0.00030124336722952118 0 0.0039651898794128941 -0.0003382487806522601 0 0.004012896253165585 -0.00028322980261743971 0 0.0045018316084506609 -0.00025627446413541648 0 0.0045191543355485109 -0.00024026316638546579 0 0.0045283864541995388 -0.00025579151934658142 0 0.0037826520623665053 -0.00072524661728542539 0 0.0037713321063517907 -0.00079797770057516283 0 0.0038923183722919751 -0.00076955316571919734 0 0.0042607902785248121 -0.00026708873022956227 0 0.0041158407909064158 -0.00046064050175637365 0 0.0045191543355485109 -0.00024026316638546579 0 0.0045458918845705824 -0.00025118374560721744 0 0.0045738148459608247 -0.00025102810165125044 0 0.0045191543355485109 -0.00024026316638546579 0 0.0045283864541995388 -0.00025579151934658142 0 0.0045458918845705824 -0.00025118374560721744 0 0.0045283864541995388 -0.00025579151934658142 0 0.0045366796798825618 -0.00026386757547530926 0 0.0045438630785417048 -0.00025730509464026827 0 0.0045283864541995388 -0.00025579151934658142 0 0.0045458918845705824 -0.00025118374560721744 0 0.0045438630785417048 -0.00025730509464026827 0 0.0041158407909064158 -0.00046064050175637365 0 0.0043681025680469129 -0.00046594089532722011 0 0.0038853818135611887 -0.00078337624935504921 0 0.0039119352970386576 -0.00074768840303639401 0 0.0041428647018684024 -0.00068620241397615339 0 0.0041158407909064158 -0.00046064050175637365 0 0.0040107301451265329 -0.00059623090887272513 0 0.0039119352970386576 -0.00074768840303639401 0 0.0039282175458617329 -0.00066125759138030849 0 0.0040488557986851238 -0.00060188740610765245 0 0.0045273513727416628 -0.00028285944730602306 0 0.0045245059435788625 -0.00029060275660029977 0 0.0045499141965967028 -0.00027993747709282397 0 0.0045245059435788625 -0.00029060275660029977 0 0.0045171922177452365 -0.00030576024445286146 0 0.0045499141965967028 -0.00027993747709282397 0 0.0045273513727416628 -0.00028285944730602306 0 0.0045245059435788625 -0.00029060275660029977 0 0.0045072098634610404 -0.00028748365636965226 0 0.0045273513727416628 -0.00028285944730602306 0 0.0045297786321953507 -0.00027105322232211221 0 0.0045083817392722299 -0.00027026523333015999 0 0.0045273513727416628 -0.00028285944730602306 0 0.0045083817392722299 -0.00027026523333015999 0 0.0045072098634610404 -0.00028748365636965226 0 0.0045273513727416628 -0.00028285944730602306 0 0.0045297786321953507 -0.00027105322232211221 0 0.0045399326341518317 -0.00027670566800798717 0 0.0045297786321953507 -0.00027105322232211221 0 0.0045432209768484222 -0.00027175432150867101 0 0.0045399326341518317 -0.00027670566800798717 0 0.0045297786321953507 -0.00027105322232211221 0 0.0045366796798825618 -0.00026386757547530926 0 0.0045190691599378127 -0.00026379609586035617 0 0.0045297786321953507 -0.00027105322232211221 0 0.0045366796798825618 -0.00026386757547530926 0 0.0045432209768484222 -0.00027175432150867101 0 0.0045283864541995388 -0.00025579151934658142 0 0.0045366796798825618 -0.00026386757547530926 0 0.0045190691599378127 -0.00026379609586035617 0 0.0045297786321953507 -0.00027105322232211221 0 0.0045190691599378127 -0.00026379609586035617 0 0.0045083817392722299 -0.00027026523333015999 0 0.0045018316084506609 -0.00025627446413541648 0 0.0045283864541995388 -0.00025579151934658142 0 0.0045190691599378127 -0.00026379609586035617 0 0.0045018316084506609 -0.00025627446413541648 0 0.0045083817392722299 -0.00027026523333015999 0 0.0044878537801508701 -0.00027168607543936904 0 0.0045889030924810038 -0.00026485903251805308 0 0.0042147591882567004 -0.00022624919335484703 0 0.0045018316084506609 -0.00025627446413541648 0 0.0045190691599378127 -0.00026379609586035617 0 0.0045083817392722299 -0.00027026523333015999 0 0.0045083817392722299 -0.00027026523333015999 0 0.0044832068309995209 -0.0002796468773893666 0 0.0044734616793698431 -0.00026463511700858852 0 0.0045083817392722299 -0.00027026523333015999 0 0.0045072098634610404 -0.00028748365636965226 0 0.0044832068309995209 -0.0002796468773893666 0 0.0045072098634610404 -0.00028748365636965226 0 0.0044832068309995209 -0.0002796468773893666 0 0.0044876891732461878 -0.00030151702922094989 0 0.0035100848743300642 7.8796452535850114e-06 0 0.0038007568777970158 -7.7882336278653941e-05 0 0.0044524112742833901 -0.00026863050510457504 0 0.0044658800831473659 -0.00026987580395956888 0 0.0044625514139430607 -0.00030268135587107329 0 0.0044832068309995209 -0.0002796468773893666 0 0.0044658800831473659 -0.00026987580395956888 0 0.0044625514139430607 -0.00030268135587107329 0 0.0035100848743300642 7.8796452535850114e-06 0 0.003386252444290954 -2.8781711372133018e-05 0 0.0036252498930233567 -9.8868964021610182e-05 0 0.003603342228381547 -0.00012743603262792497 0 0.0036302880278638525 -0.00012629110838606973 0 0.0044524112742833901 -0.00026863050510457504 0 0.0044658800831473659 -0.00026987580395956888 0 0.0044613842287546703 -0.00025663972529007162 0 0.0035100848743300642 7.8796452535850114e-06 0 0.0039359583411063478 -0.00013422524538293204 0 0.0044263449411065777 -0.00032919306753729762 0 0.0042147591882567004 -0.00022624919335484703 0 0.0044832068309995209 -0.0002796468773893666 0 0.0044658800831473659 -0.00026987580395956888 0 0.0044677085147116656 -0.00025624017453313445 0 0.0044658800831473659 -0.00026987580395956888 0 0.0044613842287546703 -0.00025663972529007162 0 0.0044677085147116656 -0.00025624017453313445 0 0.0035554921549686099 -0.00030869535082373356 0 0.003386252444290954 -2.8781711372133018e-05 0 0.0045018316084506609 -0.00025627446413541648 0 0.0044878537801508701 -0.00027168607543936904 0 0.004486574372130965 -0.00026983977173530334 0 0.0035554921549686099 -0.00030869535082373356 0 0.0040403194691264752 -0.00018622502423780923 0 0.0038758954923056852 -0.00032803942811970166 0 0.0039156310873082432 -0.0003364977158726313 0 0.0039184350279462586 -0.00039411158188417392 0 0.0036719658135926127 -0.00024976546215685569 0 0.0035971674543680294 -0.00011918414492867052 0 0.0036471883690391261 -0.00010340839728664944 0 0.0041212824855673263 -4.5374916162266368e-05 0 0.003916306283691464 -5.2798233748683981e-05 0 0.0040008414767685047 -0.00019490290930182557 0 0.0039359583411063478 -0.00013422524538293204 0 0.0042147591882567004 -0.00022624919335484703 0 0.0039359583411063478 -0.00013422524538293204 0 0.0040403194691264752 -0.00018622502423780923 0 0.0042147591882567004 -0.00022624919335484703 0 0.0040403194691264752 -0.00018622502423780923 0 0.0042607902785248121 -0.00026708873022956227 0 0.0040403194691264752 -0.00018622502423780923 0 0.0039156310873082432 -0.0003364977158726313 0 0.0039651898794128941 -0.0003382487806522601 0 0.0039184350279462586 -0.00039411158188417392 0 0.0036085318996723274 -0.0001048337426799754 0 0.0035971674543680294 -0.00011918414492867052 0 0.0036471883690391261 -0.00010340839728664944 0 0.0039359583411063478 -0.00013422524538293204 0 0.003386252444290954 -2.8781711372133018e-05 0 0.0032394680175057301 -0.00020852638402815401 0 0.0032088215830775053 -0.00015712531868772116 0 0.0032560843901339432 -0.0001033529605025739 0 0.0031832349536331682 -0.00021407951311870198 0 0.0031631363428342163 -0.00010707811774688883 0 0.0032088215830775053 -0.00015712531868772116 0 0.0032785808909493522 -0.00022683616347466553 0 0.0032394680175057301 -0.00020852638402815401 0 0.0032560843901339432 -0.0001033529605025739 0 0.0031631363428342163 -0.00010707811774688883 0 0.0032088215830775053 -0.00015712531868772116 0 0.0032560843901339432 -0.0001033529605025739 0 0.0032087642818543162 -0.00035895525106000519 0 0.0026126776534336495 0.00015262372201019317 0 0.0032394680175057301 -0.00020852638402815401 0 0.0031832349536331682 -0.00021407951311870198 0 0.0032088215830775053 -0.00015712531868772116 0 0.003386252444290954 -2.8781711372133018e-05 0 0.0026126776534336495 0.00015262372201019317 0 0.0028906965014125867 0.00021222148999162213 0 0.0027661324827160647 0.0002425916387598409 0 0.0027888403436528222 9.4673157511310818e-05 0 0.0028906965014125867 0.00021222148999162213 0 0.0028849280017447664 0.00024605870667488637 0 0.0027661324827160647 0.0002425916387598409 0 0.0035100848743300642 7.8796452535850114e-06 0 0.0022762919145360395 0.00040465709882407577 0 0.0026126776534336495 0.00015262372201019317 0 0.0022762919145360395 0.00040465709882407577 0 0.0022762919145360395 0.00040465709882407577 0 0.001673839140681269 0.00050506774834319567 0 0.0016868811442482148 0.00060227369151183939 0 0.0016101755042537732 0.00066892759651600916 0 0.0016520392033155186 0.00066034650519948774 0 0.0022762919145360395 0.00040465709882407577 0 0.0024724065637496215 0.00044076204489121263 0 0.0030952372732431024 0.00021624201870569238 0 0.0031325203649583662 0.00018748865038127965 0 0.0031013268587417311 0.00017168274702460143 0 0.001648719752159395 0.00054682677689141127 0 0.0016868811442482148 0.00060227369151183939 0 0.0016101755042537732 0.00066892759651600916 0 0.004033681414714399 0.00010577296926367655 0 0.0024724065637496215 0.00044076204489121263 0 0.004033681414714399 0.00010577296926367655 0 0.0044046298316039092 0.00037683200302303805 0 0.004033681414714399 0.00010577296926367655 0 0.0038007568777970158 -7.7882336278653941e-05 0 0.0030952372732431024 0.00021624201870569238 0 0.0031325203649583662 0.00018748865038127965 0 0.0031271373078090295 0.00021441570181932122 0 0.0031230880629386374 0.00024099114696611397 0 0.0030952372732431024 0.00021624201870569238 0 0.0031271373078090295 0.00021441570181932122 0 0.0044673938189971991 -0.00033238373418913202 0 0.0044625514139430607 -0.00030268135587107329 0 0.0044876891732461878 -0.00030151702922094989 0 0.0044832068309995209 -0.0002796468773893666 0 0.0044625514139430607 -0.00030268135587107329 0 0.0044876891732461878 -0.00030151702922094989 0 0.0044673938189971991 -0.00033238373418913202 0 0.0044876891732461878 -0.00030151702922094989 0 0.0045171922177452365 -0.00030576024445286146 0 0.0045072098634610404 -0.00028748365636965226 0 0.0044876891732461878 -0.00030151702922094989 0 0.0045171922177452365 -0.00030576024445286146 0 0.0053682020434595119 0.00033137781788255768 0 0.0053711765876604022 0.00041329421158437776 0 0.0055152676310003387 0.0004660366321359017 0 0.0047797384446483272 -3.1343207468096117e-05 0 0.004884312346635983 -1.5501994470101028e-05 0 0.00488136895286351 1.9151821060202964e-05 0 0.0047797384446483272 -3.1343207468096117e-05 0 0.004884312346635983 -1.5501994470101028e-05 0 0.0047881583442313776 -8.2435797771776868e-05 0 0.0052599057134537055 0.00015924741306670007 0 0.0044046298316039092 0.00037683200302303805 0 0.004033681414714399 0.00010577296926367655 0 0.0048003994758005052 -0.00016373794650526526 0 0.0053682020434595119 0.00033137781788255768 0 0.0053711765876604022 0.00041329421158437776 0 0.0053056973415124449 0.0003547935133592961 0 0.0053711765876604022 0.00041329421158437776 0 0.0053056973415124449 0.0003547935133592961 0 0.0052978685512228407 0.00042620842906799389 0 0.0053682020434595119 0.00033137781788255768 0 0.0053056973415124449 0.0003547935133592961 0 0.005271965206217262 0.0002883743548033572 0 0.004884312346635983 -1.5501994470101028e-05 0 0.00488136895286351 1.9151821060202964e-05 0 0.0049670824901432561 3.3952938152720212e-05 0 0.0048003994758005052 -0.00016373794650526526 0 0.0047408421134308206 -0.00012137037945184444 0 0.0052599057134537055 0.00015924741306670007 0 0.0050636060875729151 0.00010179359966833302 0 0.0053682020434595119 0.00033137781788255768 0 0.0052137287026597506 0.00018477892263435265 0 0.005271965206217262 0.0002883743548033572 0 0.0045245059435788625 -0.00029060275660029977 0 0.0045072098634610404 -0.00028748365636965226 0 0.0045171922177452365 -0.00030576024445286146 0 0.0018064276957432143 0.00053426952351711939 0 0.0017634289424526227 0.00056046550648658998 0 0.0017981624051942649 0.00057670658960939686 0 0.002595023242450427 0.00014964717650001251 0 0.0023908021420198499 0.00016349660543946108 0 0.0018064276957432143 0.00053426952351711939 0 0.0017981624051942649 0.00057670658960939686 0 0.0018284737624469877 0.00058363855146249713 0 0.0023015525515491181 0.00032084203520576176 0 0.002595023242450427 0.00014964717650001251 0 0.0018604770355081419 0.00053677344154045258 0 0.0018064276957432143 0.00053426952351711939 0 0.0018284737624469877 0.00058363855146249713 0 0.0032878683479708425 -0.0002887136268773029 0 0.0032875802142517518 -0.00024723461742179456 0 0.0032384270365825077 -0.00026390605397152989 0 0.0033038453035231902 -0.00021214853780602893 0 0.0032480871551977377 -0.00020941357604760551 0 0.0032875802142517518 -0.00024723461742179456 0 0.0032480871551977377 -0.00020941357604760551 0 0.0032875802142517518 -0.00024723461742179456 0 0.0032384270365825077 -0.00026390605397152989 0 0.0032480871551977377 -0.00020941357604760551 0 0.0032384270365825077 -0.00026390605397152989 0 0.0031620032399885443 -0.00019826412543930101 0 0.0032384270365825077 -0.00026390605397152989 0 0.0031711440360047143 -0.00025593887533085537 0 0.0031620032399885443 -0.00019826412543930101 0 0.0032053002053702459 -0.00029437202144603716 0 0.0032384270365825077 -0.00026390605397152989 0 0.0031711440360047143 -0.00025593887533085537 0 0.0031711440360047143 -0.00025593887533085537 0 0.0031039749854323484 -0.00023424539851790922 0 0.0031620032399885443 -0.00019826412543930101 0 0.0030335420585854383 -0.00019099469200676826 0 0.0031039749854323484 -0.00023424539851790922 0 0.0031620032399885443 -0.00019826412543930101 0 0.00305508628704278 -0.00031015438604992747 0 0.0030335420585854383 -0.00019099469200676826 0 0.0031039749854323484 -0.00023424539851790922 0 0.00305508628704278 -0.00031015438604992747 0 0.0031711440360047143 -0.00025593887533085537 0 0.0031039749854323484 -0.00023424539851790922 0 0.0026126776534336495 0.00015262372201019317 0 0.0023908021420198499 0.00016349660543946108 0 0.0016939708709664417 0.00051740642210440393 0 0.001751626612789585 0.00052355908260956062 0 0.0017182685256834328 0.00056035325458098052 0 0.0016939708709664417 0.00051740642210440393 0 0.0016770566154631762 0.00057247478739097123 0 0.0017182685256834328 0.00056035325458098052 0 0.001751626612789585 0.00052355908260956062 0 0.0017634289424526227 0.00056046550648658998 0 0.0017182685256834328 0.00056035325458098052 0 0.0018064276957432143 0.00053426952351711939 0 0.001751626612789585 0.00052355908260956062 0 0.0017634289424526227 0.00056046550648658998 0 0.0017634289424526227 0.00056046550648658998 0 0.00173926925405305 0.00058908281609191128 0 0.0017182685256834328 0.00056035325458098052 0 0.0017634289424526227 0.00056046550648658998 0 0.00173926925405305 0.00058908281609191128 0 0.0017739978287092803 0.00059818762467616737 0 0.00173926925405305 0.00058908281609191128 0 0.0017182685256834328 0.00056035325458098052 0 0.0016868811442482148 0.00060227369151183939 0 0.0016770566154631762 0.00057247478739097123 0 0.0017182685256834328 0.00056035325458098052 0 0.0016868811442482148 0.00060227369151183939 0 0.00173926925405305 0.00058908281609191128 0 0.0016868811442482148 0.00060227369151183939 0 0.0017339856762941055 0.00062559168440196435 0 0.0016868811442482148 0.00060227369151183939 0 0.0017339856762941055 0.00062559168440196435 0 0.0016905919545719206 0.0006537680271437897 0 0.0016868811442482148 0.00060227369151183939 0 0.0016905919545719206 0.0006537680271437897 0 0.0016520392033155186 0.00066034650519948774 0 0.0017739978287092803 0.00059818762467616737 0 0.0017339856762941055 0.00062559168440196435 0 0.0017915611548307701 0.00065282139744242797 0 0.00173926925405305 0.00058908281609191128 0 0.0017739978287092803 0.00059818762467616737 0 0.0017339856762941055 0.00062559168440196435 0 0.0017739978287092803 0.00059818762467616737 0 0.0018103646949841762 0.00060666592885011655 0 0.0017915611548307701 0.00065282139744242797 0 0.0018103646949841762 0.00060666592885011655 0 0.001818401525394014 0.00064390607906603169 0 0.0017915611548307701 0.00065282139744242797 0 0.0017739978287092803 0.00059818762467616737 0 0.0017981624051942649 0.00057670658960939686 0 0.0018103646949841762 0.00060666592885011655 0 0.0017634289424526227 0.00056046550648658998 0 0.0017739978287092803 0.00059818762467616737 0 0.0017981624051942649 0.00057670658960939686 0 0.0017981624051942649 0.00057670658960939686 0 0.0018103646949841762 0.00060666592885011655 0 0.0018284737624469877 0.00058363855146249713 0 0.0018278785460461187 0.00062127938510594038 0 0.0018103646949841762 0.00060666592885011655 0 0.0018284737624469877 0.00058363855146249713 0 0.0018278785460461187 0.00062127938510594038 0 0.0018103646949841762 0.00060666592885011655 0 0.001818401525394014 0.00064390607906603169 0 0.0018278785460461187 0.00062127938510594038 0 0.001818401525394014 0.00064390607906603169 0 0.001824019921850195 0.00067134176431040457 0 0.001818401525394014 0.00064390607906603169 0 0.001824019921850195 0.00067134176431040457 0 0.0018295523408697854 0.00071367033656450805 0 0.001824019921850195 0.00067134176431040457 0 0.0018295523408697854 0.00071367033656450805 0 0.0018208926441530522 0.00068501792896068019 0 0.0018717903041869488 0.00077003575077651981 0 0.0018557945627057355 0.00062567863943619275 0 0.001818401525394014 0.00064390607906603169 0 0.0018295523408697854 0.00071367033656450805 0 0.0017915611548307701 0.00065282139744242797 0 0.0018295523408697854 0.00071367033656450805 0 0.0017915611548307701 0.00065282139744242797 0 0.0017254388336259035 0.00068887945362853739 0 0.0017339856762941055 0.00062559168440196435 0 0.0017915611548307701 0.00065282139744242797 0 0.0017254388336259035 0.00068887945362853739 0 0.0017339856762941055 0.00062559168440196435 0 0.0017254388336259035 0.00068887945362853739 0 0.0016905919545719206 0.0006537680271437897 0 0.0016905919545719206 0.0006537680271437897 0 0.001658944656988086 0.00069044833078467783 0 0.0016520392033155186 0.00066034650519948774 0 0.0017254388336259035 0.00068887945362853739 0 0.0016905919545719206 0.0006537680271437897 0 0.001658944656988086 0.00069044833078467783 0 0.0017254388336259035 0.00068887945362853739 0 0.001658944656988086 0.00069044833078467783 0 0.001654867090357218 0.00073987937395655434 0 0.0017254388336259035 0.00068887945362853739 0 0.001654867090357218 0.00073987937395655434 0 0.0017319509239825553 0.00077509252860952216 0 0.001654867090357218 0.00073987937395655434 0 0.0017319509239825553 0.00077509252860952216 0 0.0016552889430352128 0.00088305714939596177 0 0.0018295523408697854 0.00071367033656450805 0 0.0017319509239825553 0.00077509252860952216 0 0.0018220430784748407 0.00095100531970130503 0 0.0018295523408697854 0.00071367033656450805 0 0.0017254388336259035 0.00068887945362853739 0 0.0017319509239825553 0.00077509252860952216 0 0.0017319509239825553 0.00077509252860952216 0 0.0018220430784748407 0.00095100531970130503 0 0.0016552889430352128 0.00088305714939596177 0 0.0018220430784748407 0.00095100531970130503 0 0.0016552889430352128 0.00088305714939596177 0 0.0016021686546667697 0.001078342617352173 0 0.0018220430784748407 0.00095100531970130503 0 0.0016021686546667697 0.001078342617352173 0 0.0017538593903675015 0.0012160417870643344 0 0.0018220430784748407 0.00095100531970130503 0 0.0019492723763071412 0.0011276609100318519 0 0.0017538593903675015 0.0012160417870643344 0 0.0018220430784748407 0.00095100531970130503 0 0.0020112730535884198 0.00087988039749310124 0 0.0019492723763071412 0.0011276609100318519 0 0.0019580458938046013 0.002690539132982536 0 0.0019416968187411375 0.0018865396286402026 0 0.0020112730535884198 0.00087988039749310124 0 0.0019492723763071412 0.0011276609100318519 0 0.0021603652210462217 0.0010452287647733228 0 0.0020499816965105395 0.0041489195930644275 0 0.0019321646239343271 0.004106141962529973 0 0.0021551071071277176 0.0039980598683590088 0 0.0018557945627057355 0.00062567863943619275 0 0.0019416968187411375 0.0018865396286402026 0 0.0018295523408697854 0.00071367033656450805 0 0.0018220430784748407 0.00095100531970130503 0 0.0020112730535884198 0.00087988039749310124 0 0.0053410985695547504 0.00061686907112102306 0 0.0053666072850383799 0.00049665217049242323 0 0.0054272334971722453 0.00056408072278027205 0 0.0053410985695547504 0.00061686907112102306 0 0.0053666072850383799 0.00049665217049242323 0 0.0052354398557591811 0.0005223363699818135 0 0.0052978685512228407 0.00042620842906799389 0 0.0053666072850383799 0.00049665217049242323 0 0.0052354398557591811 0.0005223363699818135 0 0.0053711765876604022 0.00041329421158437776 0 0.0052978685512228407 0.00042620842906799389 0 0.0053666072850383799 0.00049665217049242323 0 0.0053711765876604022 0.00041329421158437776 0 0.0053666072850383799 0.00049665217049242323 0 0.0055152676310003387 0.0004660366321359017 0 0.0053666072850383799 0.00049665217049242323 0 0.0054272334971722453 0.00056408072278027205 0 0.0055152676310003387 0.0004660366321359017 0 0.0054272334971722453 0.00056408072278027205 0 0.0055152676310003387 0.0004660366321359017 0 0.0054875067854622686 0.0006795014767922475 0 0.0053410985695547504 0.00061686907112102306 0 0.0054272334971722453 0.00056408072278027205 0 0.0054875067854622686 0.0006795014767922475 0 0.0044046298316039092 0.00037683200302303805 0 0.0044236873418722431 0.00079541140724505473 0 0.0034535918595001054 0.00031197322176371005 0 0.0037617209660189585 0.00058602769590286249 0 0.0033413604400244577 0.00088618815657249238 0 0.0034552676461144538 0.0003939290439458725 0 0.0031113973318647784 0.00044594104658209727 0 0.0031594107689069928 0.00014605759573319395 0 0.0034107806429224414 0.00064459812980141595 0 0.0034552676461144538 0.0003939290439458725 0 0.0031113973318647784 0.00044594104658209727 0 0.0044046298316039092 0.00037683200302303805 0 0.0023720603819375411 0.00057106085525957385 0 0.0024724065637496215 0.00044076204489121263 0 0.0023720603819375411 0.00057106085525957385 0 0.0016067977755284363 0.00066733226722733453 0 0.0016191910050843484 0.00071310955105572326 0 0.0015792203323185617 0.00074177588793288441 0 0.0016067977755284363 0.00066733226722733453 0 0.0016199343843210656 0.00067746766413829802 0 0.0016191910050843484 0.00071310955105572326 0 0.0024724065637496215 0.00044076204489121263 0 0.0022297266330549887 0.00037963710300058424 0 0.0016101755042537732 0.00066892759651600916 0 0.0016520392033155186 0.00066034650519948774 0 0.0016199343843210656 0.00067746766413829802 0 0.001658944656988086 0.00069044833078467783 0 0.0016520392033155186 0.00066034650519948774 0 0.0016199343843210656 0.00067746766413829802 0 0.001658944656988086 0.00069044833078467783 0 0.001654867090357218 0.00073987937395655434 0 0.0016191910050843484 0.00071310955105572326 0 0.001658944656988086 0.00069044833078467783 0 0.0016199343843210656 0.00067746766413829802 0 0.0016191910050843484 0.00071310955105572326 0 0.001654867090357218 0.00073987937395655434 0 0.0016191910050843484 0.00071310955105572326 0 0.0015792203323185617 0.00074177588793288441 0 0.0023720603819375411 0.00057106085525957385 0 0.0025595944966711713 0.0010809314491063763 0 0.001654867090357218 0.00073987937395655434 0 0.0016552889430352128 0.00088305714939596177 0 0.0015792203323185617 0.00074177588793288441 0 0.0013516226449228088 0.00086266483546217142 0 0.0023720603819375411 0.00057106085525957385 0 0.0016552889430352128 0.00088305714939596177 0 0.0016021686546667697 0.001078342617352173 0 0.0014141726719444584 0.0009344361828407591 0 0.0016552889430352128 0.00088305714939596177 0 0.0014604879395866311 0.00070845529339698811 0 0.0014141726719444584 0.0009344361828407591 0 0.0016021686546667697 0.001078342617352173 0 0.0014141726719444584 0.0009344361828407591 0 0.0013677334632399073 0.0011756611048779494 0 0.0025595944966711713 0.0010809314491063763 0 0.0025650290864251786 0.0011789810414959362 0 0.0034855790673024288 0.0013322630821487051 0 0.0036815670614885163 0.0011031414295190605 0 0.0036044740844082199 0.001648030883150889 0 0.0034855790673024288 0.0013322630821487051 0 0.0032136970302908512 0.0014999904511371238 0 0.0036044740844082199 0.001648030883150889 0 0.0037617209660189585 0.00058602769590286249 0 0.0036815670614885163 0.0011031414295190605 0 0.0033413604400244577 0.00088618815657249238 0 0.0034855790673024288 0.0013322630821487051 0 0.0036815670614885163 0.0011031414295190605 0 0.0033413604400244577 0.00088618815657249238 0 0.0053410985695547504 0.00061686907112102306 0 0.0054875067854622686 0.0006795014767922475 0 0.0053730773622385009 0.00077140573664527166 0 0.0054875067854622686 0.0006795014767922475 0 0.0054419053682821109 0.0009126348166305742 0 0.0053730773622385009 0.00077140573664527166 0 0.0034855790673024288 0.0013322630821487051 0 0.0033413604400244577 0.00088618815657249238 0 0.0032136970302908512 0.0014999904511371238 0 0.0044236873418722431 0.00079541140724505473 0 0.0043226518677783321 0.0011607510768922808 0 0.0054419053682821109 0.0009126348166305742 0 0.0053121588727322137 0.00099290708307025782 0 0.0052447916848603381 0.00083935299753727579 0 0.0054419053682821109 0.0009126348166305742 0 0.0053730773622385009 0.00077140573664527166 0 0.0052447916848603381 0.00083935299753727579 0 0.0053380178850361551 0.00062769562938615859 0 0.0052685572079637652 0.0008018432481694855 0 0.0053410985695547504 0.00061686907112102306 0 0.0053730773622385009 0.00077140573664527166 0 0.0052447916848603381 0.00083935299753727579 0 0.0053121588727322137 0.00099290708307025782 0 0.005391101141682713 0.0011045486784394597 0 0.0052563048518248778 0.0011691183783923624 0 0.0032136970302908512 0.0014999904511371238 0 0.0033680164779577178 0.00180669472946186 0 0.0032604515298311917 0.0020574657999312402 0 0.0054419053682821109 0.0009126348166305742 0 0.0053121588727322137 0.00099290708307025782 0 0.005391101141682713 0.0011045486784394597 0 0.0043226518677783321 0.0011607510768922808 0 0.0043094735222925923 0.0018243178028620138 0 0.0032136970302908512 0.0014999904511371238 0 0.0032604515298311917 0.0020574657999312402 0 0.0031094168513228645 0.0021376484711696777 0 0.0033680164779577178 0.00180669472946186 0 0.0032604515298311917 0.0020574657999312402 0 0.003185581726814686 0.0023544052868163428 0 0.0033680164779577178 0.00180669472946186 0 0.0035080743152704108 0.0022820842847773343 0 0.0031008638219255156 0.0024507300329261305 0 0.0034603970097737608 0.0015633771291404986 0 0.0028978266001401199 0.0030663964569676012 0 0.0033645861932101633 0.0021827981959265741 0 0.0043094735222925923 0.0018243178028620138 0 0.0032604515298311917 0.0020574657999312402 0 0.00311798164256468 0.0021389788087452888 0 0.003185581726814686 0.0023544052868163428 0 0.001325681242308914 0.0014354908170600817 0 0.0013677334632399073 0.0011756611048779494 0 0.0015532371588979335 0.0013224103290238099 0 0.0018298595188507658 0.0029040818637051462 0 0.0025650290864251786 0.0011789810414959362 0 0.0033680164779577178 0.00180669472946186 0 0.0035080743152704108 0.0022820842847773343 0 0.0036044740844082199 0.001648030883150889 0 0.0032136970302908512 0.0014999904511371238 0 0.0033680164779577178 0.00180669472946186 0 0.0036044740844082199 0.001648030883150889 0 0.0016021686546667697 0.001078342617352173 0 0.0013677334632399073 0.0011756611048779494 0 0.0015532371588979335 0.0013224103290238099 0 0.0018298595188507658 0.0029040818637051462 0 0.0014323574706097742 0.0028420223618551839 0 0.0013215281260289015 0.0044077607970211419 0 0.0015217328024323966 0.0043182275727205255 0 0.0015345251660831304 0.0044701900898664534 0 0.0013215281260289015 0.0044077607970211419 0 0.0015345251660831304 0.0044701900898664534 0 0.0014532758406753262 0.0045818132225336084 0 0.0015345251660831304 0.0044701900898664534 0 0.0014532758406753262 0.0045818132225336084 0 0.0015979268726862316 0.0046107894305626165 0 0.0014532758406753262 0.0045818132225336084 0 0.0014236138841680834 0.0047135619927040793 0 0.0015197152298272842 0.0047403521532009768 0 0.0014532758406753262 0.0045818132225336084 0 0.0015979268726862316 0.0046107894305626165 0 0.0015197152298272842 0.0047403521532009768 0 0.0014532758406753262 0.0045818132225336084 0 0.0014236138841680834 0.0047135619927040793 0 0.0012943352855675479 0.0046667084727615316 0 0.0013215281260289015 0.0044077607970211419 0 0.0014532758406753262 0.0045818132225336084 0 0.0012943352855675479 0.0046667084727615316 0 0.0018298595188507658 0.0029040818637051462 0 0.0015192455263265711 0.0046270396176137452 0 0.0033291899766605482 0.0031435620541470678 0 0.0035895053773580552 0.0030374312166422564 0 0.003137747200167552 0.0042352190329939072 0 0.0019288799033779199 0.0035822240388905416 0 0.001828799869013694 0.004107051203267118 0 0.0016304648215875281 0.0037071991545524949 0 0.0018298595188507658 0.0029040818637051462 0 0.0028978266001401199 0.0030663964569676012 0 0.00311798164256468 0.0021389788087452888 0 0.0030767133421689885 0.0024010292066839155 0 0.003185581726814686 0.0023544052868163428 0 0.0043094735222925923 0.0018243178028620138 0 0.0039832506132628015 0.0030849090925901038 0 0.0039832506132628015 0.0030849090925901038 0 0.0028978266001401199 0.0030663964569676012 0 0.0028978266001401199 0.0030663964569676012 0 0.0032739237302249293 0.0043532151143983793 0 0.001828799869013694 0.004107051203267118 0 0.0016304648215875281 0.0037071991545524949 0 0.001464062214370546 0.0041600921119542616 0 0.0039832506132628015 0.0030849090925901038 0 0.0032739237302249293 0.0043532151143983793 0 0.0043861169349992905 0.0040964498987584794 0 0.0043948500236570421 0.0040637513115419684 0 0.0044396097695608046 0.0040870819738852556 0 0.0039832506132628015 0.0030849090925901038 0 0.0046375846418252381 0.0033329464890996178 0 0.0043094735222925923 0.0018243178028620138 0 0.0050932619889132117 0.0018409089073677613 0 0.0045998138173709594 0.0025844169215002493 0 0.0046053058860575681 0.0025664373751060929 0 0.0046525997394032187 0.0025694257666352993 0 0.0046053058860575681 0.0025664373751060929 0 0.0046525997394032187 0.0025694257666352993 0 0.0046557009696674674 0.0025596455514110702 0 0.0018374993561770931 0.0043036942888174954 0 0.0019751840223967351 0.0043003710478822163 0 0.001885836950845859 0.0044363319464771249 0 0.0019751840223967351 0.0043003710478822163 0 0.0020247009080102589 0.0044872755449177782 0 0.0021460887227439701 0.0043390305002132135 0 0.0019751840223967351 0.0043003710478822163 0 0.0020499816965105395 0.0041489195930644275 0 0.0021460887227439701 0.0043390305002132135 0 0.0019751840223967351 0.0043003710478822163 0 0.0020499816965105395 0.0041489195930644275 0 0.0019321646239343271 0.004106141962529973 0 0.0019580458938046013 0.002690539132982536 0 0.0017583678797912304 0.0027013579721996391 0 0.0018374993561770931 0.0043036942888174954 0 0.0019751840223967351 0.0043003710478822163 0 0.0019321646239343271 0.004106141962529973 0 0.0018374993561770931 0.0043036942888174954 0 0.0019321646239343271 0.004106141962529973 0 0.0017207943223668443 0.004215406485564204 0 0.0014323574706097742 0.0028420223618551839 0 0.0017583678797912304 0.0027013579721996391 0 0.0016021686546667697 0.001078342617352173 0 0.0015532371588979335 0.0013224103290238099 0 0.0017538593903675015 0.0012160417870643344 0 0.0015217328024323966 0.0043182275727205255 0 0.0017207943223668443 0.004215406485564204 0 0.0016913453158291121 0.0044503289861541886 0 0.0015217328024323966 0.0043182275727205255 0 0.0015345251660831304 0.0044701900898664534 0 0.0016913453158291121 0.0044503289861541886 0 0.0018374993561770931 0.0043036942888174954 0 0.0017207943223668443 0.004215406485564204 0 0.0016913453158291121 0.0044503289861541886 0 0.0018374993561770931 0.0043036942888174954 0 0.0016913453158291121 0.0044503289861541886 0 0.001885836950845859 0.0044363319464771249 0 0.0015345251660831304 0.0044701900898664534 0 0.0016913453158291121 0.0044503289861541886 0 0.0015979268726862316 0.0046107894305626165 0 0.0015979268726862316 0.0046107894305626165 0 0.0017322123161937683 0.0046593951048055221 0 0.0016400006033984919 0.0047672483818126622 0 0.0015979268726862316 0.0046107894305626165 0 0.0016400006033984919 0.0047672483818126622 0 0.0015197152298272842 0.0047403521532009768 0 0.0016913453158291121 0.0044503289861541886 0 0.0015979268726862316 0.0046107894305626165 0 0.0017322123161937683 0.0046593951048055221 0 0.0016913453158291121 0.0044503289861541886 0 0.0017322123161937683 0.0046593951048055221 0 0.0018722446149530905 0.004602344351156632 0 0.0018722446149530905 0.004602344351156632 0 0.0020037406118301859 0.0046847501253066475 0 0.0018546214885987924 0.0047403099934073779 0 0.0017322123161937683 0.0046593951048055221 0 0.0018722446149530905 0.004602344351156632 0 0.0018546214885987924 0.0047403099934073779 0 0.0018722446149530905 0.004602344351156632 0 0.001885836950845859 0.0044363319464771249 0 0.0020247009080102589 0.0044872755449177782 0 0.0016913453158291121 0.0044503289861541886 0 0.0018722446149530905 0.004602344351156632 0 0.001885836950845859 0.0044363319464771249 0 0.0019751840223967351 0.0043003710478822163 0 0.001885836950845859 0.0044363319464771249 0 0.0020247009080102589 0.0044872755449177782 0 0.0020247009080102589 0.0044872755449177782 0 0.0020037406118301859 0.0046847501253066475 0 0.0022069561938903195 0.0045597535627496391 0 0.0018722446149530905 0.004602344351156632 0 0.0020247009080102589 0.0044872755449177782 0 0.0020037406118301859 0.0046847501253066475 0 0.0020037406118301859 0.0046847501253066475 0 0.0021726495783504396 0.0047074421208910013 0 0.0022069561938903195 0.0045597535627496391 0 0.0022069561938903195 0.0045597535627496391 0 0.0023420841790562827 0.0045332920345443313 0 0.0023970076717509713 0.0047167883646130138 0 0.0021726495783504396 0.0047074421208910013 0 0.0022069561938903195 0.0045597535627496391 0 0.0023970076717509713 0.0047167883646130138 0 0.0023420841790562827 0.0045332920345443313 0 0.0023013383029987042 0.004406195276971816 0 0.0024630608687737938 0.0044495802456487469 0 0.0022069561938903195 0.0045597535627496391 0 0.0023420841790562827 0.0045332920345443313 0 0.0023013383029987042 0.004406195276971816 0 0.0022069561938903195 0.0045597535627496391 0 0.0023013383029987042 0.004406195276971816 0 0.0021460887227439701 0.0043390305002132135 0 0.0020247009080102589 0.0044872755449177782 0 0.0022069561938903195 0.0045597535627496391 0 0.0021460887227439701 0.0043390305002132135 0 0.0023013383029987042 0.004406195276971816 0 0.0021460887227439701 0.0043390305002132135 0 0.0022711104211986821 0.0042808537361550191 0 0.0021460887227439701 0.0043390305002132135 0 0.0022711104211986821 0.0042808537361550191 0 0.0021845342088775322 0.004219933174604916 0 0.0023013383029987042 0.004406195276971816 0 0.0023940946172380396 0.0043221538632330645 0 0.0024630608687737938 0.0044495802456487469 0 0.0023013383029987042 0.004406195276971816 0 0.0022711104211986821 0.0042808537361550191 0 0.0023940946172380396 0.0043221538632330645 0 0.0023454256815283927 0.0042091730419963015 0 0.0024136168707714449 0.004208013036669094 0 0.0023940946172380396 0.0043221538632330645 0 0.0022711104211986821 0.0042808537361550191 0 0.0023454256815283927 0.0042091730419963015 0 0.0023940946172380396 0.0043221538632330645 0 0.0022576980863347508 0.0041915116742777423 0 0.0023454256815283927 0.0042091730419963015 0 0.0022425659901553793 0.0040998199782491225 0 0.0022711104211986821 0.0042808537361550191 0 0.0022576980863347508 0.0041915116742777423 0 0.0023454256815283927 0.0042091730419963015 0 0.0023454256815283927 0.0042091730419963015 0 0.0023826937264781445 0.0041245653645088217 0 0.0024136168707714449 0.004208013036669094 0 0.0021161638085040609 0.0026234926836736297 0 0.0018653751310863814 0.0025448988087283866 0 0.0020186176679128061 0.00245253604715445 0 0.0023454256815283927 0.0042091730419963015 0 0.0023826937264781445 0.0041245653645088217 0 0.0022109559610376333 0.0040672394359210261 0 0.0024057745149057906 0.0042591039617279986 0 0.0021497607984448182 0.0037174717978163152 0 0.0022674468689308225 0.003398868824380901 0 0.0021497607984448182 0.0037174717978163152 0 0.0022576980863347508 0.0041915116742777423 0 0.002182753424438908 0.0041375092237957538 0 0.0022425659901553793 0.0040998199782491225 0 0.002182753424438908 0.0041375092237957538 0 0.0022425659901553793 0.0040998199782491225 0 0.0021550295677118738 0.0040683141642242045 0 0.0020499816965105395 0.0041489195930644275 0 0.0021460887227439701 0.0043390305002132135 0 0.0021845342088775322 0.004219933174604916 0 0.0020499816965105395 0.0041489195930644275 0 0.002182753424438908 0.0041375092237957538 0 0.0021550295677118738 0.0040683141642242045 0 0.0020499816965105395 0.0041489195930644275 0 0.002182753424438908 0.0041375092237957538 0 0.0021845342088775322 0.004219933174604916 0 0.0022711104211986821 0.0042808537361550191 0 0.0022576980863347508 0.0041915116742777423 0 0.0021845342088775322 0.004219933174604916 0 0.0022576980863347508 0.0041915116742777423 0 0.002182753424438908 0.0041375092237957538 0 0.0021845342088775322 0.004219933174604916 0 0.0021584359812665643 0.0031504006177446634 0 0.0015851911936654935 0.0029788005712774344 0 0.0020631602418380631 0.0024030585266302867 0 0.0016691739295992387 0.0031127072952831271 0 0.0017489934561655592 0.0023110686821574918 0 0.0020464509917529467 0.0034036193797184412 0 0.0021051457219602937 0.0023089960301359868 0 0.0016691739295992387 0.0031127072952831271 0 0.0020464509917529467 0.0034036193797184412 0 0.0022674468689308225 0.003398868824380901 0 0.0020464509917529467 0.0034036193797184412 0 0.0021161638085040609 0.0026234926836736297 0 0.002370183251207786 0.0027038670337588091 0 0.0022347915326043294 0.0024817171452360693 0 0.0023826937264781445 0.0041245653645088217 0 0.0024136168707714449 0.004208013036669094 0 0.0025307554178879911 0.0041723407907444301 0 0.0020464509917529467 0.0034036193797184412 0 0.0019278685109733872 0.0042070669671251211 0 0.0025307554178879911 0.0041723407907444301 0 0.0023940946172380396 0.0043221538632330645 0 0.0024630608687737938 0.0044495802456487469 0 0.0014752542116597512 0.0034600295344452397 0 0.0015651573666972936 0.0036914582508917704 0 0.001389954725567092 0.0038009263103743465 0 0.0024136168707714449 0.004208013036669094 0 0.0025307554178879911 0.0041723407907444301 0 0.0023940946172380396 0.0043221538632330645 0 0.0016806363766784351 0.0035226927850344914 0 0.0015651573666972936 0.0036914582508917704 0 0.0017185225609515874 0.0038196190042600279 0 0.0016806363766784351 0.0035226927850344914 0 0.0014752542116597512 0.0034600295344452397 0 0.0015651573666972936 0.0036914582508917704 0 0.0015651573666972936 0.0036914582508917704 0 0.001389954725567092 0.0038009263103743465 0 0.0015870999250942009 0.0039455670864674995 0 0.0015651573666972936 0.0036914582508917704 0 0.0015870999250942009 0.0039455670864674995 0 0.0017185225609515874 0.0038196190042600279 0 0.0015870999250942009 0.0039455670864674995 0 0.0017533378743978785 0.0039980206224368119 0 0.0017185225609515874 0.0038196190042600279 0 0.0019278685109733872 0.0042070669671251211 0 0.0017431937694622659 0.004440450288392097 0 0.001389954725567092 0.0038009263103743465 0 0.0015870999250942009 0.0039455670864674995 0 0.0013144412529364762 0.0041352141095208021 0 0.0023420841790562827 0.0045332920345443313 0 0.0024630608687737938 0.0044495802456487469 0 0.0023970076717509713 0.0047167883646130138 0 0.0014262982965377612 0.0039053130903902188 0 0.0017431937694622659 0.004440450288392097 0 0.0015870999250942009 0.0039455670864674995 0 0.0015389840451746092 0.0041916841373481183 0 0.0012597345155703765 0.0041669190792255877 0 0.0017533378743978785 0.0039980206224368119 0 0.0017591157010897595 0.0042105562048169185 0 0.0015389840451746092 0.0041916841373481183 0 0.0015870999250942009 0.0039455670864674995 0 0.0017533378743978785 0.0039980206224368119 0 0.0015389840451746092 0.0041916841373481183 0 0.0019335744756473164 0.0040271443000535496 0 0.0017379081961830284 0.0042238125577037551 0 0.0017533378743978785 0.0039980206224368119 0 0.0019429219643894607 0.0039628163762083614 0 0.0017591157010897595 0.0042105562048169185 0 0.0017533378743978785 0.0039980206224368119 0 0.0019429219643894607 0.0039628163762083614 0 0.0018272509683520215 0.0038848907036518965 0 0.0018739854330174625 0.0040185535485789316 0 0.0019609204652459721 0.0042190249013274806 0 0.0017234961545089331 0.0042397090286218362 0 0.0018739854330174625 0.0040185535485789316 0 0.0021136195808774284 0.0040788353344297654 0 0.0019609204652459721 0.0042190249013274806 0 0.0019335744756473164 0.0040271443000535496 0 0.0016587005716798963 0.0033339365563718644 0 0.0019429219643894607 0.0039628163762083614 0 0.0020012742611855081 0.0037355422555351652 0 0.0018965793692429713 0.0037563236075154132 0 0.0019429219643894607 0.0039628163762083614 0 0.0020012742611855081 0.0037355422555351652 0 0.0021305029791655501 0.0037075790072254402 0 0.0018739854330174625 0.0040185535485789316 0 0.0021136195808774284 0.0040788353344297654 0 0.0020328398711861794 0.0037934374040405616 0 0.0020012742611855081 0.0037355422555351652 0 0.0018965793692429713 0.0037563236075154132 0 0.0019611510609659562 0.0036465519587041747 0 0.0018965793692429713 0.0037563236075154132 0 0.0017185225609515874 0.0038196190042600279 0 0.0018264662613300233 0.0036412890684984545 0 0.0017533378743978785 0.0039980206224368119 0 0.0017185225609515874 0.0038196190042600279 0 0.0018272509683520215 0.0038848907036518965 0 0.0019429219643894607 0.0039628163762083614 0 0.0018965793692429713 0.0037563236075154132 0 0.0018272509683520215 0.0038848907036518965 0 0.0018965793692429713 0.0037563236075154132 0 0.0017185225609515874 0.0038196190042600279 0 0.0018272509683520215 0.0038848907036518965 0 0.00084166065263287281 0.002701177230803055 0 0.0010669543803541262 0.0026308066882921796 0 0.00094945792395503814 0.0027802722028545325 0 0.00084166065263287281 0.002701177230803055 0 0.00089840361114383138 0.0025523824954409142 0 0.0010669543803541262 0.0026308066882921796 0 0.00084166065263287281 0.002701177230803055 0 0.00081138792380351177 0.002612014433437556 0 0.00075015730068078365 0.0026418765810314561 0 0.00084166065263287281 0.002701177230803055 0 0.00081138792380351177 0.002612014433437556 0 0.00089840361114383138 0.0025523824954409142 0 0.00081138792380351177 0.002612014433437556 0 0.00089840361114383138 0.0025523824954409142 0 0.00075543088306675576 0.0025530444610809863 0 0.0010226236975645153 0.002838666444882476 0 0.00079607525711496185 0.0028654212690346096 0 0.0010937962847635677 0.0029607991336607319 0 0.0015768971183256417 0.0033473107866527356 0 0.0016587005716798963 0.0033339365563718644 0 0.0010669543803541262 0.0026308066882921796 0 0.0011479658708592997 0.0028906279545393471 0 0.0010226236975645153 0.002838666444882476 0 0.0010669543803541262 0.0026308066882921796 0 0.0010226236975645153 0.002838666444882476 0 0.00094945792395503814 0.0027802722028545325 0 0.0011479658708592997 0.0028906279545393471 0 0.0010226236975645153 0.002838666444882476 0 0.0010937962847635677 0.0029607991336607319 0 0.0010226236975645153 0.002838666444882476 0 0.00094945792395503814 0.0027802722028545325 0 0.00079607525711496185 0.0028654212690346096 0 0.00084166065263287281 0.002701177230803055 0 0.00094945792395503814 0.0027802722028545325 0 0.00079607525711496185 0.0028654212690346096 0 0.00080643474340412024 0.0028572770017956796 0 0.0012018533265957482 0.0028828162130608388 0 0.00087087094015460948 0.0028445275385427559 0 0.0009350607455848748 0.0029132743642986949 0 0.0010537780539228241 0.0029046653197989992 0 0.00087361763231697475 0.0029353013842645867 0 0.0009350607455848748 0.0029132743642986949 0 0.00090666755133488454 0.0030024662019115921 0 0.00087361763231697475 0.0029353013842645867 0 0.00090666755133488454 0.0030024662019115921 0 0.00081833617766563429 0.0029832889390340768 0 0.00087087094015460948 0.0028445275385427559 0 0.00087665299947112555 0.002895917490853567 0 0.0009350607455848748 0.0029132743642986949 0 0.00087361763231697475 0.0029353013842645867 0 0.00087665299947112555 0.002895917490853567 0 0.00082319997703933425 0.0028892820263150595 0 0.00087361763231697475 0.0029353013842645867 0 0.00087665299947112555 0.002895917490853567 0 0.0009350607455848748 0.0029132743642986949 0 0.00087087094015460948 0.0028445275385427559 0 0.00087665299947112555 0.002895917490853567 0 0.00082319997703933425 0.0028892820263150595 0 0.0009350607455848748 0.0029132743642986949 0 0.0010228900297186115 0.0029443262823326383 0 0.00090666755133488454 0.0030024662019115921 0 0.0010134829576834994 0.0024496582953651511 0 0.0008433418963259662 0.0025519797309342001 0 0.0009350607455848748 0.0029132743642986949 0 0.0010228900297186115 0.0029443262823326383 0 0.0010537780539228241 0.0029046653197989992 0 0.001128137961189455 0.002664097648743612 0 0.0011568976914327388 0.0026281131716050787 0 0.0011849574692922025 0.002636729496743955 0 0.0014721167379200286 0.0030325857942384081 0 0.0015188250440651883 0.0029687520423134803 0 0.0014754425428778457 0.0029555781776331369 0 0.0016587005716798963 0.0033339365563718644 0 0.0012018533265957482 0.0028828162130608388 0 0.0012018533265957482 0.0028828162130608388 0 0.0013643563570637481 0.0027725072461103951 0 0.00089627850393692282 0.0019827768019570757 0 0.00091662513144515686 0.0019762865793508688 0 0.00090757275085165358 0.0019978792022833031 0 0.00091662513144515686 0.0019762865793508688 0 0.00090757275085165358 0.0019978792022833031 0 0.00092267904146538053 0.0019782522552334561 0 0.0010134829576834994 0.0024496582953651511 0 0.0013643563570637481 0.0027725072461103951 0 0.0010134829576834994 0.0024496582953651511 0 0.0012018533265957482 0.0028828162130608388 0 0.00090757275085165358 0.0019978792022833031 0 0.00093515129761344447 0.0020184862032340397 0 0.0008932423308964612 0.0020266120327416034 0 0.00090757275085165358 0.0019978792022833031 0 0.00087756302365026191 0.002009215288189085 0 0.0008932423308964612 0.0020266120327416034 0 0.00087756302365026191 0.002009215288189085 0 0.00087055216592914707 0.0020261408467722136 0 0.0008932423308964612 0.0020266120327416034 0 0.00089627850393692282 0.0019827768019570757 0 0.00090757275085165358 0.0019978792022833031 0 0.00087756302365026191 0.002009215288189085 0 0.00089627850393692282 0.0019827768019570757 0 0.00087756302365026191 0.002009215288189085 0 0.00084251265902951988 0.0020254599290354175 0 0.0010134829576834994 0.0024496582953651511 0 0.00082774041507419733 0.0018979311639987146 0 0.00078932252750021936 0.0020999610649703152 0 0.00084263879059399266 0.0020325406788320351 0 0.00083999532642817676 0.002070665567800617 0 0.00078932252750021936 0.0020999610649703152 0 0.00084263879059399266 0.0020325406788320351 0 0.00084251265902951988 0.0020254599290354175 0 0.00087756302365026191 0.002009215288189085 0 0.00086189709383717732 0.0020232804884299954 0 0.00084251265902951988 0.0020254599290354175 0 0.00087756302365026191 0.002009215288189085 0 0.00086189709383717732 0.0020232804884299954 0 0.00087055216592914707 0.0020261408467722136 0 0.00084263879059399266 0.0020325406788320351 0 0.00083999532642817676 0.002070665567800617 0 0.00089297543220777517 0.0020444626729138647 0 0.0016645720439506532 0.0034557568036081405 0 0.0017185225609515874 0.0038196190042600279 0 0.0018264662613300233 0.0036412890684984545 0 0.0016691739295992387 0.0031127072952831271 0 0.0017265407316220747 0.00395229757506446 0 0.0016645720439506532 0.0034557568036081405 0 0.0018856221288234677 0.0035249590161029421 0 0.0018264662613300233 0.0036412890684984545 0 0.0016691739295992387 0.0031127072952831271 0 0.0018470947866158743 0.0030774350116531579 0 0.0018856221288234677 0.0035249590161029421 0 0.0018264662613300233 0.0036412890684984545 0 0.0019611510609659562 0.0036465519587041747 0 0.0018965793692429713 0.0037563236075154132 0 0.0018264662613300233 0.0036412890684984545 0 0.0019611510609659562 0.0036465519587041747 0 0.0018856221288234677 0.0035249590161029421 0 0.0019611510609659562 0.0036465519587041747 0 0.0020965190435827431 0.0035893019144000241 0 0.0016900489087090461 0.0026076070404344415 0 0.0018984235435811684 0.0026705045330510423 0 0.0018200011939780928 0.002385975167655392 0 0.0019611510609659562 0.0036465519587041747 0 0.0020965190435827431 0.0035893019144000241 0 0.0021045744525737234 0.0036172435089682482 0 0.0020012742611855081 0.0037355422555351652 0 0.0019611510609659562 0.0036465519587041747 0 0.0021045744525737234 0.0036172435089682482 0 0.0020012742611855081 0.0037355422555351652 0 0.0021305029791655501 0.0037075790072254402 0 0.0021045744525737234 0.0036172435089682482 0 0.0014721167379200286 0.0030325857942384081 0 0.0014754425428778457 0.0029555781776331369 0 0.0014531355622231586 0.0029673102769110804 0 0.0016587005716798963 0.0033339365563718644 0 0.0015375404423173475 0.0028902209999815648 0 0.0015578669645033405 0.0027400217216034862 0 0.0015375404423173475 0.0028902209999815648 0 0.0015342208713392405 0.0027443975938488256 0 0.0015910537710998199 0.0027612725963868162 0 0.0015794344574786077 0.0027212218057833131 0 0.0013643563570637481 0.0027725072461103951 0 0.0015578669645033405 0.0027400217216034862 0 0.0013643563570637481 0.0027725072461103951 0 0.0015375404423173475 0.0028902209999815648 0 0.0018470947866158743 0.0030774350116531579 0 0.0015578669645033405 0.0027400217216034862 0 0.0016900489087090461 0.0026076070404344415 0 0.0018200011939780928 0.002385975167655392 0 0.001633374761299372 0.0023742061217835462 0 0.0015578669645033405 0.0027400217216034862 0 0.0013505264201953209 0.0021114296665779532 0 0.00090757275085165358 0.0019978792022833031 0 0.00092267904146538053 0.0019782522552334561 0 0.00093515129761344447 0.0020184862032340397 0 0.0014785412809029015 0.002545726560388479 0 0.0016900489087090461 0.0026076070404344415 0 0.001633374761299372 0.0023742061217835462 0 0.0014785412809029015 0.002545726560388479 0 0.001633374761299372 0.0023742061217835462 0 0.0014369223452165656 0.0022313594256554194 0 0.001633374761299372 0.0023742061217835462 0 0.0017402542883103744 0.0020982879409851942 0 0.0014369223452165656 0.0022313594256554194 0 0.00093515129761344447 0.0020184862032340397 0 0.00091868896764155626 0.0020469154310886559 0 0.0008932423308964612 0.0020266120327416034 0 0.0018200011939780928 0.002385975167655392 0 0.001633374761299372 0.0023742061217835462 0 0.0017402542883103744 0.0020982879409851942 0 0.0013505264201953209 0.0021114296665779532 0 0.0013530932216903587 0.0021414175407414903 0 0.00093515129761344447 0.0020184862032340397 0 0.00091868896764155626 0.0020469154310886559 0 0.00095065313995752081 0.0020640661099150673 0 0.00091868896764155626 0.0020469154310886559 0 0.00095065313995752081 0.0020640661099150673 0 0.00092272438910216584 0.0020695664968206707 0 0.00095065313995752081 0.0020640661099150673 0 0.00092272438910216584 0.0020695664968206707 0 0.00093952289033107886 0.0020973978913413401 0 0.00095065313995752081 0.0020640661099150673 0 0.00093952289033107886 0.0020973978913413401 0 0.00096509959689550619 0.0021065910937591256 0 0.00092272438910216584 0.0020695664968206707 0 0.00093952289033107886 0.0020973978913413401 0 0.00091399749218325579 0.0020941182736987996 0 0.0017402542883103744 0.0020982879409851942 0 0.0016583367756155582 0.0018099455770292064 0 0.0013966904739324646 0.0019157925297954893 0 0.0017402542883103744 0.0020982879409851942 0 0.0014369223452165656 0.0022313594256554194 0 0.0013966904739324646 0.0019157925297954893 0 0.0013530932216903587 0.0021414175407414903 0 0.001412948515229351 0.0016973775297670463 0 0.00082504088399314157 0.002064147498216254 0 0.00083553255567312269 0.0020525710030801451 0 0.00081835200129743324 0.0020494327086173865 0 0.00082504088399314157 0.002064147498216254 0 0.00083553255567312269 0.0020525710030801451 0 0.00084861456411251259 0.0020632830064291384 0 0.00083553255567312269 0.0020525710030801451 0 0.00083530912641197454 0.0020390057073306493 0 0.00085141476898154737 0.0020451814330101673 0 0.00083553255567312269 0.0020525710030801451 0 0.00085141476898154737 0.0020451814330101673 0 0.00084861456411251259 0.0020632830064291384 0 0.00083553255567312269 0.0020525710030801451 0 0.00083530912641197454 0.0020390057073306493 0 0.00081835200129743324 0.0020494327086173865 0 0.00083530912641197454 0.0020390057073306493 0 0.00082172801250264245 0.0020295105758251146 0 0.00081835200129743324 0.0020494327086173865 0 0.00084263879059399266 0.0020325406788320351 0 0.00084251265902951988 0.0020254599290354175 0 0.00082172801250264245 0.0020295105758251146 0 0.00083530912641197454 0.0020390057073306493 0 0.00084251265902951988 0.0020254599290354175 0 0.00082172801250264245 0.0020295105758251146 0 0.00083530912641197454 0.0020390057073306493 0 0.00084251265902951988 0.0020254599290354175 0 0.00084657802560140767 0.0020357698379077061 0 0.00083530912641197454 0.0020390057073306493 0 0.00084657802560140767 0.0020357698379077061 0 0.00085141476898154737 0.0020451814330101673 0 0.00084657802560140767 0.0020357698379077061 0 0.00085692727487103604 0.0020328555273696355 0 0.00085141476898154737 0.0020451814330101673 0 0.00084251265902951988 0.0020254599290354175 0 0.00084657802560140767 0.0020357698379077061 0 0.00085692727487103604 0.0020328555273696355 0 0.00086189709383717732 0.0020232804884299954 0 0.00084251265902951988 0.0020254599290354175 0 0.00085692727487103604 0.0020328555273696355 0 0.00085692727487103604 0.0020328555273696355 0 0.00087055216592914707 0.0020261408467722136 0 0.00087023058900033521 0.0020391806024704969 0 0.00086189709383717732 0.0020232804884299954 0 0.00085692727487103604 0.0020328555273696355 0 0.00087055216592914707 0.0020261408467722136 0 0.00085692727487103604 0.0020328555273696355 0 0.00087023058900033521 0.0020391806024704969 0 0.00085141476898154737 0.0020451814330101673 0 0.00087023058900033521 0.0020391806024704969 0 0.00086551561523924288 0.0020534284292744297 0 0.00085141476898154737 0.0020451814330101673 0 0.00086551561523924288 0.0020534284292744297 0 0.00085141476898154737 0.0020451814330101673 0 0.00084861456411251259 0.0020632830064291384 0 0.00086551561523924288 0.0020534284292744297 0 0.00084861456411251259 0.0020632830064291384 0 0.00086794790857943379 0.0020663445385481535 0 0.00086551561523924288 0.0020534284292744297 0 0.0008901763736327298 0.0020562329755464352 0 0.00086794790857943379 0.0020663445385481535 0 0.00087023058900033521 0.0020391806024704969 0 0.00086551561523924288 0.0020534284292744297 0 0.0008901763736327298 0.0020562329755464352 0 0.00087055216592914707 0.0020261408467722136 0 0.00087023058900033521 0.0020391806024704969 0 0.0008932423308964612 0.0020266120327416034 0 0.00087023058900033521 0.0020391806024704969 0 0.0008901763736327298 0.0020562329755464352 0 0.0008932423308964612 0.0020266120327416034 0 0.00091868896764155626 0.0020469154310886559 0 0.0008901763736327298 0.0020562329755464352 0 0.0008932423308964612 0.0020266120327416034 0 0.00091868896764155626 0.0020469154310886559 0 0.00092272438910216584 0.0020695664968206707 0 0.0008901763736327298 0.0020562329755464352 0 0.00092272438910216584 0.0020695664968206707 0 0.00089909552405638079 0.0020772643160957157 0 0.00091399749218325579 0.0020941182736987996 0 0.00092272438910216584 0.0020695664968206707 0 0.0008901763736327298 0.0020562329755464352 0 0.00089909552405638079 0.0020772643160957157 0 0.00089909552405638079 0.0020772643160957157 0 0.00091399749218325579 0.0020941182736987996 0 0.00088707530644427347 0.0021006208779059555 0 0.00088707530644427347 0.0021006208779059555 0 0.00087692061935663065 0.0020792924523281861 0 0.00085493760912241207 0.0020997140838486137 0 0.00089909552405638079 0.0020772643160957157 0 0.00088707530644427347 0.0021006208779059555 0 0.00087692061935663065 0.0020792924523281861 0 0.0008901763736327298 0.0020562329755464352 0 0.00089909552405638079 0.0020772643160957157 0 0.00087692061935663065 0.0020792924523281861 0 0.0008901763736327298 0.0020562329755464352 0 0.00087692061935663065 0.0020792924523281861 0 0.00086794790857943379 0.0020663445385481535 0 0.00084861456411251259 0.0020632830064291384 0 0.00086794790857943379 0.0020663445385481535 0 0.0008529430606097607 0.0020811573944998097 0 0.00087692061935663065 0.0020792924523281861 0 0.00086794790857943379 0.0020663445385481535 0 0.0008529430606097607 0.0020811573944998097 0 0.00087692061935663065 0.0020792924523281861 0 0.0008529430606097607 0.0020811573944998097 0 0.00085493760912241207 0.0020997140838486137 0 0.0008529430606097607 0.0020811573944998097 0 0.00082922563361601084 0.0021008862177502303 0 0.00082680500154877858 0.0020819037249749325 0 0.0008529430606097607 0.0020811573944998097 0 0.00085493760912241207 0.0020997140838486137 0 0.00082922563361601084 0.0021008862177502303 0 0.00084861456411251259 0.0020632830064291384 0 0.0008529430606097607 0.0020811573944998097 0 0.00082680500154877858 0.0020819037249749325 0 0.00082504088399314157 0.002064147498216254 0 0.00084861456411251259 0.0020632830064291384 0 0.00082680500154877858 0.0020819037249749325 0 0.00082489034719341648 0.0021482904901175951 0 0.00083451491370819305 0.0021164982799563295 0 0.00085818826094630142 0.0021237346436389745 0 0.00085493760912241207 0.0020997140838486137 0 0.00082922563361601084 0.0021008862177502303 0 0.00083451491370819305 0.0021164982799563295 0 0.00082489034719341648 0.0021482904901175951 0 0.00083451491370819305 0.0021164982799563295 0 0.0008046520882109122 0.0021110570898740175 0 0.00082922563361601084 0.0021008862177502303 0 0.00083451491370819305 0.0021164982799563295 0 0.0008046520882109122 0.0021110570898740175 0 0.00088707530644427347 0.0021006208779059555 0 0.00085493760912241207 0.0020997140838486137 0 0.00085818826094630142 0.0021237346436389745 0 0.00085493760912241207 0.0020997140838486137 0 0.00083451491370819305 0.0021164982799563295 0 0.00085818826094630142 0.0021237346436389745 0 0.00085818826094630142 0.0021237346436389745 0 0.00088936208564655136 0.0021272701061396072 0 0.00086130223997456256 0.0021493491960683886 0 0.00082489034719341648 0.0021482904901175951 0 0.00085818826094630142 0.0021237346436389745 0 0.00086130223997456256 0.0021493491960683886 0 0.00088936208564655136 0.0021272701061396072 0 0.00088331732491682402 0.0021478239563902371 0 0.00086130223997456256 0.0021493491960683886 0 0.00088936208564655136 0.0021272701061396072 0 0.0009043060075191651 0.0021396357340607193 0 0.00088331732491682402 0.0021478239563902371 0 0.00088707530644427347 0.0021006208779059555 0 0.00088936208564655136 0.0021272701061396072 0 0.00090730248296695139 0.0021102899177470073 0 0.00088707530644427347 0.0021006208779059555 0 0.00085818826094630142 0.0021237346436389745 0 0.00088936208564655136 0.0021272701061396072 0 0.00091399749218325579 0.0020941182736987996 0 0.00088707530644427347 0.0021006208779059555 0 0.00090730248296695139 0.0021102899177470073 0 0.00091399749218325579 0.0020941182736987996 0 0.00090730248296695139 0.0021102899177470073 0 0.00092226377093086514 0.0021091093685227302 0 0.00090730248296695139 0.0021102899177470073 0 0.00091634453026990181 0.0021240409342266711 0 0.00092226377093086514 0.0021091093685227302 0 0.00088936208564655136 0.0021272701061396072 0 0.00091634453026990181 0.0021240409342266711 0 0.0009043060075191651 0.0021396357340607193 0 0.00091634453026990181 0.0021240409342266711 0 0.0009043060075191651 0.0021396357340607193 0 0.00094112708513336264 0.0021283937752727493 0 0.00088936208564655136 0.0021272701061396072 0 0.00090730248296695139 0.0021102899177470073 0 0.00091634453026990181 0.0021240409342266711 0 0.00099060966635516499 0.0021304254574758138 0 0.00090336972773446688 0.0021438931388575496 0 0.0009043060075191651 0.0021396357340607193 0 0.000878025403502004 0.0021784970542850233 0 0.00094112708513336264 0.0021283937752727493 0 0.0009086921474657267 0.0021190534029120207 0 0.00093192110083092385 0.0021280606263809291 0 0.00092307495177688015 0.0021226087793317278 0 0.00093192110083092385 0.0021280606263809291 0 0.00092307495177688015 0.0021226087793317278 0 0.00094112708513336264 0.0021283937752727493 0 0.000878025403502004 0.0021784970542850233 0 0.00088331732491682402 0.0021478239563902371 0 0.00086130223997456256 0.0021493491960683886 0 0.0009043060075191651 0.0021396357340607193 0 0.000878025403502004 0.0021784970542850233 0 0.00088331732491682402 0.0021478239563902371 0 0.00082489034719341648 0.0021482904901175951 0 0.00084335616609336982 0.0021705673599767463 0 0.00081212486938979551 0.0022051615994154545 0 0.000878025403502004 0.0021784970542850233 0 0.00084335616609336982 0.0021705673599767463 0 0.00081212486938979551 0.0022051615994154545 0 0.00099060966635516499 0.0021304254574758138 0 0.00031005770882979236 0.0020197477053390139 0 0.000878025403502004 0.0021784970542850233 0 0.00084335616609336982 0.0021705673599767463 0 0.00086130223997456256 0.0021493491960683886 0 0.00082489034719341648 0.0021482904901175951 0 0.00084335616609336982 0.0021705673599767463 0 0.00086130223997456256 0.0021493491960683886 0 0.001412948515229351 0.0016973775297670463 0 0.0018384435953167869 0.0015458694118934116 0 0.0018058607378356093 0.00084687060734263484 0 0.0018837798632177927 0.00085992589872364953 0 0.0017384059078664998 0.00091924262958163467 0 0.0018474703837471104 0.00077759673497523115 0 0.0018058607378356093 0.00084687060734263484 0 0.0017869117115166277 0.00070523460785230333 0 0.0018593080037405789 0.00077265171861450814 0 0.0018474703837471104 0.00077759673497523115 0 0.0018837798632177927 0.00085992589872364953 0 0.0013741427983239168 0.0011496099724950819 0 0.001412948515229351 0.0016973775297670463 0 0.00096331456183527671 0.0021244026420267829 0 0.00096314397958937334 0.0021044783843473733 0 0.00095097258759943657 0.0021203482979117875 0 0.0013741427983239168 0.0011496099724950819 0 0.0014243592818342741 0.0011234611479530867 0 0.0018474703837471104 0.00077759673497523115 0 0.0018058607378356093 0.00084687060734263484 0 0.0018837798632177927 0.00085992589872364953 0 0.00096331456183527671 0.0021244026420267829 0 0.00095097258759943657 0.0021203482979117875 0 0.00094112708513336264 0.0021283937752727493 0 0.001412948515229351 0.0016973775297670463 0 0.00076530633943282613 0.0021795423307648734 0 0.00093952289033107886 0.0020973978913413401 0 0.00096509959689550619 0.0021065910937591256 0 0.00093213340161204497 0.0021203633796077997 0 0.00093952289033107886 0.0020973978913413401 0 0.00092226377093086514 0.0021091093685227302 0 0.00093213340161204497 0.0021203633796077997 0 0.00093952289033107886 0.0020973978913413401 0 0.00091399749218325579 0.0020941182736987996 0 0.00092226377093086514 0.0021091093685227302 0 0.00093213340161204497 0.0021203633796077997 0 0.00095097258759943657 0.0021203482979117875 0 0.00094112708513336264 0.0021283937752727493 0 0.00091634453026990181 0.0021240409342266711 0 0.00092226377093086514 0.0021091093685227302 0 0.00093213340161204497 0.0021203633796077997 0 0.00091634453026990181 0.0021240409342266711 0 0.00093213340161204497 0.0021203633796077997 0 0.00094112708513336264 0.0021283937752727493 0 0.00096314397958937334 0.0021044783843473733 0 0.00093213340161204497 0.0021203633796077997 0 0.00095097258759943657 0.0021203482979117875 0 0.0012709200638312296 0.0012829219470700379 0 0.0013741427983239168 0.0011496099724950819 0 0.00093192110083092385 0.0021280606263809291 0 0.00096331456183527671 0.0021244026420267829 0 0.00094112708513336264 0.0021283937752727493 0 0.0015755613714342625 0.00049596463868351612 0 0.001501065739238971 0.00047789490879059386 0 0.0016159929664599294 0.0004235444673872709 0 0.0016554741078622795 0.0005082036874654287 0 0.0015755613714342625 0.00049596463868351612 0 0.0016159929664599294 0.0004235444673872709 0 0.001747232710018724 0.00047357468015256322 0 0.0013741427983239168 0.0011496099724950819 0 0.0018025403568087774 0.00063131582410448021 0 0.001857421836577298 0.0007710439169417761 0 0.0017869117115166277 0.00070523460785230333 0 0.001857421836577298 0.0007710439169417761 0 0.0018474703837471104 0.00077759673497523115 0 0.0017869117115166277 0.00070523460785230333 0 0.0017869117115166277 0.00070523460785230333 0 0.0017481827484343586 0.00069150309224815844 0 0.0017634223495155991 0.0008139041661819386 0 0.0017790284106904328 0.00066177422163260773 0 0.0017869117115166277 0.00070523460785230333 0 0.0017481827484343586 0.00069150309224815844 0 0.0018025403568087774 0.00063131582410448021 0 0.0017790284106904328 0.00066177422163260773 0 0.0017869117115166277 0.00070523460785230333 0 0.0018492715767493458 0.00063195934931612081 0 0.0018499236036687446 0.00065321661073430154 0 0.0018371665463159639 0.00063698053616130794 0 0.0018058607378356093 0.00084687060734263484 0 0.0017869117115166277 0.00070523460785230333 0 0.0017334045194741191 0.00087961264577518994 0 0.0017911904214118778 0.00062078388752611301 0 0.0018657933181947322 0.00094259230741411718 0 0.0018492715767493458 0.00063195934931612081 0 0.0018499236036687446 0.00065321661073430154 0 0.0018635040384453643 0.00067218318629240676 0 0.0017684614508050556 0.00068545008687669713 0 0.0018657933181947322 0.00094259230741411718 0 0.0018499236036687446 0.00065321661073430154 0 0.0018518681594167892 0.00066652659213256105 0 0.0018635040384453643 0.00067218318629240676 0 0.0018518681594167892 0.00066652659213256105 0 0.0018605788697000957 0.00068039148000440138 0 0.0018455146388827127 0.00067322029336593342 0 0.0018518681594167892 0.00066652659213256105 0 0.0018635040384453643 0.00067218318629240676 0 0.0018605788697000957 0.00068039148000440138 0 0.0018058607378356093 0.00084687060734263484 0 0.0017334045194741191 0.00087961264577518994 0 0.0017384059078664998 0.00091924262958163467 0 0.0018393050561364172 0.00065652353379265884 0 0.0018355836695937613 0.00066943275580993913 0 0.0018455146388827127 0.00067322029336593342 0 0.0018518681594167892 0.00066652659213256105 0 0.0018393050561364172 0.00065652353379265884 0 0.0018455146388827127 0.00067322029336593342 0 0.0018499236036687446 0.00065321661073430154 0 0.0018518681594167892 0.00066652659213256105 0 0.0018393050561364172 0.00065652353379265884 0 0.0018393050561364172 0.00065652353379265884 0 0.0018371665463159639 0.00063698053616130794 0 0.0018340916593642767 0.00064121025170379758 0 0.0018499236036687446 0.00065321661073430154 0 0.0018393050561364172 0.00065652353379265884 0 0.0018371665463159639 0.00063698053616130794 0 0.0018307010221925734 0.00062351143494015235 0 0.0018258572602836472 0.00061958230422929652 0 0.0018371665463159639 0.00063698053616130794 0 0.0018258572602836472 0.00061958230422929652 0 0.0018492715767493458 0.00063195934931612081 0 0.0018371665463159639 0.00063698053616130794 0 0.0018307010221925734 0.00062351143494015235 0 0.0018371665463159639 0.00063698053616130794 0 0.0018340916593642767 0.00064121025170379758 0 0.0018393050561364172 0.00065652353379265884 0 0.0018306962931092703 0.00065185838049759681 0 0.0018340916593642767 0.00064121025170379758 0 0.0018317568536981334 0.00062251234442507839 0 0.0018306962931092703 0.00065185838049759681 0 0.0018340916593642767 0.00064121025170379758 0 0.0018317568536981334 0.00062251234442507839 0 0.0018307010221925734 0.00062351143494015235 0 0.0018340916593642767 0.00064121025170379758 0 0.0018278785460461187 0.00062127938510594038 0 0.001824019921850195 0.00067134176431040457 0 0.0018306962931092703 0.00065185838049759681 0 0.001824019921850195 0.00067134176431040457 0 0.0018306962931092703 0.00065185838049759681 0 0.0018275628889193418 0.00067789667056965795 0 0.001824019921850195 0.00067134176431040457 0 0.0018208926441530522 0.00068501792896068019 0 0.0018275628889193418 0.00067789667056965795 0 0.0018306962931092703 0.00065185838049759681 0 0.0018355836695937613 0.00066943275580993913 0 0.0018275628889193418 0.00067789667056965795 0 0.0018393050561364172 0.00065652353379265884 0 0.0018306962931092703 0.00065185838049759681 0 0.0018355836695937613 0.00066943275580993913 0 0.0018355836695937613 0.00066943275580993913 0 0.0018381908142707617 0.000688858775310743 0 0.0018275628889193418 0.00067789667056965795 0 0.0018381908142707617 0.000688858775310743 0 0.0018275628889193418 0.00067789667056965795 0 0.0018259544170809185 0.00069893435781833173 0 0.0018208926441530522 0.00068501792896068019 0 0.0018275628889193418 0.00067789667056965795 0 0.0018259544170809185 0.00069893435781833173 0 0.0018653751310863814 0.0025448988087283866 0 0.0017104830601229709 0.0023781680738095608 0 0.0020186176679128061 0.00245253604715445 0 0.0022414055247181172 0.0040920091101679474 0 0.0021551071071277176 0.0039980598683590088 0 0.0021550295677118738 0.0040683141642242045 0 0.0021497607984448182 0.0037174717978163152 0 0.0022328722021722047 0.0039397418145059428 0 0.0021497607984448182 0.0037174717978163152 0 0.0019416968187411375 0.0018865396286402026 0 0.0020499816965105395 0.0041489195930644275 0 0.0021551071071277176 0.0039980598683590088 0 0.0021550295677118738 0.0040683141642242045 0 0.0019852230120893438 0.0013884922103369543 0 0.0019416968187411375 0.0018865396286402026 0 0.0021148236141335037 0.0022099661284397006 0 0.0017104830601229709 0.0023781680738095608 0 0.0020186176679128061 0.00245253604715445 0 0.0021148236141335037 0.0022099661284397006 0 0.0020186176679128061 0.00245253604715445 0 0.0022347915326043294 0.0024817171452360693 0 0.0021161638085040609 0.0026234926836736297 0 0.0020186176679128061 0.00245253604715445 0 0.0022347915326043294 0.0024817171452360693 0 0.002370183251207786 0.0027038670337588091 0 0.0022347915326043294 0.0024817171452360693 0 0.0024489750601681425 0.0023701496070536519 0 0.0021148236141335037 0.0022099661284397006 0 0.0022347915326043294 0.0024817171452360693 0 0.0024489750601681425 0.0023701496070536519 0 0.0015851911936654935 0.0029788005712774344 0 0.001740218858686395 0.0023294781411241604 0 0.0020631602418380631 0.0024030585266302867 0 0.001740218858686395 0.0023294781411241604 0 0.0020631602418380631 0.0024030585266302867 0 0.0018974507597509138 0.001674360878873042 0 0.0017489934561655592 0.0023110686821574918 0 0.0018384435953167869 0.0015458694118934116 0 0.0020631602418380631 0.0024030585266302867 0 0.0019658321946658315 0.0016466648608331701 0 0.0018974507597509138 0.001674360878873042 0 0.0021051457219602937 0.0023089960301359868 0 0.0020660198645671211 0.0015144915724111536 0 0.0019483866670141166 0.0011195518970089165 0 0.0019985990927479003 0.0014970359380092257 0 0.0018429153243240254 0.0015599320772910186 0 0.0018657933181947322 0.00094259230741411718 0 0.0018384435953167869 0.0015458694118934116 0 0.0018657933181947322 0.00094259230741411718 0 0.0020660198645671211 0.0015144915724111536 0 0.0018384435953167869 0.0015458694118934116 0 0.0020660198645671211 0.0015144915724111536 0 0.0021148236141335037 0.0022099661284397006 0 0.0024489750601681425 0.0023701496070536519 0 0.0025252742230150553 0.0020369621333825656 0 0.0018355836695937613 0.00066943275580993913 0 0.0018381908142707617 0.000688858775310743 0 0.0018455146388827127 0.00067322029336593342 0 0.0019852230120893438 0.0013884922103369543 0 0.0020660198645671211 0.0015144915724111536 0 0.0018381908142707617 0.000688858775310743 0 0.0018605788697000957 0.00068039148000440138 0 0.0018455146388827127 0.00067322029336593342 0 0.005265754174228322 0.0009746424679269594 0 0.0051192872987494576 0.0010216670583468193 0 0.0051084995552367809 0.00092203879975855563 0 0.0052033991286638973 0.0011431978968184323 0 0.0050893752522828874 0.0012181750373193821 0 0.005265754174228322 0.0009746424679269594 0 0.0051192872987494576 0.0010216670583468193 0 0.0051360445278672007 0.0011444677832568493 0 0.0049999945057319145 0.0010382478727338591 0 0.0051192872987494576 0.0010216670583468193 0 0.0051084995552367809 0.00092203879975855563 0 0.0049999945057319145 0.0010382478727338591 0 0.0051192872987494576 0.0010216670583468193 0 0.0051360445278672007 0.0011444677832568493 0 0.0050893752522828874 0.0012181750373193821 0 0.0050000203506891522 0.0013153009480688777 0 0.0049999945057319145 0.0010382478727338591 0 0.0051360445278672007 0.0011444677832568493 0 0.0050000004035587057 0.0013153152912647667 0 0.0050873306674770946 0.0012625772992175377 0 0.0050507166100957146 0.0012944154499442777 0 0.0051098001280415742 0.0013154248335016765 0 0.0050507166100957146 0.0012944154499442777 0 0.0051098001280415742 0.0013154248335016765 0 0.0051190079315504844 0.0014140578985120536 0 0.0051098001280415742 0.0013154248335016765 0 0.0051464992816047011 0.0013411982406055091 0 0.005128316648408641 0.0012704485418676616 0 0.0051464992816047011 0.0013411982406055091 0 0.0051446490216773329 0.0012711616348198796 0 0.005128316648408641 0.0012704485418676616 0 0.0051446490216773329 0.0012711616348198796 0 0.005128316648408641 0.0012704485418676616 0 0.0051463347886774469 0.0012442636024064344 0 0.0050873306674770946 0.0012625772992175377 0 0.0051098001280415742 0.0013154248335016765 0 0.005128316648408641 0.0012704485418676616 0 0.0048588147002362834 0.00069237007085737876 0 0.0049981354553890675 0.00054059176188095165 0 0.0052033991286638973 0.0011431978968184323 0 0.0048588147002362834 0.00069237007085737876 0 0.0050873306674770946 0.0012625772992175377 0 0.005128316648408641 0.0012704485418676616 0 0.0051114734607205685 0.0012315667836366501 0 0.005265754174228322 0.0009746424679269594 0 0.005390034703109078 0.00081295064658678379 0 0.0052432179744116778 0.00077353236710893131 0 0.0048588147002362834 0.00069237007085737876 0 0.004784970651779314 0.00088375895025098598 0 0.005128316648408641 0.0012704485418676616 0 0.0051114734607205685 0.0012315667836366501 0 0.0051463347886774469 0.0012442636024064344 0 0.0044324199511280556 0.00045801198813807297 0 0.0044534028467102813 0.00044978823332183495 0 0.0044540841716245302 0.00047907179317929093 0 0.0044324199511280556 0.00045801198813807297 0 0.0044534028467102813 0.00044978823332183495 0 0.0044615069383505436 0.00042576382755747167 0 0.0048588147002362834 0.00069237007085737876 0 0.0043963375712318935 0.00034631015728124462 0 0.0045931992937105889 0.00026184440901257095 0 0.0045593279819338799 0.00037214191983954317 0 0.0044615069383505436 0.00042576382755747167 0 0.0045931992937105889 0.00026184440901257095 0 0.0046756044808563433 0.00040886376800959898 0 0.0047422633161710954 0.00029678866741154728 0 0.0046756044808563433 0.00040886376800959898 0 0.0045593279819338799 0.00037214191983954317 0 0.0044687176144870052 0.00044644956492991082 0 0.0045931992937105889 0.00026184440901257095 0 0.0046756044808563433 0.00040886376800959898 0 0.0045593279819338799 0.00037214191983954317 0 0.0049981354553890675 0.00054059176188095165 0 0.0050267067041650081 0.00060463642867947536 0 0.0052735244879692543 0.00060676171986380576 0 0.0050863333730733042 0.00070764656911721107 0 0.0050858539629132383 0.00057466739524559261 0 0.0049691570427184521 0.0004988495366995277 0 0.0050267067041650081 0.00060463642867947536 0 0.0046756044808563433 0.00040886376800959898 0 0.0047422633161710954 0.00029678866741154728 0 0.0048973082950875364 0.00033916349817864451 0 0.0052432179744116778 0.00077353236710893131 0 0.005147921507836592 0.00082338934008407082 0 0.005092447343121565 0.00073096673843722228 0 0.005265754174228322 0.0009746424679269594 0 0.0052432179744116778 0.00077353236710893131 0 0.005147921507836592 0.00082338934008407082 0 0.005265754174228322 0.0009746424679269594 0 0.0051084995552367809 0.00092203879975855563 0 0.005147921507836592 0.00082338934008407082 0 0.0049999945057319145 0.0010382478727338591 0 0.0051084995552367809 0.00092203879975855563 0 0.0049999969836244367 0.00076121201446516934 0 0.0051084995552367809 0.00092203879975855563 0 0.005147921507836592 0.00082338934008407082 0 0.0049999969836244367 0.00076121201446516934 0 0.0050267067041650081 0.00060463642867947536 0 0.0050000726675224448 0.00070124037819541108 0 0.0049999998375563747 0.00076119357555374709 0 0.0050958951291217875 0.00072548750128724113 0 0.0049999995921404129 0.00070129448072037159 0 0.0050000194172485574 0.00076109741466789699 0 0.0050267067041650081 0.00060463642867947536 0 0.005147921507836592 0.00082338934008407082 0 0.0049999969836244367 0.00076121201446516934 0 0.005092447343121565 0.00073096673843722228 0 0.0050863333730733042 0.00070764656911721107 0 0.0049999907435678351 0.00070121449229354742 0 0.0050858539629132383 0.00057466739524559261 0 0.0050858539629132383 0.00057466739524559261 0 0.0051775039542802763 0.00046713989988002069 0 0.0049999943282510303 0.00044864966084496184 0 0.0049999907435678351 0.00070121449229354742 0 0.0050858539629132383 0.00057466739524559261 0 0.0049999943282510303 0.00044864966084496184 0 0.0052735244879692543 0.00060676171986380576 0 0.0050858539629132383 0.00057466739524559261 0 0.0051775039542802763 0.00046713989988002069 0 0.0051793417525515389 0.00045213386266098661 0 0.0053400570311016417 0.00044934876130403389 0 0.0051872613455011575 0.00043940645160351585 0 0.0051486962738653448 0.00029634727328486525 0 0.005286290134721215 0.00034152691127476093 0 0.005000001068611361 0.00044855979855543739 0 0.0049999914303531139 0.00019081387934571603 0 0.0051486962738653448 0.00029634727328486525 0 0.0051793417525515389 0.00045213386266098661 0 0.0050000409196594145 0.00044860352449727905 0 0.0051872613455011575 0.00043940645160351585 0 0.005000001068611361 0.00044855979855543739 0 0.0051486962738653448 0.00029634727328486525 0 0.0049999914303531139 0.00019081387934571603 0 0.0051486962738653448 0.00029634727328486525 0 0.0051480925314242943 0.00012864247274570445 0 0.0051486962738653448 0.00029634727328486525 0 0.0052518524963734679 0.00023653415440372754 0 0.0051480925314242943 0.00012864247274570445 0 0.0051486962738653448 0.00029634727328486525 0 0.0052518524963734679 0.00023653415440372754 0 0.005286290134721215 0.00034152691127476093 0 0.0052518524963734679 0.00023653415440372754 0 0.0051480925314242943 0.00012864247274570445 0 0.0052695696885170411 0.0001434138326240474 0 0.0051541204248228504 -3.1981763061309978e-05 0 0.0051480925314242943 0.00012864247274570445 0 0.0052123252935845034 6.106240929049549e-05 0 0.0051480925314242943 0.00012864247274570445 0 0.0052695696885170411 0.0001434138326240474 0 0.0052123252935845034 6.106240929049549e-05 0 0.0052695696885170411 0.0001434138326240474 0 0.0052812331957597606 6.7085439229106278e-05 0 0.0052123252935845034 6.106240929049549e-05 0 0.0052342891791212357 2.877335267975627e-08 0 0.0052812331957597606 6.7085439229106278e-05 0 0.0052123252935845034 6.106240929049549e-05 0 0.0051541204248228504 -3.1981763061309978e-05 0 0.0052342891791212357 2.877335267975627e-08 0 0.0052123252935845034 6.106240929049549e-05 0 0.0049999898570747426 -6.6994161742016823e-05 0 0.0049999914303531139 0.00019081387934571603 0 0.0051480925314242943 0.00012864247274570445 0 0.0049999898570747426 -6.6994161742016823e-05 0 0.0051541204248228504 -3.1981763061309978e-05 0 0.0051480925314242943 0.00012864247274570445 0 0.0053984678749634182 0.00017795650099147674 0 0.0054344070715947575 0.00020558291673912572 0 0.0054272218331604498 0.00015226436134310717 0 0.0053984678749634182 0.00017795650099147674 0 0.0054344070715947575 0.00020558291673912572 0 0.0053973049015567497 0.00021800498908175137 0 0.0054735107080863283 0.0001857095377012999 0 0.0054344070715947575 0.00020558291673912572 0 0.0054272218331604498 0.00015226436134310717 0 0.0054735107080863283 0.0001857095377012999 0 0.0054344070715947575 0.00020558291673912572 0 0.005480488340541061 0.00024607281598863843 0 0.005466567458492993 0.00017201609218903488 0 0.0054034883975643171 0.00011566348446605819 0 0.0054735107080863283 0.0001857095377012999 0 0.0054217217484189891 0.00015068571497778852 0 0.0055079446136951102 0.00016121091848359843 0 0.0053984678749634182 0.00017795650099147674 0 0.0054269505862267016 0.0001513906184926365 0 0.0053997029315380387 0.00013252675009010521 0 0.0054034883975643171 0.00011566348446605819 0 0.005347014568126798 1.0244362208025457e-05 0 0.0053934683949208436 0.00014539052064889128 0 0.0054034883975643171 0.00011566348446605819 0 0.0054101928672421551 0.00012082732337108059 0 0.0053362072982928712 0.00016704179758972001 0 0.0053515129921892536 0.00019202912010986197 0 0.005347014568126798 1.0244362208025457e-05 0 0.0053363649133138765 0.00017927129969954941 0 0.0053059318354753996 -6.0972604576445051e-05 0 0.0052812331957597606 6.7085439229106278e-05 0 0.0053494036652558304 9.4963078485776924e-05 0 0.0053984678749634182 0.00017795650099147674 0 0.0053997029315380387 0.00013252675009010521 0 0.0053515129921892536 0.00019202912010986197 0 0.0052977918524731368 4.1087209986137421e-05 0 0.0054101928672421551 0.00012082732337108059 0 0.0053362072982928712 0.00016704179758972001 0 0.0053362072982928712 0.00016704179758972001 0 0.0053515129921892536 0.00019202912010986197 0 0.0053713272461761857 0.00026937989343627742 0 0.0052695696885170411 0.0001434138326240474 0 0.0053494036652558304 9.4963078485776924e-05 0 0.0053713272461761857 0.00026937989343627742 0 0.0052695696885170411 0.0001434138326240474 0 0.0052812331957597606 6.7085439229106278e-05 0 0.0053494036652558304 9.4963078485776924e-05 0 0.0053984678749634182 0.00017795650099147674 0 0.0053515129921892536 0.00019202912010986197 0 0.0053973049015567497 0.00021800498908175137 0 0.0053515129921892536 0.00019202912010986197 0 0.0053713272461761857 0.00026937989343627742 0 0.0053973049015567497 0.00021800498908175137 0 0.0053469493296971352 0.00015012448667853234 0 0.005368118097968875 0.00024517334969586 0 0.0052518524963734679 0.00023653415440372754 0 0.0052695696885170411 0.0001434138326240474 0 0.0053713272461761857 0.00026937989343627742 0 0.0052518524963734679 0.00023653415440372754 0 0.0053713272461761857 0.00026937989343627742 0 0.005286290134721215 0.00034152691127476093 0 0.0053713272461761857 0.00026937989343627742 0 0.0054246457663369701 0.00030177039003001884 0 0.0054310778860019501 0.00024939382756639517 0 0.0053713272461761857 0.00026937989343627742 0 0.0053973049015567497 0.00021800498908175137 0 0.0054310778860019501 0.00024939382756639517 0 0.0054344070715947575 0.00020558291673912572 0 0.0053973049015567497 0.00021800498908175137 0 0.0054310778860019501 0.00024939382756639517 0 0.0054344070715947575 0.00020558291673912572 0 0.0054310778860019501 0.00024939382756639517 0 0.005480488340541061 0.00024607281598863843 0 0.0054246457663369701 0.00030177039003001884 0 0.0054310778860019501 0.00024939382756639517 0 0.0054774495198203809 0.0003092122677377152 0 0.0054310778860019501 0.00024939382756639517 0 0.0054774495198203809 0.0003092122677377152 0 0.005480488340541061 0.00024607281598863843 0 0.0054133800288579583 0.00036693327588353775 0 0.0053427806555938128 0.00043146160653380344 0 0.0054696003032560746 0.00044514517353955169 0 0.0054246457663369701 0.00030177039003001884 0 0.0054133800288579583 0.00036693327588353775 0 0.0054655986743807911 0.00037867639613518937 0 0.0054246457663369701 0.00030177039003001884 0 0.0054774495198203809 0.0003092122677377152 0 0.0054655986743807911 0.00037867639613518937 0 0.0053713272461761857 0.00026937989343627742 0 0.0054246457663369701 0.00030177039003001884 0 0.0054133800288579583 0.00036693327588353775 0 0.0054133800288579583 0.00036693327588353775 0 0.0054655986743807911 0.00037867639613518937 0 0.0054696003032560746 0.00044514517353955169 0 0.0051872613455011575 0.00043940645160351585 0 0.005286290134721215 0.00034152691127476093 0 0.0053427806555938128 0.00043146160653380344 0 0.0053713272461761857 0.00026937989343627742 0 0.0054133800288579583 0.00036693327588353775 0 0.005286290134721215 0.00034152691127476093 0 0.0054133800288579583 0.00036693327588353775 0 0.005286290134721215 0.00034152691127476093 0 0.0053427806555938128 0.00043146160653380344 0 0.0049691570427184521 0.0004988495366995277 0 0.0049498882378114758 0.00047462287236795696 0 0.0052735244879692543 0.00060676171986380576 0 0.0051775039542802763 0.00046713989988002069 0 0.0053324256367801338 0.00046665163544485185 0 0.0052735244879692543 0.00060676171986380576 0 0.0053324256367801338 0.00046665163544485185 0 0.0054327981746173197 0.00050616897404419804 0 0.0053324256367801338 0.00046665163544485185 0 0.0054696003032560746 0.00044514517353955169 0 0.0054327981746173197 0.00050616897404419804 0 0.0053400570311016417 0.00044934876130403389 0 0.0054606761900284984 0.00044796069490142353 0 0.0045593279819338799 0.00037214191983954317 0 0.0044687176144870052 0.00044644956492991082 0 0.0044615069383505436 0.00042576382755747167 0 0.0044687176144870052 0.00044644956492991082 0 0.0044615069383505436 0.00042576382755747167 0 0.0044726757599122587 0.00042472447120261829 0 0.0049498882378114758 0.00047462287236795696 0 0.0050601636003089227 0.00042770914321414748 0 0.0054696003032560746 0.00044514517353955169 0 0.0054327981746173197 0.00050616897404419804 0 0.005574692275868879 0.00041827448827863627 0 0.0044687176144870052 0.00044644956492991082 0 0.0044726757599122587 0.00042472447120261829 0 0.0044891088958929756 0.00039542494593395954 0 0.0044726757599122587 0.00042472447120261829 0 0.0044984900707983133 0.00042173096039709647 0 0.0044891088958929756 0.00039542494593395954 0 0.0044984900707983133 0.00042173096039709647 0 0.0045561933006834868 0.00036665757878229856 0 0.004527605407851628 0.00043276218153383414 0 0.0044984900707983133 0.00042173096039709647 0 0.0044891088958929756 0.00039542494593395954 0 0.0045561933006834868 0.00036665757878229856 0 0.0055994447622572307 0.00033877012848959197 0 0.005665010410214489 0.00029766127970813324 0 0.0056996266888640363 0.00035996946470997652 0 0.0050601636003089227 0.00042770914321414748 0 0.0049497741856663197 0.00014718804325308555 0 0.005574692275868879 0.00041827448827863627 0 0.0055994447622572307 0.00033877012848959197 0 0.0056996266888640363 0.00035996946470997652 0 0.0054696003032560746 0.00044514517353955169 0 0.005574692275868879 0.00041827448827863627 0 0.0055204421358768406 0.00037142291718635876 0 0.0054655986743807911 0.00037867639613518937 0 0.0054696003032560746 0.00044514517353955169 0 0.0055204421358768406 0.00037142291718635876 0 0.005574692275868879 0.00041827448827863627 0 0.0055994447622572307 0.00033877012848959197 0 0.0055204421358768406 0.00037142291718635876 0 0.0055994447622572307 0.00033877012848959197 0 0.0055204421358768406 0.00037142291718635876 0 0.0055336280569398119 0.00029963689930641134 0 0.0054774495198203809 0.0003092122677377152 0 0.0055204421358768406 0.00037142291718635876 0 0.0055336280569398119 0.00029963689930641134 0 0.0054774495198203809 0.0003092122677377152 0 0.0054655986743807911 0.00037867639613518937 0 0.0055204421358768406 0.00037142291718635876 0 0.0054774495198203809 0.0003092122677377152 0 0.005480488340541061 0.00024607281598863843 0 0.0055336280569398119 0.00029963689930641134 0 0.0054735107080863283 0.0001857095377012999 0 0.005480488340541061 0.00024607281598863843 0 0.0055338024108561095 0.00022948119021436482 0 0.005480488340541061 0.00024607281598863843 0 0.0055338024108561095 0.00022948119021436482 0 0.0055336280569398119 0.00029963689930641134 0 0.0055338024108561095 0.00022948119021436482 0 0.0055336280569398119 0.00029963689930641134 0 0.005595628933164995 0.00028315350199920801 0 0.0055994447622572307 0.00033877012848959197 0 0.0055336280569398119 0.00029963689930641134 0 0.005595628933164995 0.00028315350199920801 0 0.005595628933164995 0.00028315350199920801 0 0.0056677059178200824 0.00018715714674984667 0 0.005665010410214489 0.00029766127970813324 0 0.005595628933164995 0.00028315350199920801 0 0.0055906029188130917 0.00021550159671121928 0 0.0056677059178200824 0.00018715714674984667 0 0.0055994447622572307 0.00033877012848959197 0 0.005595628933164995 0.00028315350199920801 0 0.005665010410214489 0.00029766127970813324 0 0.0055338024108561095 0.00022948119021436482 0 0.005595628933164995 0.00028315350199920801 0 0.0055906029188130917 0.00021550159671121928 0 0.0056015259366424004 0.00010448743381649728 0 0.0055646981040837094 0.00016239096192849592 0 0.0056677059178200824 0.00018715714674984667 0 0.0051285023497829188 -0.00029649328395687494 0 0.0049993978887621941 -0.00026855383381887889 0 0.0050912323916940828 -0.00015696810244418378 0 0.0055906029188130917 0.00021550159671121928 0 0.0055646981040837094 0.00016239096192849592 0 0.0056677059178200824 0.00018715714674984667 0 0.0053506316330680734 -0.00011264728595306943 0 0.0054183412533906645 6.1368588243073825e-05 0 0.0053506316330680734 -0.00011264728595306943 0 0.0054919577593549309 0.00010302553289527973 0 0.0055357138247085439 0.00010292403260869036 0 0.0056055556049061719 9.8711171230660629e-05 0 0.0055646981040837094 0.00016239096192849592 0 0.0055357138247085439 0.00010292403260869036 0 0.0055646981040837094 0.00016239096192849592 0 0.0055079446136951102 0.00016121091848359843 0 0.0055357138247085439 0.00010292403260869036 0 0.0054217217484189891 0.00015068571497778852 0 0.0055079446136951102 0.00016121091848359843 0 0.0054735107080863283 0.0001857095377012999 0 0.0055338024108561095 0.00022948119021436482 0 0.0055079446136951102 0.00016121091848359843 0 0.0055338024108561095 0.00022948119021436482 0 0.0055646981040837094 0.00016239096192849592 0 0.0055079446136951102 0.00016121091848359843 0 0.0055338024108561095 0.00022948119021436482 0 0.0055906029188130917 0.00021550159671121928 0 0.0055646981040837094 0.00016239096192849592 0 0.0046065491952584662 -0.00029604170086088547 0 0.0045987239152093483 -0.00036109943153250535 0 0.0046498565248737477 -0.00042307807687981368 0 0.0048110444699857183 -0.00032996283386696717 0 0.0051129459030047888 -7.9781004431243757e-05 0 0.0045987239152093483 -0.00036109943153250535 0 0.0045678739921786171 -0.00040559628154405997 0 0.0045576281724107187 -0.00036687387644872104 0 0.0045520476256012549 -0.00031429695334886441 0 0.0045987239152093483 -0.00036109943153250535 0 0.0045576281724107187 -0.00036687387644872104 0 0.0045520476256012549 -0.00031429695334886441 0 0.0046022125044208979 -0.00030291178999365318 0 0.0045987239152093483 -0.00036109943153250535 0 0.0048110444699857183 -0.00032996283386696717 0 0.0046269074135482638 -0.00035208550686877989 0 0.0052602561019980208 -0.00027837586214336601 0 0.0050912323916940828 -0.00015696810244418378 0 0.0051824505313554561 -4.5654677632122771e-05 0 0.0056677059178200824 0.00018715714674984667 0 0.005665010410214489 0.00029766127970813324 0 0.005730429863245839 0.00026850479124760777 0 0.0054183412533906645 6.1368588243073825e-05 0 0.0051129459030047888 -7.9781004431243757e-05 0 0.005665010410214489 0.00029766127970813324 0 0.005730429863245839 0.00026850479124760777 0 0.0056996266888640363 0.00035996946470997652 0 0.0051129459030047888 -7.9781004431243757e-05 0 0.0046868191804231314 -0.00024179713476196906 0 0.0046498565248737477 -0.00042307807687981368 0 0.0045678739921786171 -0.00040559628154405997 0 0.0046095667995803141 -0.00047036917966160167 0 0.0045987239152093483 -0.00036109943153250535 0 0.0046498565248737477 -0.00042307807687981368 0 0.0045678739921786171 -0.00040559628154405997 0 0.0046868191804231314 -0.00024179713476196906 0 0.0047657422655535782 1.455717879547021e-05 0 0.0047546202132883074 -1.8697337431819134e-05 0 0.0046652068500815293 1.4564678590080732e-05 0 0.0047263483222113618 0.0001266265385275038 0 0.0051129459030047888 -7.9781004431243757e-05 0 0.0049497741856663197 0.00014718804325308555 0 0.0046868191804231314 -0.00024179713476196906 0 0.0049497741856663197 0.00014718804325308555 0 0.0049298388781788055 -5.3948588893414385e-05 0 0.0049290703265044422 -5.3819746202489726e-05 0 0.0049290636855618131 -5.2413253091790873e-05 0 0.0049497741856663197 0.00014718804325308555 0 0.0045392206840005256 0.00032846836074723964 0 0.0046652068500815293 1.4564678590080732e-05 0 0.0047263483222113618 0.0001266265385275038 0 0.0046119894504338451 0.00017054141109351553 0 0.0047731686197157036 0.00014240044113136507 0 0.0045392206840005256 0.00032846836074723964 0 0.0047766856606002057 0.00016995340178634728 0 0.0048795604447043305 0.00019556397262699015 0 0.0048878631635722947 0.00014661311818595085 0 0.0047731686197157036 0.00014240044113136507 0 0.0047657422655535782 1.455717879547021e-05 0 0.0047546202132883074 -1.8697337431819134e-05 0 0.0047263483222113618 0.0001266265385275038 0 0.0048387516235389129 8.3562685258271334e-05 0 0.0047766856606002057 0.00016995340178634728 0 0.0048805669963681419 0.0002633259184238274 0 0.0048795604447043305 0.00019556397262699015 0 0.0047766856606002057 0.00016995340178634728 0 0.0048805669963681419 0.0002633259184238274 0 0.0047412913884842846 0.00028947706630709827 0 0.0048805669963681419 0.0002633259184238274 0 0.0047406197317060384 0.00041624634288861106 0 0.0047412913884842846 0.00028947706630709827 0 0.0048805669963681419 0.0002633259184238274 0 0.0049518009493420235 0.00053695006508710759 0 0.0047406197317060384 0.00041624634288861106 0 0.0049518009493420235 0.00053695006508710759 0 0.0047406197317060384 0.00041624634288861106 0 0.004543516240533293 0.00061733027471927611 0 0.0047406197317060384 0.00041624634288861106 0 0.00457508081503793 0.00046139371721378391 0 0.004543516240533293 0.00061733027471927611 0 0.00457508081503793 0.00046139371721378391 0 0.0046421298659054854 0.00037081557573733062 0 0.0045259976547247826 0.00041969892625511274 0 0.0047406197317060384 0.00041624634288861106 0 0.00457508081503793 0.00046139371721378391 0 0.0046421298659054854 0.00037081557573733062 0 0.0047766856606002057 0.00016995340178634728 0 0.0047412913884842846 0.00028947706630709827 0 0.0045693783227350095 0.00024548476226464699 0 0.0046421298659054854 0.00037081557573733062 0 0.0045693783227350095 0.00024548476226464699 0 0.0045259976547247826 0.00041969892625511274 0 0.0047406197317060384 0.00041624634288861106 0 0.0046421298659054854 0.00037081557573733062 0 0.0047412913884842846 0.00028947706630709827 0 0.0046421298659054854 0.00037081557573733062 0 0.0047412913884842846 0.00028947706630709827 0 0.0045693783227350095 0.00024548476226464699 0 0.0044984900707983133 0.00042173096039709647 0 0.004527605407851628 0.00043276218153383414 0 0.0044687738226650807 0.0004391581333240233 0 0.0045377241253668973 0.00038363395916685296 0 0.0045259976547247826 0.00041969892625511274 0 0.0044687738226650807 0.0004391581333240233 0 0.0045392206840005256 0.00032846836074723964 0 0.0044670905410674824 0.00045308513881250732 0 0.0045392206840005256 0.00032846836074723964 0 0.0045289289923171657 0.00039280519702517377 0 0.0045259976547247826 0.00041969892625511274 0 0.0044687738226650807 0.0004391581333240233 0 0.0044959964136369662 0.00047506227187557788 0 0.0044615069383505436 0.00042576382755747167 0 0.0044726757599122587 0.00042472447120261829 0 0.0044687738226650807 0.0004391581333240233 0 0.0044534028467102813 0.00044978823332183495 0 0.0044615069383505436 0.00042576382755747167 0 0.0044687738226650807 0.0004391581333240233 0 0.0044726757599122587 0.00042472447120261829 0 0.0044984900707983133 0.00042173096039709647 0 0.0044687738226650807 0.0004391581333240233 0 0.0044534028467102813 0.00044978823332183495 0 0.0044687738226650807 0.0004391581333240233 0 0.0044540841716245302 0.00047907179317929093 0 0.0044687738226650807 0.0004391581333240233 0 0.0044540841716245302 0.00047907179317929093 0 0.0044959964136369662 0.00047506227187557788 0 0.0044540841716245302 0.00047907179317929093 0 0.0044959964136369662 0.00047506227187557788 0 0.004543516240533293 0.00061733027471927611 0 0.004784970651779314 0.00088375895025098598 0 0.0048647652550535547 0.00090805925574272194 0 0.00457508081503793 0.00046139371721378391 0 0.0045259976547247826 0.00041969892625511274 0 0.0044959964136369662 0.00047506227187557788 0 0.00457508081503793 0.00046139371721378391 0 0.0044959964136369662 0.00047506227187557788 0 0.004543516240533293 0.00061733027471927611 0 0.0051463347886774469 0.0012442636024064344 0 0.005148875583476778 0.0012564653483767153 0 0.0051365178654106617 0.0012097264206945659 0 0.005148875583476778 0.0012564653483767153 0 0.0051439867012040251 0.0012196399831388845 0 0.0051365178654106617 0.0012097264206945659 0 0.0051446490216773329 0.0012711616348198796 0 0.0051463347886774469 0.0012442636024064344 0 0.005148875583476778 0.0012564653483767153 0 0.0051464992816047011 0.0013411982406055091 0 0.005148875583476778 0.0012564653483767153 0 0.005168308752414739 0.0013777559651132942 0 0.0051464992816047011 0.0013411982406055091 0 0.0051446490216773329 0.0012711616348198796 0 0.005148875583476778 0.0012564653483767153 0 0.0051439867012040251 0.0012196399831388845 0 0.0051611916907411959 0.0012637259661120719 0 0.005168308752414739 0.0013777559651132942 0 0.005148875583476778 0.0012564653483767153 0 0.0051439867012040251 0.0012196399831388845 0 0.005168308752414739 0.0013777559651132942 0 0.0051439867012040251 0.0012196399831388845 0 0.0051611916907411959 0.0012637259661120719 0 0.0051064214761766648 0.0011172316131331799 0 0.0051064214761766648 0.0011172316131331799 0 0.0052283970970436527 0.0011242191793669669 0 0.0052381623312840802 0.0012531716766028323 0 0.0051611916907411959 0.0012637259661120719 0 0.0051064214761766648 0.0011172316131331799 0 0.0052381623312840802 0.0012531716766028323 0 0.0050554671739653362 0.00092339773897228816 0 0.0051064214761766648 0.0011172316131331799 0 0.0052283970970436527 0.0011242191793669669 0 0.0049518009493420235 0.00053695006508710759 0 0.0050554671739653362 0.00092339773897228816 0 0.004543516240533293 0.00061733027471927611 0 0.0051439867012040251 0.0012196399831388845 0 0.0051064214761766648 0.0011172316131331799 0 0.0051365178654106617 0.0012097264206945659 0 0.0050607604943067666 0.00093525658923690458 0 0.0048647652550535547 0.00090805925574272194 0 0.0050554671739653362 0.00092339773897228816 0 0.0051064214761766648 0.0011172316131331799 0 0.0051365178654106617 0.0012097264206945659 0 0.0048252713253246734 0.00026451335380836083 0 0.004815898376683136 0.00028939649987685338 0 0.0048328431796628712 0.00026226709074749421 0 0.0047881906485800147 0.00023661394113897851 0 0.0048226379554696611 0.00021714975048693695 0 0.0047999270662476895 0.00026095712592160022 0 0.0048328431796628712 0.00026226709074749421 0 0.0048019766579884765 0.00034336605703741608 0 0.0048328431796628712 0.00026226709074749421 0 0.0048019766579884765 0.00034336605703741608 0 0.0048401286854431293 0.00033926597758745174 0 0.0049518009493420235 0.00053695006508710759 0 0.0050554671739653362 0.00092339773897228816 0 0.0053880330762467264 0.0010109805401892669 0 0.0050554671739653362 0.00092339773897228816 0 0.0053880330762467264 0.0010109805401892669 0 0.0052283970970436527 0.0011242191793669669 0 0.0047999270662476895 0.00026095712592160022 0 0.0048328431796628712 0.00026226709074749421 0 0.0050065009995777197 0.00033557247616307573 0 0.0050878425430486837 0.00064547243971777425 0 0.0050213302529706454 0.00037559333976983208 0 0.0052283970970436527 0.0011242191793669669 0 0.0054739128475243381 0.0013309572999653455 0 0.0052381623312840802 0.0012531716766028323 0 0.0053880330762467264 0.0010109805401892669 0 0.0052283970970436527 0.0011242191793669669 0 0.0054739128475243381 0.0013309572999653455 0 0.0047999270662476895 0.00026095712592160022 0 0.0048019766579884765 0.00034336605703741608 0 0.0047214491612342525 0.00045672932580701468 0 0.0050878425430486837 0.00064547243971777425 0 0.0051019058417876373 0.00089702886564552121 0 0.0048019766579884765 0.00034336605703741608 0 0.0048401286854431293 0.00033926597758745174 0 0.0048316371662535489 0.00046134518165484898 0 0.0047881906485800147 0.00023661394113897851 0 0.0048179774749801414 0.00021421322194420622 0 0.0048622761933844851 0.00033710081477691988 0 0.0048401286854431293 0.00033926597758745174 0 0.0049600741117624639 0.00040527931581124779 0 0.0048316371662535489 0.00046134518165484898 0 0.004815898376683136 0.00028939649987685338 0 0.0049167817335424432 0.00037166827074566603 0 0.0047881906485800147 0.00023661394113897851 0 0.0048179774749801414 0.00021421322194420622 0 0.0047918766939906172 0.0001593609684295397 0 0.0047881906485800147 0.00023661394113897851 0 0.0047918766939906172 0.0001593609684295397 0 0.0048226379554696611 0.00021714975048693695 0 0.0047918766939906172 0.0001593609684295397 0 0.004811070503263749 0.0001376401759646135 0 0.0048226379554696611 0.00021714975048693695 0 0.0048179774749801414 0.00021421322194420622 0 0.0047918766939906172 0.0001593609684295397 0 0.0048208778578576117 0.00010649936018657684 0 0.0047918766939906172 0.0001593609684295397 0 0.0047678848276826169 5.1308553216489583e-05 0 0.0048208778578576117 0.00010649936018657684 0 0.0047678848276826169 5.1308553216489583e-05 0 0.004811070503263749 0.0001376401759646135 0 0.0047581613682152919 8.2144387752856782e-06 0 0.0047918766939906172 0.0001593609684295397 0 0.0047678848276826169 5.1308553216489583e-05 0 0.004811070503263749 0.0001376401759646135 0 0.004811070503263749 0.0001376401759646135 0 0.0048841605858115887 0.00022414910024204607 0 0.0048226379554696611 0.00021714975048693695 0 0.004811070503263749 0.0001376401759646135 0 0.0048841605858115887 0.00022414910024204607 0 0.0048545957018763701 0.00014885167906172859 0 0.0048841605858115887 0.00022414910024204607 0 0.0049143863677783509 0.00022148978692229448 0 0.0048545957018763701 0.00014885167906172859 0 0.0048328431796628712 0.00026226709074749421 0 0.0048226379554696611 0.00021714975048693695 0 0.0050065009995777197 0.00033557247616307573 0 0.0048841605858115887 0.00022414910024204607 0 0.0048226379554696611 0.00021714975048693695 0 0.0050065009995777197 0.00033557247616307573 0 0.0049518009493420235 0.00053695006508710759 0 0.0053880330762467264 0.0010109805401892669 0 0.0050065009995777197 0.00033557247616307573 0 0.0048805669963681419 0.0002633259184238274 0 0.0049518009493420235 0.00053695006508710759 0 0.0050065009995777197 0.00033557247616307573 0 0.0048805669963681419 0.0002633259184238274 0 0.0050065009995777197 0.00033557247616307573 0 0.0049143863677783509 0.00022148978692229448 0 0.0048841605858115887 0.00022414910024204607 0 0.0050065009995777197 0.00033557247616307573 0 0.0049143863677783509 0.00022148978692229448 0 0.0048805669963681419 0.0002633259184238274 0 0.0049143863677783509 0.00022148978692229448 0 0.0048795604447043305 0.00019556397262699015 0 0.0048873292962007403 0.00017044488706859177 0 0.0048906733413174482 0.00017460020984800376 0 0.0048085067732422711 8.809847719247886e-05 0 0.0049143863677783509 0.00022148978692229448 0 0.0048795604447043305 0.00019556397262699015 0 0.0048873292962007403 0.00017044488706859177 0 0.0048795604447043305 0.00019556397262699015 0 0.0048873292962007403 0.00017044488706859177 0 0.0048878631635722947 0.00014661311818595085 0 0.0049143863677783509 0.00022148978692229448 0 0.0048873292962007403 0.00017044488706859177 0 0.0048545957018763701 0.00014885167906172859 0 0.0048731171929350427 0.0001461281174464371 0 0.0047657422655535782 1.455717879547021e-05 0 0.0048873292962007403 0.00017044488706859177 0 0.0048545957018763701 0.00014885167906172859 0 0.0048085067732422711 8.809847719247886e-05 0 0.0048545957018763701 0.00014885167906172859 0 0.0048085067732422711 8.809847719247886e-05 0 0.0048029174216171261 8.6322551198932002e-05 0 0.004811070503263749 0.0001376401759646135 0 0.0048545957018763701 0.00014885167906172859 0 0.0048029174216171261 8.6322551198932002e-05 0 0.0046054284602895504 -0.00033053405179860875 0 0.0045668784920880239 -0.00031954992714124548 0 0.0045827600853480715 -0.0003120885222588743 0 0.0047657422655535782 1.455717879547021e-05 0 0.0046935804761428111 -0.00013296170187327276 0 0.0045668784920880239 -0.00031954992714124548 0 0.0045827600853480715 -0.0003120885222588743 0 0.0045602336981287522 -0.00030346118692553163 0 0.004625135867592031 -0.00030732956163254783 0 0.0045990990426401507 -0.00031155614823110767 0 0.0045826918599523661 -0.00029574986128926088 0 0.004625135867592031 -0.00030732956163254783 0 0.0046054284602895504 -0.00033053405179860875 0 0.0045990990426401507 -0.00031155614823110767 0 0.0046054284602895504 -0.00033053405179860875 0 0.0045827600853480715 -0.0003120885222588743 0 0.0045990990426401507 -0.00031155614823110767 0 0.0045827600853480715 -0.0003120885222588743 0 0.0045990990426401507 -0.00031155614823110767 0 0.0045826918599523661 -0.00029574986128926088 0 0.0046868191804231314 -0.00024179713476196906 0 0.0045242535505683719 -0.00038296786406099128 0 0.0045678739921786171 -0.00040559628154405997 0 0.0046095667995803141 -0.00047036917966160167 0 0.0044870908264979404 -0.00042979402553860709 0 0.0045678739921786171 -0.00040559628154405997 0 0.0045113176256193609 -0.00038790590694039363 0 0.0044870908264979404 -0.00042979402553860709 0 0.0045113176256193609 -0.00038790590694039363 0 0.0044870908264979404 -0.00042979402553860709 0 0.0044870810659289719 -0.00040024604233796212 0 0.0045242535505683719 -0.00038296786406099128 0 0.0044743285706162544 -0.00034616365220458962 0 0.0045826918599523661 -0.00029574986128926088 0 0.0045422729747736463 -0.00028889911253453173 0 0.0045602336981287522 -0.00030346118692553163 0 0.0045827600853480715 -0.0003120885222588743 0 0.0045826918599523661 -0.00029574986128926088 0 0.0045602336981287522 -0.00030346118692553163 0 0.0044870908264979404 -0.00042979402553860709 0 0.0044602362270340914 -0.00039650012492778924 0 0.0044018988678976786 -0.0004105036120983638 0 0.0044870908264979404 -0.00042979402553860709 0 0.0044870810659289719 -0.00040024604233796212 0 0.0044602362270340914 -0.00039650012492778924 0 0.0044889899838338352 -0.00039064419733288023 0 0.0044602362270340914 -0.00039650012492778924 0 0.0044747277701902401 -0.00037722035387066855 0 0.0044870810659289719 -0.00040024604233796212 0 0.0044889899838338352 -0.00039064419733288023 0 0.0044602362270340914 -0.00039650012492778924 0 0.0044444099599357696 -0.0003574424089135858 0 0.0044602362270340914 -0.00039650012492778924 0 0.0044278750157746563 -0.0003824884271208979 0 0.0044444099599357696 -0.0003574424089135858 0 0.0044602362270340914 -0.00039650012492778924 0 0.0044747277701902401 -0.00037722035387066855 0 0.0044889899838338352 -0.00039064419733288023 0 0.0044747277701902401 -0.00037722035387066855 0 0.0045011540367325817 -0.00039476159629598138 0 0.0044676600005542078 -0.00034800930506160768 0 0.0044747277701902401 -0.00037722035387066855 0 0.0045011540367325817 -0.00039476159629598138 0 0.004467796876088846 -0.00042013683621654164 0 0.0045113176256193609 -0.00038790590694039363 0 0.0045011540367325817 -0.00039476159629598138 0 0.0045520476256012549 -0.00031429695334886441 0 0.0045113176256193609 -0.00038790590694039363 0 0.0045576281724107187 -0.00036687387644872104 0 0.0045053963325955623 -0.00037151465252277174 0 0.0045089917222211262 -0.00038594391144196761 0 0.0045678739921786171 -0.00040559628154405997 0 0.0045113176256193609 -0.00038790590694039363 0 0.0045576281724107187 -0.00036687387644872104 0 0.0045113176256193609 -0.00038790590694039363 0 0.0044889899838338352 -0.00039064419733288023 0 0.0045011540367325817 -0.00039476159629598138 0 0.0045113176256193609 -0.00038790590694039363 0 0.0044870810659289719 -0.00040024604233796212 0 0.0044889899838338352 -0.00039064419733288023 0 0.0043654160461689684 -0.000360220492907974 0 0.0044018988678976786 -0.0004105036120983638 0 0.0043067724695293776 -0.00037665157589945083 0 0.0044743285706162544 -0.00034616365220458962 0 0.0044034814904162682 -0.00033807838584356631 0 0.0045422729747736463 -0.00028889911253453173 0 0.0045213320987372218 -0.00029785338108220377 0 0.0045051619583413669 -0.00028794042715823596 0 0.0044602362270340914 -0.00039650012492778924 0 0.0044018988678976786 -0.0004105036120983638 0 0.0044278750157746563 -0.0003824884271208979 0 0.0044063106678644244 -0.00035467978423621774 0 0.0043654160461689684 -0.000360220492907974 0 0.0044018988678976786 -0.0004105036120983638 0 0.0044063106678644244 -0.00035467978423621774 0 0.0044018988678976786 -0.0004105036120983638 0 0.0044278750157746563 -0.0003824884271208979 0 0.0044063106678644244 -0.00035467978423621774 0 0.0044444099599357696 -0.0003574424089135858 0 0.0044278750157746563 -0.0003824884271208979 0 0.0045422729747736463 -0.00028889911253453173 0 0.0045602336981287522 -0.00030346118692553163 0 0.004529853963995743 -0.00030822124951502183 0 0.0045422729747736463 -0.00028889911253453173 0 0.0045213320987372218 -0.00029785338108220377 0 0.004529853963995743 -0.00030822124951502183 0 0.0047038362796415134 -8.0321443213191414e-05 0 0.0047581613682152919 8.2144387752856782e-06 0 0.0047160413296406661 -0.00013399477967282513 0 0.0046935804761428111 -0.00013296170187327276 0 0.0046236974625748564 -0.0002017083534749184 0 0.0045668784920880239 -0.00031954992714124548 0 0.0045602336981287522 -0.00030346118692553163 0 0.004529853963995743 -0.00030822124951502183 0 0.0048085067732422711 8.809847719247886e-05 0 0.0047038362796415134 -8.0321443213191414e-05 0 0.0047581613682152919 8.2144387752856782e-06 0 0.0048085067732422711 8.809847719247886e-05 0 0.0047581613682152919 8.2144387752856782e-06 0 0.0048029174216171261 8.6322551198932002e-05 0 0.004811070503263749 0.0001376401759646135 0 0.0047581613682152919 8.2144387752856782e-06 0 0.0048029174216171261 8.6322551198932002e-05 0 0.0047678848276826169 5.1308553216489583e-05 0 0.0047581613682152919 8.2144387752856782e-06 0 0.0047160413296406661 -0.00013399477967282513 0 0.0047160413296406661 -0.00013399477967282513 0 0.0045761562068461692 -0.00023152746194633598 0 0.0045709893096017315 -0.00028681157544665185 0 0.0047160413296406661 -0.00013399477967282513 0 0.0045761562068461692 -0.00023152746194633598 0 0.004553047894786214 -0.00024023119413049278 0 0.0047240312028591002 -0.00013944813656645674 0 0.0047963981153306993 -0.00012501865877261303 0 0.0045035181963376768 -0.00035079123771851391 0 0.0046028081845255571 -0.00020906401623498372 0 0.0045151507841028086 -0.00030169911615128927 0 0.0047160413296406661 -0.00013399477967282513 0 0.004553047894786214 -0.00024023119413049278 0 0.0046028081845255571 -0.00020906401623498372 0 0.004553047894786214 -0.00024023119413049278 0 0.0045035181963376768 -0.00035079123771851391 0 0.0046028081845255571 -0.00020906401623498372 0 0.0047038362796415134 -8.0321443213191414e-05 0 0.0047160413296406661 -0.00013399477967282513 0 0.0046028081845255571 -0.00020906401623498372 0 0.0046236974625748564 -0.0002017083534749184 0 0.0045402286181381851 -0.00028434240000375097 0 0.0045213320987372218 -0.00029785338108220377 0 0.004529853963995743 -0.00030822124951502183 0 0.0045151507841028086 -0.00030169911615128927 0 0.0045213320987372218 -0.00029785338108220377 0 0.0045151507841028086 -0.00030169911615128927 0 0.0045051619583413669 -0.00028794042715823596 0 0.0047038362796415134 -8.0321443213191414e-05 0 0.0046028081845255571 -0.00020906401623498372 0 0.0045151507841028086 -0.00030169911615128927 0 0.0045151507841028086 -0.00030169911615128927 0 0.0044052959121675585 -0.00033039969572823017 0 0.0043441245839210899 -0.00037343973897317176 0 0.0045035181963376768 -0.00035079123771851391 0 0.0045151507841028086 -0.00030169911615128927 0 0.0043441245839210899 -0.00037343973897317176 0 0.0042458740882181049 -0.00033922448302092767 0 0.0044052959121675585 -0.00033039969572823017 0 0.0043441245839210899 -0.00037343973897317176 0 0.0042458740882181049 -0.00033922448302092767 0 0.0044052959121675585 -0.00033039969572823017 0 0.0045051619583413669 -0.00028794042715823596 0 0.0045151507841028086 -0.00030169911615128927 0 0.0044052959121675585 -0.00033039969572823017 0 0.0045051619583413669 -0.00028794042715823596 0 0.0042648223621211375 -0.00033423675342104356 0 0.0044034814904162682 -0.00033807838584356631 0 0.0040440004555906224 -0.00047664667646059316 0 0.0041729832312634779 -0.00040530337419295844 0 0.0042148472673663425 -0.00046590768853379313 0 0.0040116112908054743 -0.00040589188700941467 0 0.0040440004555906224 -0.00047664667646059316 0 0.0041729832312634779 -0.00040530337419295844 0 0.0041729832312634779 -0.00040530337419295844 0 0.0043441245839210899 -0.00037343973897317176 0 0.0042148472673663425 -0.00046590768853379313 0 0.0042458740882181049 -0.00033922448302092767 0 0.0041729832312634779 -0.00040530337419295844 0 0.0043441245839210899 -0.00037343973897317176 0 0.0045035181963376768 -0.00035079123771851391 0 0.0043441245839210899 -0.00037343973897317176 0 0.0042148472673663425 -0.00046590768853379313 0 0.0040440004555906224 -0.00047664667646059316 0 0.0042148472673663425 -0.00046590768853379313 0 0.0040488557986851238 -0.00060188740610765245 0 0.0042148472673663425 -0.00046590768853379313 0 0.0040488557986851238 -0.00060188740610765245 0 0.0041428647018684024 -0.00068620241397615339 0 0.0039119352970386576 -0.00074768840303639401 0 0.0040488557986851238 -0.00060188740610765245 0 0.0041428647018684024 -0.00068620241397615339 0 0.0045035181963376768 -0.00035079123771851391 0 0.0042148472673663425 -0.00046590768853379313 0 0.0041428647018684024 -0.00068620241397615339 0 0.0044752308592085691 -0.00037263992704740463 0 0.0043681025680469129 -0.00046594089532722011 0 0.004553047894786214 -0.00024023119413049278 0 0.0045035181963376768 -0.00035079123771851391 0 0.0045738148459608247 -0.00025102810165125044 0 0.004553047894786214 -0.00024023119413049278 0 0.0045738148459608247 -0.00025102810165125044 0 0.0045622883326300349 -0.00024355611287006022 0 0.0045761562068461692 -0.00023152746194633598 0 0.004553047894786214 -0.00024023119413049278 0 0.0045622883326300349 -0.00024355611287006022 0 0.0045622883326300349 -0.00024355611287006022 0 0.0045566922648324591 -0.00025205877563163633 0 0.0045567038390790697 -0.00025893276515103917 0 0.0045622883326300349 -0.00024355611287006022 0 0.0045567038390790697 -0.00025893276515103917 0 0.0045621275502879793 -0.00025672682192808173 0 0.0045761562068461692 -0.00023152746194633598 0 0.0045622883326300349 -0.00024355611287006022 0 0.0045621275502879793 -0.00025672682192808173 0 0.0045761562068461692 -0.00023152746194633598 0 0.0045621275502879793 -0.00025672682192808173 0 0.0045673129688012801 -0.00026172454628374872 0 0.0045458918845705824 -0.00025118374560721744 0 0.0045738148459608247 -0.00025102810165125044 0 0.0045566922648324591 -0.00025205877563163633 0 0.0045738148459608247 -0.00025102810165125044 0 0.0045622883326300349 -0.00024355611287006022 0 0.0045566922648324591 -0.00025205877563163633 0 0.0045566922648324591 -0.00025205877563163633 0 0.0045494354709982995 -0.00026371519962220053 0 0.0045567038390790697 -0.00025893276515103917 0 0.0045458918845705824 -0.00025118374560721744 0 0.0045566922648324591 -0.00025205877563163633 0 0.0045438630785417048 -0.00025730509464026827 0 0.0045566922648324591 -0.00025205877563163633 0 0.0045438630785417048 -0.00025730509464026827 0 0.0045494354709982995 -0.00026371519962220053 0 0.0045366796798825618 -0.00026386757547530926 0 0.0045494354709982995 -0.00026371519962220053 0 0.0045432209768484222 -0.00027175432150867101 0 0.0045366796798825618 -0.00026386757547530926 0 0.0045438630785417048 -0.00025730509464026827 0 0.0045494354709982995 -0.00026371519962220053 0 0.0045494354709982995 -0.00026371519962220053 0 0.0045547635267627739 -0.0002703346587717875 0 0.0045567038390790697 -0.00025893276515103917 0 0.0045494354709982995 -0.00026371519962220053 0 0.0045504311254177541 -0.00027307105094479932 0 0.0045547635267627739 -0.0002703346587717875 0 0.0045504311254177541 -0.00027307105094479932 0 0.0045554793553465945 -0.00027700350419845952 0 0.0045547635267627739 -0.0002703346587717875 0 0.0045504311254177541 -0.00027307105094479932 0 0.0045477053754288937 -0.00027712374168386498 0 0.004551579806358807 -0.00027716954821234039 0 0.0045504311254177541 -0.00027307105094479932 0 0.004551579806358807 -0.00027716954821234039 0 0.0045554793553465945 -0.00027700350419845952 0 0.0045494354709982995 -0.00026371519962220053 0 0.0045504311254177541 -0.00027307105094479932 0 0.0045432209768484222 -0.00027175432150867101 0 0.0045504311254177541 -0.00027307105094479932 0 0.0045432209768484222 -0.00027175432150867101 0 0.0045477053754288937 -0.00027712374168386498 0 0.0045273513727416628 -0.00028285944730602306 0 0.0045399326341518317 -0.00027670566800798717 0 0.0045499141965967028 -0.00027993747709282397 0 0.0045399326341518317 -0.00027670566800798717 0 0.0045477053754288937 -0.00027712374168386498 0 0.0045499141965967028 -0.00027993747709282397 0 0.00488136895286351 1.9151821060202964e-05 0 0.0049698475309574996 4.6781727365195132e-05 0 0.0049670824901432561 3.3952938152720212e-05 0 0.0045432209768484222 -0.00027175432150867101 0 0.0045399326341518317 -0.00027670566800798717 0 0.0045477053754288937 -0.00027712374168386498 0 0.004551579806358807 -0.00027716954821234039 0 0.0045499141965967028 -0.00027993747709282397 0 0.0045554793553465945 -0.00027700350419845952 0 0.0045477053754288937 -0.00027712374168386498 0 0.004551579806358807 -0.00027716954821234039 0 0.0045499141965967028 -0.00027993747709282397 0 0.0052137287026597506 0.00018477892263435265 0 0.0050937920333749111 0.00015109779559588661 0 0.0050240758526711293 3.4844971614354348e-05 0 0.0050636060875729151 0.00010179359966833302 0 0.0050386752792718759 4.5889667225930086e-05 0 0.0049698475309574996 4.6781727365195132e-05 0 0.0049670824901432561 3.3952938152720212e-05 0 0.0050240758526711293 3.4844971614354348e-05 0 0.0050937920333749111 0.00015109779559588661 0 0.0050445167352442906 0.00016648951700690598 0 0.0050945743090805859 0.00021072283567164947 0 0.0050937920333749111 0.00015109779559588661 0 0.0050445167352442906 0.00016648951700690598 0 0.0050238975279743468 0.00011143850807627539 0 0.0052137287026597506 0.00018477892263435265 0 0.0050937920333749111 0.00015109779559588661 0 0.0051545602688230835 0.00021651773265354151 0 0.0050937920333749111 0.00015109779559588661 0 0.0050240758526711293 3.4844971614354348e-05 0 0.0050238975279743468 0.00011143850807627539 0 0.0045499141965967028 -0.00027993747709282397 0 0.0045625413910800614 -0.00028050282037627149 0 0.0045709893096017315 -0.00028681157544665185 0 0.0049698475309574996 4.6781727365195132e-05 0 0.0050240758526711293 3.4844971614354348e-05 0 0.0050294549432022603 2.5715230565527998e-05 0 0.0047408421134308206 -0.00012137037945184444 0 0.0047963981153306993 -0.00012501865877261303 0 0.0045499141965967028 -0.00027993747709282397 0 0.0045625413910800614 -0.00028050282037627149 0 0.0045554793553465945 -0.00027700350419845952 0 0.0045625413910800614 -0.00028050282037627149 0 0.0045554793553465945 -0.00027700350419845952 0 0.0045585355424278984 -0.00026990570318231926 0 0.0045554793553465945 -0.00027700350419845952 0 0.0045547635267627739 -0.0002703346587717875 0 0.0045585355424278984 -0.00026990570318231926 0 0.0045585355424278984 -0.00026990570318231926 0 0.0045567038390790697 -0.00025893276515103917 0 0.0045621275502879793 -0.00025672682192808173 0 0.0045547635267627739 -0.0002703346587717875 0 0.0045585355424278984 -0.00026990570318231926 0 0.0045567038390790697 -0.00025893276515103917 0 0.0045625413910800614 -0.00028050282037627149 0 0.0045637420870509307 -0.00027090688312721953 0 0.0045709893096017315 -0.00028681157544665185 0 0.0045637420870509307 -0.00027090688312721953 0 0.0045673129688012801 -0.00026172454628374872 0 0.0045709893096017315 -0.00028681157544665185 0 0.0045625413910800614 -0.00028050282037627149 0 0.0045585355424278984 -0.00026990570318231926 0 0.0045637420870509307 -0.00027090688312721953 0 0.0045637420870509307 -0.00027090688312721953 0 0.0045621275502879793 -0.00025672682192808173 0 0.0045673129688012801 -0.00026172454628374872 0 0.0045585355424278984 -0.00026990570318231926 0 0.0045637420870509307 -0.00027090688312721953 0 0.0045621275502879793 -0.00025672682192808173 0 0.0045761562068461692 -0.00023152746194633598 0 0.0045673129688012801 -0.00026172454628374872 0 0.0045709893096017315 -0.00028681157544665185 0 0.0047160413296406661 -0.00013399477967282513 0 0.0050294549432022603 2.5715230565527998e-05 0 0.0049162168011175527 7.5205974231669657e-05 0 0.0050294549432022603 2.5715230565527998e-05 0 0.0049162168011175527 7.5205974231669657e-05 0 0.0049833279248860567 7.1872336584710508e-05 0 0.0050240758526711293 3.4844971614354348e-05 0 0.0050294549432022603 2.5715230565527998e-05 0 0.0049833279248860567 7.1872336584710508e-05 0 0.0047160413296406661 -0.00013399477967282513 0 0.0049162168011175527 7.5205974231669657e-05 0 0.0048208778578576117 0.00010649936018657684 0 0.0047678848276826169 5.1308553216489583e-05 0 0.0047160413296406661 -0.00013399477967282513 0 0.0048208778578576117 0.00010649936018657684 0 0.0049162168011175527 7.5205974231669657e-05 0 0.0048208778578576117 0.00010649936018657684 0 0.0048958194922889128 0.00018668490165582084 0 0.0048179774749801414 0.00021421322194420622 0 0.0048208778578576117 0.00010649936018657684 0 0.0048958194922889128 0.00018668490165582084 0 0.0049162168011175527 7.5205974231669657e-05 0 0.0049765900160374148 0.00014001207717416849 0 0.0048958194922889128 0.00018668490165582084 0 0.0050240758526711293 3.4844971614354348e-05 0 0.0049833279248860567 7.1872336584710508e-05 0 0.0050238975279743468 0.00011143850807627539 0 0.0049833279248860567 7.1872336584710508e-05 0 0.0050238975279743468 0.00011143850807627539 0 0.0049765900160374148 0.00014001207717416849 0 0.0049162168011175527 7.5205974231669657e-05 0 0.0049833279248860567 7.1872336584710508e-05 0 0.0049765900160374148 0.00014001207717416849 0 0.0050445167352442906 0.00016648951700690598 0 0.0050238975279743468 0.00011143850807627539 0 0.0049765900160374148 0.00014001207717416849 0 0.0050445167352442906 0.00016648951700690598 0 0.0049765900160374148 0.00014001207717416849 0 0.0050038505875799897 0.00023920659488777115 0 0.0049765900160374148 0.00014001207717416849 0 0.0050038505875799897 0.00023920659488777115 0 0.0048958194922889128 0.00018668490165582084 0 0.0048179774749801414 0.00021421322194420622 0 0.0048958194922889128 0.00018668490165582084 0 0.0048622761933844851 0.00033710081477691988 0 0.0050038505875799897 0.00023920659488777115 0 0.0048958194922889128 0.00018668490165582084 0 0.0048622761933844851 0.00033710081477691988 0 0.0048622761933844851 0.00033710081477691988 0 0.0050877940412142695 0.00033877731321228766 0 0.00507710609409522 0.00045558957929338155 0 0.0050038505875799897 0.00023920659488777115 0 0.0048622761933844851 0.00033710081477691988 0 0.0050877940412142695 0.00033877731321228766 0 0.0049167817335424432 0.00037166827074566603 0 0.0050699873671523534 0.0004494738243020732 0 0.0050877940412142695 0.00033877731321228766 0 0.0052100501355781441 0.00035998282117690302 0 0.0051593209633541822 0.00027408536884515692 0 0.0050877940412142695 0.00033877731321228766 0 0.0052100501355781441 0.00035998282117690302 0 0.00507710609409522 0.00045558957929338155 0 0.0053056973415124449 0.0003547935133592961 0 0.0052978685512228407 0.00042620842906799389 0 0.0052100501355781441 0.00035998282117690302 0 0.0053056973415124449 0.0003547935133592961 0 0.0052100501355781441 0.00035998282117690302 0 0.005271965206217262 0.0002883743548033572 0 0.0052100501355781441 0.00035998282117690302 0 0.005209731101345076 0.00025981075006376606 0 0.0051593209633541822 0.00027408536884515692 0 0.005209731101345076 0.00025981075006376606 0 0.0051545602688230835 0.00021651773265354151 0 0.0051593209633541822 0.00027408536884515692 0 0.0052100501355781441 0.00035998282117690302 0 0.005209731101345076 0.00025981075006376606 0 0.005271965206217262 0.0002883743548033572 0 0.0052137287026597506 0.00018477892263435265 0 0.005209731101345076 0.00025981075006376606 0 0.005271965206217262 0.0002883743548033572 0 0.0052137287026597506 0.00018477892263435265 0 0.005209731101345076 0.00025981075006376606 0 0.0051545602688230835 0.00021651773265354151 0 0.0050937920333749111 0.00015109779559588661 0 0.0051545602688230835 0.00021651773265354151 0 0.0050945743090805859 0.00021072283567164947 0 0.0051545602688230835 0.00021651773265354151 0 0.0050945743090805859 0.00021072283567164947 0 0.0051593209633541822 0.00027408536884515692 0 0.0050877940412142695 0.00033877731321228766 0 0.0050945743090805859 0.00021072283567164947 0 0.0051593209633541822 0.00027408536884515692 0 0.0050038505875799897 0.00023920659488777115 0 0.0050877940412142695 0.00033877731321228766 0 0.0050945743090805859 0.00021072283567164947 0 0.0050445167352442906 0.00016648951700690598 0 0.0050038505875799897 0.00023920659488777115 0 0.0050945743090805859 0.00021072283567164947 0 0.0052354398557591811 0.0005223363699818135 0 0.00507710609409522 0.00045558957929338155 0 0.0051242373130642727 0.00065283807984626197 0 0.0053410985695547504 0.00061686907112102306 0 0.0052354398557591811 0.0005223363699818135 0 0.005244820513281275 0.00063982514426774262 0 0.0052354398557591811 0.0005223363699818135 0 0.0051242373130642727 0.00065283807984626197 0 0.005244820513281275 0.00063982514426774262 0 0.0052978685512228407 0.00042620842906799389 0 0.0052100501355781441 0.00035998282117690302 0 0.0052354398557591811 0.0005223363699818135 0 0.0052100501355781441 0.00035998282117690302 0 0.0052354398557591811 0.0005223363699818135 0 0.00507710609409522 0.00045558957929338155 0 0.0049600741117624639 0.00040527931581124779 0 0.00507710609409522 0.00045558957929338155 0 0.0050129813481687227 0.00055308900764872387 0 0.0049600741117624639 0.00040527931581124779 0 0.0050129813481687227 0.00055308900764872387 0 0.0049018206755204507 0.00058903869217947385 0 0.0050129813481687227 0.00055308900764872387 0 0.0049941297941226157 0.00069577809952869408 0 0.0049018206755204507 0.00058903869217947385 0 0.00507710609409522 0.00045558957929338155 0 0.0050129813481687227 0.00055308900764872387 0 0.0051242373130642727 0.00065283807984626197 0 0.0050129813481687227 0.00055308900764872387 0 0.0049941297941226157 0.00069577809952869408 0 0.0051242373130642727 0.00065283807984626197 0 0.0049941297941226157 0.00069577809952869408 0 0.0051179153362980925 0.00081130605018475222 0 0.0051242373130642727 0.00065283807984626197 0 0.0049941297941226157 0.00069577809952869408 0 0.0049660379800653617 0.00083575713362375899 0 0.004845187331351683 0.00075056826490020362 0 0.0049941297941226157 0.00069577809952869408 0 0.0049660379800653617 0.00083575713362375899 0 0.0051179153362980925 0.00081130605018475222 0 0.0051179153362980925 0.00081130605018475222 0 0.0051242373130642727 0.00065283807984626197 0 0.0052880659643022654 0.00076889861010207971 0 0.0051179153362980925 0.00081130605018475222 0 0.0052880659643022654 0.00076889861010207971 0 0.0052310097167051336 0.00095050137520110605 0 0.0053410985695547504 0.00061686907112102306 0 0.005244820513281275 0.00063982514426774262 0 0.0052880659643022654 0.00076889861010207971 0 0.0051242373130642727 0.00065283807984626197 0 0.005244820513281275 0.00063982514426774262 0 0.0052880659643022654 0.00076889861010207971 0 0.0053121588727322137 0.00099290708307025782 0 0.0052447916848603381 0.00083935299753727579 0 0.0051878109695223671 0.0010265719606121766 0 0.0052685572079637652 0.0008018432481694855 0 0.0052083639914447819 0.00099087744219717626 0 0.0051179153362980925 0.00081130605018475222 0 0.0052310097167051336 0.00095050137520110605 0 0.0050793161186040619 0.00099675248506890459 0 0.0052310097167051336 0.00095050137520110605 0 0.0051490524454788382 0.0011708545970515207 0 0.0050793161186040619 0.00099675248506890459 0 0.0052083639914447819 0.00099087744219717626 0 0.0051499690665704444 0.0011599116015056994 0 0.0053121588727322137 0.00099290708307025782 0 0.0051878109695223671 0.0010265719606121766 0 0.0052563048518248778 0.0011691183783923624 0 0.0051878109695223671 0.0010265719606121766 0 0.0052563048518248778 0.0011691183783923624 0 0.0051490524454788382 0.0011708545970515207 0 0.0046525997394032187 0.0025694257666352993 0 0.0046557009696674674 0.0025596455514110702 0 0.004686769509287033 0.0025640238621275086 0 0.0052563048518248778 0.0011691183783923624 0 0.0051490524454788382 0.0011708545970515207 0 0.0051531675884047947 0.0012507415220706498 0 0.0050932619889132117 0.0018409089073677613 0 0.0048809126306981502 0.0019343271618889274 0 0.0051490524454788382 0.0011708545970515207 0 0.0051531675884047947 0.0012507415220706498 0 0.0050696135988384768 0.0012085684117370959 0 0.0046557009696674674 0.0025596455514110702 0 0.0046877267042869757 0.002564246344617016 0 0.004686769509287033 0.0025640238621275086 0 0.0046375846418252381 0.0033329464890996178 0 0.0045836350094916323 0.0033157251331282231 0 0.0044396097695608046 0.0040870819738852556 0 0.0044993839955005024 0.0040773400364384959 0 0.0044487014730161707 0.0040616076452433753 0 0.0043948500236570421 0.0040637513115419684 0 0.0044396097695608046 0.0040870819738852556 0 0.0044487014730161707 0.0040616076452433753 0 0.0049509506107598003 0.0014262711833650872 0 0.0049872829391933871 0.0011405925710865333 0 0.0047552214096937525 0.0012063397941910275 0 0.0051531675884047947 0.0012507415220706498 0 0.0049509506107598003 0.0014262711833650872 0 0.0050696135988384768 0.0012085684117370959 0 0.0045836350094916323 0.0033157251331282231 0 0.0046073802039331927 0.0033860478026664208 0 0.0046877267042869757 0.002564246344617016 0 0.004686769509287033 0.0025640238621275086 0 0.0046926938307706714 0.0025771658077693364 0 0.0046877267042869757 0.002564246344617016 0 0.0046926938307706714 0.0025771658077693364 0 0.0046927982863196006 0.0025805579853056932 0 0.0049509506107598003 0.0014262711833650872 0 0.0050696135988384768 0.0012085684117370959 0 0.0049872829391933871 0.0011405925710865333 0 0.0048809126306981502 0.0019343271618889274 0 0.00484681247173392 0.0019047955821999646 0 0.0051490524454788382 0.0011708545970515207 0 0.0050696135988384768 0.0012085684117370959 0 0.0050726836761539598 0.0011201164283792448 0 0.0050696135988384768 0.0012085684117370959 0 0.0050726836761539598 0.0011201164283792448 0 0.0049872829391933871 0.0011405925710865333 0 0.0049872829391933871 0.0011405925710865333 0 0.004916265765121948 0.0010227347269621051 0 0.0048768108260724644 0.0011570335678566088 0 0.0049920494441683359 0.0011420378765065757 0 0.0047611856142597024 0.0011597180108992085 0 0.0049872829391933871 0.0011405925710865333 0 0.004916265765121948 0.0010227347269621051 0 0.0050793161186040619 0.00099675248506890459 0 0.0050726836761539598 0.0011201164283792448 0 0.0049872829391933871 0.0011405925710865333 0 0.0050793161186040619 0.00099675248506890459 0 0.0051490524454788382 0.0011708545970515207 0 0.0050726836761539598 0.0011201164283792448 0 0.0050793161186040619 0.00099675248506890459 0 0.0049660379800653617 0.00083575713362375899 0 0.0051179153362980925 0.00081130605018475222 0 0.0050793161186040619 0.00099675248506890459 0 0.0049660379800653617 0.00083575713362375899 0 0.004916265765121948 0.0010227347269621051 0 0.0050793161186040619 0.00099675248506890459 0 0.0049660379800653617 0.00083575713362375899 0 0.004916265765121948 0.0010227347269621051 0 0.0048254233487618125 0.00092340464241022849 0 0.0048254233487618125 0.00092340464241022849 0 0.0047212078461011577 0.0010138377802237646 0 0.0047039801773063441 0.00082362818662770859 0 0.0048254233487618125 0.00092340464241022849 0 0.0047212078461011577 0.0010138377802237646 0 0.004819476075963316 0.0010632404949101049 0 0.004916265765121948 0.0010227347269621051 0 0.0048254233487618125 0.00092340464241022849 0 0.004819476075963316 0.0010632404949101049 0 0.004916265765121948 0.0010227347269621051 0 0.004819476075963316 0.0010632404949101049 0 0.0048768108260724644 0.0011570335678566088 0 0.0047611856142597024 0.0011597180108992085 0 0.0050677340679523295 0.0019195125291736502 0 0.004819476075963316 0.0010632404949101049 0 0.0048768108260724644 0.0011570335678566088 0 0.0047529721765365626 0.0011941945064236497 0 0.0047212078461011577 0.0010138377802237646 0 0.004819476075963316 0.0010632404949101049 0 0.0047529721765365626 0.0011941945064236497 0 0.0051646882396996123 0.0013996950757932812 0 0.0050677340679523295 0.0019195125291736502 0 0.0055905922844039216 0.001908957844334177 0 0.0056105421075170279 0.0020622507159777361 0 0.005524312603295561 0.0020064146960112618 0 0.004511882809792118 0.0012734077184019153 0 0.0046956670157867215 0.0014325393082381846 0 0.0045807765803721227 0.0016614498035562907 0 0.0049509506107598003 0.0014262711833650872 0 0.0047552214096937525 0.0012063397941910275 0 0.0046956670157867215 0.0014325393082381846 0 0.0047552214096937525 0.0012063397941910275 0 0.004511882809792118 0.0012734077184019153 0 0.0046956670157867215 0.0014325393082381846 0 0.0051231129359979579 0.0035570835037763452 0 0.0050096767823842939 0.0036090186207672348 0 0.0050642017078941642 0.0036531376484269904 0 0.0056105421075170279 0.0020622507159777361 0 0.0054582793461203033 0.0021014953820259401 0 0.005524312603295561 0.0020064146960112618 0 0.0050677340679523295 0.0019195125291736502 0 0.0052804254153526343 0.0029654161359896876 0 0.0054582793461203033 0.0021014953820259401 0 0.005524312603295561 0.0020064146960112618 0 0.0054414040753217397 0.0019550414784816218 0 0.0054582793461203033 0.0021014953820259401 0 0.0054414040753217397 0.0019550414784816218 0 0.0053547625231256824 0.0020188423436382458 0 0.0055905922844039216 0.001908957844334177 0 0.005524312603295561 0.0020064146960112618 0 0.0054414040753217397 0.0019550414784816218 0 0.0055905922844039216 0.001908957844334177 0 0.0054414040753217397 0.0019550414784816218 0 0.0054312616058387869 0.0018030335550142441 0 0.0055905922844039216 0.001908957844334177 0 0.0054312616058387869 0.0018030335550142441 0 0.0055708378931275792 0.001741769397178614 0 0.0051646882396996123 0.0013996950757932812 0 0.0051379708911163851 0.0012965073429062888 0 0.0054414040753217397 0.0019550414784816218 0 0.0054312616058387869 0.0018030335550142441 0 0.0053139824874971729 0.0018753236726998226 0 0.0055342755994535822 0.0015496894622959063 0 0.0055708378931275792 0.001741769397178614 0 0.0053506384623766825 0.0016578381873912477 0 0.0054312616058387869 0.0018030335550142441 0 0.0055708378931275792 0.001741769397178614 0 0.0053506384623766825 0.0016578381873912477 0 0.0055342755994535822 0.0015496894622959063 0 0.0053371210245801185 0.0014583185206565701 0 0.0053506384623766825 0.0016578381873912477 0 0.0051188390619380641 0.0010920650519893904 0 0.0051379708911163851 0.0012965073429062888 0 0.0047041926640287541 0.00063513842035415702 0 0.004845187331351683 0.00075056826490020362 0 0.0049018206755204507 0.00058903869217947385 0 0.0048254233487618125 0.00092340464241022849 0 0.0047039801773063441 0.00082362818662770859 0 0.004845187331351683 0.00075056826490020362 0 0.0047041926640287541 0.00063513842035415702 0 0.0047039801773063441 0.00082362818662770859 0 0.004845187331351683 0.00075056826490020362 0 0.0049660379800653617 0.00083575713362375899 0 0.0048254233487618125 0.00092340464241022849 0 0.004845187331351683 0.00075056826490020362 0 0.0049941297941226157 0.00069577809952869408 0 0.004845187331351683 0.00075056826490020362 0 0.0049018206755204507 0.00058903869217947385 0 0.0047041926640287541 0.00063513842035415702 0 0.0049018206755204507 0.00058903869217947385 0 0.0048316371662535489 0.00046134518165484898 0 0.0049600741117624639 0.00040527931581124779 0 0.0049018206755204507 0.00058903869217947385 0 0.0048316371662535489 0.00046134518165484898 0 0.0048019766579884765 0.00034336605703741608 0 0.0048316371662535489 0.00046134518165484898 0 0.0047214491612342525 0.00045672932580701468 0 0.0054739128475243381 0.0013309572999653455 0 0.0053371210245801185 0.0014583185206565701 0 0.0052381623312840802 0.0012531716766028323 0 0.0055342755994535822 0.0015496894622959063 0 0.0054739128475243381 0.0013309572999653455 0 0.0053371210245801185 0.0014583185206565701 0 0.0051188390619380641 0.0010920650519893904 0 0.0051019058417876373 0.00089702886564552121 0 0.0047041926640287541 0.00063513842035415702 0 0.0048316371662535489 0.00046134518165484898 0 0.0047214491612342525 0.00045672932580701468 0 0.0052017570909243275 0.0014896148351134762 0 0.0053371210245801185 0.0014583185206565701 0 0.005238371802854659 0.0013493706133277971 0 0.0053371210245801185 0.0014583185206565701 0 0.0052381623312840802 0.0012531716766028323 0 0.005238371802854659 0.0013493706133277971 0 0.0051611916907411959 0.0012637259661120719 0 0.0052381623312840802 0.0012531716766028323 0 0.005238371802854659 0.0013493706133277971 0 0.0051611916907411959 0.0012637259661120719 0 0.0052017570909243275 0.0014896148351134762 0 0.005238371802854659 0.0013493706133277971 0 0.0052017570909243275 0.0014896148351134762 0 0.005168308752414739 0.0013777559651132942 0 0.005234483162930694 0.0015716455127523319 0 0.005168308752414739 0.0013777559651132942 0 0.005234483162930694 0.0015716455127523319 0 0.0051828485399896288 0.0014949697144309171 0 0.0051611916907411959 0.0012637259661120719 0 0.0052017570909243275 0.0014896148351134762 0 0.005168308752414739 0.0013777559651132942 0 0.0051464992816047011 0.0013411982406055091 0 0.005168308752414739 0.0013777559651132942 0 0.0051828485399896288 0.0014949697144309171 0 0.0052097161507198304 0.0015042679975366966 0 0.005176456077523945 0.0016490223228644459 0 0.0052017570909243275 0.0014896148351134762 0 0.0051158482214592538 0.0017299690017575679 0 0.005229299703823174 0.0017417815526242768 0 0.0051158482214592538 0.0017299690017575679 0 0.0051772838570799257 0.0019020126925124977 0 0.0050939786731055269 0.0019081666660491952 0 0.0051158482214592538 0.0017299690017575679 0 0.005229299703823174 0.0017417815526242768 0 0.0051772838570799257 0.0019020126925124977 0 0.005229299703823174 0.0017417815526242768 0 0.0053506384623766825 0.0016578381873912477 0 0.0053139824874971729 0.0018753236726998226 0 0.0052017570909243275 0.0014896148351134762 0 0.005229299703823174 0.0017417815526242768 0 0.0053506384623766825 0.0016578381873912477 0 0.0052017570909243275 0.0014896148351134762 0 0.0053371210245801185 0.0014583185206565701 0 0.0053506384623766825 0.0016578381873912477 0 0.005229299703823174 0.0017417815526242768 0 0.0053139824874971729 0.0018753236726998226 0 0.0051772838570799257 0.0019020126925124977 0 0.0054312616058387869 0.0018030335550142441 0 0.0053506384623766825 0.0016578381873912477 0 0.0053139824874971729 0.0018753236726998226 0 0.0053139824874971729 0.0018753236726998226 0 0.0052533664898515714 0.0020251077590142121 0 0.0051772838570799257 0.0019020126925124977 0 0.0053139824874971729 0.0018753236726998226 0 0.0053547625231256824 0.0020188423436382458 0 0.0052533664898515714 0.0020251077590142121 0 0.0054414040753217397 0.0019550414784816218 0 0.0053139824874971729 0.0018753236726998226 0 0.0053547625231256824 0.0020188423436382458 0 0.0053547625231256824 0.0020188423436382458 0 0.0052533664898515714 0.0020251077590142121 0 0.0053190103501194177 0.0021263802171958418 0 0.0052533664898515714 0.0020251077590142121 0 0.0053190103501194177 0.0021263802171958418 0 0.0052120637978892402 0.002140809583021948 0 0.0052804254153526343 0.0029654161359896876 0 0.0051142303519281134 0.0028853235575721811 0 0.0054582793461203033 0.0021014953820259401 0 0.0053547625231256824 0.0020188423436382458 0 0.0053190103501194177 0.0021263802171958418 0 0.0052533664898515714 0.0020251077590142121 0 0.0051800325887719437 0.002084265641849113 0 0.0052120637978892402 0.002140809583021948 0 0.0052533664898515714 0.0020251077590142121 0 0.0051800325887719437 0.002084265641849113 0 0.0051766970379584429 0.0020094893601939781 0 0.0051800325887719437 0.002084265641849113 0 0.0051766970379584429 0.0020094893601939781 0 0.0051422418540270848 0.0020749170030696946 0 0.0051766970379584429 0.0020094893601939781 0 0.0051772838570799257 0.0019020126925124977 0 0.00513614511066059 0.0020168955428180148 0 0.0052533664898515714 0.0020251077590142121 0 0.0051766970379584429 0.0020094893601939781 0 0.0051772838570799257 0.0019020126925124977 0 0.0051772838570799257 0.0019020126925124977 0 0.0050939786731055269 0.0019081666660491952 0 0.00513614511066059 0.0020168955428180148 0 0.0051649190805060216 0.001828901222441919 0 0.0051307634791465532 0.0020264084560417213 0 0.0050939786731055269 0.0019081666660491952 0 0.00513614511066059 0.0020168955428180148 0 0.0051031833122173456 0.0020509306990553052 0 0.00513614511066059 0.0020168955428180148 0 0.0051516415632920738 0.002100744451699838 0 0.0051031833122173456 0.0020509306990553052 0 0.00513614511066059 0.0020168955428180148 0 0.0051422418540270848 0.0020749170030696946 0 0.0051516415632920738 0.002100744451699838 0 0.0051766970379584429 0.0020094893601939781 0 0.00513614511066059 0.0020168955428180148 0 0.0051422418540270848 0.0020749170030696946 0 0.0051422418540270848 0.0020749170030696946 0 0.0051516415632920738 0.002100744451699838 0 0.0051194614563456883 0.0021032030283294708 0 0.0051571058262429833 0.0021617233350605764 0 0.0052002571171844373 0.0021638398995079268 0 0.0051422418540270848 0.0020749170030696946 0 0.0051194614563456883 0.0021032030283294708 0 0.0051492798665446864 0.0021424166959494941 0 0.0051800325887719437 0.002084265641849113 0 0.0051422418540270848 0.0020749170030696946 0 0.0051492798665446864 0.0021424166959494941 0 0.0049999350574951888 0.002479558097578308 0 0.0050724675589651448 0.002348411905034457 0 0.0050132218395268803 0.0022511292673064614 0 0.0049999350574951888 0.002479558097578308 0 0.0050724675589651448 0.002348411905034457 0 0.0051188650744946303 0.0025292096062357505 0 0.005263605912484942 0.0024110361012208304 0 0.0051466979484914716 0.0023176819661794501 0 0.0051188650744946303 0.0025292096062357505 0 0.0050724675589651448 0.002348411905034457 0 0.0051466979484914716 0.0023176819661794501 0 0.0051188650744946303 0.0025292096062357505 0 0.0051516415632920738 0.002100744451699838 0 0.0051466979484914716 0.0023176819661794501 0 0.005101066294043873 0.0022032074740939564 0 0.005101066294043873 0.0022032074740939564 0 0.0050132218395268803 0.0022511292673064614 0 0.0051031833122173456 0.0020509306990553052 0 0.0050724675589651448 0.002348411905034457 0 0.0051466979484914716 0.0023176819661794501 0 0.005101066294043873 0.0022032074740939564 0 0.0051516415632920738 0.002100744451699838 0 0.005263605912484942 0.0024110361012208304 0 0.0051466979484914716 0.0023176819661794501 0 0.0050724675589651448 0.002348411905034457 0 0.005101066294043873 0.0022032074740939564 0 0.0050132218395268803 0.0022511292673064614 0 0.0049999350574951888 0.002479558097578308 0 0.0049999577124856479 0.0021884513322361311 0 0.0050132218395268803 0.0022511292673064614 0 0.0049999577124856479 0.0021884513322361311 0 0.0050132218395268803 0.0022511292673064614 0 0.0051669528496937848 0.001995484579948744 0 0.0049999577124856479 0.0021884513322361311 0 0.0051669528496937848 0.001995484579948744 0 0.004999940081728502 0.0018973808578342207 0 0.0050131263917716487 0.0022317502851089536 0 0.0051307634791465532 0.0020264084560417213 0 0.0051516415632920738 0.002100744451699838 0 0.005101066294043873 0.0022032074740939564 0 0.0051031833122173456 0.0020509306990553052 0 0.0052376946669867065 0.0017477417233587413 0 0.0051669528496937848 0.001995484579948744 0 0.0051148382484502691 0.0017844354970281647 0 0.0051669528496937848 0.001995484579948744 0 0.004999940081728502 0.0018973808578342207 0 0.0051148382484502691 0.0017844354970281647 0 0.004999940081728502 0.0018973808578342207 0 0.0049999371622649605 0.001606276211135645 0 0.0051148382484502691 0.0017844354970281647 0 0.0049999371622649605 0.001606276211135645 0 0.0051305831827644297 0.0015902528405621664 0 0.0051148382484502691 0.0017844354970281647 0 0.005234483162930694 0.0015716455127523319 0 0.0052376946669867065 0.0017477417233587413 0 0.0051828485399896288 0.0014949697144309171 0 0.0052376946669867065 0.0017477417233587413 0 0.0051305831827644297 0.0015902528405621664 0 0.0051148382484502691 0.0017844354970281647 0 0.0052376946669867065 0.0017477417233587413 0 0.0051305831827644297 0.0015902528405621664 0 0.0051828485399896288 0.0014949697144309171 0 0.005176456077523945 0.0016490223228644459 0 0.0051649190805060216 0.001828901222441919 0 0.0051305831827644297 0.0015902528405621664 0 0.0051828485399896288 0.0014949697144309171 0 0.0051190079315504844 0.0014140578985120536 0 0.0051098001280415742 0.0013154248335016765 0 0.0051464992816047011 0.0013411982406055091 0 0.0051190079315504844 0.0014140578985120536 0 0.0051464992816047011 0.0013411982406055091 0 0.0051828485399896288 0.0014949697144309171 0 0.0051190079315504844 0.0014140578985120536 0 0.0050507166100957146 0.0012944154499442777 0 0.0051190079315504844 0.0014140578985120536 0 0.0050632621052256544 0.0014375913920195249 0 0.0050507166100957146 0.0012944154499442777 0 0.0049999517219679228 0.0013156238143712661 0 0.0050632621052256544 0.0014375913920195249 0 0.0049999371622649605 0.001606276211135645 0 0.0049999517219679228 0.0013156238143712661 0 0.0050632621052256544 0.0014375913920195249 0 0.0049999371622649605 0.001606276211135645 0 0.0051305831827644297 0.0015902528405621664 0 0.0050632621052256544 0.0014375913920195249 0 0.0051305831827644297 0.0015902528405621664 0 0.0051190079315504844 0.0014140578985120536 0 0.0050632621052256544 0.0014375913920195249 0 0.0050002378351152541 0.0037082811624537882 0 0.0050139114912313501 0.0035519125735468575 0 0.0050412281720404401 0.0035558004066693081 0 0.0050002378351152541 0.0037082811624537882 0 0.0050139114912313501 0.0035519125735468575 0 0.0049998768637992217 0.0035840375998328375 0 0.0050139114912313501 0.0035519125735468575 0 0.0049998768637992217 0.0035840375998328375 0 0.0049999315018887944 0.003313076282790576 0 0.0050002378351152541 0.0037082811624537882 0 0.0049998768637992217 0.0035840375998328375 0 0.0049919168542185473 0.003878437767830862 0 0.0049998768637992217 0.0035840375998328375 0 0.0049919168542185473 0.003878437767830862 0 0.0049998620809241535 0.0038550741984572493 0 0.0050002378351152541 0.0037082811624537882 0 0.0049391799929020498 0.0039223967710015255 0 0.0049919168542185473 0.003878437767830862 0 0.0050002378351152541 0.0037082811624537882 0 0.0049598960289844382 0.0037567843944560399 0 0.0049391799929020498 0.0039223967710015255 0 0.0048826837174648641 0.003915100278206695 0 0.0049598960289844382 0.0037567843944560399 0 0.0049391799929020498 0.0039223967710015255 0 0.0049102306716972679 0.0037952710827612486 0 0.0049598960289844382 0.0037567843944560399 0 0.0049637453120744777 0.0036702737993312097 0 0.0048826837174648641 0.003915100278206695 0 0.0049102306716972679 0.0037952710827612486 0 0.0049598960289844382 0.0037567843944560399 0 0.0050002378351152541 0.0037082811624537882 0 0.0049598960289844382 0.0037567843944560399 0 0.0050412281720404401 0.0035558004066693081 0 0.0049637453120744777 0.0036702737993312097 0 0.0050098635821102262 0.003569453166047266 0 0.0050412281720404401 0.0035558004066693081 0 0.0049598960289844382 0.0037567843944560399 0 0.0049637453120744777 0.0036702737993312097 0 0.0050412281720404401 0.0035558004066693081 0 0.0049102306716972679 0.0037952710827612486 0 0.0049637453120744777 0.0036702737993312097 0 0.0048886388893392687 0.0037758807986740177 0 0.0049637453120744777 0.0036702737993312097 0 0.0049300917514762772 0.0036778308645387813 0 0.0048886388893392687 0.0037758807986740177 0 0.0049637453120744777 0.0036702737993312097 0 0.0049300917514762772 0.0036778308645387813 0 0.0050098635821102262 0.003569453166047266 0 0.0049300917514762772 0.0036778308645387813 0 0.0050098635821102262 0.003569453166047266 0 0.0049547570228297066 0.0036368831860449547 0 0.0049300917514762772 0.0036778308645387813 0 0.0049547570228297066 0.0036368831860449547 0 0.0049171655802901452 0.003695588599869115 0 0.0050098635821102262 0.003569453166047266 0 0.0051140317950987115 0.0034165401904270296 0 0.0050412281720404401 0.0035558004066693081 0 0.0050098635821102262 0.003569453166047266 0 0.0051140317950987115 0.0034165401904270296 0 0.0049547570228297066 0.0036368831860449547 0 0.0051140317950987115 0.0034165401904270296 0 0.0050412281720404401 0.0035558004066693081 0 0.0049999315018887944 0.003313076282790576 0 0.0050139114912313501 0.0035519125735468575 0 0.0050412281720404401 0.0035558004066693081 0 0.0049999315018887944 0.003313076282790576 0 0.0051140317950987115 0.0034165401904270296 0 0.0049999315018887944 0.003313076282790576 0 0.0049998984260595887 0.0030419652612663421 0 0.0051140317950987115 0.0034165401904270296 0 0.0049998984260595887 0.0030419652612663421 0 0.005079022992414123 0.0029437751664514828 0 0.0051140317950987115 0.0034165401904270296 0 0.0052725669150377385 0.002983734664834899 0 0.005079022992414123 0.0029437751664514828 0 0.0051294966384614702 0.0033689065273909626 0 0.0051684600609033576 0.0034119459528180194 0 0.0052725669150377385 0.002983734664834899 0 0.005079022992414123 0.0029437751664514828 0 0.005121964264812557 0.0027541830644083813 0 0.0049998984260595887 0.0030419652612663421 0 0.005079022992414123 0.0029437751664514828 0 0.0049999619801941236 0.0027707214945121837 0 0.0049999896236142278 0.0027706199340687648 0 0.0051221528616766585 0.0027096574757398593 0 0.0051188650744946303 0.0025292096062357505 0 0.005079022992414123 0.0029437751664514828 0 0.0049999619801941236 0.0027707214945121837 0 0.005121964264812557 0.0027541830644083813 0 0.0050000002741170521 0.0027706745981601246 0 0.0051567601239720174 0.0027260923880771731 0 0.0051684600609033576 0.0034119459528180194 0 0.0050868060840193931 0.0028373029411009418 0 0.0051221528616766585 0.0027096574757398593 0 0.0051188650744946303 0.0025292096062357505 0 0.0052630328290632087 0.0026640274807419747 0 0.0052725669150377385 0.002983734664834899 0 0.005121964264812557 0.0027541830644083813 0 0.0053021561938951418 0.0027114162914962082 0 0.0051567601239720174 0.0027260923880771731 0 0.0050868060840193931 0.0028373029411009418 0 0.005263605912484942 0.0024110361012208304 0 0.0051188650744946303 0.0025292096062357505 0 0.0052630328290632087 0.0026640274807419747 0 0.0049999350574951888 0.002479558097578308 0 0.0049999896236142278 0.0027706199340687648 0 0.0051188650744946303 0.0025292096062357505 0 0.0052002571171844373 0.0021638398995079268 0 0.0050868060840193931 0.0028373029411009418 0 0.0051194614563456883 0.0021032030283294708 0 0.0051492798665446864 0.0021424166959494941 0 0.0051084863359591873 0.0021568474596116581 0 0.0050746034592742502 0.0036763621524393644 0 0.0050429892887912465 0.0037644827032406454 0 0.0049643084964072961 0.0037241427693471526 0 0.0050414646250993541 0.002970422047682116 0 0.0050868060840193931 0.0028373029411009418 0 0.0049398242072046005 0.0037671025560099547 0 0.0050429892887912465 0.0037644827032406454 0 0.0049643084964072961 0.0037241427693471526 0 0.0049398242072046005 0.0037671025560099547 0 0.0049643084964072961 0.0037241427693471526 0 0.0049008599217858807 0.0037427498345384345 0 0.0049643084964072961 0.0037241427693471526 0 0.0049547570228297066 0.0036368831860449547 0 0.0049131823888159338 0.0037142408525130781 0 0.0050746034592742502 0.0036763621524393644 0 0.0049643084964072961 0.0037241427693471526 0 0.0049547570228297066 0.0036368831860449547 0 0.0051140317950987115 0.0034165401904270296 0 0.0050746034592742502 0.0036763621524393644 0 0.0049547570228297066 0.0036368831860449547 0 0.0049547570228297066 0.0036368831860449547 0 0.0049171655802901452 0.003695588599869115 0 0.0049131823888159338 0.0037142408525130781 0 0.0049171655802901452 0.003695588599869115 0 0.0048982924647478178 0.0037308135060070253 0 0.0048969326750488247 0.0037304884908081017 0 0.0049171655802901452 0.003695588599869115 0 0.0048982924647478178 0.0037308135060070253 0 0.0049131823888159338 0.0037142408525130781 0 0.0048921690581493109 0.0037525772568233174 0 0.0048982924647478178 0.0037308135060070253 0 0.0048939676585627433 0.0037613106350625493 0 0.0048921690581493109 0.0037525772568233174 0 0.0048982924647478178 0.0037308135060070253 0 0.0048969326750488247 0.0037304884908081017 0 0.0048982924647478178 0.0037308135060070253 0 0.004895619334667021 0.0037418527361876772 0 0.0048939676585627433 0.0037613106350625493 0 0.004895619334667021 0.0037418527361876772 0 0.0049008599217858807 0.0037427498345384345 0 0.0048935507800162547 0.0037496243205406145 0 0.004895619334667021 0.0037418527361876772 0 0.0048954599841842779 0.0037603379388378632 0 0.0048939676585627433 0.0037613106350625493 0 0.004895619334667021 0.0037418527361876772 0 0.0048935507800162547 0.0037496243205406145 0 0.0048954599841842779 0.0037603379388378632 0 0.004895619334667021 0.0037418527361876772 0 0.0049131823888159338 0.0037142408525130781 0 0.0049008599217858807 0.0037427498345384345 0 0.0048982924647478178 0.0037308135060070253 0 0.004895619334667021 0.0037418527361876772 0 0.0049131823888159338 0.0037142408525130781 0 0.0049643084964072961 0.0037241427693471526 0 0.0049131823888159338 0.0037142408525130781 0 0.0049008599217858807 0.0037427498345384345 0 0.0049008599217858807 0.0037427498345384345 0 0.0048935507800162547 0.0037496243205406145 0 0.0048943838870223718 0.0037345110139883572 0 0.0049008599217858807 0.0037427498345384345 0 0.0048908355927966083 0.0037337327065670046 0 0.0048943838870223718 0.0037345110139883572 0 0.0050414646250993541 0.002970422047682116 0 0.0050582594195353377 0.0029350008744997423 0 0.0051800325887719437 0.002084265641849113 0 0.0051492798665446864 0.0021424166959494941 0 0.0052120637978892402 0.002140809583021948 0 0.0049398242072046005 0.0037671025560099547 0 0.0049008599217858807 0.0037427498345384345 0 0.0048908355927966083 0.0037337327065670046 0 0.0049172224004135371 0.0036711983091904589 0 0.0049075324938958921 0.0037404387050873297 0 0.0049453803817819438 0.003725319757360263 0 0.0049172224004135371 0.0036711983091904589 0 0.0049453803817819438 0.003725319757360263 0 0.0049991298071515155 0.0036905882356629278 0 0.0051142303519281134 0.0028853235575721811 0 0.0050582594195353377 0.0029350008744997423 0 0.0049172224004135371 0.0036711983091904589 0 0.0049075324938958921 0.0037404387050873297 0 0.0048943838870223718 0.0037345110139883572 0 0.0049172224004135371 0.0036711983091904589 0 0.0048908355927966083 0.0037337327065670046 0 0.0048943838870223718 0.0037345110139883572 0 0.0048935507800162547 0.0037496243205406145 0 0.0049075324938958921 0.0037404387050873297 0 0.0048943838870223718 0.0037345110139883572 0 0.0048935507800162547 0.0037496243205406145 0 0.0049075324938958921 0.0037404387050873297 0 0.0049012650293630026 0.0037654232757180295 0 0.0049075324938958921 0.0037404387050873297 0 0.0049171453166572147 0.0037613028979279319 0 0.0049012650293630026 0.0037654232757180295 0 0.0049171453166572147 0.0037613028979279319 0 0.0049538403466728321 0.0037556760867830013 0 0.004915030150914817 0.0037898531628790841 0 0.0049075324938958921 0.0037404387050873297 0 0.0049171453166572147 0.0037613028979279319 0 0.0049453803817819438 0.003725319757360263 0 0.0049453803817819438 0.003725319757360263 0 0.0049538403466728321 0.0037556760867830013 0 0.0049827753793355769 0.0037278806765212802 0 0.0049171453166572147 0.0037613028979279319 0 0.0049453803817819438 0.003725319757360263 0 0.0049538403466728321 0.0037556760867830013 0 0.0049171453166572147 0.0037613028979279319 0 0.0049066689161242792 0.0037808089588938273 0 0.004915030150914817 0.0037898531628790841 0 0.0049066689161242792 0.0037808089588938273 0 0.004915030150914817 0.0037898531628790841 0 0.0049088197207276373 0.003797725393994548 0 0.004915030150914817 0.0037898531628790841 0 0.0049088197207276373 0.003797725393994548 0 0.0049182185550718984 0.0038083630429850881 0 0.0049066689161242792 0.0037808089588938273 0 0.0049088197207276373 0.003797725393994548 0 0.0049005833558594626 0.0037803780941509531 0 0.0049088197207276373 0.003797725393994548 0 0.0049005833558594626 0.0037803780941509531 0 0.0049031376847482591 0.0038027579862177016 0 0.0049005118057356889 0.0038263352824952977 0 0.0049182185550718984 0.0038083630429850881 0 0.0048908470344526476 0.0038518537075576792 0 0.0049074044658719736 0.0038123986340788188 0 0.0049005118057356889 0.0038263352824952977 0 0.0049182185550718984 0.0038083630429850881 0 0.0049088197207276373 0.003797725393994548 0 0.0049074044658719736 0.0038123986340788188 0 0.0049182185550718984 0.0038083630429850881 0 0.0048935507800162547 0.0037496243205406145 0 0.0049012650293630026 0.0037654232757180295 0 0.0048954599841842779 0.0037603379388378632 0 0.0049171453166572147 0.0037613028979279319 0 0.0049066689161242792 0.0037808089588938273 0 0.0049012650293630026 0.0037654232757180295 0 0.0049066689161242792 0.0037808089588938273 0 0.0049012650293630026 0.0037654232757180295 0 0.0049005833558594626 0.0037803780941509531 0 0.0049012650293630026 0.0037654232757180295 0 0.0049005833558594626 0.0037803780941509531 0 0.0048954599841842779 0.0037603379388378632 0 0.0049005833558594626 0.0037803780941509531 0 0.0048954599841842779 0.0037603379388378632 0 0.0048939676585627433 0.0037613106350625493 0 0.0049005833558594626 0.0037803780941509531 0 0.0048971590124864892 0.0037818550780074267 0 0.0049031376847482591 0.0038027579862177016 0 0.0049005833558594626 0.0037803780941509531 0 0.0048939676585627433 0.0037613106350625493 0 0.0048971590124864892 0.0037818550780074267 0 0.0048971590124864892 0.0037818550780074267 0 0.0048919403160231512 0.0037747524166815184 0 0.0048958605319729407 0.0037910644154002956 0 0.0048921690581493109 0.0037525772568233174 0 0.0048939676585627433 0.0037613106350625493 0 0.0048919403160231512 0.0037747524166815184 0 0.0048939676585627433 0.0037613106350625493 0 0.0048971590124864892 0.0037818550780074267 0 0.0048919403160231512 0.0037747524166815184 0 0.0049074044658719736 0.0038123986340788188 0 0.0049031376847482591 0.0038027579862177016 0 0.0048945845116102589 0.0038222258546339286 0 0.0049031376847482591 0.0038027579862177016 0 0.0048926558641551711 0.0038092217435339781 0 0.0048945845116102589 0.0038222258546339286 0 0.0049074044658719736 0.0038123986340788188 0 0.0049005118057356889 0.0038263352824952977 0 0.0048945845116102589 0.0038222258546339286 0 0.0049088197207276373 0.003797725393994548 0 0.0049074044658719736 0.0038123986340788188 0 0.0049031376847482591 0.0038027579862177016 0 0.0048971590124864892 0.0037818550780074267 0 0.0049031376847482591 0.0038027579862177016 0 0.0048958605319729407 0.0037910644154002956 0 0.0049031376847482591 0.0038027579862177016 0 0.0048958605319729407 0.0037910644154002956 0 0.0048926558641551711 0.0038092217435339781 0 0.0048926558641551711 0.0038092217435339781 0 0.0048908327814818813 0.0037984437357603076 0 0.004887970820119979 0.0038068101457101526 0 0.0048958605319729407 0.0037910644154002956 0 0.0048908327814818813 0.0037984437357603076 0 0.004889419022621258 0.0037885603453995777 0 0.0048958605319729407 0.0037910644154002956 0 0.0048926558641551711 0.0038092217435339781 0 0.0048908327814818813 0.0037984437357603076 0 0.0048908327814818813 0.0037984437357603076 0 0.004887970820119979 0.0038068101457101526 0 0.0048833623633105722 0.0038043028794848559 0 0.0048908327814818813 0.0037984437357603076 0 0.0048833623633105722 0.0038043028794848559 0 0.004889419022621258 0.0037885603453995777 0 0.004887970820119979 0.0038068101457101526 0 0.004885512502064363 0.0038180581184007159 0 0.0048833623633105722 0.0038043028794848559 0 0.004885512502064363 0.0038180581184007159 0 0.0048833623633105722 0.0038043028794848559 0 0.004864393435298848 0.0038523935140817906 0 0.0048833623633105722 0.0038043028794848559 0 0.004867527292401177 0.003817353912740044 0 0.004864393435298848 0.0038523935140817906 0 0.0048833623633105722 0.0038043028794848559 0 0.004867527292401177 0.003817353912740044 0 0.0048836198585977975 0.0037774594844433131 0 0.0048833623633105722 0.0038043028794848559 0 0.0048836198585977975 0.0037774594844433131 0 0.004889419022621258 0.0037885603453995777 0 0.0048919403160231512 0.0037747524166815184 0 0.0048958605319729407 0.0037910644154002956 0 0.004889419022621258 0.0037885603453995777 0 0.0048921690581493109 0.0037525772568233174 0 0.0048919403160231512 0.0037747524166815184 0 0.0048836198585977975 0.0037774594844433131 0 0.0048919403160231512 0.0037747524166815184 0 0.0048836198585977975 0.0037774594844433131 0 0.004889419022621258 0.0037885603453995777 0 0.0048921690581493109 0.0037525772568233174 0 0.0048836198585977975 0.0037774594844433131 0 0.0048969326750488247 0.0037304884908081017 0 0.0048836198585977975 0.0037774594844433131 0 0.0048969326750488247 0.0037304884908081017 0 0.0048749435075683993 0.0037848160084343035 0 0.0049300917514762772 0.0036778308645387813 0 0.0048969326750488247 0.0037304884908081017 0 0.0048886388893392687 0.0037758807986740177 0 0.0049300917514762772 0.0036778308645387813 0 0.0049171655802901452 0.003695588599869115 0 0.0048969326750488247 0.0037304884908081017 0 0.0048969326750488247 0.0037304884908081017 0 0.0048886388893392687 0.0037758807986740177 0 0.0048749435075683993 0.0037848160084343035 0 0.0048886388893392687 0.0037758807986740177 0 0.0048749435075683993 0.0037848160084343035 0 0.0048297218165449397 0.0038798768807794177 0 0.004867527292401177 0.003817353912740044 0 0.0048749435075683993 0.0037848160084343035 0 0.0048297218165449397 0.0038798768807794177 0 0.004867527292401177 0.003817353912740044 0 0.0048836198585977975 0.0037774594844433131 0 0.0048749435075683993 0.0037848160084343035 0 0.0048886388893392687 0.0037758807986740177 0 0.0048297218165449397 0.0038798768807794177 0 0.0048419210159545319 0.0038963049219481617 0 0.0048826837174648641 0.003915100278206695 0 0.0049102306716972679 0.0037952710827612486 0 0.0048419210159545319 0.0038963049219481617 0 0.0049102306716972679 0.0037952710827612486 0 0.0048886388893392687 0.0037758807986740177 0 0.0048419210159545319 0.0038963049219481617 0 0.0048826837174648641 0.003915100278206695 0 0.0048419210159545319 0.0038963049219481617 0 0.0047708860916253239 0.0040604452539598403 0 0.0048419210159545319 0.0038963049219481617 0 0.00478652345407921 0.0039797912198743669 0 0.0047708860916253239 0.0040604452539598403 0 0.0048297218165449397 0.0038798768807794177 0 0.00478652345407921 0.0039797912198743669 0 0.0047859032777237019 0.0039787078985078286 0 0.00478652345407921 0.0039797912198743669 0 0.0047303444423528488 0.0040908727573619073 0 0.0047708860916253239 0.0040604452539598403 0 0.0048297218165449397 0.0038798768807794177 0 0.0048419210159545319 0.0038963049219481617 0 0.00478652345407921 0.0039797912198743669 0 0.00478652345407921 0.0039797912198743669 0 0.0047859032777237019 0.0039787078985078286 0 0.0047303444423528488 0.0040908727573619073 0 0.0047859032777237019 0.0039787078985078286 0 0.004864393435298848 0.0038523935140817906 0 0.0049250162072008042 0.0039432745086451062 0 0.0047859032777237019 0.0039787078985078286 0 0.0049250162072008042 0.0039432745086451062 0 0.0046882228633747846 0.0042178891249659073 0 0.004864393435298848 0.0038523935140817906 0 0.0048968842409175773 0.0038385041764853558 0 0.0049250162072008042 0.0039432745086451062 0 0.004885512502064363 0.0038180581184007159 0 0.004864393435298848 0.0038523935140817906 0 0.0048968842409175773 0.0038385041764853558 0 0.0048297218165449397 0.0038798768807794177 0 0.0047859032777237019 0.0039787078985078286 0 0.004864393435298848 0.0038523935140817906 0 0.004867527292401177 0.003817353912740044 0 0.0048297218165449397 0.0038798768807794177 0 0.004864393435298848 0.0038523935140817906 0 0.0048811377870176444 0.0038111391696868742 0 0.0048968842409175773 0.0038385041764853558 0 0.0048773752493392174 0.0038165581565429963 0 0.0048811377870176444 0.0038111391696868742 0 0.0048968842409175773 0.0038385041764853558 0 0.0049250162072008042 0.0039432745086451062 0 0.0048378166720853136 0.0040011845123060774 0 0.0047983423173444516 0.004093377704048092 0 0.0047579425224949495 0.0041888748523979695 0 0.0046997604075893857 0.0042321796417491746 0 0.0047379691125395886 0.0042556951509772093 0 0.0047579425224949495 0.0041888748523979695 0 0.0047764977555306782 0.004240546035413165 0 0.0047379691125395886 0.0042556951509772093 0 0.0047764977555306782 0.004240546035413165 0 0.004811242062927653 0.0042090930377481602 0 0.0048098678079301878 0.0042675026264297703 0 0.0047579425224949495 0.0041888748523979695 0 0.0047764977555306782 0.004240546035413165 0 0.004811242062927653 0.0042090930377481602 0 0.0045587428936251723 0.0041675137083706003 0 0.0043861071666339924 0.0042327805263461518 0 0.0042964344599344881 0.0040859511892970294 0 0.004351748186943746 0.0040891582334652513 0 0.0042952945924692688 0.0041600281784831463 0 0.0045587428936251723 0.0041675137083706003 0 0.0046752198628235873 0.0039587580538303713 0 0.0042964344599344881 0.0040859511892970294 0 0.0042976186404893009 0.0039994479105171883 0 0.0043554525646085024 0.0040303342553281692 0 0.0047579425224949495 0.0041888748523979695 0 0.004811242062927653 0.0042090930377481602 0 0.0048094567121000267 0.0041478160710300208 0 0.0048378166720853136 0.0040011845123060774 0 0.0046752198628235873 0.0039587580538303713 0 0.0048811377870176444 0.0038111391696868742 0 0.0048062878309263401 0.0037983325455912425 0 0.0047667083181530002 0.0037824717348166419 0 0.0048811377870176444 0.0038111391696868742 0 0.0048062878309263401 0.0037983325455912425 0 0.0048393906571286152 0.0038088536556210519 0 0.0048062878309263401 0.0037983325455912425 0 0.0047667083181530002 0.0037824717348166419 0 0.0047432405179322623 0.0037963451593418618 0 0.0048062878309263401 0.0037983325455912425 0 0.0047897845280660935 0.0038175068231059515 0 0.0048393906571286152 0.0038088536556210519 0 0.0046752198628235873 0.0039587580538303713 0 0.0044708698366999686 0.0038800494894029197 0 0.0047409121335089191 0.0037204983701220589 0 0.0047432405179322623 0.0037963451593418618 0 0.0046101468556193192 0.0037935509654506701 0 0.0042976186404893009 0.0039994479105171883 0 0.0043611369817991774 0.0039551827640554359 0 0.0043554525646085024 0.0040303342553281692 0 0.0046752198628235873 0.0039587580538303713 0 0.0047161078436202828 0.0037693198308402062 0 0.0047432405179322623 0.0037963451593418618 0 0.0046795120328206449 0.0038340473634896591 0 0.0046101468556193192 0.0037935509654506701 0 0.0047432405179322623 0.0037963451593418618 0 0.0047392434265892559 0.0038399825404652919 0 0.0046795120328206449 0.0038340473634896591 0 0.0047392434265892559 0.0038399825404652919 0 0.0046795120328206449 0.0038340473634896591 0 0.0046822147886903453 0.0038748984531769954 0 0.0047897845280660935 0.0038175068231059515 0 0.0048260619391088388 0.0038259991346540709 0 0.0048393906571286152 0.0038088536556210519 0 0.0048062878309263401 0.0037983325455912425 0 0.0047432405179322623 0.0037963451593418618 0 0.0047897845280660935 0.0038175068231059515 0 0.0047432405179322623 0.0037963451593418618 0 0.0047392434265892559 0.0038399825404652919 0 0.0047897845280660935 0.0038175068231059515 0 0.0047392434265892559 0.0038399825404652919 0 0.0047897845280660935 0.0038175068231059515 0 0.0047809667592874977 0.0038491745927504949 0 0.0047897845280660935 0.0038175068231059515 0 0.0048260619391088388 0.0038259991346540709 0 0.0047809667592874977 0.0038491745927504949 0 0.0048260619391088388 0.0038259991346540709 0 0.0048156115944467566 0.00384675119285227 0 0.0047809667592874977 0.0038491745927504949 0 0.0048260619391088388 0.0038259991346540709 0 0.0048156115944467566 0.00384675119285227 0 0.0048489984409503624 0.0038333936572289644 0 0.004860411718790425 0.0038152208687831876 0 0.0048768944590536021 0.0038167062896129404 0 0.0048489984409503624 0.0038333936572289644 0 0.0048260619391088388 0.0038259991346540709 0 0.004860411718790425 0.0038152208687831876 0 0.0048489984409503624 0.0038333936572289644 0 0.0048260619391088388 0.0038259991346540709 0 0.004860411718790425 0.0038152208687831876 0 0.0048393906571286152 0.0038088536556210519 0 0.0048811377870176444 0.0038111391696868742 0 0.0048393906571286152 0.0038088536556210519 0 0.0048773752493392174 0.0038165581565429963 0 0.004860411718790425 0.0038152208687831876 0 0.0048393906571286152 0.0038088536556210519 0 0.0048773752493392174 0.0038165581565429963 0 0.004885512502064363 0.0038180581184007159 0 0.0048968842409175773 0.0038385041764853558 0 0.004881198418895857 0.0038121423217415363 0 0.0048968842409175773 0.0038385041764853558 0 0.0048773752493392174 0.0038165581565429963 0 0.004881198418895857 0.0038121423217415363 0 0.004860411718790425 0.0038152208687831876 0 0.0048773752493392174 0.0038165581565429963 0 0.004881198418895857 0.0038121423217415363 0 0.004887970820119979 0.0038068101457101526 0 0.004885512502064363 0.0038180581184007159 0 0.004881198418895857 0.0038121423217415363 0 0.004887970820119979 0.0038068101457101526 0 0.004881198418895857 0.0038121423217415363 0 0.0048768944590536021 0.0038167062896129404 0 0.004860411718790425 0.0038152208687831876 0 0.004881198418895857 0.0038121423217415363 0 0.0048768944590536021 0.0038167062896129404 0 0.0048926558641551711 0.0038092217435339781 0 0.004887970820119979 0.0038068101457101526 0 0.0048768944590536021 0.0038167062896129404 0 0.0048926558641551711 0.0038092217435339781 0 0.0048744886273676871 0.0038301905925645884 0 0.0048945845116102589 0.0038222258546339286 0 0.0048926558641551711 0.0038092217435339781 0 0.0048768944590536021 0.0038167062896129404 0 0.0048744886273676871 0.0038301905925645884 0 0.0048768944590536021 0.0038167062896129404 0 0.0048744886273676871 0.0038301905925645884 0 0.0048489984409503624 0.0038333936572289644 0 0.0048744886273676871 0.0038301905925645884 0 0.0048611677427206927 0.0038527085138388849 0 0.0048772307539112908 0.0038411376289922529 0 0.0048744886273676871 0.0038301905925645884 0 0.0048611677427206927 0.0038527085138388849 0 0.0048528694208537556 0.0038457654025722118 0 0.0048611677427206927 0.0038527085138388849 0 0.0048772307539112908 0.0038411376289922529 0 0.0048691719845815632 0.0038610144036761145 0 0.0048772307539112908 0.0038411376289922529 0 0.0048945845116102589 0.0038222258546339286 0 0.004884565898869141 0.003845061146944924 0 0.0048744886273676871 0.0038301905925645884 0 0.0048772307539112908 0.0038411376289922529 0 0.0048945845116102589 0.0038222258546339286 0 0.0049005118057356889 0.0038263352824952977 0 0.0048945845116102589 0.0038222258546339286 0 0.004884565898869141 0.003845061146944924 0 0.0048156115944467566 0.00384675119285227 0 0.0048489984409503624 0.0038333936572289644 0 0.004823871294744808 0.0038613056353474298 0 0.0048156115944467566 0.00384675119285227 0 0.004823871294744808 0.0038613056353474298 0 0.0047922174552847028 0.0038722491559306065 0 0.0048489984409503624 0.0038333936572289644 0 0.0048528694208537556 0.0038457654025722118 0 0.004823871294744808 0.0038613056353474298 0 0.0048744886273676871 0.0038301905925645884 0 0.0048489984409503624 0.0038333936572289644 0 0.0048528694208537556 0.0038457654025722118 0 0.0048528694208537556 0.0038457654025722118 0 0.0048389002248817202 0.0038700136307144653 0 0.004823871294744808 0.0038613056353474298 0 0.0048611677427206927 0.0038527085138388849 0 0.0048528694208537556 0.0038457654025722118 0 0.0048389002248817202 0.0038700136307144653 0 0.0048389002248817202 0.0038700136307144653 0 0.004823871294744808 0.0038613056353474298 0 0.0048041858487586258 0.003892834741884562 0 0.004823871294744808 0.0038613056353474298 0 0.0048041858487586258 0.003892834741884562 0 0.0047922174552847028 0.0038722491559306065 0 0.0048041858487586258 0.003892834741884562 0 0.004825096834515495 0.0038986635523350333 0 0.0047943350674924312 0.003927302676522487 0 0.0048389002248817202 0.0038700136307144653 0 0.0048041858487586258 0.003892834741884562 0 0.004825096834515495 0.0038986635523350333 0 0.004825096834515495 0.0038986635523350333 0 0.0048511260273362763 0.0038804022561169191 0 0.0048381250445334754 0.0039054907357996107 0 0.0048389002248817202 0.0038700136307144653 0 0.004825096834515495 0.0038986635523350333 0 0.0048511260273362763 0.0038804022561169191 0 0.0048611677427206927 0.0038527085138388849 0 0.0048389002248817202 0.0038700136307144653 0 0.0048511260273362763 0.0038804022561169191 0 0.0048511260273362763 0.0038804022561169191 0 0.0048526541486545224 0.0039034617251858085 0 0.0048606449356507642 0.0038806340396334671 0 0.0048511260273362763 0.0038804022561169191 0 0.0048526541486545224 0.0039034617251858085 0 0.0048381250445334754 0.0039054907357996107 0 0.0048526541486545224 0.0039034617251858085 0 0.0048684316347062679 0.0038797771118490166 0 0.004848687190089177 0.0039604207835384547 0 0.0048526541486545224 0.0039034617251858085 0 0.0048343560178858254 0.0039293697683389613 0 0.004848687190089177 0.0039604207835384547 0 0.0048526541486545224 0.0039034617251858085 0 0.0048343560178858254 0.0039293697683389613 0 0.0048381250445334754 0.0039054907357996107 0 0.0048343560178858254 0.0039293697683389613 0 0.0048126861842811069 0.0039419591459037518 0 0.0048269244042211086 0.0039480636489110064 0 0.0048343560178858254 0.0039293697683389613 0 0.0048381250445334754 0.0039054907357996107 0 0.0048231446457856365 0.0039208795740171432 0 0.004825096834515495 0.0038986635523350333 0 0.0048381250445334754 0.0039054907357996107 0 0.0048231446457856365 0.0039208795740171432 0 0.004825096834515495 0.0038986635523350333 0 0.0048231446457856365 0.0039208795740171432 0 0.0047943350674924312 0.003927302676522487 0 0.0048231446457856365 0.0039208795740171432 0 0.0048126861842811069 0.0039419591459037518 0 0.0047943350674924312 0.003927302676522487 0 0.0048343560178858254 0.0039293697683389613 0 0.0048231446457856365 0.0039208795740171432 0 0.0048126861842811069 0.0039419591459037518 0 0.0047943350674924312 0.003927302676522487 0 0.0047957612741767602 0.0039587858318965354 0 0.0047742002671832227 0.0039582586136702545 0 0.0048126861842811069 0.0039419591459037518 0 0.0047943350674924312 0.003927302676522487 0 0.0047957612741767602 0.0039587858318965354 0 0.0049182185550718984 0.0038083630429850881 0 0.0048908470344526476 0.0038518537075576792 0 0.004848687190089177 0.0039604207835384547 0 0.004915030150914817 0.0037898531628790841 0 0.0049182185550718984 0.0038083630429850881 0 0.0049510628303311025 0.0037743795817766572 0 0.0049182185550718984 0.0038083630429850881 0 0.0049510628303311025 0.0037743795817766572 0 0.0049525954050937751 0.003776988292630437 0 0.0049193137261729332 0.0037968324467596557 0 0.004897943717409866 0.003940402709201209 0 0.0048908470344526476 0.0038518537075576792 0 0.004884565898869141 0.003845061146944924 0 0.0048684316347062679 0.0038797771118490166 0 0.0049005118057356889 0.0038263352824952977 0 0.0048908470344526476 0.0038518537075576792 0 0.004884565898869141 0.003845061146944924 0 0.0048772307539112908 0.0038411376289922529 0 0.004884565898869141 0.003845061146944924 0 0.0048691719845815632 0.0038610144036761145 0 0.004884565898869141 0.003845061146944924 0 0.0048691719845815632 0.0038610144036761145 0 0.0048684316347062679 0.0038797771118490166 0 0.0048611677427206927 0.0038527085138388849 0 0.0048511260273362763 0.0038804022561169191 0 0.0048691719845815632 0.0038610144036761145 0 0.0048526541486545224 0.0039034617251858085 0 0.0048606449356507642 0.0038806340396334671 0 0.0048684316347062679 0.0038797771118490166 0 0.0048691719845815632 0.0038610144036761145 0 0.0048606449356507642 0.0038806340396334671 0 0.0048684316347062679 0.0038797771118490166 0 0.0048511260273362763 0.0038804022561169191 0 0.0048691719845815632 0.0038610144036761145 0 0.0048606449356507642 0.0038806340396334671 0 0.0048908470344526476 0.0038518537075576792 0 0.0048684316347062679 0.0038797771118490166 0 0.004848687190089177 0.0039604207835384547 0 0.0048944090190630053 0.0037806898806831118 0 0.0050526903398742402 0.0038003840420208781 0 0.0049538403466728321 0.0037556760867830013 0 0.004915030150914817 0.0037898531628790841 0 0.0050280915300497846 0.0037496228378061896 0 0.0049538403466728321 0.0037556760867830013 0 0.0049943340701434176 0.0037390498156435956 0 0.0050280915300497846 0.0037496228378061896 0 0.0049538403466728321 0.0037556760867830013 0 0.0049827753793355769 0.0037278806765212802 0 0.0049943340701434176 0.0037390498156435956 0 0.0049453803817819438 0.003725319757360263 0 0.0049827753793355769 0.0037278806765212802 0 0.0049991298071515155 0.0036905882356629278 0 0.0049827753793355769 0.0037278806765212802 0 0.0050130128771672493 0.0037224069959104922 0 0.0049991298071515155 0.0036905882356629278 0 0.0050130128771672493 0.0037224069959104922 0 0.0049943340701434176 0.0037390498156435956 0 0.0050280915300497846 0.0037496228378061896 0 0.0049827753793355769 0.0037278806765212802 0 0.0050130128771672493 0.0037224069959104922 0 0.0049943340701434176 0.0037390498156435956 0 0.0050526903398742402 0.0038003840420208781 0 0.0047274307583127827 0.0034079635427718431 0 0.0049510628303311025 0.0037743795817766572 0 0.0049525954050937751 0.003776988292630437 0 0.0049519540438675187 0.0037503740211057698 0 0.0050280915300497846 0.0037496228378061896 0 0.0050500030877281563 0.0037020041979724931 0 0.0051461451337590884 0.0036992086026468758 0 0.004848687190089177 0.0039604207835384547 0 0.0048269244042211086 0.0039480636489110064 0 0.0048139494565858955 0.0039571213561228578 0 0.0048343560178858254 0.0039293697683389613 0 0.004848687190089177 0.0039604207835384547 0 0.0048269244042211086 0.0039480636489110064 0 0.004848687190089177 0.0039604207835384547 0 0.0048139494565858955 0.0039571213561228578 0 0.0047868521661996359 0.0039775275959098976 0 0.0047957612741767602 0.0039587858318965354 0 0.0048139494565858955 0.0039571213561228578 0 0.0047868521661996359 0.0039775275959098976 0 0.0047957612741767602 0.0039587858318965354 0 0.0047868521661996359 0.0039775275959098976 0 0.0047742002671832227 0.0039582586136702545 0 0.0048126861842811069 0.0039419591459037518 0 0.0047957612741767602 0.0039587858318965354 0 0.0048139494565858955 0.0039571213561228578 0 0.0048126861842811069 0.0039419591459037518 0 0.0048269244042211086 0.0039480636489110064 0 0.0048139494565858955 0.0039571213561228578 0 0.0050130128771672493 0.0037224069959104922 0 0.0050280915300497846 0.0037496228378061896 0 0.0050500030877281563 0.0037020041979724931 0 0.0050500030877281563 0.0037020041979724931 0 0.0050642017078941642 0.0036531376484269904 0 0.0051461451337590884 0.0036992086026468758 0 0.0050500030877281563 0.0037020041979724931 0 0.0050642017078941642 0.0036531376484269904 0 0.0049991298071515155 0.0036905882356629278 0 0.0050096767823842939 0.0036090186207672348 0 0.0050642017078941642 0.0036531376484269904 0 0.0049991298071515155 0.0036905882356629278 0 0.0050096767823842939 0.0036090186207672348 0 0.0049172224004135371 0.0036711983091904589 0 0.0049991298071515155 0.0036905882356629278 0 0.0050130128771672493 0.0037224069959104922 0 0.0050500030877281563 0.0037020041979724931 0 0.0049991298071515155 0.0036905882356629278 0 0.0046734611650934635 0.0040502317984263307 0 0.0046512179692024241 0.0040207780107054166 0 0.0045714146428476928 0.0040703271223120046 0 0.0046956670157867215 0.0014325393082381846 0 0.0046705835249524963 0.0016105708038924066 0 0.0045807765803721227 0.0016614498035562907 0 0.0049509506107598003 0.0014262711833650872 0 0.0046956670157867215 0.0014325393082381846 0 0.0046705835249524963 0.0016105708038924066 0 0.0046734611650934635 0.0040502317984263307 0 0.0047067467718811375 0.0040367416108799976 0 0.004684181859357474 0.0040288292432239482 0 0.0047162458407868481 0.002809859132355548 0 0.0047274307583127827 0.0034079635427718431 0 0.0050677340679523295 0.0019195125291736502 0 0.0047274307583127827 0.0034079635427718431 0 0.0051231129359979579 0.0035570835037763452 0 0.0050642017078941642 0.0036531376484269904 0 0.0051461451337590884 0.0036992086026468758 0 0.004848687190089177 0.0039604207835384547 0 0.0047868521661996359 0.0039775275959098976 0 0.0047148904965096878 0.0040462471507298732 0 0.0047274307583127827 0.0034079635427718431 0 0.0047748602775925606 0.0039599933417862566 0 0.0047067467718811375 0.0040367416108799976 0 0.0047049469725356195 0.0040061441730587016 0 0.004684181859357474 0.0040288292432239482 0 0.004897943717409866 0.003940402709201209 0 0.0047274307583127827 0.0034079635427718431 0 0.0047148904965096878 0.0040462471507298732 0 0.0047049469725356195 0.0040061441730587016 0 0.0047380769486561588 0.0039792884809830148 0 0.0047868521661996359 0.0039775275959098976 0 0.0047148904965096878 0.0040462471507298732 0 0.0047380769486561588 0.0039792884809830148 0 0.0047868521661996359 0.0039775275959098976 0 0.0047742002671832227 0.0039582586136702545 0 0.0047380769486561588 0.0039792884809830148 0 0.0047049469725356195 0.0040061441730587016 0 0.0047380769486561588 0.0039792884809830148 0 0.0046872184391039485 0.0039811966720399048 0 0.0047380769486561588 0.0039792884809830148 0 0.0046872184391039485 0.0039811966720399048 0 0.0047186344879084552 0.0039530945811178751 0 0.0047049469725356195 0.0040061441730587016 0 0.0046872184391039485 0.0039811966720399048 0 0.0046512179692024241 0.0040207780107054166 0 0.0047049469725356195 0.0040061441730587016 0 0.004684181859357474 0.0040288292432239482 0 0.0046512179692024241 0.0040207780107054166 0 0.0046734611650934635 0.0040502317984263307 0 0.004684181859357474 0.0040288292432239482 0 0.0046512179692024241 0.0040207780107054166 0 0.0046872184391039485 0.0039811966720399048 0 0.0046512179692024241 0.0040207780107054166 0 0.0046399899849344922 0.003979678091948137 0 0.0046512179692024241 0.0040207780107054166 0 0.0046399899849344922 0.003979678091948137 0 0.0046036653089788935 0.0040131058133188562 0 0.0046399899849344922 0.003979678091948137 0 0.0046756142829322764 0.0039470440566314888 0 0.0046221643968060531 0.0039443895545149994 0 0.0046872184391039485 0.0039811966720399048 0 0.0046756142829322764 0.0039470440566314888 0 0.0047186344879084552 0.0039530945811178751 0 0.0046872184391039485 0.0039811966720399048 0 0.0046399899849344922 0.003979678091948137 0 0.0046756142829322764 0.0039470440566314888 0 0.0046756142829322764 0.0039470440566314888 0 0.0047305993676607441 0.0039228412312013062 0 0.004710311819698814 0.003907582787069922 0 0.0046756142829322764 0.0039470440566314888 0 0.0047186344879084552 0.0039530945811178751 0 0.0047305993676607441 0.0039228412312013062 0 0.0046756142829322764 0.0039470440566314888 0 0.0046646452556031639 0.0039110024930830998 0 0.004710311819698814 0.003907582787069922 0 0.0046756142829322764 0.0039470440566314888 0 0.0046646452556031639 0.0039110024930830998 0 0.0046221643968060531 0.0039443895545149994 0 0.0047943350674924312 0.003927302676522487 0 0.0047742002671832227 0.0039582586136702545 0 0.0047539406835343453 0.0039438496971434681 0 0.0047943350674924312 0.003927302676522487 0 0.0047539406835343453 0.0039438496971434681 0 0.0047691816798441974 0.0039064324216783386 0 0.0047742002671832227 0.0039582586136702545 0 0.0047380769486561588 0.0039792884809830148 0 0.0047539406835343453 0.0039438496971434681 0 0.0047539406835343453 0.0039438496971434681 0 0.0047186344879084552 0.0039530945811178751 0 0.0047305993676607441 0.0039228412312013062 0 0.0047380769486561588 0.0039792884809830148 0 0.0047539406835343453 0.0039438496971434681 0 0.0047186344879084552 0.0039530945811178751 0 0.0047305993676607441 0.0039228412312013062 0 0.0047691816798441974 0.0039064324216783386 0 0.0047559078526552305 0.0038816160540737447 0 0.0047539406835343453 0.0039438496971434681 0 0.0047305993676607441 0.0039228412312013062 0 0.0047691816798441974 0.0039064324216783386 0 0.0048041858487586258 0.003892834741884562 0 0.0047943350674924312 0.003927302676522487 0 0.0047691816798441974 0.0039064324216783386 0 0.0048041858487586258 0.003892834741884562 0 0.0047691816798441974 0.0039064324216783386 0 0.0047922174552847028 0.0038722491559306065 0 0.0047691816798441974 0.0039064324216783386 0 0.0047922174552847028 0.0038722491559306065 0 0.0047559078526552305 0.0038816160540737447 0 0.0047305993676607441 0.0039228412312013062 0 0.0047559078526552305 0.0038816160540737447 0 0.004710311819698814 0.003907582787069922 0 0.0047559078526552305 0.0038816160540737447 0 0.004710311819698814 0.003907582787069922 0 0.0047228689982082208 0.0038774588479792978 0 0.0047559078526552305 0.0038816160540737447 0 0.0047809667592874977 0.0038491745927504949 0 0.0047228689982082208 0.0038774588479792978 0 0.0047392434265892559 0.0038399825404652919 0 0.0047809667592874977 0.0038491745927504949 0 0.0047228689982082208 0.0038774588479792978 0 0.0047922174552847028 0.0038722491559306065 0 0.0047559078526552305 0.0038816160540737447 0 0.0047809667592874977 0.0038491745927504949 0 0.0048156115944467566 0.00384675119285227 0 0.0047922174552847028 0.0038722491559306065 0 0.0047809667592874977 0.0038491745927504949 0 0.0046646452556031639 0.0039110024930830998 0 0.0046040638525832369 0.0038989985687359072 0 0.0046221643968060531 0.0039443895545149994 0 0.0046646452556031639 0.0039110024930830998 0 0.004710311819698814 0.003907582787069922 0 0.0047228689982082208 0.0038774588479792978 0 0.0046646452556031639 0.0039110024930830998 0 0.0047228689982082208 0.0038774588479792978 0 0.0046822147886903453 0.0038748984531769954 0 0.0047392434265892559 0.0038399825404652919 0 0.0047228689982082208 0.0038774588479792978 0 0.0046822147886903453 0.0038748984531769954 0 0.0046646452556031639 0.0039110024930830998 0 0.0046822147886903453 0.0038748984531769954 0 0.0046040638525832369 0.0038989985687359072 0 0.0046795120328206449 0.0038340473634896591 0 0.0046822147886903453 0.0038748984531769954 0 0.0046040638525832369 0.0038989985687359072 0 0.0046040638525832369 0.0038989985687359072 0 0.0045440457036946703 0.0039431120701777398 0 0.0044752180671031143 0.0039094544580908028 0 0.0046040638525832369 0.0038989985687359072 0 0.0045440457036946703 0.0039431120701777398 0 0.0046221643968060531 0.0039443895545149994 0 0.0044752180671031143 0.0039094544580908028 0 0.0044827170184607553 0.0039413805614464227 0 0.0044638155348262088 0.0039494934895379042 0 0.0045440457036946703 0.0039431120701777398 0 0.0044752180671031143 0.0039094544580908028 0 0.0044827170184607553 0.0039413805614464227 0 0.0045440457036946703 0.0039431120701777398 0 0.0044827170184607553 0.0039413805614464227 0 0.0045314180975969103 0.0039739501821309956 0 0.0044827170184607553 0.0039413805614464227 0 0.0045314180975969103 0.0039739501821309956 0 0.0044975111323891639 0.0039965574570792585 0 0.0045440457036946703 0.0039431120701777398 0 0.0046221643968060531 0.0039443895545149994 0 0.0045847567067366195 0.0039756860343039217 0 0.0045440457036946703 0.0039431120701777398 0 0.0045314180975969103 0.0039739501821309956 0 0.0045847567067366195 0.0039756860343039217 0 0.0046399899849344922 0.003979678091948137 0 0.0046221643968060531 0.0039443895545149994 0 0.0045847567067366195 0.0039756860343039217 0 0.0046399899849344922 0.003979678091948137 0 0.0045847567067366195 0.0039756860343039217 0 0.0046036653089788935 0.0040131058133188562 0 0.0045847567067366195 0.0039756860343039217 0 0.0046036653089788935 0.0040131058133188562 0 0.0045480532469118666 0.0040143383740522216 0 0.0045314180975969103 0.0039739501821309956 0 0.0045847567067366195 0.0039756860343039217 0 0.0045480532469118666 0.0040143383740522216 0 0.0045480532469118666 0.0040143383740522216 0 0.0045068342748103138 0.0040403654205183655 0 0.0044975111323891639 0.0039965574570792585 0 0.0045314180975969103 0.0039739501821309956 0 0.0045480532469118666 0.0040143383740522216 0 0.0044975111323891639 0.0039965574570792585 0 0.0044993839955005024 0.0040773400364384959 0 0.0045714146428476928 0.0040703271223120046 0 0.0045068342748103138 0.0040403654205183655 0 0.0045480532469118666 0.0040143383740522216 0 0.0045714146428476928 0.0040703271223120046 0 0.0045068342748103138 0.0040403654205183655 0 0.00484681247173392 0.0019047955821999646 0 0.0047162458407868481 0.002809859132355548 0 0.0047162458407868481 0.002809859132355548 0 0.0046073802039331927 0.0033860478026664208 0 0.0046926938307706714 0.0025771658077693364 0 0.0046805050679309974 0.0026085984087367608 0 0.0046927982863196006 0.0025805579853056932 0 0.0046036653089788935 0.0040131058133188562 0 0.0045480532469118666 0.0040143383740522216 0 0.0045714146428476928 0.0040703271223120046 0 0.0046512179692024241 0.0040207780107054166 0 0.0046036653089788935 0.0040131058133188562 0 0.0045714146428476928 0.0040703271223120046 0 0.0044633951346806037 0.0040345703979356674 0 0.0044346511329458353 0.0040360331587769071 0 0.0044467277232978445 0.0040153285534718286 0 0.0044633951346806037 0.0040345703979356674 0 0.0044791808263859459 0.004013999844872925 0 0.0044467277232978445 0.0040153285534718286 0 0.0044487014730161707 0.0040616076452433753 0 0.0044633951346806037 0.0040345703979356674 0 0.0044346511329458353 0.0040360331587769071 0 0.0044633951346806037 0.0040345703979356674 0 0.0045068342748103138 0.0040403654205183655 0 0.0044791808263859459 0.004013999844872925 0 0.0044993839955005024 0.0040773400364384959 0 0.0044633951346806037 0.0040345703979356674 0 0.0045068342748103138 0.0040403654205183655 0 0.0044993839955005024 0.0040773400364384959 0 0.0044487014730161707 0.0040616076452433753 0 0.0044633951346806037 0.0040345703979356674 0 0.0045068342748103138 0.0040403654205183655 0 0.0044791808263859459 0.004013999844872925 0 0.0044975111323891639 0.0039965574570792585 0 0.0044791808263859459 0.004013999844872925 0 0.0044975111323891639 0.0039965574570792585 0 0.0044620049854234099 0.0039944767780639035 0 0.0044975111323891639 0.0039965574570792585 0 0.0044620049854234099 0.0039944767780639035 0 0.0044692715576020916 0.0039643313585217676 0 0.0044620049854234099 0.0039944767780639035 0 0.0044460473116086901 0.0039972797670000618 0 0.0044531147404605004 0.0039800762147338383 0 0.0044620049854234099 0.0039944767780639035 0 0.0044467277232978445 0.0040153285534718286 0 0.0044460473116086901 0.0039972797670000618 0 0.0044791808263859459 0.004013999844872925 0 0.0044620049854234099 0.0039944767780639035 0 0.0044467277232978445 0.0040153285534718286 0 0.0044467277232978445 0.0040153285534718286 0 0.0044460473116086901 0.0039972797670000618 0 0.0044218981633802343 0.004003649926634211 0 0.0044346511329458353 0.0040360331587769071 0 0.0044467277232978445 0.0040153285534718286 0 0.0044218981633802343 0.004003649926634211 0 0.0044460473116086901 0.0039972797670000618 0 0.0044531147404605004 0.0039800762147338383 0 0.0044218981633802343 0.004003649926634211 0 0.0044531147404605004 0.0039800762147338383 0 0.0044625244091469028 0.003944346064604037 0 0.0044218981633802343 0.004003649926634211 0 0.0044531147404605004 0.0039800762147338383 0 0.0044692715576020916 0.0039643313585217676 0 0.0044625244091469028 0.003944346064604037 0 0.0044100643210943568 0.004063495445974989 0 0.0044918828342777502 0.0041805458217182186 0 0.0044093445297733978 0.0041577497549907892 0 0.0042677474521126109 0.0044162457780321327 0 0.0043109094869987572 0.004140044101874258 0 0.0044620049854234099 0.0039944767780639035 0 0.0044531147404605004 0.0039800762147338383 0 0.0044692715576020916 0.0039643313585217676 0 0.0044692715576020916 0.0039643313585217676 0 0.0044690548226854736 0.003948892482038579 0 0.0044625244091469028 0.003944346064604037 0 0.0044827170184607553 0.0039413805614464227 0 0.0044975111323891639 0.0039965574570792585 0 0.0044692715576020916 0.0039643313585217676 0 0.0044827170184607553 0.0039413805614464227 0 0.0044692715576020916 0.0039643313585217676 0 0.0044690548226854736 0.003948892482038579 0 0.0044654040187196093 0.0039511807788765851 0 0.0044625244091469028 0.003944346064604037 0 0.004464473061475095 0.0039851155329596573 0 0.0044827170184607553 0.0039413805614464227 0 0.0044654040187196093 0.0039511807788765851 0 0.0044638155348262088 0.0039494934895379042 0 0.0044827170184607553 0.0039413805614464227 0 0.0044690548226854736 0.003948892482038579 0 0.0044654040187196093 0.0039511807788765851 0 0.0044690548226854736 0.003948892482038579 0 0.0044654040187196093 0.0039511807788765851 0 0.0044625244091469028 0.003944346064604037 0 0.0044093445297733978 0.0041577497549907892 0 0.0044059904183431243 0.0040644846917912633 0 0.0043109094869987572 0.004140044101874258 0 0.0044100643210943568 0.004063495445974989 0 0.0044705548386613971 0.0039828555170186653 0 0.0044093445297733978 0.0041577497549907892 0 0.0044059904183431243 0.0040644846917912633 0 0.004464473061475095 0.0039851155329596573 0 0.0044059904183431243 0.0040644846917912633 0 0.0044293575517087048 0.0039926767260595611 0 0.0043109094869987572 0.004140044101874258 0 0.0044059904183431243 0.0040644846917912633 0 0.0044293575517087048 0.0039926767260595611 0 0.004464473061475095 0.0039851155329596573 0 0.0028681752579637785 0.0046602752978922015 0 0.0029558802690447918 0.0046907157161794064 0 0.0044293575517087048 0.0039926767260595611 0 0.0044536205461976602 0.0040070098952392661 0 0.004472745513620425 0.0040606307179950479 0 0.0044293575517087048 0.0039926767260595611 0 0.0044536205461976602 0.0040070098952392661 0 0.004464473061475095 0.0039851155329596573 0 0.0044536205461976602 0.0040070098952392661 0 0.004464473061475095 0.0039851155329596573 0 0.0044638155348262088 0.0039494934895379042 0 0.0044654040187196093 0.0039511807788765851 0 0.004464473061475095 0.0039851155329596573 0 0.0044638155348262088 0.0039494934895379042 0 0.0044752180671031143 0.0039094544580908028 0 0.0044638155348262088 0.0039494934895379042 0 0.0044227639620891442 0.0039855943008683037 0 0.0046795120328206449 0.0038340473634896591 0 0.0046040638525832369 0.0038989985687359072 0 0.0046101468556193192 0.0037935509654506701 0 0.004477664507960985 0.0039007540241405921 0 0.0044708698366999686 0.0038800494894029197 0 0.0044752180671031143 0.0039094544580908028 0 0.0043611369817991774 0.0039551827640554359 0 0.0044227639620891442 0.0039855943008683037 0 0.0046040638525832369 0.0038989985687359072 0 0.0044752180671031143 0.0039094544580908028 0 0.0046101468556193192 0.0037935509654506701 0 0.0043611369817991774 0.0039551827640554359 0 0.0044227639620891442 0.0039855943008683037 0 0.0043554525646085024 0.0040303342553281692 0 0.0044536205461976602 0.0040070098952392661 0 0.0044638155348262088 0.0039494934895379042 0 0.0044227639620891442 0.0039855943008683037 0 0.0044227639620891442 0.0039855943008683037 0 0.0044077017724245401 0.0040456999391168692 0 0.0043554525646085024 0.0040303342553281692 0 0.0044536205461976602 0.0040070098952392661 0 0.0044227639620891442 0.0039855943008683037 0 0.0044077017724245401 0.0040456999391168692 0 0.0044077017724245401 0.0040456999391168692 0 0.0043554525646085024 0.0040303342553281692 0 0.004351748186943746 0.0040891582334652513 0 0.0042964344599344881 0.0040859511892970294 0 0.0043554525646085024 0.0040303342553281692 0 0.004351748186943746 0.0040891582334652513 0 0.004351748186943746 0.0040891582334652513 0 0.0044231390328525379 0.0041096087069524521 0 0.0043563300660392334 0.0041473751180059861 0 0.0044077017724245401 0.0040456999391168692 0 0.004351748186943746 0.0040891582334652513 0 0.0044231390328525379 0.0041096087069524521 0 0.0044231390328525379 0.0041096087069524521 0 0.004472745513620425 0.0040606307179950479 0 0.0044405649329648479 0.0040566314076162817 0 0.0044231390328525379 0.0041096087069524521 0 0.004472745513620425 0.0040606307179950479 0 0.004466404262994079 0.0041695426656018957 0 0.0013483481974504484 0.0054241130181429927 0 0.0013530833400392306 0.0055234788016248768 0 0.0014209986858832828 0.0054950348209534027 0 0.0029558802690447918 0.0046907157161794064 0 0.0025888847552382604 0.0050481277400597092 0 0.0044536205461976602 0.0040070098952392661 0 0.0044077017724245401 0.0040456999391168692 0 0.0044405649329648479 0.0040566314076162817 0 0.0044536205461976602 0.0040070098952392661 0 0.004472745513620425 0.0040606307179950479 0 0.0044405649329648479 0.0040566314076162817 0 0.0044077017724245401 0.0040456999391168692 0 0.0044231390328525379 0.0041096087069524521 0 0.0044405649329648479 0.0040566314076162817 0 0.0030953453922086512 0.0051662576737117501 0 0.003070193188528355 0.0052868419761979779 0 0.0031951932352742084 0.0052241855996642177 0 0.0030953453922086512 0.0051662576737117501 0 0.0031951932352742084 0.0052241855996642177 0 0.003216426256230229 0.0051155510975277544 0 0.0013581758840890282 0.0056328027745400893 0 0.0013600583678395931 0.0055539945899956283 0 0.0014254901335267653 0.0056129970582253722 0 0.0021733460533789185 0.0054965717951464899 0 0.0025888847552382604 0.0050481277400597092 0 0.0025888847552382604 0.0050481277400597092 0 0.0009161489288305848 0.0057291263255189696 0 0.0044231390328525379 0.0041096087069524521 0 0.004466404262994079 0.0041695426656018957 0 0.0044128400640666464 0.0042133796610197777 0 0.0025888847552382604 0.0050481277400597092 0 0.0040322971998321914 0.0046220144466478427 0 0.0044231390328525379 0.0041096087069524521 0 0.0043563300660392334 0.0041473751180059861 0 0.0044128400640666464 0.0042133796610197777 0 0.0043563300660392334 0.0041473751180059861 0 0.0042844426232956732 0.0042132328745214647 0 0.0042055507447066025 0.0041718958513971898 0 0.0042968840799763094 0.00413801756240674 0 0.0043861071666339924 0.0042327805263461518 0 0.004351748186943746 0.0040891582334652513 0 0.0043563300660392334 0.0041473751180059861 0 0.0042952945924692688 0.0041600281784831463 0 0.0043563300660392334 0.0041473751180059861 0 0.0042844426232956732 0.0042132328745214647 0 0.0043250856264448788 0.0042826754715265094 0 0.0042844426232956732 0.0042132328745214647 0 0.0043250856264448788 0.0042826754715265094 0 0.0042585294556745524 0.0042983577931385158 0 0.0040322971998321914 0.0046220144466478427 0 0.003761498395501326 0.0047471579166137572 0 0.0043563300660392334 0.0041473751180059861 0 0.0044128400640666464 0.0042133796610197777 0 0.0043250856264448788 0.0042826754715265094 0 0.0031951932352742084 0.0052241855996642177 0 0.003216426256230229 0.0051155510975277544 0 0.0033141449000636679 0.0051625886982945889 0 0.003216426256230229 0.0051155510975277544 0 0.0033141449000636679 0.0051625886982945889 0 0.0033119571173717715 0.0050805056962365605 0 0.003761498395501326 0.0047471579166137572 0 0.0038970271030982395 0.0047308046611279119 0 0.0033141449000636679 0.0051625886982945889 0 0.0033119571173717715 0.0050805056962365605 0 0.0033966165241774678 0.0051047768149802657 0 0.0033119571173717715 0.0050805056962365605 0 0.003352318223842746 0.0049979967508431188 0 0.0032620356520394588 0.005017055634405825 0 0.0033119571173717715 0.0050805056962365605 0 0.003352318223842746 0.0049979967508431188 0 0.0033966165241774678 0.0051047768149802657 0 0.0032620356520394588 0.005017055634405825 0 0.0031096902150447893 0.0050584594888389567 0 0.0031832236190404727 0.0049889706636508839 0 0.003216426256230229 0.0051155510975277544 0 0.0032620356520394588 0.005017055634405825 0 0.0031182878481552422 0.0050472597574406199 0 0.0035058752730512915 0.004938564344128149 0 0.0025163572894659285 0.0052995982540538856 0 0.003216426256230229 0.0051155510975277544 0 0.0033119571173717715 0.0050805056962365605 0 0.0032620356520394588 0.005017055634405825 0 0.0021733460533789185 0.0054965717951464899 0 0.0025163572894659285 0.0052995982540538856 0 0.0030953453922086512 0.0051662576737117501 0 0.003216426256230229 0.0051155510975277544 0 0.0031182878481552422 0.0050472597574406199 0 0.0013581758840890282 0.0056328027745400893 0 0.0013592620234343065 0.0056928563118203426 0 0.0014251626196974696 0.0056892258315852252 0 0.0013581758840890282 0.0056328027745400893 0 0.0014254901335267653 0.0056129970582253722 0 0.0014251626196974696 0.0056892258315852252 0 0.0025775799539336582 0.0056470634146270826 0 0.0024574357605914674 0.0055091942598927204 0 0.0023119510762354863 0.0057085578788107199 0 0.0025163572894659285 0.0052995982540538856 0 0.0017421789784449857 0.0057571728665760944 0 0.0024574357605914674 0.0055091942598927204 0 0.0024842647908229995 0.0053946480715402461 0 0.002377780069071439 0.0053614277468283849 0 0.0024574357605914674 0.0055091942598927204 0 0.0024842647908229995 0.0053946480715402461 0 0.0026195466554340234 0.0054237158798521538 0 0.0025775799539336582 0.0056470634146270826 0 0.0024574357605914674 0.0055091942598927204 0 0.0026195466554340234 0.0054237158798521538 0 0.0031096902150447893 0.0050584594888389567 0 0.0031402938179007182 0.004921598744660396 0 0.0031832236190404727 0.0049889706636508839 0 0.0025163572894659285 0.0052995982540538856 0 0.0029186627228808813 0.0051555137259079635 0 0.0026195466554340234 0.0054237158798521538 0 0.002514997762145618 0.0052820144613209517 0 0.0026615137286915016 0.0052045063124757374 0 0.0029186627228808813 0.0051555137259079635 0 0.0028224193515229965 0.005100043047058289 0 0.0031402938179007182 0.004921598744660396 0 0.0031648144620610298 0.0047968274238276163 0 0.0032209769766251557 0.0048525036406103584 0 0.0024842647908229995 0.0053946480715402461 0 0.0026195466554340234 0.0054237158798521538 0 0.002514997762145618 0.0052820144613209517 0 0.0024804557453240836 0.0053088332064371874 0 0.0028224193515229965 0.005100043047058289 0 0.0024804557453240836 0.0053088332064371874 0 0.0024061204532681937 0.0053471288287505261 0 0.0024842647908229995 0.0053946480715402461 0 0.002514997762145618 0.0052820144613209517 0 0.002377780069071439 0.0053614277468283849 0 0.0025138443904046811 0.0053010947066910999 0 0.002435572972966035 0.0052771849654899717 0 0.0024990649199537578 0.0052309498751551553 0 0.0025138443904046811 0.0053010947066910999 0 0.002435572972966035 0.0052771849654899717 0 0.002377780069071439 0.0053614277468283849 0 0.0026012725789073651 0.0052587321420223812 0 0.0025495149699190436 0.0051342936146560221 0 0.0023825137452413762 0.0052383431317568514 0 0.002435572972966035 0.0052771849654899717 0 0.0024990649199537578 0.0052309498751551553 0 0.0023825137452413762 0.0052383431317568514 0 0.0025304679954349291 0.0052423195037255973 0 0.0024116447058875 0.0052416196048696816 0 0.0026012725789073651 0.0052587321420223812 0 0.0026654248672710076 0.005190643900433725 0 0.0025495149699190436 0.0051342936146560221 0 0.0026012725789073651 0.0052587321420223812 0 0.0027775373984141611 0.0052503806740202908 0 0.0026654248672710076 0.005190643900433725 0 0.0024990649199537578 0.0052309498751551553 0 0.0026416062707290372 0.0052353525992387189 0 0.0026438998770884361 0.0052231648580373276 0 0.0025138443904046811 0.0053010947066910999 0 0.0024990649199537578 0.0052309498751551553 0 0.0026416062707290372 0.0052353525992387189 0 0.0027921431587252959 0.0052459694229337675 0 0.0028171156720053167 0.0052450970957614758 0 0.0028326376332075917 0.0050000092241010785 0 0.0025304679954349291 0.0052423195037255973 0 0.0028065310515421223 0.0051520483643306796 0 0.0028224193515229965 0.005100043047058289 0 0.0028065310515421223 0.0051520483643306796 0 0.0028065310515421223 0.0051520483643306796 0 0.0029323237380616254 0.0050855644700779461 0 0.0028025590629156224 0.0051369145044751416 0 0.002808058792025123 0.005106981252810794 0 0.0028642897681780367 0.0051048924949071992 0 0.0028224193515229965 0.005100043047058289 0 0.0029323237380616254 0.0050855644700779461 0 0.0027775373984141611 0.0052503806740202908 0 0.0026654248672710076 0.005190643900433725 0 0.0026885706898091173 0.0051011596912892464 0 0.0028065310515421223 0.0051520483643306796 0 0.0028326069468007343 0.0050001944584129095 0 0.0027775373984141611 0.0052503806740202908 0 0.0026885706898091173 0.0051011596912892464 0 0.0028326425394151456 0.0049999933128158786 0 0.0026885706898091173 0.0051011596912892464 0 0.0025552595235615108 0.0049999733799319084 0 0.0028326425394151456 0.0049999933128158786 0 0.0025552595235615108 0.0049999733799319084 0 0.0025495149699190436 0.0051342936146560221 0 0.0024073954451108146 0.0050927356492219888 0 0.0026885706898091173 0.0051011596912892464 0 0.0025552595235615108 0.0049999733799319084 0 0.0025495149699190436 0.0051342936146560221 0 0.0026654248672710076 0.005190643900433725 0 0.0026885706898091173 0.0051011596912892464 0 0.0025495149699190436 0.0051342936146560221 0 0.0030249314975124924 0.0051188647699560988 0 0.0031742258199730731 0.0050655963641136909 0 0.0030619165959240692 0.0051213809682015606 0 0.0031944851918427782 0.0050478180051014461 0 0.0031811234598763693 0.0050980648796533886 0 0.0030531147151307537 0.0050619437204721942 0 0.0029626895632455519 0.0051870228026236927 0 0.0031944851918427782 0.0050478180051014461 0 0.0030531147151307537 0.0050619437204721942 0 0.002924345788306762 0.0050281010394204254 0 0.0031314947147460682 0.0049999442609954467 0 0.0030531147151307537 0.0050619437204721942 0 0.002924345788306762 0.0050281010394204254 0 0.0029626895632455519 0.0051870228026236927 0 0.0030531147151307537 0.0050619437204721942 0 0.0031944851918427782 0.0050478180051014461 0 0.0031314947147460682 0.0049999442609954467 0 0.002924345788306762 0.0050281010394204254 0 0.0028326376332075917 0.0050000092241010785 0 0.0031314947147460682 0.0049999442609954467 0 0.0028171156720053167 0.0052450970957614758 0 0.002924345788306762 0.0050281010394204254 0 0.0028326376332075917 0.0050000092241010785 0 0.0028171156720053167 0.0052450970957614758 0 0.002924345788306762 0.0050281010394204254 0 0.0029648749082088178 0.005168102964002926 0 0.0029384737288210556 0.0050590546014848067 0 0.0030249314975124924 0.0051188647699560988 0 0.0029323237380616254 0.0050855644700779461 0 0.0031747420796973879 0.0049433833013689497 0 0.0031810479558085861 0.0047883481055322526 0 0.0032793807956704173 0.0047839733945548926 0 0.0032209769766251557 0.0048525036406103584 0 0.0029581993705411762 0.0050612346129939884 0 0.0030796876084952986 0.0049980711393135422 0 0.0030965227215717377 0.0050558122965021785 0 0.0029323237380616254 0.0050855644700779461 0 0.0030249314975124924 0.0051188647699560988 0 0.0031648144620610298 0.0047968274238276163 0 0.0031810479558085861 0.0047883481055322526 0 0.0032209769766251557 0.0048525036406103584 0 0.0030619165959240692 0.0051213809682015606 0 0.0031186746070376004 0.005135480814804679 0 0.0031811234598763693 0.0050980648796533886 0 0.0030729708232225153 0.0051740463300222464 0 0.0031573296318133694 0.0051496367429270471 0 0.0032468629051209128 0.0051755422921066652 0 0.0033317320155694433 0.0048281894727701009 0 0.0033827906357037129 0.0048623892637261823 0 0.003431514770373032 0.0048242633435220022 0 0.0031747420796973879 0.0049433833013689497 0 0.0035417533286983488 0.0049789668921761589 0 0.0030729708232225153 0.0051740463300222464 0 0.0031186746070376004 0.005135480814804679 0 0.0031573296318133694 0.0051496367429270471 0 0.0030619165959240692 0.0051213809682015606 0 0.0030729708232225153 0.0051740463300222464 0 0.0031186746070376004 0.005135480814804679 0 0.0030249314975124924 0.0051188647699560988 0 0.0031747420796973879 0.0049433833013689497 0 0.0031186746070376004 0.005135480814804679 0 0.0031573296318133694 0.0051496367429270471 0 0.0031811234598763693 0.0050980648796533886 0 0.0033317320155694433 0.0048281894727701009 0 0.0033827906357037129 0.0048623892637261823 0 0.0033560075637647908 0.0049127318396042906 0 0.0031747420796973879 0.0049433833013689497 0 0.0033380930972397634 0.0048815860083426142 0 0.0033827906357037129 0.0048623892637261823 0 0.0033560075637647908 0.0049127318396042906 0 0.003401757546167763 0.0048880382396009874 0 0.0032793807956704173 0.0047839733945548926 0 0.0033142177750591483 0.0048908526218344574 0 0.0032209769766251557 0.0048525036406103584 0 0.0033142177750591483 0.0048908526218344574 0 0.0032209769766251557 0.0048525036406103584 0 0.0032455527682915771 0.004938991340824669 0 0.0031402938179007182 0.004921598744660396 0 0.0032209769766251557 0.0048525036406103584 0 0.0032455527682915771 0.004938991340824669 0 0.0031402938179007182 0.004921598744660396 0 0.0032455527682915771 0.004938991340824669 0 0.0031832236190404727 0.0049889706636508839 0 0.0032620356520394588 0.005017055634405825 0 0.0032455527682915771 0.004938991340824669 0 0.0031832236190404727 0.0049889706636508839 0 0.003352318223842746 0.0049979967508431188 0 0.0033142177750591483 0.0048908526218344574 0 0.0032455527682915771 0.004938991340824669 0 0.003352318223842746 0.0049979967508431188 0 0.0032620356520394588 0.005017055634405825 0 0.0032455527682915771 0.004938991340824669 0 0.0033779474732303651 0.0050031408895485291 0 0.0033560075637647908 0.0049127318396042906 0 0.0034364320021795596 0.0049530163106114855 0 0.0033666462910399652 0.005007399675714958 0 0.0033380930972397634 0.0048815860083426142 0 0.0040964702887701307 0.0046711472533508486 0 0.0040904886265523592 0.0046451131380488564 0 0.0041320982369609282 0.0046077822193170389 0 0.0040964702887701307 0.0046711472533508486 0 0.0041320982369609282 0.0046077822193170389 0 0.004138095609137026 0.0046327955637866453 0 0.0041792325951621042 0.0046629908886927692 0 0.0040964702887701307 0.0046711472533508486 0 0.004138095609137026 0.0046327955637866453 0 0.0041792325951621042 0.0046629908886927692 0 0.0040964702887701307 0.0046711472533508486 0 0.0040469308873226544 0.0048047358565760255 0 0.0040964702887701307 0.0046711472533508486 0 0.0039961230921324812 0.0047594708081960318 0 0.0040904886265523592 0.0046451131380488564 0 0.0040964702887701307 0.0046711472533508486 0 0.0040469308873226544 0.0048047358565760255 0 0.0039961230921324812 0.0047594708081960318 0 0.0040469308873226544 0.0048047358565760255 0 0.0037628389379501452 0.0050437273282440912 0 0.0039961230921324812 0.0047594708081960318 0 0.0033560075637647908 0.0049127318396042906 0 0.0034364320021795596 0.0049530163106114855 0 0.003401757546167763 0.0048880382396009874 0 0.0038337963828603029 0.0048239346002493331 0 0.0035417533286983488 0.0049789668921761589 0 0.0041792325951621042 0.0046629908886927692 0 0.0040469308873226544 0.0048047358565760255 0 0.0041884983032698178 0.0050293070042759219 0 0.0034364320021795596 0.0049530163106114855 0 0.003401757546167763 0.0048880382396009874 0 0.003431514770373032 0.0048242633435220022 0 0.0033827906357037129 0.0048623892637261823 0 0.003401757546167763 0.0048880382396009874 0 0.003431514770373032 0.0048242633435220022 0 0.0031573296318133694 0.0051496367429270471 0 0.0032088910697774457 0.0051380359867473973 0 0.0032468629051209128 0.0051755422921066652 0 0.0032088910697774457 0.0051380359867473973 0 0.0032533385430822824 0.0051241991679597341 0 0.0032468629051209128 0.0051755422921066652 0 0.0032088910697774457 0.0051380359867473973 0 0.0032533385430822824 0.0051241991679597341 0 0.0031811234598763693 0.0050980648796533886 0 0.0031573296318133694 0.0051496367429270471 0 0.0032088910697774457 0.0051380359867473973 0 0.0031811234598763693 0.0050980648796533886 0 0.0032533385430822824 0.0051241991679597341 0 0.0034222741813676534 0.0050795102480842664 0 0.0032794951842030017 0.00506823984918163 0 0.0032533385430822824 0.0051241991679597341 0 0.003246167030350583 0.0052591042082621754 0 0.0034222741813676534 0.0050795102480842664 0 0.0034528254899223567 0.0051115973362778127 0 0.0035417533286983488 0.0049789668921761589 0 0.0035417533286983488 0.0049789668921761589 0 0.0038104173432821154 0.0050885117596044154 0 0.003246167030350583 0.0052591042082621754 0 0.0037628389379501452 0.0050437273282440912 0 0.0034222741813676534 0.0050795102480842664 0 0.0040469308873226544 0.0048047358565760255 0 0.0041884983032698178 0.0050293070042759219 0 0.0037628389379501452 0.0050437273282440912 0 0.0037628389379501452 0.0050437273282440912 0 0.0034222741813676534 0.0050795102480842664 0 0.0033701678469769177 0.0050197074705004875 0 0.0037628389379501452 0.0050437273282440912 0 0.0034306700310834477 0.0049998723960532516 0 0.0033701678469769177 0.0050197074705004875 0 0.0034306700310834477 0.0049998723960532516 0 0.0033701678469769177 0.0050197074705004875 0 0.0031314947147460682 0.0049999442609954467 0 0.0033701678469769177 0.0050197074705004875 0 0.0031944851918427782 0.0050478180051014461 0 0.0031314947147460682 0.0049999442609954467 0 0.0032533385430822824 0.0051241991679597341 0 0.0031811234598763693 0.0050980648796533886 0 0.0032794951842030017 0.00506823984918163 0 0.0031944851918427782 0.0050478180051014461 0 0.0031811234598763693 0.0050980648796533886 0 0.0032794951842030017 0.00506823984918163 0 0.0034222741813676534 0.0050795102480842664 0 0.0033701678469769177 0.0050197074705004875 0 0.0032794951842030017 0.00506823984918163 0 0.0033701678469769177 0.0050197074705004875 0 0.0031944851918427782 0.0050478180051014461 0 0.0032794951842030017 0.00506823984918163 0 0.003729322697205357 0.0049997554486735235 0 0.0037054206871843637 0.0049998988673624015 0 0.0038978878194295533 0.0049224995006929761 0 0.0037628389379501452 0.0050437273282440912 0 0.0034306700310834477 0.0049998723960532516 0 0.0037054206871843637 0.0049998988673624015 0 0.0034306700310834477 0.0049998723960532516 0 0.003729322697205357 0.0049997554486735235 0 0.0037054206871843637 0.0049998988673624015 0 0.0037628389379501452 0.0050437273282440912 0 0.0038932143982036639 0.0048965663875041882 0 0.0039346860099925031 0.0048392683110990622 0 0.0037628389379501452 0.0050437273282440912 0 0.0037054206871843637 0.0049998988673624015 0 0.0038932143982036639 0.0048965663875041882 0 0.0037054206871843637 0.0049998988673624015 0 0.0038932143982036639 0.0048965663875041882 0 0.0038978878194295533 0.0049224995006929761 0 0.0038932143982036639 0.0048965663875041882 0 0.0040502787714525035 0.0047192972349245086 0 0.0040003878977870498 0.004827398927553868 0 0.0038932143982036639 0.0048965663875041882 0 0.0039346860099925031 0.0048392683110990622 0 0.0040502787714525035 0.0047192972349245086 0 0.0037628389379501452 0.0050437273282440912 0 0.0039346860099925031 0.0048392683110990622 0 0.0039961230921324812 0.0047594708081960318 0 0.0039346860099925031 0.0048392683110990622 0 0.0039961230921324812 0.0047594708081960318 0 0.0040502787714525035 0.0047192972349245086 0 0.0040904886265523592 0.0046451131380488564 0 0.0040502787714525035 0.0047192972349245086 0 0.0041451033756896207 0.004596997419622338 0 0.0039961230921324812 0.0047594708081960318 0 0.0040904886265523592 0.0046451131380488564 0 0.0040502787714525035 0.0047192972349245086 0 0.0040502787714525035 0.0047192972349245086 0 0.0041872815073360995 0.0045880128865381361 0 0.0041451033756896207 0.004596997419622338 0 0.0041872815073360995 0.0045880128865381361 0 0.0042240426439703231 0.0045303575525072314 0 0.004321655267457679 0.0045041764426413519 0 0.0041872815073360995 0.0045880128865381361 0 0.0042240426439703231 0.0045303575525072314 0 0.0041451033756896207 0.004596997419622338 0 0.0042240426439703231 0.0045303575525072314 0 0.0043686546530330309 0.0044830925002397257 0 0.004321655267457679 0.0045041764426413519 0 0.0042240426439703231 0.0045303575525072314 0 0.0041487796191529615 0.004576839522448313 0 0.0041637893040377787 0.0045732792323746945 0 0.0042240426439703231 0.0045303575525072314 0 0.0041637893040377787 0.0045732792323746945 0 0.004206647763765249 0.0045771150630403669 0 0.0042240426439703231 0.0045303575525072314 0 0.0041487796191529615 0.004576839522448313 0 0.0041451033756896207 0.004596997419622338 0 0.0040904886265523592 0.0046451131380488564 0 0.0041487796191529615 0.004576839522448313 0 0.0041451033756896207 0.004596997419622338 0 0.0040904886265523592 0.0046451131380488564 0 0.0041487796191529615 0.004576839522448313 0 0.0041320982369609282 0.0046077822193170389 0 0.0041320982369609282 0.0046077822193170389 0 0.004138095609137026 0.0046327955637866453 0 0.0041488593600180019 0.0046017027174185526 0 0.0041320982369609282 0.0046077822193170389 0 0.0041488593600180019 0.0046017027174185526 0 0.0041479859062978066 0.0045806052659608468 0 0.0041488593600180019 0.0046017027174185526 0 0.0041520162050122326 0.0045795744258340576 0 0.0041479859062978066 0.0045806052659608468 0 0.0041487796191529615 0.004576839522448313 0 0.0041320982369609282 0.0046077822193170389 0 0.0041479859062978066 0.0045806052659608468 0 0.0038337963828603029 0.0048239346002493331 0 0.0038970271030982395 0.0047308046611279119 0 0.0033779474732303651 0.0050031408895485291 0 0.0034173390196140557 0.0050512951081600156 0 0.0033966165241774678 0.0051047768149802657 0 0.0034364320021795596 0.0049530163106114855 0 0.0034173390196140557 0.0050512951081600156 0 0.0034348907152499069 0.0050969020142844464 0 0.0041792325951621042 0.0046629908886927692 0 0.0041488593600180019 0.0046017027174185526 0 0.0041573773301214183 0.0045734471525761709 0 0.0041792325951621042 0.0046629908886927692 0 0.004138095609137026 0.0046327955637866453 0 0.0041488593600180019 0.0046017027174185526 0 0.0033666462910399652 0.005007399675714958 0 0.0033936195026562908 0.0050956040034747258 0 0.0033779474732303651 0.0050031408895485291 0 0.0034364320021795596 0.0049530163106114855 0 0.0034173390196140557 0.0050512951081600156 0 0.0043250856264448788 0.0042826754715265094 0 0.0042106355849656244 0.0043526553740457453 0 0.0042585294556745524 0.0042983577931385158 0 0.0033141449000636679 0.0051625886982945889 0 0.0033966165241774678 0.0051047768149802657 0 0.0034348907152499069 0.0050969020142844464 0 0.0034173390196140557 0.0050512951081600156 0 0.0033966165241774678 0.0051047768149802657 0 0.0034348907152499069 0.0050969020142844464 0 0.0041573773301214183 0.0045734471525761709 0 0.0041520162050122326 0.0045795744258340576 0 0.0041539853739020515 0.0045776659517040262 0 0.0041488593600180019 0.0046017027174185526 0 0.0041573773301214183 0.0045734471525761709 0 0.0041520162050122326 0.0045795744258340576 0 0.0041487796191529615 0.004576839522448313 0 0.0041479859062978066 0.0045806052659608468 0 0.0041637893040377787 0.0045732792323746945 0 0.0041520162050122326 0.0045795744258340576 0 0.0041479859062978066 0.0045806052659608468 0 0.0041539853739020515 0.0045776659517040262 0 0.0041573773301214183 0.0045734471525761709 0 0.0041539853739020515 0.0045776659517040262 0 0.0041539117470992476 0.0045855533508602732 0 0.0041539853739020515 0.0045776659517040262 0 0.0041637893040377787 0.0045732792323746945 0 0.0041539117470992476 0.0045855533508602732 0 0.0041479859062978066 0.0045806052659608468 0 0.0041539853739020515 0.0045776659517040262 0 0.0041637893040377787 0.0045732792323746945 0 0.0041539117470992476 0.0045855533508602732 0 0.0041462009423332835 0.0045993744657667514 0 0.0041743724102738583 0.0046084741761882684 0 0.0041637893040377787 0.0045732792323746945 0 0.0041539117470992476 0.0045855533508602732 0 0.0041743724102738583 0.0046084741761882684 0 0.0041573773301214183 0.0045734471525761709 0 0.0041539117470992476 0.0045855533508602732 0 0.0041462009423332835 0.0045993744657667514 0 0.0042106355849656244 0.0043526553740457453 0 0.0042585294556745524 0.0042983577931385158 0 0.0042055507447066025 0.0041718958513971898 0 0.0042844426232956732 0.0042132328745214647 0 0.0042585294556745524 0.0042983577931385158 0 0.0042055507447066025 0.0041718958513971898 0 0.0038970271030982395 0.0047308046611279119 0 0.0043861071666339924 0.0042327805263461518 0 0.0043861071666339924 0.0042327805263461518 0 0.0044855472518856836 0.0044576871184446518 0 0.0047764977555306782 0.004240546035413165 0 0.0048098678079301878 0.0042675026264297703 0 0.00476519594353345 0.0042789413952221663 0 0.0047764977555306782 0.004240546035413165 0 0.0047379691125395886 0.0042556951509772093 0 0.00476519594353345 0.0042789413952221663 0 0.0047379691125395886 0.0042556951509772093 0 0.0047330435527963809 0.0043029488316419376 0 0.00476519594353345 0.0042789413952221663 0 0.0046997604075893857 0.0042321796417491746 0 0.0047379691125395886 0.0042556951509772093 0 0.0046856678482117475 0.0042536783128079535 0 0.0047379691125395886 0.0042556951509772093 0 0.0047330435527963809 0.0043029488316419376 0 0.0046856678482117475 0.0042536783128079535 0 0.0042240426439703231 0.0045303575525072314 0 0.0042734844100170196 0.0045981843621320014 0 0.0043686546530330309 0.0044830925002397257 0 0.0042240426439703231 0.0045303575525072314 0 0.0042734844100170196 0.0045981843621320014 0 0.004206647763765249 0.0045771150630403669 0 0.0042734844100170196 0.0045981843621320014 0 0.004206647763765249 0.0045771150630403669 0 0.0041743724102738583 0.0046084741761882684 0 0.0041637893040377787 0.0045732792323746945 0 0.004206647763765249 0.0045771150630403669 0 0.0041743724102738583 0.0046084741761882684 0 0.0044959080081732414 0.0044431337221925299 0 0.0044855472518856836 0.0044576871184446518 0 0.0045612455947700165 0.0043948183112141395 0 0.0046671274608986726 0.0042179181360202144 0 0.0046033645709866317 0.0043024960969089074 0 0.0045612455947700165 0.0043948183112141395 0 0.0046033645709866317 0.0043024960969089074 0 0.0044901507014669636 0.0044142652264688408 0 0.0045612455947700165 0.0043948183112141395 0 0.0046882228633747846 0.0042178891249659073 0 0.0046671274608986726 0.0042179181360202144 0 0.0042734844100170196 0.0045981843621320014 0 0.0045612455947700165 0.0043948183112141395 0 0.0043686546530330309 0.0044830925002397257 0 0.0044959080081732414 0.0044431337221925299 0 0.004545547331000808 0.0044096982642185664 0 0.0047330435527963809 0.0043029488316419376 0 0.0045612455947700165 0.0043948183112141395 0 0.0046856678482117475 0.0042536783128079535 0 0.0045612455947700165 0.0043948183112141395 0 0.0044901507014669636 0.0044142652264688408 0 0.0043686546530330309 0.0044830925002397257 0 0.0047983423173444516 0.004093377704048092 0 0.0046919153119403404 0.0042100242476860398 0 0.0045612455947700165 0.0043948183112141395 0 0.0046856678482117475 0.0042536783128079535 0 0.0046882228633747846 0.0042178891249659073 0 0.0046997604075893857 0.0042321796417491746 0 0.0046856678482117475 0.0042536783128079535 0 0.0046882228633747846 0.0042178891249659073 0 0.0047859032777237019 0.0039787078985078286 0 0.0046882228633747846 0.0042178891249659073 0 0.0047303444423528488 0.0040908727573619073 0 0.0046882228633747846 0.0042178891249659073 0 0.0047303444423528488 0.0040908727573619073 0 0.0046671274608986726 0.0042179181360202144 0 0.0047303444423528488 0.0040908727573619073 0 0.0046671274608986726 0.0042179181360202144 0 0.0047708860916253239 0.0040604452539598403 0 0.0046671274608986726 0.0042179181360202144 0 0.0047708860916253239 0.0040604452539598403 0 0.0047267184948436847 0.0041975024912341476 0 0.0048826837174648641 0.003915100278206695 0 0.0047708860916253239 0.0040604452539598403 0 0.0048436469380427954 0.0040848673220206955 0 0.0047708860916253239 0.0040604452539598403 0 0.0047267184948436847 0.0041975024912341476 0 0.0048436469380427954 0.0040848673220206955 0 0.0047267184948436847 0.0041975024912341476 0 0.0046033645709866317 0.0043024960969089074 0 0.0046887713240978514 0.0042776323394266708 0 0.0046671274608986726 0.0042179181360202144 0 0.0047267184948436847 0.0041975024912341476 0 0.0046033645709866317 0.0043024960969089074 0 0.0046033645709866317 0.0043024960969089074 0 0.0044925326875313813 0.0043903486313773303 0 0.0046887713240978514 0.0042776323394266708 0 0.0046033645709866317 0.0043024960969089074 0 0.0044925326875313813 0.0043903486313773303 0 0.0044901507014669636 0.0044142652264688408 0 0.0047267184948436847 0.0041975024912341476 0 0.0046887713240978514 0.0042776323394266708 0 0.0048447529588009986 0.0041931677708246951 0 0.0046714811089753798 0.0043226377561221717 0 0.0046170474268516963 0.0044480943154248239 0 0.0046887713240978514 0.0042776323394266708 0 0.0043707002108044615 0.0044885940486878015 0 0.0042637630660166039 0.0045365970204652873 0 0.0044925326875313813 0.0043903486313773303 0 0.0046887713240978514 0.0042776323394266708 0 0.0043707002108044615 0.0044885940486878015 0 0.0044925326875313813 0.0043903486313773303 0 0.0043707002108044615 0.0044885940486878015 0 0.0043729750118746647 0.0044889739250235337 0 0.0043707002108044615 0.0044885940486878015 0 0.0043729750118746647 0.0044889739250235337 0 0.0042649081693982528 0.0045932487165282051 0 0.0043729750118746647 0.0044889739250235337 0 0.0042218409986502815 0.0045981927688072879 0 0.0042649081693982528 0.0045932487165282051 0 0.0044925326875313813 0.0043903486313773303 0 0.0043729750118746647 0.0044889739250235337 0 0.0044901507014669636 0.0044142652264688408 0 0.0043729750118746647 0.0044889739250235337 0 0.0044901507014669636 0.0044142652264688408 0 0.004321655267457679 0.0045041764426413519 0 0.0044901507014669636 0.0044142652264688408 0 0.0043686546530330309 0.0044830925002397257 0 0.004321655267457679 0.0045041764426413519 0 0.0041872815073360995 0.0045880128865381361 0 0.004321655267457679 0.0045041764426413519 0 0.0042218409986502815 0.0045981927688072879 0 0.0043729750118746647 0.0044889739250235337 0 0.004321655267457679 0.0045041764426413519 0 0.0042218409986502815 0.0045981927688072879 0 0.0040502787714525035 0.0047192972349245086 0 0.0041872815073360995 0.0045880128865381361 0 0.0042218409986502815 0.0045981927688072879 0 0.0040502787714525035 0.0047192972349245086 0 0.0042218409986502815 0.0045981927688072879 0 0.0041289822716067673 0.0047186082661771879 0 0.0042218409986502815 0.0045981927688072879 0 0.0042649081693982528 0.0045932487165282051 0 0.0041289822716067673 0.0047186082661771879 0 0.0042649081693982528 0.0045932487165282051 0 0.0041289822716067673 0.0047186082661771879 0 0.0042100139316036105 0.0046765022279444089 0 0.0041289822716067673 0.0047186082661771879 0 0.0040280681968998316 0.0048338636292837751 0 0.0041121223637292821 0.0047691261479262661 0 0.0041289822716067673 0.0047186082661771879 0 0.0041121223637292821 0.0047691261479262661 0 0.0042100139316036105 0.0046765022279444089 0 0.0040502787714525035 0.0047192972349245086 0 0.0041289822716067673 0.0047186082661771879 0 0.0040003878977870498 0.004827398927553868 0 0.0041289822716067673 0.0047186082661771879 0 0.0040003878977870498 0.004827398927553868 0 0.0040280681968998316 0.0048338636292837751 0 0.0038932143982036639 0.0048965663875041882 0 0.0040003878977870498 0.004827398927553868 0 0.0038978878194295533 0.0049224995006929761 0 0.0040280681968998316 0.0048338636292837751 0 0.003975916473664646 0.0048832983206785682 0 0.0038978878194295533 0.0049224995006929761 0 0.0040003878977870498 0.004827398927553868 0 0.0040280681968998316 0.0048338636292837751 0 0.0038978878194295533 0.0049224995006929761 0 0.0040280681968998316 0.0048338636292837751 0 0.0041121223637292821 0.0047691261479262661 0 0.0040576556622699735 0.0048318370066332775 0 0.0040280681968998316 0.0048338636292837751 0 0.0040576556622699735 0.0048318370066332775 0 0.003975916473664646 0.0048832983206785682 0 0.003975916473664646 0.0048832983206785682 0 0.0038709361228555198 0.0049890935171755316 0 0.004066882996705698 0.0048115003948862832 0 0.0040278181712624416 0.0049999488707549583 0 0.0038709361228555198 0.0049890935171755316 0 0.004094659047293568 0.0050573112121498594 0 0.0039269190253997163 0.0049743681226730157 0 0.0040223536526663665 0.0049513829422994345 0 0.0040576556622699735 0.0048318370066332775 0 0.003975916473664646 0.0048832983206785682 0 0.004066882996705698 0.0048115003948862832 0 0.003729322697205357 0.0049997554486735235 0 0.0040278181712624416 0.0049999488707549583 0 0.0038709361228555198 0.0049890935171755316 0 0.003729322697205357 0.0049997554486735235 0 0.0038709361228555198 0.0049890935171755316 0 0.0038978878194295533 0.0049224995006929761 0 0.003975916473664646 0.0048832983206785682 0 0.0038709361228555198 0.0049890935171755316 0 0.0038978878194295533 0.0049224995006929761 0 0.0043250835509441189 0.0050979422171741453 0 0.0043266867297253606 0.0050000245338878233 0 0.004094659047293568 0.0050573112121498594 0 0.0044922422729833083 0.0048168331853351998 0 0.0043267746145158117 0.005000088386041465 0 0.0040278181712624416 0.0049999488707549583 0 0.0043266867297253606 0.0050000245338878233 0 0.004094659047293568 0.0050573112121498594 0 0.0040955598966887384 0.0048033742520609216 0 0.004066882996705698 0.0048115003948862832 0 0.0041068605886264856 0.0047954410596314579 0 0.0040576556622699735 0.0048318370066332775 0 0.004066882996705698 0.0048115003948862832 0 0.0041068605886264856 0.0047954410596314579 0 0.0044922422729833083 0.0048168331853351998 0 0.0040223536526663665 0.0049513829422994345 0 0.0041121223637292821 0.0047691261479262661 0 0.0040576556622699735 0.0048318370066332775 0 0.0041068605886264856 0.0047954410596314579 0 0.0040955598966887384 0.0048033742520609216 0 0.0041068605886264856 0.0047954410596314579 0 0.0041131116272428749 0.0047345051424672576 0 0.005080460823304973 0.004633771784980382 0 0.0050748568511946226 0.0044865786635217382 0 0.0050209704219239364 0.0045611237647292082 0 0.0044922422729833083 0.0048168331853351998 0 0.0046039781033407213 0.004591844948440311 0 0.0046039781033407213 0.004591844948440311 0 0.0046170474268516963 0.0044480943154248239 0 0.0041131116272428749 0.0047345051424672576 0 0.0042100139316036105 0.0046765022279444089 0 0.0042637630660166039 0.0045365970204652873 0 0.0050748568511946226 0.0044865786635217382 0 0.004957706574886373 0.0042983126867675928 0 0.0049985161013647132 0.00444941798791535 0 0.0041068605886264856 0.0047954410596314579 0 0.0041131116272428749 0.0047345051424672576 0 0.0042100139316036105 0.0046765022279444089 0 0.0041121223637292821 0.0047691261479262661 0 0.0041068605886264856 0.0047954410596314579 0 0.0042100139316036105 0.0046765022279444089 0 0.0043707002108044615 0.0044885940486878015 0 0.0042100139316036105 0.0046765022279444089 0 0.0042637630660166039 0.0045365970204652873 0 0.0043707002108044615 0.0044885940486878015 0 0.0042649081693982528 0.0045932487165282051 0 0.0042100139316036105 0.0046765022279444089 0 0.0043269603472283688 0.0049999767985781382 0 0.0046460537696775637 0.0050575625065941016 0 0.0050000264046567095 0.0049995872490541512 0 0.004957706574886373 0.0042983126867675928 0 0.0049747657653252961 0.0043537158673253844 0 0.0049985161013647132 0.00444941798791535 0 0.0049747657653252961 0.0043537158673253844 0 0.0049750434079698256 0.0044720721724467258 0 0.0049988166859019165 0.0044509471340437659 0 0.0049747657653252961 0.0043537158673253844 0 0.0049750434079698256 0.0044720721724467258 0 0.0049985161013647132 0.00444941798791535 0 0.0049750434079698256 0.0044720721724467258 0 0.0049985161013647132 0.00444941798791535 0 0.0049797448020233405 0.0045791190348604969 0 0.0050748568511946226 0.0044865786635217382 0 0.0049985161013647132 0.00444941798791535 0 0.0050209704219239364 0.0045611237647292082 0 0.005080460823304973 0.004633771784980382 0 0.0050209704219239364 0.0045611237647292082 0 0.0049689422692110394 0.0046322985595399525 0 0.0049985161013647132 0.00444941798791535 0 0.0050209704219239364 0.0045611237647292082 0 0.0049797448020233405 0.0045791190348604969 0 0.004998170976334918 0.0046034473509196554 0 0.0049687911046092008 0.0046489641468269484 0 0.0049797448020233405 0.0045791190348604969 0 0.0049689422692110394 0.0046322985595399525 0 0.0049622488726600404 0.0047950105995575934 0 0.0049750434079698256 0.0044720721724467258 0 0.0049797448020233405 0.0045791190348604969 0 0.0049784089027091402 0.0045251961657732645 0 0.0050209704219239364 0.0045611237647292082 0 0.0049797448020233405 0.0045791190348604969 0 0.0049689422692110394 0.0046322985595399525 0 0.0044922422729833083 0.0048168331853351998 0 0.0048467207333865439 0.0048566776599979038 0 0.0043338500149251481 0.0050837330028697296 0 0.0043269603472283688 0.0049999767985781382 0 0.0046460537696775637 0.0050575625065941016 0 0.0046460537696775637 0.0050575625065941016 0 0.0050000264046567095 0.0049995872490541512 0 0.0049398672041098823 0.0048823706132503988 0 0.0050000264046567095 0.0049995872490541512 0 0.0049398672041098823 0.0048823706132503988 0 0.004999638108856441 0.0046688570859794486 0 0.0049689422692110394 0.0046322985595399525 0 0.0049622488726600404 0.0047950105995575934 0 0.0049398672041098823 0.0048823706132503988 0 0.0048467207333865439 0.0048566776599979038 0 0.004886187014821795 0.0048690843158707593 0 0.0049687911046092008 0.0046489641468269484 0 0.0049999309503551501 0.0046681859524580647 0 0.0049622488726600404 0.0047950105995575934 0 0.0049398672041098823 0.0048823706132503988 0 0.004999638108856441 0.0046688570859794486 0 0.0049784089027091402 0.0045251961657732645 0 0.0049998969443494738 0.0046677507424122463 0 0.0049988166859019165 0.0044509471340437659 0 0.0049750434079698256 0.0044720721724467258 0 0.0049784089027091402 0.0045251961657732645 0 0.0049988166859019165 0.0044509471340437659 0 0.0049747657653252961 0.0043537158673253844 0 0.0049988166859019165 0.0044509471340437659 0 0.0049971519088551509 0.004234581956501819 0 0.0049998969443494738 0.0046677507424122463 0 0.0049988166859019165 0.0044509471340437659 0 0.0049998746377226269 0.0043971518412513101 0 0.0049988166859019165 0.0044509471340437659 0 0.0049998746377226269 0.0043971518412513101 0 0.0049971519088551509 0.004234581956501819 0 0.0049998746377226269 0.0043971518412513101 0 0.0049998772232521943 0.0041260584387013653 0 0.0049971519088551509 0.004234581956501819 0 0.0049998772232521943 0.0041260584387013653 0 0.0049971519088551509 0.004234581956501819 0 0.0049959878800354181 0.0040429272973563826 0 0.0049971519088551509 0.004234581956501819 0 0.0049472265536847524 0.0040979932057271969 0 0.0049959878800354181 0.0040429272973563826 0 0.0049747657653252961 0.0043537158673253844 0 0.0049971519088551509 0.004234581956501819 0 0.0049326547360597373 0.004229811505905289 0 0.004957706574886373 0.0042983126867675928 0 0.0049747657653252961 0.0043537158673253844 0 0.0049326547360597373 0.004229811505905289 0 0.0046887713240978514 0.0042776323394266708 0 0.004957706574886373 0.0042983126867675928 0 0.0049326547360597373 0.004229811505905289 0 0.0046887713240978514 0.0042776323394266708 0 0.0049326547360597373 0.004229811505905289 0 0.0048447529588009986 0.0041931677708246951 0 0.0049971519088551509 0.004234581956501819 0 0.0049326547360597373 0.004229811505905289 0 0.0049472265536847524 0.0040979932057271969 0 0.0049326547360597373 0.004229811505905289 0 0.0048447529588009986 0.0041931677708246951 0 0.0049472265536847524 0.0040979932057271969 0 0.0048447529588009986 0.0041931677708246951 0 0.0049472265536847524 0.0040979932057271969 0 0.0048436469380427954 0.0040848673220206955 0 0.0047267184948436847 0.0041975024912341476 0 0.0048447529588009986 0.0041931677708246951 0 0.0048436469380427954 0.0040848673220206955 0 0.0048826837174648641 0.003915100278206695 0 0.0048436469380427954 0.0040848673220206955 0 0.0049391799929020498 0.0039223967710015255 0 0.0049472265536847524 0.0040979932057271969 0 0.0049391799929020498 0.0039223967710015255 0 0.0049919168542185473 0.003878437767830862 0 0.0049472265536847524 0.0040979932057271969 0 0.0048436469380427954 0.0040848673220206955 0 0.0049391799929020498 0.0039223967710015255 0 0.0049919168542185473 0.003878437767830862 0 0.0049998620809241535 0.0038550741984572493 0 0.0049959878800354181 0.0040429272973563826 0 0.0049998772232521943 0.0041260584387013653 0 0.0049998620809241535 0.0038550741984572493 0 0.0049959878800354181 0.0040429272973563826 0 0.0049472265536847524 0.0040979932057271969 0 0.0049919168542185473 0.003878437767830862 0 0.0049959878800354181 0.0040429272973563826 0 0.0013269716126755066 0.005470254378789504 0 0.0011718686031995406 0.0056050573034485398 0 0.0010453242711798158 0.0056885287924247118 0 0.0010419779364159831 0.0057103612787871988 0 0.0010367481577445452 0.0057125460143377131 0 0.0015907395709126048 0.0052748998850418337 0 0.0013222466773511383 0.0051388127134374979 0 0.0013089773706580284 0.0054967649786840352 0 0.0015907395709126048 0.0052748998850418337 0 0.0013222466773511383 0.0051388127134374979 0 0.0016653586372251297 0.0048981406552215806 0 0.0013222466773511383 0.0051388127134374979 0 0.0010332366817949843 0.0052042829942651582 0 0.0011377388735272765 0.0054194614065424728 0 0.0013222466773511383 0.0051388127134374979 0 0.0010332366817949843 0.0052042829942651582 0 0.0011007671500789789 0.0048522898341659057 0 0.0019095209361393241 0.0053853767889853977 0 0.0017845273304445883 0.0054486248719228369 0 0.0017713320925797302 0.0053727645420328174 0 0.0019095209361393241 0.0053853767889853977 0 0.0017912850498492277 0.0052892086229786358 0 0.0017713320925797302 0.0053727645420328174 0 0.0017845273304445883 0.0054486248719228369 0 0.0018510371198333154 0.0055958386333338399 0 0.0017465982740695056 0.0055790287535531901 0 0.0010332366817949843 0.0052042829942651582 0 0.0011377388735272765 0.0054194614065424728 0 0.00099682565983315579 0.0055551578077769961 0 0.0014732797757939199 0.0052909072560584801 0 0.0014200656706785959 0.0055870653995618519 0 0.0019095209361393241 0.0053853767889853977 0 0.0017845273304445883 0.0054486248719228369 0 0.0018510371198333154 0.0055958386333338399 0 0.0013222466773511383 0.0051388127134374979 0 0.0011377388735272765 0.0054194614065424728 0 0.0013089773706580284 0.0054967649786840352 0 0.0010633915148094775 0.0056851540409106694 0 0.0010519572751899319 0.0057155370736978565 0 0.0010419779364159831 0.0057103612787871988 0 0.0011377388735272765 0.0054194614065424728 0 0.0010633915148094775 0.0056851540409106694 0 0.0013089773706580284 0.0054967649786840352 0 0.001069847881611592 0.0056806773940070365 0 0.0011718686031995406 0.0056050573034485398 0 0.00099682565983315579 0.0055551578077769961 0 0.0010633915148094775 0.0056851540409106694 0 0.0010512800523661489 0.0057406073885813988 0 0.0014200656706785959 0.0055870653995618519 0 0.0014802871590343827 0.0056779416766521559 0 0.0011377388735272765 0.0054194614065424728 0 0.00099682565983315579 0.0055551578077769961 0 0.0010633915148094775 0.0056851540409106694 0 0.0018510371198333154 0.0055958386333338399 0 0.0017978734711717379 0.0057868498734725046 0 0.0017465982740695056 0.0055790287535531901 0 0.0010633915148094775 0.0056851540409106694 0 0.0010713912049229411 0.0057189342614386704 0 0.0010512800523661489 0.0057406073885813988 0 0.0010713912049229411 0.0057189342614386704 0 0.0010512800523661489 0.0057406073885813988 0 0.0010859288630491227 0.0057221208218525259 0 0.0014802871590343827 0.0056779416766521559 0 0.0014866977981652207 0.0056237233546246827 0 0.0014904223712716835 0.0055784916177322305 0 0.0014943466228308174 0.0055762613707171808 0 0.001463099684428338 0.0055838135537381985 0 0.0010519572751899319 0.0057155370736978565 0 0.001069093938489879 0.0057243829132289986 0 0.0010249308818371734 0.0057468156644180134 0 0.0010633915148094775 0.0056851540409106694 0 0.0010713912049229411 0.0057189342614386704 0 0.0010519572751899319 0.0057155370736978565 0 0.0010713912049229411 0.0057189342614386704 0 0.0010519572751899319 0.0057155370736978565 0 0.001069093938489879 0.0057243829132289986 0 0.0010713912049229411 0.0057189342614386704 0 0.001069093938489879 0.0057243829132289986 0 0.0010859288630491227 0.0057221208218525259 0 0.0010519572751899319 0.0057155370736978565 0 0.0010249308818371734 0.0057468156644180134 0 0.0010367481577445452 0.0057125460143377131 0 0.0010519572751899319 0.0057155370736978565 0 0.0010419779364159831 0.0057103612787871988 0 0.0010367481577445452 0.0057125460143377131 0 0.0010453242711798158 0.0056885287924247118 0 0.0010367481577445452 0.0057125460143377131 0 0.0010363027027519495 0.005700323625259086 0 0.0010249308818371734 0.0057468156644180134 0 0.0010367481577445452 0.0057125460143377131 0 0.0010383363324663404 0.0057254081391151339 0 0.0010367481577445452 0.0057125460143377131 0 0.0010363027027519495 0.005700323625259086 0 0.0010383363324663404 0.0057254081391151339 0 0.0010425068247995114 0.0057132324339178265 0 0.0010363027027519495 0.005700323625259086 0 0.0010383363324663404 0.0057254081391151339 0 0.0010425068247995114 0.0057132324339178265 0 0.0010498851943518072 0.0057073295195314263 0 0.0010363027027519495 0.005700323625259086 0 0.0010425068247995114 0.0057132324339178265 0 0.0010498851943518072 0.0057073295195314263 0 0.0010430821154457158 0.0057172717411845576 0 0.0010498851943518072 0.0057073295195314263 0 0.0010363027027519495 0.005700323625259086 0 0.0010290710451615495 0.0056679808738012635 0 0.00096741710691642443 0.00548442367704274 0 0.00092378443796849695 0.005601869693624968 0 0.0010290710451615495 0.0056679808738012635 0 0.001066015106165371 0.0055753000073569849 0 0.0010122510865354681 0.0056692993055445029 0 0.0008544395597822592 0.0054314879520589322 0 0.00083015348719594334 0.0053577561116708089 0 0.0007287339598447838 0.005436269686186491 0 0.0008544395597822592 0.0054314879520589322 0 0.00085085948855202341 0.0055375550411611765 0 0.0007287339598447838 0.005436269686186491 0 0.001066015106165371 0.0055753000073569849 0 0.00057862435148448997 0.0056657791738581138 0 0.00096741710691642443 0.00548442367704274 0 0.0008544395597822592 0.0054314879520589322 0 0.00085085948855202341 0.0055375550411611765 0 0.00096741710691642443 0.00548442367704274 0 0.0008544395597822592 0.0054314879520589322 0 0.00089201621155253963 0.0053138281530379205 0 0.00096741710691642443 0.00548442367704274 0 0.00085085948855202341 0.0055375550411611765 0 0.00092378443796849695 0.005601869693624968 0 0.00085085948855202341 0.0055375550411611765 0 0.0007287339598447838 0.005436269686186491 0 0.00077619409751911075 0.0055943737637409079 0 0.00085713292741676494 0.005651878095075601 0 0.00081836117734835983 0.0057225123755312779 0 0.00077619409751911075 0.0055943737637409079 0 0.00085085948855202341 0.0055375550411611765 0 0.00085713292741676494 0.005651878095075601 0 0.00077619409751911075 0.0055943737637409079 0 0.00085713292741676494 0.005651878095075601 0 0.00092378443796849695 0.005601869693624968 0 0.00095015015390928861 0.0056988733374942471 0 0.00085085948855202341 0.0055375550411611765 0 0.00085713292741676494 0.005651878095075601 0 0.00092378443796849695 0.005601869693624968 0 0.00085713292741676494 0.005651878095075601 0 0.00095015015390928861 0.0056988733374942471 0 0.00087772508633619675 0.0057239224544573565 0 0.00085713292741676494 0.005651878095075601 0 0.00087772508633619675 0.0057239224544573565 0 0.00081836117734835983 0.0057225123755312779 0 8.8345131072200384e-05 0.0049481955068603409 0 -0.00036358434539710222 0.0044779632184564298 0 8.8345131072200384e-05 0.0049481955068603409 0 0.00044968663063365031 0.0053462787723096991 0 -0.00057159321460470392 0.0043296738630776519 0 -0.00056006542488241733 0.0043650258365222107 0 -0.00064155899896593436 0.0042843348463229569 0 0.0010453242711798158 0.0056885287924247118 0 0.0010363027027519495 0.005700323625259086 0 0.0010290710451615495 0.0056679808738012635 0 0.00092378443796849695 0.005601869693624968 0 0.00095015015390928861 0.0056988733374942471 0 0.0010290710451615495 0.0056679808738012635 0 0.00095015015390928861 0.0056988733374942471 0 0.0010290710451615495 0.0056679808738012635 0 0.0010309349741694702 0.0057179374253343313 0 0.0013269716126755066 0.005470254378789504 0 0.0014266763760381774 0.0054654680479677992 0 0.0010453242711798158 0.0056885287924247118 0 0.0010290710451615495 0.0056679808738012635 0 0.0010309349741694702 0.0057179374253343313 0 0.0015907395709126048 0.0052748998850418337 0 0.0018767372911908955 0.0050510033340531949 0 0.0016653586372251297 0.0048981406552215806 0 0.0018767372911908955 0.0050510033340531949 0 0.0019675368675328465 0.0047408072850945232 0 0.0016653586372251297 0.0048981406552215806 0 0.0014266763760381774 0.0054654680479677992 0 0.00154187351097218 0.0047736574665690505 0 0.0018767372911908955 0.0050510033340531949 0 0.0019675368675328465 0.0047408072850945232 0 0.0021658071559270092 0.0048304327670830489 0 0.00095015015390928861 0.0056988733374942471 0 0.0010309349741694702 0.0057179374253343313 0 0.00094054042988074105 0.0057869041936984859 0 0.0019150997996245157 0.0046872143311033265 0 0.0020732799800470001 0.0047470635493379945 0 0.0020646866300792176 0.0045587109550720081 0 0.0019150997996245157 0.0046872143311033265 0 0.0017570809088137661 0.0046383488256383845 0 0.0019292946806372922 0.0044213584496351332 0 0.0020106706311509201 0.004752175133321066 0 0.00154187351097218 0.0047736574665690505 0 0.0020106706311509201 0.004752175133321066 0 0.0017569189366440417 0.0046371168824393535 0 0.0019675368675328465 0.0047408072850945232 0 0.0017570809088137661 0.0046383488256383845 0 0.0016653586372251297 0.0048981406552215806 0 0.00028465728515470791 0.0032365245722394921 0 -2.075782351958529e-05 0.0041052335982284692 0 -0.00036166198794244529 0.0028680415609161395 0 -0.00034575815178473397 0.0030072481370422679 0 -0.00025211636378704572 0.0028097894799928242 0 8.8345131072200384e-05 0.0049481955068603409 0 -2.075782351958529e-05 0.0041052335982284692 0 0.00087772508633619675 0.0057239224544573565 0 0.00082807618185187857 0.005748193981145398 0 0.00087113824769311822 0.0057644590666436537 0 -2.075782351958529e-05 0.0041052335982284692 0 0.00072993607041466307 0.0043599004261516009 0 0.00087772508633619675 0.0057239224544573565 0 0.00081836117734835983 0.0057225123755312779 0 0.00082807618185187857 0.005748193981145398 0 0.00030630025980187377 0.0038789419031166126 0 0.00032151427553844927 0.0040165690893867942 0 0.00020938172735472072 0.00396743454319483 0 0.00028465728515470791 0.0032365245722394921 0 0.00072993607041466307 0.0043599004261516009 0 0.00087772508633619675 0.0057239224544573565 0 0.00087113824769311822 0.0057644590666436537 0 0.00094054042988074105 0.0057869041936984859 0 0.00095015015390928861 0.0056988733374942471 0 0.00087772508633619675 0.0057239224544573565 0 0.00094054042988074105 0.0057869041936984859 0 0.00072993607041466307 0.0043599004261516009 0 0.00154187351097218 0.0047736574665690505 0 0.0010020076131794548 0.0038999039761930432 0 0.0010626673177816712 0.0039281825958629142 0 0.00099301082698027452 0.0039698836403055529 0 0.0020732799800470001 0.0047470635493379945 0 0.0020646866300792176 0.0045587109550720081 0 0.0022462668999907154 0.0046120928136384456 0 0.00154187351097218 0.0047736574665690505 0 0.0010476063151187631 0.003319907647592624 0 0.00019606436783784555 0.0025579935828701572 0 0.00022382022330539998 0.0025541468288076659 0 0.00024910561299910374 0.0025071990297616089 0 0.00097104972091535636 0.0039235027270164277 0 0.0010020076131794548 0.0038999039761930432 0 0.00099301082698027452 0.0039698836403055529 0 0.00020877409942422076 0.0025979709914809575 0 0.00019606436783784555 0.0025579935828701572 0 0.00020739793422938814 0.0025826308283238269 0 0.00028465728515470791 0.0032365245722394921 0 0.0010476063151187631 0.003319907647592624 0 0.00021111610429079357 0.0025976901336238409 0 0.00022382022330539998 0.0025541468288076659 0 0.00020739793422938814 0.0025826308283238269 0 0.00019606436783784555 0.0025579935828701572 0 0.00022382022330539998 0.0025541468288076659 0 0.00020739793422938814 0.0025826308283238269 0 0.00028465728515470791 0.0032365245722394921 0 0.00023536335465385469 0.0029340970712316192 0 0.00090900531689013626 0.0021560255453624165 0 0.00082629415615047416 0.0023281408736449643 0 0.00069717113678459646 0.0022889455450296205 0 0.0010476063151187631 0.003319907647592624 0 0.0016384013885934047 0.0033994914751378723 0 0.00090900531689013626 0.0021560255453624165 0 0.00082629415615047416 0.0023281408736449643 0 0.00098306271217153468 0.0023841477542232039 0 0.0010476063151187631 0.003319907647592624 0 0.00043920432189131482 0.0022922131561093086 0 0.0020646866300792176 0.0045587109550720081 0 0.0021831248878936443 0.0043544617715366163 0 0.0019292946806372922 0.0044213584496351332 0 0.0020646866300792176 0.0045587109550720081 0 0.0022462668999907154 0.0046120928136384456 0 0.0021831248878936443 0.0043544617715366163 0 0.0015768971183256417 0.0033473107866527356 0 0.0016384013885934047 0.0033994914751378723 0 0.00089840361114383138 0.0025523824954409142 0 0.0010669543803541262 0.0026308066882921796 0 0.00098306271217153468 0.0023841477542232039 0 0.0021136195808774284 0.0040788353344297654 0 0.0021831248878936443 0.0043544617715366163 0 0.0019609204652459721 0.0042190249013274806 0 0.00089840361114383138 0.0025523824954409142 0 0.00098306271217153468 0.0023841477542232039 0 0.00081992454247226056 0.002436838387320419 0 0.00082629415615047416 0.0023281408736449643 0 0.00098306271217153468 0.0023841477542232039 0 0.00081992454247226056 0.002436838387320419 0 0.00089840361114383138 0.0025523824954409142 0 0.00081992454247226056 0.002436838387320419 0 0.00075543088306675576 0.0025530444610809863 0 0.00082629415615047416 0.0023281408736449643 0 0.00081992454247226056 0.002436838387320419 0 0.00073819468414735006 0.0023887747916572027 0 0.0017570809088137661 0.0046383488256383845 0 0.0017475882319334013 0.0044398537737989378 0 0.0019292946806372922 0.0044213584496351332 0 0.0017570809088137661 0.0046383488256383845 0 0.0017475882319334013 0.0044398537737989378 0 0.0015677600678531039 0.0044602826744976967 0 0.0019150997996245157 0.0046872143311033265 0 0.0020646866300792176 0.0045587109550720081 0 0.0019292946806372922 0.0044213584496351332 0 0.0019292946806372922 0.0044213584496351332 0 0.0019609204652459721 0.0042190249013274806 0 0.0017234961545089331 0.0042397090286218362 0 0.0021831248878936443 0.0043544617715366163 0 0.0019292946806372922 0.0044213584496351332 0 0.0019609204652459721 0.0042190249013274806 0 0.0017475882319334013 0.0044398537737989378 0 0.0019292946806372922 0.0044213584496351332 0 0.0017234961545089331 0.0042397090286218362 0 0.0017475882319334013 0.0044398537737989378 0 0.0017234961545089331 0.0042397090286218362 0 0.0015677600678531039 0.0044602826744976967 0 0.0017379081961830284 0.0042238125577037551 0 0.0015810723406798164 0.0044421022933231868 0 0.0015389840451746092 0.0041916841373481183 0 0.0013848636262002885 0.0043838629925566034 0 0.0015677600678531039 0.0044602826744976967 0 0.0017591157010897595 0.0042105562048169185 0 0.0015389840451746092 0.0041916841373481183 0 0.0015677600678531039 0.0044602826744976967 0 0.0012597345155703765 0.0041669190792255877 0 0.0013848636262002885 0.0043838629925566034 0 0.001178889815668953 0.0045074933361584956 0 0.0015389840451746092 0.0041916841373481183 0 0.0012597345155703765 0.0041669190792255877 0 0.0013848636262002885 0.0043838629925566034 0 0.0013848636262002885 0.0043838629925566034 0 0.0013732548286590816 0.0046050497616093884 0 0.001178889815668953 0.0045074933361584956 0 0.0013848636262002885 0.0043838629925566034 0 0.0015677600678531039 0.0044602826744976967 0 0.0013732548286590816 0.0046050497616093884 0 0.0015677600678531039 0.0044602826744976967 0 0.0015612614892770785 0.0046720666533885766 0 0.0013732548286590816 0.0046050497616093884 0 0.0015612614892770785 0.0046720666533885766 0 0.0014124898467945074 0.0048184200237947365 0 0.0016653586372251297 0.0048981406552215806 0 0.0017570809088137661 0.0046383488256383845 0 0.0015612614892770785 0.0046720666533885766 0 0.0016653586372251297 0.0048981406552215806 0 0.0017570809088137661 0.0046383488256383845 0 0.0015677600678531039 0.0044602826744976967 0 0.0015612614892770785 0.0046720666533885766 0 0.0015612614892770785 0.0046720666533885766 0 0.0013732548286590816 0.0046050497616093884 0 0.0014124898467945074 0.0048184200237947365 0 0.0013732548286590816 0.0046050497616093884 0 0.0014124898467945074 0.0048184200237947365 0 0.0011007671500789789 0.0048522898341659057 0 0.0013222466773511383 0.0051388127134374979 0 0.0014124898467945074 0.0048184200237947365 0 0.0016653586372251297 0.0048981406552215806 0 0.0013222466773511383 0.0051388127134374979 0 0.0014124898467945074 0.0048184200237947365 0 0.0011007671500789789 0.0048522898341659057 0 0.0018249157844000014 0.0051878600223447292 0 0.0019545747034440037 0.0051824888753972641 0 0.0017912850498492277 0.0052892086229786358 0 0.0019095209361393241 0.0053853767889853977 0 0.0019545747034440037 0.0051824888753972641 0 0.0017912850498492277 0.0052892086229786358 0 0.0014732797757939199 0.0052909072560584801 0 0.001529474189768937 0.0050145925172684442 0 0.001529474189768937 0.0050145925172684442 0 0.0015680650119288132 0.0047881645965361696 0 0.0019545747034440037 0.0051824888753972641 0 0.0018986395493629641 0.0050506481834366726 0 0.0019829829417451188 0.0050302169167697388 0 0.0013732548286590816 0.0046050497616093884 0 0.0011007671500789789 0.0048522898341659057 0 0.001178889815668953 0.0045074933361584956 0 0.0018249157844000014 0.0051878600223447292 0 0.0019545747034440037 0.0051824888753972641 0 0.0018454909739648018 0.0051038121692417232 0 0.0019545747034440037 0.0051824888753972641 0 0.0018454909739648018 0.0051038121692417232 0 0.0018986395493629641 0.0050506481834366726 0 0.0018249157844000014 0.0051878600223447292 0 0.0018454909739648018 0.0051038121692417232 0 0.0017878898081516263 0.0051682021352255662 0 0.0021172060777461211 0.0049103454218639092 0 0.0019110161154354255 0.0050070932128302229 0 0.0018454909739648018 0.0051038121692417232 0 0.0018986395493629641 0.0050506481834366726 0 0.0018019952009501459 0.0050492758578009724 0 0.0018986395493629641 0.0050506481834366726 0 0.0019050229232982876 0.004957334980858789 0 0.0018019952009501459 0.0050492758578009724 0 0.0022196037299617335 0.0048397358642153984 0 0.0020794802228065882 0.0048113806125655864 0 0.0020354410591753754 0.0049650424991855109 0 0.0018986395493629641 0.0050506481834366726 0 0.0019829829417451188 0.0050302169167697388 0 0.0019050229232982876 0.004957334980858789 0 0.0017431937694622659 0.004440450288392097 0 0.0021172060777461211 0.0049103454218639092 0 0.0021726495783504396 0.0047074421208910013 0 0.0023970076717509713 0.0047167883646130138 0 0.0022196037299617335 0.0048397358642153984 0 0.0020183153575462536 0.0048735435927050718 0 0.0019829829417451188 0.0050302169167697388 0 0.0019050229232982876 0.004957334980858789 0 0.0017431937694622659 0.004440450288392097 0 0.0015680650119288132 0.0047881645965361696 0 0.0020037406118301859 0.0046847501253066475 0 0.0021726495783504396 0.0047074421208910013 0 0.0020794802228065882 0.0048113806125655864 0 0.0021726495783504396 0.0047074421208910013 0 0.0022196037299617335 0.0048397358642153984 0 0.0020794802228065882 0.0048113806125655864 0 0.0020037406118301859 0.0046847501253066475 0 0.001944610424287568 0.0048324291207022651 0 0.0018546214885987924 0.0047403099934073779 0 0.0020037406118301859 0.0046847501253066475 0 0.001944610424287568 0.0048324291207022651 0 0.0020794802228065882 0.0048113806125655864 0 0.0019110161154354255 0.0050070932128302229 0 0.0018195844709685482 0.0050730632950103591 0 0.0020354410591753754 0.0049650424991855109 0 0.0018705998956514227 0.0049522489370177969 0 0.0018048978096094038 0.0050818381045910866 0 0.001944610424287568 0.0048324291207022651 0 0.0020794802228065882 0.0048113806125655864 0 0.0020354410591753754 0.0049650424991855109 0 0.001944610424287568 0.0048324291207022651 0 0.0020354410591753754 0.0049650424991855109 0 0.0018705998956514227 0.0049522489370177969 0 0.0018705998956514227 0.0049522489370177969 0 0.0017462159921488045 0.0049833316738851297 0 0.0018048978096094038 0.0050818381045910866 0 0.001944610424287568 0.0048324291207022651 0 0.0018705998956514227 0.0049522489370177969 0 0.0018386590554247799 0.0048642111675195627 0 0.0018705998956514227 0.0049522489370177969 0 0.0018386590554247799 0.0048642111675195627 0 0.0017462159921488045 0.0049833316738851297 0 0.0018386590554247799 0.0048642111675195627 0 0.0018546214885987924 0.0047403099934073779 0 0.001748693028692122 0.0047986928683599016 0 0.001944610424287568 0.0048324291207022651 0 0.0018386590554247799 0.0048642111675195627 0 0.0018546214885987924 0.0047403099934073779 0 0.0017322123161937683 0.0046593951048055221 0 0.0018546214885987924 0.0047403099934073779 0 0.001748693028692122 0.0047986928683599016 0 0.0017322123161937683 0.0046593951048055221 0 0.001748693028692122 0.0047986928683599016 0 0.0016400006033984919 0.0047672483818126622 0 0.001748693028692122 0.0047986928683599016 0 0.0016400006033984919 0.0047672483818126622 0 0.00167481626152275 0.0048961305267888784 0 0.0016400006033984919 0.0047672483818126622 0 0.0015710066285534044 0.0048866036393770016 0 0.0015197152298272842 0.0047403521532009768 0 0.0016400006033984919 0.0047672483818126622 0 0.0015710066285534044 0.0048866036393770016 0 0.00167481626152275 0.0048961305267888784 0 0.0015710066285534044 0.0048866036393770016 0 0.0016432616501518081 0.0049916918882735644 0 0.00167481626152275 0.0048961305267888784 0 0.0015710066285534044 0.0048866036393770016 0 0.0016432616501518081 0.0049916918882735644 0 0.0015684798273141707 0.0050123327297573348 0 0.001748693028692122 0.0047986928683599016 0 0.00167481626152275 0.0048961305267888784 0 0.0017462159921488045 0.0049833316738851297 0 0.0018386590554247799 0.0048642111675195627 0 0.001748693028692122 0.0047986928683599016 0 0.0017462159921488045 0.0049833316738851297 0 0.0016432616501518081 0.0049916918882735644 0 0.00167481626152275 0.0048961305267888784 0 0.0017462159921488045 0.0049833316738851297 0 0.0017462159921488045 0.0049833316738851297 0 0.0016804272778263476 0.0050663956794878987 0 0.0017288766256277959 0.0051280832977898747 0 0.0016432616501518081 0.0049916918882735644 0 0.0017462159921488045 0.0049833316738851297 0 0.0016804272778263476 0.0050663956794878987 0 0.0016804272778263476 0.0050663956794878987 0 0.0017288766256277959 0.0051280832977898747 0 0.0016619762859580787 0.0051420184705910322 0 0.0015684798273141707 0.0050123327297573348 0 0.0016137654955700833 0.0050811917034977944 0 0.0015456413366630908 0.0051092604252160802 0 0.0016432616501518081 0.0049916918882735644 0 0.0015684798273141707 0.0050123327297573348 0 0.0016137654955700833 0.0050811917034977944 0 0.0016432616501518081 0.0049916918882735644 0 0.0016804272778263476 0.0050663956794878987 0 0.0016137654955700833 0.0050811917034977944 0 0.0016804272778263476 0.0050663956794878987 0 0.0016137654955700833 0.0050811917034977944 0 0.0016619762859580787 0.0051420184705910322 0 0.0016137654955700833 0.0050811917034977944 0 0.0016023319299694849 0.0051529053247430356 0 0.0016619762859580787 0.0051420184705910322 0 0.0016137654955700833 0.0050811917034977944 0 0.0016023319299694849 0.0051529053247430356 0 0.0015456413366630908 0.0051092604252160802 0 0.0016023319299694849 0.0051529053247430356 0 0.0015456413366630908 0.0051092604252160802 0 0.0015584600028400973 0.0051991095848006865 0 0.0016023319299694849 0.0051529053247430356 0 0.0016293366712552045 0.0052149565139201284 0 0.0016619762859580787 0.0051420184705910322 0 0.0016023319299694849 0.0051529053247430356 0 0.0016293366712552045 0.0052149565139201284 0 0.0015584600028400973 0.0051991095848006865 0 0.0017288766256277959 0.0051280832977898747 0 0.0016955120810790332 0.0051938705219863488 0 0.0017686370326154431 0.0051540916087953643 0 0.0017288766256277959 0.0051280832977898747 0 0.0016619762859580787 0.0051420184705910322 0 0.0016955120810790332 0.0051938705219863488 0 0.0016293366712552045 0.0052149565139201284 0 0.0016619762859580787 0.0051420184705910322 0 0.0016955120810790332 0.0051938705219863488 0 0.0016955120810790332 0.0051938705219863488 0 0.0017686370326154431 0.0051540916087953643 0 0.0017556830326962999 0.0052211447723594356 0 0.0017686370326154431 0.0051540916087953643 0 0.0017981234276996851 0.0051383003136517879 0 0.0017899527696877519 0.0051834755919439217 0 0.0017686370326154431 0.0051540916087953643 0 0.0017899527696877519 0.0051834755919439217 0 0.0017556830326962999 0.0052211447723594356 0 0.0017981234276996851 0.0051383003136517879 0 0.0017899527696877519 0.0051834755919439217 0 0.0018287148985966734 0.005209289524434761 0 0.0017899527696877519 0.0051834755919439217 0 0.0018287148985966734 0.005209289524434761 0 0.0017556830326962999 0.0052211447723594356 0 0.0017470664354523689 0.0052585547746956994 0 0.0017928939165481811 0.0050927786689884307 0 0.0016717626010181819 0.0052987703201061147 0 0.0017878898081516263 0.0051682021352255662 0 0.0017983056488511731 0.0050775993469046581 0 0.0017981234276996851 0.0051383003136517879 0 0.0018287148985966734 0.005209289524434761 0 0.0017983056488511731 0.0050775993469046581 0 0.0018249157844000014 0.0051878600223447292 0 0.0017912850498492277 0.0052892086229786358 0 0.0017695044445698237 0.0052301600731863209 0 0.0016717626010181819 0.0052987703201061147 0 0.0017912850498492277 0.0052892086229786358 0 0.0017695044445698237 0.0052301600731863209 0 0.0016717626010181819 0.0052987703201061147 0 0.0017695044445698237 0.0052301600731863209 0 0.0017878898081516263 0.0051682021352255662 0 0.0018249157844000014 0.0051878600223447292 0 0.0017695044445698237 0.0052301600731863209 0 0.0017878898081516263 0.0051682021352255662 0 0.0018019952009501459 0.0050492758578009724 0 0.0017983056488511731 0.0050775993469046581 0 0.0018048978096094038 0.0050818381045910866 0 0.0018454909739648018 0.0051038121692417232 0 0.0017878898081516263 0.0051682021352255662 0 0.0017983056488511731 0.0050775993469046581 0 0.0018454909739648018 0.0051038121692417232 0 0.0018019952009501459 0.0050492758578009724 0 0.0017983056488511731 0.0050775993469046581 0 0.0017462159921488045 0.0049833316738851297 0 0.0017288766256277959 0.0051280832977898747 0 0.0018048978096094038 0.0050818381045910866 0 0.0017288766256277959 0.0051280832977898747 0 0.0017686370326154431 0.0051540916087953643 0 0.0018048978096094038 0.0050818381045910866 0 0.0017686370326154431 0.0051540916087953643 0 0.0017981234276996851 0.0051383003136517879 0 0.0018048978096094038 0.0050818381045910866 0 0.0017981234276996851 0.0051383003136517879 0 0.0017983056488511731 0.0050775993469046581 0 0.0018048978096094038 0.0050818381045910866 0 0.0032739237302249293 0.0043532151143983793 0 0.0027276282672699993 0.004558398881520243 0 0.0041112437706245335 0.0046731740973260374 0 0.0042122293858179406 0.0044068039084931279 0 0.0042677474521126109 0.0044162457780321327 0 0.0032739237302249293 0.0043532151143983793 0 0.0044918828342777502 0.0041805458217182186 0 0.0043948500236570421 0.0040637513115419684 0 0.0044346511329458353 0.0040360331587769071 0 0.0044218981633802343 0.004003649926634211 0 0.0043948500236570421 0.0040637513115419684 0 0.0044487014730161707 0.0040616076452433753 0 0.0044346511329458353 0.0040360331587769071 0 0.001828799869013694 0.004107051203267118 0 0.001464062214370546 0.0041600921119542616 0 0.001713563628366174 0.0045872573403527026 0 0.001464062214370546 0.0041600921119542616 0 0.0013789836244165203 0.0046619726969902289 0 0.001713563628366174 0.0045872573403527026 0 0.0015192455263265711 0.0046270396176137452 0 0.0015188657526804242 0.0046902647776774853 0 0.0013789836244165203 0.0046619726969902289 0 0.001713563628366174 0.0045872573403527026 0 0.0015835815343137583 0.0049887914691208067 0 0.0013032478667469899 0.0049146304898262383 0 0.0014239619864089234 0.0048612075441299661 0 0.0014492932234224816 0.005022497658142196 0 0.0014236138841680834 0.0047135619927040793 0 0.0012943352855675479 0.0046667084727615316 0 0.0014239619864089234 0.0048612075441299661 0 0.0012943352855675479 0.0046667084727615316 0 0.0013032478667469899 0.0049146304898262383 0 0.0014239619864089234 0.0048612075441299661 0 0.0015710066285534044 0.0048866036393770016 0 0.0014239619864089234 0.0048612075441299661 0 0.0015197152298272842 0.0047403521532009768 0 0.0014236138841680834 0.0047135619927040793 0 0.0014239619864089234 0.0048612075441299661 0 0.0015197152298272842 0.0047403521532009768 0 0.0015710066285534044 0.0048866036393770016 0 0.0014239619864089234 0.0048612075441299661 0 0.0014980871158077425 0.004946931417347887 0 0.0014239619864089234 0.0048612075441299661 0 0.0014980871158077425 0.004946931417347887 0 0.0014492932234224816 0.005022497658142196 0 0.0015684798273141707 0.0050123327297573348 0 0.0014980871158077425 0.004946931417347887 0 0.0014492932234224816 0.005022497658142196 0 0.0015710066285534044 0.0048866036393770016 0 0.0015684798273141707 0.0050123327297573348 0 0.0014980871158077425 0.004946931417347887 0 0.0015684798273141707 0.0050123327297573348 0 0.0015456413366630908 0.0051092604252160802 0 0.0014492932234224816 0.005022497658142196 0 0.0015456413366630908 0.0051092604252160802 0 0.0014831544733552647 0.0051596973577958298 0 0.0014492932234224816 0.005022497658142196 0 0.0015456413366630908 0.0051092604252160802 0 0.0015584600028400973 0.0051991095848006865 0 0.0014831544733552647 0.0051596973577958298 0 0.0015584600028400973 0.0051991095848006865 0 0.0014831544733552647 0.0051596973577958298 0 0.0015160080128097354 0.0052489529084734574 0 0.0014831544733552647 0.0051596973577958298 0 0.0013469213642240483 0.0051277435814597429 0 0.0014489841604300971 0.0052304878378203598 0 0.0014831544733552647 0.0051596973577958298 0 0.0014489841604300971 0.0052304878378203598 0 0.0015160080128097354 0.0052489529084734574 0 0.0014831544733552647 0.0051596973577958298 0 0.0014492932234224816 0.005022497658142196 0 0.0013469213642240483 0.0051277435814597429 0 0.0013032478667469899 0.0049146304898262383 0 0.0014492932234224816 0.005022497658142196 0 0.0013469213642240483 0.0051277435814597429 0 0.0015188657526804242 0.0046902647776774853 0 0.0014644867081202552 0.0050623614450922075 0 0.0013469213642240483 0.0051277435814597429 0 0.001437690912511051 0.0052606823899194024 0 0.0014489841604300971 0.0052304878378203598 0 0.0014644867081202552 0.0050623614450922075 0 0.0014409594922806114 0.0052346331602926366 0 0.0015835815343137583 0.0049887914691208067 0 0.0013247277168038035 0.0050671275091320927 0 0.001437690912511051 0.0052606823899194024 0 0.0013789836244165203 0.0046619726969902289 0 0.0015835815343137583 0.0049887914691208067 0 0.0013247277168038035 0.0050671275091320927 0 0.0027276282672699993 0.004558398881520243 0 0.0028312907252675775 0.0045957997708405487 0 0.0042122293858179406 0.0044068039084931279 0 0.0042677474521126109 0.0044162457780321327 0 0.0043109094869987572 0.004140044101874258 0 0.0013286230807415666 0.0052948662898992241 0 0.001437690912511051 0.0052606823899194024 0 0.0014039360540566311 0.0053757075138312037 0 0.0013286230807415666 0.0052948662898992241 0 0.0013247277168038035 0.0050671275091320927 0 0.001437690912511051 0.0052606823899194024 0 0.0028681752579637785 0.0046602752978922015 0 0.0028312907252675775 0.0045957997708405487 0 0.001437690912511051 0.0052606823899194024 0 0.0014667150858652274 0.0053254622010946153 0 0.0014489841604300971 0.0052304878378203598 0 0.001437690912511051 0.0052606823899194024 0 0.0014667150858652274 0.0053254622010946153 0 0.0014039360540566311 0.0053757075138312037 0 0.0014667150858652274 0.0053254622010946153 0 0.0014950564890734536 0.0053025391992324346 0 0.0015205946091794529 0.0053816403975933584 0 0.0014667150858652274 0.0053254622010946153 0 0.0014489841604300971 0.0052304878378203598 0 0.0014950564890734536 0.0053025391992324346 0 0.0014489841604300971 0.0052304878378203598 0 0.0014950564890734536 0.0053025391992324346 0 0.0015160080128097354 0.0052489529084734574 0 0.0014950564890734536 0.0053025391992324346 0 0.0015160080128097354 0.0052489529084734574 0 0.0015411749461124011 0.0053155087500305681 0 0.0015584600028400973 0.0051991095848006865 0 0.0015160080128097354 0.0052489529084734574 0 0.0015834762449636545 0.0052783475708711395 0 0.0015160080128097354 0.0052489529084734574 0 0.0015411749461124011 0.0053155087500305681 0 0.0015834762449636545 0.0052783475708711395 0 0.0015411749461124011 0.0053155087500305681 0 0.0015205946091794529 0.0053816403975933584 0 0.0015782181784667901 0.0053762799765440248 0 0.0015411749461124011 0.0053155087500305681 0 0.0015834762449636545 0.0052783475708711395 0 0.0015782181784667901 0.0053762799765440248 0 0.0014950564890734536 0.0053025391992324346 0 0.0015411749461124011 0.0053155087500305681 0 0.0015205946091794529 0.0053816403975933584 0 0.0015655634497507241 0.005433468608522762 0 0.0015205946091794529 0.0053816403975933584 0 0.0015782181784667901 0.0053762799765440248 0 0.0015655634497507241 0.005433468608522762 0 0.0015548518497321136 0.005483589542839196 0 0.0015205946091794529 0.0053816403975933584 0 0.0015548518497321136 0.005483589542839196 0 0.0015890965352419603 0.005484542259557185 0 0.0016047638783215563 0.005521554239647208 0 0.0015655634497507241 0.005433468608522762 0 0.0015548518497321136 0.005483589542839196 0 0.0015890965352419603 0.005484542259557185 0 0.0015548518497321136 0.005483589542839196 0 0.0014726620802318125 0.0054182368405941185 0 0.0014982272187750042 0.0054986730564303985 0 0.0015548518497321136 0.005483589542839196 0 0.0014982272187750042 0.0054986730564303985 0 0.0015672485787346392 0.0055500238736420175 0 0.0015548518497321136 0.005483589542839196 0 0.0015205946091794529 0.0053816403975933584 0 0.0014726620802318125 0.0054182368405941185 0 0.0014667150858652274 0.0053254622010946153 0 0.0015205946091794529 0.0053816403975933584 0 0.0014726620802318125 0.0054182368405941185 0 0.0014726620802318125 0.0054182368405941185 0 0.0014209986858832828 0.0054950348209534027 0 0.0014039360540566311 0.0053757075138312037 0 0.0014667150858652274 0.0053254622010946153 0 0.0014726620802318125 0.0054182368405941185 0 0.0014039360540566311 0.0053757075138312037 0 0.0014726620802318125 0.0054182368405941185 0 0.0014982272187750042 0.0054986730564303985 0 0.0014209986858832828 0.0054950348209534027 0 0.0013286230807415666 0.0052948662898992241 0 0.0013483481974504484 0.0054241130181429927 0 0.0014039360540566311 0.0053757075138312037 0 0.0013483481974504484 0.0054241130181429927 0 0.0014209986858832828 0.0054950348209534027 0 0.0014039360540566311 0.0053757075138312037 0 0.0016845918094684426 0.0053829164383205627 0 0.0017621457812454027 0.0053984175503420662 0 0.0017319945198998367 0.0052990875662354379 0 0.0016845918094684426 0.0053829164383205627 0 0.0017319945198998367 0.0052990875662354379 0 0.0016673338806826655 0.0053287192529129562 0 0.0016845918094684426 0.0053829164383205627 0 0.0017621457812454027 0.0053984175503420662 0 0.0016522692556402059 0.0054623388024887471 0 0.0016596100662428358 0.0053612043475507543 0 0.0016897789386540922 0.0055640266613459629 0 0.0017845273304445883 0.0054486248719228369 0 0.0016744955694452156 0.0053563285180674549 0 0.0017465982740695056 0.0055790287535531901 0 0.0015574259612964692 0.0055415225272857803 0 0.0016744955694452156 0.0053563285180674549 0 0.0015918078539473672 0.005561655046440411 0 0.0017470664354523689 0.0052585547746956994 0 0.0016599683123360459 0.0054640173005985329 0 0.0016717626010181819 0.0052987703201061147 0 0.0015574259612964692 0.0055415225272857803 0 0.0016744955694452156 0.0053563285180674549 0 0.0017845273304445883 0.0054486248719228369 0 0.0017713320925797302 0.0053727645420328174 0 0.0016744955694452156 0.0053563285180674549 0 0.0017912850498492277 0.0052892086229786358 0 0.0017713320925797302 0.0053727645420328174 0 0.0016744955694452156 0.0053563285180674549 0 0.0016717626010181819 0.0052987703201061147 0 0.0017912850498492277 0.0052892086229786358 0 0.0016744955694452156 0.0053563285180674549 0 0.0018287148985966734 0.005209289524434761 0 0.0017621457812454027 0.0053984175503420662 0 0.0017319945198998367 0.0052990875662354379 0 0.0018287148985966734 0.005209289524434761 0 0.0017319945198998367 0.0052990875662354379 0 0.0017556830326962999 0.0052211447723594356 0 0.0017319945198998367 0.0052990875662354379 0 0.0017556830326962999 0.0052211447723594356 0 0.0017024806153766953 0.005255506114294194 0 0.0016955120810790332 0.0051938705219863488 0 0.0017556830326962999 0.0052211447723594356 0 0.0017024806153766953 0.005255506114294194 0 0.0016955120810790332 0.0051938705219863488 0 0.0017024806153766953 0.005255506114294194 0 0.0016494791298852006 0.0052769506720569933 0 0.0016293366712552045 0.0052149565139201284 0 0.0016955120810790332 0.0051938705219863488 0 0.0016494791298852006 0.0052769506720569933 0 0.0016494791298852006 0.0052769506720569933 0 0.0016196483197634013 0.005338267296831711 0 0.0016673338806826655 0.0053287192529129562 0 0.0017319945198998367 0.0052990875662354379 0 0.0017024806153766953 0.005255506114294194 0 0.0016673338806826655 0.0053287192529129562 0 0.0017024806153766953 0.005255506114294194 0 0.0016494791298852006 0.0052769506720569933 0 0.0016673338806826655 0.0053287192529129562 0 0.0016293366712552045 0.0052149565139201284 0 0.0015584600028400973 0.0051991095848006865 0 0.0015834762449636545 0.0052783475708711395 0 0.0016293366712552045 0.0052149565139201284 0 0.0016494791298852006 0.0052769506720569933 0 0.0015834762449636545 0.0052783475708711395 0 0.0016494791298852006 0.0052769506720569933 0 0.0015834762449636545 0.0052783475708711395 0 0.0016196483197634013 0.005338267296831711 0 0.0016196483197634013 0.005338267296831711 0 0.0015782181784667901 0.0053762799765440248 0 0.0016299417521656089 0.0054068666646911751 0 0.0015834762449636545 0.0052783475708711395 0 0.0016196483197634013 0.005338267296831711 0 0.0015782181784667901 0.0053762799765440248 0 0.0016196483197634013 0.005338267296831711 0 0.0016673338806826655 0.0053287192529129562 0 0.0016299417521656089 0.0054068666646911751 0 0.0016845918094684426 0.0053829164383205627 0 0.0016673338806826655 0.0053287192529129562 0 0.0016299417521656089 0.0054068666646911751 0 0.0016299417521656089 0.0054068666646911751 0 0.0016257112354688679 0.0054692243214993037 0 0.0016522692556402059 0.0054623388024887471 0 0.0016845918094684426 0.0053829164383205627 0 0.0016299417521656089 0.0054068666646911751 0 0.0016522692556402059 0.0054623388024887471 0 0.0016299417521656089 0.0054068666646911751 0 0.0016257112354688679 0.0054692243214993037 0 0.0016016828139011386 0.0054483512327972812 0 0.0016257112354688679 0.0054692243214993037 0 0.0016016828139011386 0.0054483512327972812 0 0.001618790120535593 0.0054968121032750242 0 0.0016257112354688679 0.0054692243214993037 0 0.0016218528401187491 0.0055134075235813169 0 0.0016522692556402059 0.0054623388024887471 0 0.0015782181784667901 0.0053762799765440248 0 0.0016299417521656089 0.0054068666646911751 0 0.0016016828139011386 0.0054483512327972812 0 0.0015655634497507241 0.005433468608522762 0 0.0015782181784667901 0.0053762799765440248 0 0.0016016828139011386 0.0054483512327972812 0 0.0015655634497507241 0.005433468608522762 0 0.0016016828139011386 0.0054483512327972812 0 0.0015890965352419603 0.005484542259557185 0 0.0016123225851700769 0.0055064270353538721 0 0.0015890965352419603 0.005484542259557185 0 0.001618790120535593 0.0054968121032750242 0 0.0016016828139011386 0.0054483512327972812 0 0.0015890965352419603 0.005484542259557185 0 0.001618790120535593 0.0054968121032750242 0 0.0016218528401187491 0.0055134075235813169 0 0.001618790120535593 0.0054968121032750242 0 0.0016187465018628906 0.005510265117909645 0 0.0016123225851700769 0.0055064270353538721 0 0.001618790120535593 0.0054968121032750242 0 0.0016187465018628906 0.005510265117909645 0 0.0016257112354688679 0.0054692243214993037 0 0.0016218528401187491 0.0055134075235813169 0 0.001618790120535593 0.0054968121032750242 0 0.0016218528401187491 0.0055134075235813169 0 0.001590593445141286 0.0055537067819098644 0 0.0016187465018628906 0.005510265117909645 0 0.0016218528401187491 0.0055134075235813169 0 0.001590593445141286 0.0055537067819098644 0 0.0016522692556402059 0.0054623388024887471 0 0.0016599683123360459 0.0054640173005985329 0 0.0016019849240241758 0.0055413832314063528 0 0.0017621457812454027 0.0053984175503420662 0 0.001590593445141286 0.0055537067819098644 0 0.0016522692556402059 0.0054623388024887471 0 0.0014802871590343827 0.0056779416766521559 0 0.0016897789386540922 0.0055640266613459629 0 0.0015574259612964692 0.0055415225272857803 0 0.0015918078539473672 0.005561655046440411 0 0.0015472188845142639 0.0055711580881652751 0 0.0014904223712716835 0.0055784916177322305 0 0.0015918078539473672 0.005561655046440411 0 0.0015472188845142639 0.0055711580881652751 0 0.0015574259612964692 0.0055415225272857803 0 0.001590593445141286 0.0055537067819098644 0 0.0015472188845142639 0.0055711580881652751 0 0.001590593445141286 0.0055537067819098644 0 0.0015178505840834139 0.0055700383102687736 0 0.0014462005753724031 0.0055806851178464038 0 0.001590593445141286 0.0055537067819098644 0 0.0015472188845142639 0.0055711580881652751 0 0.0015178505840834139 0.0055700383102687736 0 0.0015472188845142639 0.0055711580881652751 0 0.0015178505840834139 0.0055700383102687736 0 0.0014943466228308174 0.0055762613707171808 0 0.0015178505840834139 0.0055700383102687736 0 0.0014943466228308174 0.0055762613707171808 0 0.0014462005753724031 0.0055806851178464038 0 0.0014904223712716835 0.0055784916177322305 0 0.0015472188845142639 0.0055711580881652751 0 0.0014943466228308174 0.0055762613707171808 0 0.0014943466228308174 0.0055762613707171808 0 0.0014462005753724031 0.0055806851178464038 0 0.001463099684428338 0.0055838135537381985 0 0.0014462005753724031 0.0055806851178464038 0 0.0013718426605472493 0.0056031759105854258 0 0.0014320915397462739 0.0056087359889596244 0 0.0013718426605472493 0.0056031759105854258 0 0.0014320915397462739 0.0056087359889596244 0 0.0013937075640510063 0.0055688907125732989 0 0.0014481775357931188 0.0055790389780767053 0 0.0014320915397462739 0.0056087359889596244 0 0.0014949805778666485 0.0055953264215963657 0 0.0014320915397462739 0.0056087359889596244 0 0.0014722099934134953 0.0056516801234735917 0 0.0014949805778666485 0.0055953264215963657 0 0.0014481775357931188 0.0055790389780767053 0 0.0014949805778666485 0.0055953264215963657 0 0.0014714973829322918 0.005537670537877769 0 0.0014481775357931188 0.0055790389780767053 0 0.0014320915397462739 0.0056087359889596244 0 0.0013937075640510063 0.0055688907125732989 0 0.0014462005753724031 0.0055806851178464038 0 0.0014320915397462739 0.0056087359889596244 0 0.0014722099934134953 0.0056516801234735917 0 0.001590593445141286 0.0055537067819098644 0 0.0014462005753724031 0.0055806851178464038 0 0.0016187465018628906 0.005510265117909645 0 0.0014597591480280561 0.005580647760320797 0 0.001548297398619755 0.0055816210237067693 0 0.001548297398619755 0.0055816210237067693 0 0.0016188767830243086 0.0055794894198727633 0 0.0016123225851700769 0.0055064270353538721 0 0.0016187465018628906 0.005510265117909645 0 0.0016047638783215563 0.005521554239647208 0 0.0014722099934134953 0.0056516801234735917 0 0.0016505665941312178 0.005646017685461505 0 0.0015859877599264151 0.0056041795926375908 0 0.0016123225851700769 0.0055064270353538721 0 0.0015890965352419603 0.005484542259557185 0 0.0016047638783215563 0.005521554239647208 0 0.0016505665941312178 0.005646017685461505 0 0.0015859877599264151 0.0056041795926375908 0 0.0016662283500742889 0.0056323138865401424 0 0.0016791208258038922 0.0056963087071670963 0 0.0016662283500742889 0.0056323138865401424 0 0.001700952228083241 0.0057068406461839791 0 0.0016190691751625682 0.0056124064390506902 0 0.0016614294779207235 0.0056322375035873619 0 0.0015859877599264151 0.0056041795926375908 0 0.0015652900972218304 0.0055317762706723677 0 0.0016662283500742889 0.0056323138865401424 0 0.0014722099934134953 0.0056516801234735917 0 0.0015859877599264151 0.0056041795926375908 0 0.0014949805778666485 0.0055953264215963657 0 0.0015859877599264151 0.0056041795926375908 0 0.0014949805778666485 0.0055953264215963657 0 0.0015652900972218304 0.0055317762706723677 0 0.0014949805778666485 0.0055953264215963657 0 0.0015652900972218304 0.0055317762706723677 0 0.0014714973829322918 0.005537670537877769 0 0.0016190691751625682 0.0056124064390506902 0 0.0015054797645797356 0.0055397121190352526 0 0.0015652900972218304 0.0055317762706723677 0 0.0014601715965205614 0.0054619066609687683 0 0.0014714973829322918 0.005537670537877769 0 0.0016791208258038922 0.0056963087071670963 0 0.0017135167558272049 0.0056355801722802147 0 0.001700952228083241 0.0057068406461839791 0 0.0017135167558272049 0.0056355801722802147 0 0.0016489888921168341 0.0056209824290861599 0 0.0017313263556695494 0.0054926788406934116 0 0.0016791208258038922 0.0056963087071670963 0 0.0017135167558272049 0.0056355801722802147 0 0.0016489888921168341 0.0056209824290861599 0 0.0016611001522950797 0.0056097314836826328 0 0.0017899494904204741 0.0055037826684728435 0 0.0016791208258038922 0.0056963087071670963 0 0.0016489888921168341 0.0056209824290861599 0 0.0015498582718580802 0.0056195704110672245 0 0.0016489888921168341 0.0056209824290861599 0 0.0015498582718580802 0.0056195704110672245 0 0.0016081423685950019 0.0055210030585809916 0 0.0014601715965205614 0.0054619066609687683 0 0.0013762446027075614 0.0055024847216020283 0 0.0013387454393459736 0.0053768998229163202 0 0.0014601715965205614 0.0054619066609687683 0 0.0013762446027075614 0.0055024847216020283 0 0.0014714973829322918 0.005537670537877769 0 0.0012770750500267053 0.0054780757761485029 0 0.0013762446027075614 0.0055024847216020283 0 0.0013030434046125291 0.0055534143226842548 0 0.0012770750500267053 0.0054780757761485029 0 0.0013762446027075614 0.0055024847216020283 0 0.0013387454393459736 0.0053768998229163202 0 0.0013718426605472493 0.0056031759105854258 0 0.0013030434046125291 0.0055534143226842548 0 0.0013937075640510063 0.0055688907125732989 0 0.0013762446027075614 0.0055024847216020283 0 0.0013030434046125291 0.0055534143226842548 0 0.0013937075640510063 0.0055688907125732989 0 0.0014481775357931188 0.0055790389780767053 0 0.0013937075640510063 0.0055688907125732989 0 0.0014714973829322918 0.005537670537877769 0 0.0013762446027075614 0.0055024847216020283 0 0.0013937075640510063 0.0055688907125732989 0 0.0014714973829322918 0.005537670537877769 0 0.0013600583678395931 0.0055539945899956283 0 0.0014209986858832828 0.0054950348209534027 0 0.0014254901335267653 0.0056129970582253722 0 0.0014209986858832828 0.0054950348209534027 0 0.0014254901335267653 0.0056129970582253722 0 0.0014996243974092279 0.0055793665554037357 0 0.0014982272187750042 0.0054986730564303985 0 0.0014209986858832828 0.0054950348209534027 0 0.0014996243974092279 0.0055793665554037357 0 0.0014254901335267653 0.0056129970582253722 0 0.0014996243974092279 0.0055793665554037357 0 0.0015212427613001105 0.0056994672978122416 0 0.0014996243974092279 0.0055793665554037357 0 0.0015925237819080168 0.0056342222175789717 0 0.0015672485787346392 0.0055500238736420175 0 0.0014996243974092279 0.0055793665554037357 0 0.0015925237819080168 0.0056342222175789717 0 0.0015212427613001105 0.0056994672978122416 0 0.0014982272187750042 0.0054986730564303985 0 0.0014996243974092279 0.0055793665554037357 0 0.0015672485787346392 0.0055500238736420175 0 0.0015548518497321136 0.005483589542839196 0 0.0016047638783215563 0.005521554239647208 0 0.0015672485787346392 0.0055500238736420175 0 0.0016188767830243086 0.0055794894198727633 0 0.0015656286105200181 0.0055573575105005097 0 0.0016505665941312178 0.005646017685461505 0 0.0015672485787346392 0.0055500238736420175 0 0.0016662283500742889 0.0056323138865401424 0 0.0015925237819080168 0.0056342222175789717 0 0.0015672485787346392 0.0055500238736420175 0 0.0016662283500742889 0.0056323138865401424 0 0.0015925237819080168 0.0056342222175789717 0 0.0016662283500742889 0.0056323138865401424 0 0.001700952228083241 0.0057068406461839791 0 0.0017135167558272049 0.0056355801722802147 0 0.001700952228083241 0.0057068406461839791 0 0.0018620295984079752 0.005589682069427766 0 0.0017135167558272049 0.0056355801722802147 0 0.0018620295984079752 0.005589682069427766 0 0.0017313263556695494 0.0054926788406934116 0 0.0018620295984079752 0.005589682069427766 0 0.0020189061404984939 0.0057490141240629147 0 0.0021096290160995956 0.0055313372363783066 0 0.0017007658812630206 0.0057145336545558279 0 0.001805019665172038 0.005708703483480908 0 0.001700952228083241 0.0057068406461839791 0 0.0018620295984079752 0.005589682069427766 0 0.0020189061404984939 0.0057490141240629147 0 0.0015925237819080168 0.0056342222175789717 0 0.001700952228083241 0.0057068406461839791 0 0.0015212427613001105 0.0056994672978122416 0 0.001805019665172038 0.005708703483480908 0 0.0017421789784449857 0.0057571728665760944 0 0.0020189061404984939 0.0057490141240629147 0 0.0023119510762354863 0.0057085578788107199 0 0.0021096290160995956 0.0055313372363783066 0 0.0023119510762354863 0.0057085578788107199 0 0.0022954110544123581 0.005492612867915741 0 0.0021096290160995956 0.0055313372363783066 0 0.0024574357605914674 0.0055091942598927204 0 0.0023119510762354863 0.0057085578788107199 0 0.0022954110544123581 0.005492612867915741 0 0.0014254901335267653 0.0056129970582253722 0 0.0015212427613001105 0.0056994672978122416 0 0.0014251626196974696 0.0056892258315852252 0 0.002435572972966035 0.0052771849654899717 0 0.002377780069071439 0.0053614277468283849 0 0.0023825137452413762 0.0052383431317568514 0 0.002377780069071439 0.0053614277468283849 0 0.0022095122672605599 0.0053610167200241624 0 0.0023825137452413762 0.0052383431317568514 0 0.002377780069071439 0.0053614277468283849 0 0.0022954110544123581 0.005492612867915741 0 0.0022095122672605599 0.0053610167200241624 0 0.0024574357605914674 0.0055091942598927204 0 0.002377780069071439 0.0053614277468283849 0 0.0022954110544123581 0.005492612867915741 0 0.0021096290160995956 0.0055313372363783066 0 0.0022095122672605599 0.0053610167200241624 0 0.0019198385282647573 0.0053391125904212024 0 0.0022954110544123581 0.005492612867915741 0 0.0021096290160995956 0.0055313372363783066 0 0.0022095122672605599 0.0053610167200241624 0 0.0022095122672605599 0.0053610167200241624 0 0.0021472166496220584 0.0052024845422298559 0 0.0023825137452413762 0.0052383431317568514 0 0.0022095122672605599 0.0053610167200241624 0 0.0019198385282647573 0.0053391125904212024 0 0.0021472166496220584 0.0052024845422298559 0 0.0019799300536587159 0.005362824384489478 0 0.0021913637235216263 0.0052236339750995984 0 0.0018620295984079752 0.005589682069427766 0 0.0021096290160995956 0.0055313372363783066 0 0.0019198385282647573 0.0053391125904212024 0 0.0018620295984079752 0.005589682069427766 0 0.0019198385282647573 0.0053391125904212024 0 0.0017313263556695494 0.0054926788406934116 0 0.0019799300536587159 0.005362824384489478 0 0.0017899494904204741 0.0055037826684728435 0 0.0020392177564265415 0.0053843450396100162 0 0.001842769214051673 0.0055158066740873405 0 0.0018329666967055677 0.0052340243852251256 0 0.0020392177564265415 0.0053843450396100162 0 0.0020350137522938219 0.0051888818311811866 0 0.0018329666967055677 0.0052340243852251256 0 0.0020006377310081676 0.0049999881094510215 0 0.0020350137522938219 0.0051888818311811866 0 0.0018329666967055677 0.0052340243852251256 0 0.0020006377310081676 0.0049999881094510215 0 0.0021715742278549861 0.005109563120982207 0 0.0020350137522938219 0.0051888818311811866 0 0.0020006377310081676 0.0049999881094510215 0 0.0021715742278549861 0.005109563120982207 0 0.0022779545627794853 0.0049999942386271673 0 0.0020392177564265415 0.0053843450396100162 0 0.0020350137522938219 0.0051888818311811866 0 0.0022324480700387219 0.005242466143423055 0 0.0021715742278549861 0.005109563120982207 0 0.0020350137522938219 0.0051888818311811866 0 0.0022324480700387219 0.005242466143423055 0 0.0021715742278549861 0.005109563120982207 0 0.0022324480700387219 0.005242466143423055 0 0.0024073954451108146 0.0050927356492219888 0 0.0021913637235216263 0.0052236339750995984 0 0.0023856142238042398 0.0051003983689665629 0 0.0021715742278549861 0.005109563120982207 0 0.0022779545627794853 0.0049999942386271673 0 0.0024073954451108146 0.0050927356492219888 0 0.0025552595235615108 0.0049999733799319084 0 0.0022779545627794853 0.0049999942386271673 0 0.0024073954451108146 0.0050927356492219888 0 0.0025495149699190436 0.0051342936146560221 0 0.0024073954451108146 0.0050927356492219888 0 0.0023825137452413762 0.0052383431317568514 0 0.0021472166496220584 0.0052024845422298559 0 0.0024073954451108146 0.0050927356492219888 0 0.0023825137452413762 0.0052383431317568514 0 0.0013790617039171737 0.0054701393288484014 0 0.0016205081301438821 0.0053620621777087374 0 0.0014487645041635164 0.0052378683471575307 0 0.0013790617039171737 0.0054701393288484014 0 0.0014487645041635164 0.0052378683471575307 0 0.001200642282165415 0.0052844880991204076 0 0.0013575341918866445 0.0054218498696728254 0 0.001213522825728595 0.0052932288281958336 0 0.0012770750500267053 0.0054780757761485029 0 0.0013387454393459736 0.0053768998229163202 0 0.0011735289715446421 0.00541215949114716 0 0.0015498582718580802 0.0056195704110672245 0 0.0013790617039171737 0.0054701393288484014 0 0.0016081423685950019 0.0055210030585809916 0 0.0015054797645797356 0.0055397121190352526 0 0.0013575341918866445 0.0054218498696728254 0 0.0013790617039171737 0.0054701393288484014 0 0.0016081423685950019 0.0055210030585809916 0 0.0016205081301438821 0.0053620621777087374 0 0.0016081423685950019 0.0055210030585809916 0 0.001842769214051673 0.0055158066740873405 0 0.0016205081301438821 0.0053620621777087374 0 0.0016489888921168341 0.0056209824290861599 0 0.0016081423685950019 0.0055210030585809916 0 0.001842769214051673 0.0055158066740873405 0 0.001842769214051673 0.0055158066740873405 0 0.0016205081301438821 0.0053620621777087374 0 0.0018329666967055677 0.0052340243852251256 0 0.0016205081301438821 0.0053620621777087374 0 0.0016264937975505943 0.0051676863630593026 0 0.0014487645041635164 0.0052378683471575307 0 0.0016205081301438821 0.0053620621777087374 0 0.0016264937975505943 0.0051676863630593026 0 0.0018329666967055677 0.0052340243852251256 0 0.0020006377310081676 0.0049999881094510215 0 0.0018329666967055677 0.0052340243852251256 0 0.0017233015430297045 0.0049999909875520377 0 0.0016264937975505943 0.0051676863630593026 0 0.0018329666967055677 0.0052340243852251256 0 0.0017233015430297045 0.0049999909875520377 0 0.0016264937975505943 0.0051676863630593026 0 0.0017233015430297045 0.0049999909875520377 0 0.001445976478841624 0.0049999843423027763 0 0.0016264937975505943 0.0051676863630593026 0 0.001445976478841624 0.0049999843423027763 0 0.0014487645041635164 0.0052378683471575307 0 0.0014487645041635164 0.0052378683471575307 0 0.0012813956019401037 0.0051411728360675115 0 0.001200642282165415 0.0052844880991204076 0 0.001445976478841624 0.0049999843423027763 0 0.0012813956019401037 0.0051411728360675115 0 0.0011686517881861827 0.0049999852006032746 0 0.001445976478841624 0.0049999843423027763 0 0.0014487645041635164 0.0052378683471575307 0 0.0012813956019401037 0.0051411728360675115 0 0.0012813956019401037 0.0051411728360675115 0 0.0011686517881861827 0.0049999852006032746 0 0.001006513942364717 0.0051732009506553498 0 0.0011686517881861827 0.0049999852006032746 0 0.001006513942364717 0.0051732009506553498 0 0.00089133710475209509 0.0049999733487403938 0 0.0012813956019401037 0.0051411728360675115 0 0.001006513942364717 0.0051732009506553498 0 0.001200642282165415 0.0052844880991204076 0 0.00076318414084655943 0.0051155975098040509 0 0.00089133710475209509 0.0049999733487403938 0 0.00061399867884217294 0.0049999756024434938 0 0.001006513942364717 0.0051732009506553498 0 0.00076318414084655943 0.0051155975098040509 0 0.00089133710475209509 0.0049999733487403938 0 0.001006513942364717 0.0051732009506553498 0 0.00076318414084655943 0.0051155975098040509 0 0.00074142185891901222 0.0052750288078680747 0 0.00076318414084655943 0.0051155975098040509 0 0.00074142185891901222 0.0052750288078680747 0 0.00052041671607576129 0.0051684770662815613 0 0.001006513942364717 0.0051732009506553498 0 0.00074142185891901222 0.0052750288078680747 0 0.0010053219463826487 0.005340580376113813 0 0.00074142185891901222 0.0052750288078680747 0 0.00073962958996886586 0.0054585402360466176 0 0.0010053219463826487 0.005340580376113813 0 0.00073962958996886586 0.0054585402360466176 0 0.0010053219463826487 0.005340580376113813 0 0.0010313205172668765 0.0054892810404546712 0 0.001200642282165415 0.0052844880991204076 0 0.0010053219463826487 0.005340580376113813 0 0.0011735289715446421 0.00541215949114716 0 0.001006513942364717 0.0051732009506553498 0 0.001200642282165415 0.0052844880991204076 0 0.0010053219463826487 0.005340580376113813 0 0.0010053219463826487 0.005340580376113813 0 0.0011735289715446421 0.00541215949114716 0 0.0010313205172668765 0.0054892810404546712 0 0.0013387454393459736 0.0053768998229163202 0 0.001200642282165415 0.0052844880991204076 0 0.0011735289715446421 0.00541215949114716 0 0.0012770750500267053 0.0054780757761485029 0 0.0011735289715446421 0.00541215949114716 0 0.0011619190617678365 0.0055179564931016742 0 0.0012770750500267053 0.0054780757761485029 0 0.0013030434046125291 0.0055534143226842548 0 0.0011619190617678365 0.0055179564931016742 0 0.0013030434046125291 0.0055534143226842548 0 0.0011619190617678365 0.0055179564931016742 0 0.0011984977232124764 0.0056001976382211698 0 0.0013718426605472493 0.0056031759105854258 0 0.0013030434046125291 0.0055534143226842548 0 0.0011984977232124764 0.0056001976382211698 0 0.0011984977232124764 0.0056001976382211698 0 0.0010492527943695166 0.0055582126649686894 0 0.0010470300917688104 0.0056646497773305887 0 0.0011619190617678365 0.0055179564931016742 0 0.0011984977232124764 0.0056001976382211698 0 0.0010492527943695166 0.0055582126649686894 0 0.0011619190617678365 0.0055179564931016742 0 0.0010313205172668765 0.0054892810404546712 0 0.0010492527943695166 0.0055582126649686894 0 0.0011735289715446421 0.00541215949114716 0 0.0011619190617678365 0.0055179564931016742 0 0.0010313205172668765 0.0054892810404546712 0 0.0010313205172668765 0.0054892810404546712 0 0.00094338803156101571 0.0055239732176284653 0 0.0010492527943695166 0.0055582126649686894 0 0.0010205719422335829 0.0054956342524942851 0 0.00085263123482338184 0.0055996360838665516 0 0.00073962958996886586 0.0054585402360466176 0 0.0010313205172668765 0.0054892810404546712 0 0.00076299525863374683 0.00568322999711539 0 0.00073962958996886586 0.0054585402360466176 0 0.00076299525863374683 0.00568322999711539 0 0.0005414849625310083 0.0056095473216649363 0 0.00094338803156101571 0.0055239732176284653 0 0.0009302532738493769 0.0056608876168250258 0 0.00074097905695264009 0.0055998368962772837 0 0.00085263123482338184 0.0055996360838665516 0 0.00063825789420711996 0.0057041364209924174 0 0.00094338803156101571 0.0055239732176284653 0 0.0010492527943695166 0.0055582126649686894 0 0.0009302532738493769 0.0056608876168250258 0 0.0010492527943695166 0.0055582126649686894 0 0.0010470300917688104 0.0056646497773305887 0 0.0009302532738493769 0.0056608876168250258 0 0.0010133254280044271 0.0057534345571933505 0 0.00093529951439506637 0.0057653603601564669 0 0.0009302532738493769 0.0056608876168250258 0 0.00085888315539441485 0.0058100611544978226 0 0.00079296099711212995 0.0057290374846702937 0 0.0010249308818371734 0.0057468156644180134 0 0.0009302532738493769 0.0056608876168250258 0 0.00085888315539441485 0.0058100611544978226 0 0.0010249308818371734 0.0057468156644180134 0 0.0010470300917688104 0.0056646497773305887 0 0.0010904963631730566 0.0057001227243479082 0 0.0010249308818371734 0.0057468156644180134 0 0.0010470300917688104 0.0056646497773305887 0 0.0009302532738493769 0.0056608876168250258 0 0.001069093938489879 0.0057243829132289986 0 0.0010249308818371734 0.0057468156644180134 0 0.0010904963631730566 0.0057001227243479082 0 0.001069093938489879 0.0057243829132289986 0 0.0010904963631730566 0.0057001227243479082 0 0.0010859288630491227 0.0057221208218525259 0 0.0014802871590343827 0.0056779416766521559 0 0.0012336441007856219 0.0056205096958466191 0 0.0014830084926623845 0.0055795103416716773 0 0.001463099684428338 0.0055838135537381985 0 0.0013748855354960947 0.0056059385253161053 0 0.0010512800523661489 0.0057406073885813988 0 0.0010859288630491227 0.0057221208218525259 0 0.0011311909688774202 0.0056974293438994544 0 0.0014462005753724031 0.0055806851178464038 0 0.001463099684428338 0.0055838135537381985 0 0.0013748855354960947 0.0056059385253161053 0 0.0014462005753724031 0.0055806851178464038 0 0.0013718426605472493 0.0056031759105854258 0 0.0013748855354960947 0.0056059385253161053 0 0.0010904963631730566 0.0057001227243479082 0 0.0010859288630491227 0.0057221208218525259 0 0.0011311909688774202 0.0056974293438994544 0 0.0012090604855576675 0.0055927091680533173 0 0.0012336441007856219 0.0056205096958466191 0 0.0013718426605472493 0.0056031759105854258 0 0.0011984977232124764 0.0056001976382211698 0 0.0013748855354960947 0.0056059385253161053 0 0.0011984977232124764 0.0056001976382211698 0 0.0010904963631730566 0.0057001227243479082 0 0.0011311909688774202 0.0056974293438994544 0 0.0011984977232124764 0.0056001976382211698 0 0.0010470300917688104 0.0056646497773305887 0 0.0010904963631730566 0.0057001227243479082 0 0.00037593612175776668 0.0057967629921094012 0 0.00030940725869685803 0.0058664888665348469 0 0.00020901719774324136 0.0057222815459776798 0 0.00037593612175776668 0.0057967629921094012 0 0.00030940725869685803 0.0058664888665348469 0 0.00042169435355677741 0.0058530816292107378 0 -1.0003082724419986e-05 0.0057357626078622373 0 1.6541787415699812e-05 0.0056279083088931429 0 -6.2336438161256864e-05 0.0056618865048094881 0 0.00057862435148448997 0.0056657791738581138 0 6.650922369730376e-05 0.0056885280656164524 0 -1.0003082724419986e-05 0.0057357626078622373 0 8.1239315570295765e-05 0.0057560328628215047 0 1.6541787415699812e-05 0.0056279083088931429 0 0.00079099259727029281 0.005288293428925981 0 0.00083015348719594334 0.0053577561116708089 0 0.0007287339598447838 0.005436269686186491 0 0.0008544395597822592 0.0054314879520589322 0 0.00083015348719594334 0.0053577561116708089 0 0.00089201621155253963 0.0053138281530379205 0 0.00079099259727029281 0.005288293428925981 0 0.00083015348719594334 0.0053577561116708089 0 0.00089201621155253963 0.0053138281530379205 0 0.00040287316080057315 0.005512575219729819 0 0.00057862435148448997 0.0056657791738581138 0 0.00030940725869685803 0.0058664888665348469 0 0.00042169435355677741 0.0058530816292107378 0 0.00058793524171215554 0.0058605983742602173 0 0.00057862435148448997 0.0056657791738581138 0 0.00083271333622099496 0.0057976390594266904 0 0.0010498851943518072 0.0057073295195314263 0 0.0010441605972321302 0.0057164082704144609 0 0.0010430821154457158 0.0057172717411845576 0 0.00085888315539441485 0.0058100611544978226 0 0.00058793524171215554 0.0058605983742602173 0 0.00079296099711212995 0.0057290374846702937 0 0.00093529951439506637 0.0057653603601564669 0 0.00083271333622099496 0.0057976390594266904 0 0.0010425068247995114 0.0057132324339178265 0 0.0010383363324663404 0.0057254081391151339 0 0.0010430821154457158 0.0057172717411845576 0 0.00058793524171215554 0.0058605983742602173 0 0.00074097905695264009 0.0055998368962772837 0 0.00079296099711212995 0.0057290374846702937 0 0.0009302532738493769 0.0056608876168250258 0 0.00074097905695264009 0.0055998368962772837 0 0.00079296099711212995 0.0057290374846702937 0 0.00043517093427342541 0.0058424032417679879 0 0.00063825789420711996 0.0057041364209924174 0 0.00037593612175776668 0.0057967629921094012 0 0.00053714391659695525 0.0057961797232936648 0 0.00037289049209218613 0.0057431629126674828 0 0.00037593612175776668 0.0057967629921094012 0 0.00042169435355677741 0.0058530816292107378 0 0.00053714391659695525 0.0057961797232936648 0 0.00042169435355677741 0.0058530816292107378 0 0.00058793524171215554 0.0058605983742602173 0 0.00074097905695264009 0.0055998368962772837 0 0.00053714391659695525 0.0057961797232936648 0 0.00044570765842062021 0.0056890479138753296 0 0.00037289049209218613 0.0057431629126674828 0 0.00044570765842062021 0.0056890479138753296 0 0.00033122108378848714 0.0055993355452365048 0 0.00037289049209218613 0.0057431629126674828 0 0.00053714391659695525 0.0057961797232936648 0 0.00044570765842062021 0.0056890479138753296 0 0.0005414849625310083 0.0056095473216649363 0 0.00076299525863374683 0.00568322999711539 0 0.00053714391659695525 0.0057961797232936648 0 0.0005414849625310083 0.0056095473216649363 0 0.00044570765842062021 0.0056890479138753296 0 0.0005414849625310083 0.0056095473216649363 0 0.00033122108378848714 0.0055993355452365048 0 0.0005414849625310083 0.0056095473216649363 0 0.00033122108378848714 0.0055993355452365048 0 0.00046447962261588968 0.005389634732889427 0 0.00033122108378848714 0.0055993355452365048 0 0.00037289049209218613 0.0057431629126674828 0 0.00020901719774324136 0.0057222815459776798 0 0.00037593612175776668 0.0057967629921094012 0 0.00037289049209218613 0.0057431629126674828 0 0.00020901719774324136 0.0057222815459776798 0 1.6541787415699812e-05 0.0056279083088931429 0 -9.1022339564499616e-05 0.0055511814849756192 0 -3.9518149845231828e-05 0.0055020432411559657 0 0.00033122108378848714 0.0055993355452365048 0 0.00020901719774324136 0.0057222815459776798 0 7.0614921377087119e-05 0.0055501603031975176 0 6.650922369730376e-05 0.0056885280656164524 0 1.9038764432346104e-05 0.0055181879035057241 0 0.00020913894263661098 0.0054262930623323116 0 -8.1808690066041879e-05 0.0053453473086603033 0 7.0614921377087119e-05 0.0055501603031975176 0 0.00033122108378848714 0.0055993355452365048 0 0.00020913894263661098 0.0054262930623323116 0 7.0614921377087119e-05 0.0055501603031975176 0 0.00033122108378848714 0.0055993355452365048 0 0.00020913894263661098 0.0054262930623323116 0 0.00046447962261588968 0.005389634732889427 0 0.00020913894263661098 0.0054262930623323116 0 0.00046447962261588968 0.005389634732889427 0 0.00020194267473512502 0.0052324954171610845 0 0.00020913894263661098 0.0054262930623323116 0 0.00020194267473512502 0.0052324954171610845 0 -8.1808690066041879e-05 0.0053453473086603033 0 0.00046447962261588968 0.005389634732889427 0 0.00052041671607576129 0.0051684770662815613 0 0.00020194267473512502 0.0052324954171610845 0 0.00073962958996886586 0.0054585402360466176 0 0.0005414849625310083 0.0056095473216649363 0 0.00046447962261588968 0.005389634732889427 0 0.00074142185891901222 0.0052750288078680747 0 0.00073962958996886586 0.0054585402360466176 0 0.00046447962261588968 0.005389634732889427 0 0.00074142185891901222 0.0052750288078680747 0 0.00046447962261588968 0.005389634732889427 0 0.00052041671607576129 0.0051684770662815613 0 0.00052041671607576129 0.0051684770662815613 0 0.00033667195973744374 0.0049999788983913582 0 0.00020194267473512502 0.0052324954171610845 0 0.00076318414084655943 0.0051155975098040509 0 0.00052041671607576129 0.0051684770662815613 0 0.00061399867884217294 0.0049999756024434938 0 0.00052041671607576129 0.0051684770662815613 0 0.00033667195973744374 0.0049999788983913582 0 0.00061399867884217294 0.0049999756024434938 0 0.00033667195973744374 0.0049999788983913582 0 0.00020194267473512502 0.0052324954171610845 0 5.9332732170313758e-05 0.0049999773281781471 0 0.00020194267473512502 0.0052324954171610845 0 5.9332732170313758e-05 0.0049999773281781471 0 -7.2941565470666255e-05 0.0051496351187436699 0 5.9332732170313758e-05 0.0049999773281781471 0 -7.2941565470666255e-05 0.0051496351187436699 0 -0.00021799567610429388 0.0049999864508791705 0 0.00020194267473512502 0.0052324954171610845 0 -7.2941565470666255e-05 0.0051496351187436699 0 -8.1808690066041879e-05 0.0053453473086603033 0 -7.2941565470666255e-05 0.0051496351187436699 0 -0.0002918534562631501 0.0051421604520344852 0 -8.1808690066041879e-05 0.0053453473086603033 0 -0.0002918534562631501 0.0051421604520344852 0 -0.00035738942989993954 0.0052786562769830169 0 -8.1808690066041879e-05 0.0053453473086603033 0 -7.2941565470666255e-05 0.0051496351187436699 0 -0.0002918534562631501 0.0051421604520344852 0 -0.00021799567610429388 0.0049999864508791705 0 -0.0002918534562631501 0.0051421604520344852 0 -0.00045069657801270237 0.0050442046088020106 0 -0.00047146401809434302 0.0050474002960460701 0 -0.00021799567610429388 0.0049999864508791705 0 -0.00045069657801270237 0.0050442046088020106 0 -0.00049530682208707706 0.0049999893334301123 0 -0.0002918534562631501 0.0051421604520344852 0 -0.00021799567610429388 0.0049999864508791705 0 -0.00045069657801270237 0.0050442046088020106 0 -0.001084958612496112 0.004946341950741423 0 -0.0011276951418663574 0.0050067940978931408 0 -0.0012027342377421454 0.0049549946857711594 0 -0.00049535974822629029 0.0049999969849681752 0 -0.00048102109583089128 0.0050514619922442565 0 -0.0007754653884370536 0.0050979367328557942 0 -0.00049567131015563798 0.0050000590559912388 0 -0.00070391733822672113 0.0049712789767676017 0 -0.00045069657801270237 0.0050442046088020106 0 -0.00049530682208707706 0.0049999893334301123 0 -0.0004750992733232149 0.0050487365082675694 0 -0.00066130194195090832 0.00497023499425617 0 -0.00070391733822672113 0.0049712789767676017 0 -0.001084958612496112 0.004946341950741423 0 -0.0011276951418663574 0.0050067940978931408 0 -0.0010785156492662533 0.0050227693007744495 0 -0.00070391733822672113 0.0049712789767676017 0 -0.00072996812064725857 0.0051404865058615979 0 -0.0002918534562631501 0.0051421604520344852 0 -0.00047146401809434302 0.0050474002960460701 0 -0.00035738942989993954 0.0052786562769830169 0 -0.00072996812064725857 0.0051404865058615979 0 -0.00066061436455897666 0.0053169545477373976 0 -0.0011276951418663574 0.0050067940978931408 0 -0.0010785156492662533 0.0050227693007744495 0 -0.0011115595463655303 0.0050456584177839357 0 -0.0010785156492662533 0.0050227693007744495 0 -0.0011115595463655303 0.0050456584177839357 0 -0.0010678977370614995 0.005058683358361897 0 -0.0011115595463655303 0.0050456584177839357 0 -0.0010678977370614995 0.005058683358361897 0 -0.0010911409936585964 0.0050737188586977818 0 -0.0002602354010618344 0.0054798807133484059 0 -0.00012567808577093259 0.0054865385143887174 0 -8.1808690066041879e-05 0.0053453473086603033 0 -7.7151333667455991e-05 0.0053516931047038283 0 1.9038764432346104e-05 0.0055181879035057241 0 -0.00012567808577093259 0.0054865385143887174 0 -8.1808690066041879e-05 0.0053453473086603033 0 -3.9518149845231828e-05 0.0055020432411559657 0 -0.00035738942989993954 0.0052786562769830169 0 -0.0002602354010618344 0.0054798807133484059 0 -8.1808690066041879e-05 0.0053453473086603033 0 -0.0013709696077368837 0.0050624170211102373 0 -0.0013298321384950878 0.0050017149055025922 0 -0.001406363159378566 0.0050939548129938115 0 -0.0013402494413517357 0.0050518432582769479 0 -0.0012969079503704043 0.0050326748950188377 0 -0.0013625644377246325 0.0051082889193844062 0 -0.0011948194989941287 0.0050690021977689865 0 -0.001390141852313659 0.0050937242536609256 0 -0.0013709696077368837 0.0050624170211102373 0 -0.0013625644377246325 0.0051082889193844062 0 -0.0014019124791519464 0.0050801135866014643 0 -0.0013709696077368837 0.0050624170211102373 0 -0.0013402494413517357 0.0050518432582769479 0 -0.0013625644377246325 0.0051082889193844062 0 -0.0013709696077368837 0.0050624170211102373 0 -0.0013402494413517357 0.0050518432582769479 0 -0.0013298321384950878 0.0050017149055025922 0 -0.0012624940661672135 0.0050676941220875703 0 -0.0011836518269101094 0.0050469474234785512 0 -0.0010733002350307357 0.005143579187548636 0 -0.0012624940661672135 0.0050676941220875703 0 -0.0010733002350307357 0.005143579187548636 0 -0.001406363159378566 0.0050939548129938115 0 -0.0011836518269101094 0.0050469474234785512 0 -0.0010515007283483308 0.0049999857385261892 0 -0.0013296077657309053 0.0049999493602432658 0 -0.0012624940661672135 0.0050676941220875703 0 -0.0011836518269101094 0.0050469474234785512 0 -0.0013296077657309053 0.0049999493602432658 0 -0.0011836518269101094 0.0050469474234785512 0 -0.0010733002350307357 0.005143579187548636 0 -0.0010515007283483308 0.0049999857385261892 0 -0.0010733002350307357 0.005143579187548636 0 -0.0010515007283483308 0.0049999857385261892 0 -0.0007754653884370536 0.0050979367328557942 0 -0.0013298321384950878 0.0050017149055025922 0 -0.0012969079503704043 0.0050326748950188377 0 -0.0012610975204929461 0.0050115931499345413 0 -0.0013402494413517357 0.0050518432582769479 0 -0.0013298321384950878 0.0050017149055025922 0 -0.0012969079503704043 0.0050326748950188377 0 -0.0012136927701571327 0.0050167662529378119 0 -0.0012610975204929461 0.0050115931499345413 0 -0.0012624127997237324 0.005041690011487617 0 -0.0012969079503704043 0.0050326748950188377 0 -0.0012610975204929461 0.0050115931499345413 0 -0.0012624127997237324 0.005041690011487617 0 -0.0012136927701571327 0.0050167662529378119 0 -0.0012610975204929461 0.0050115931499345413 0 -0.0012027342377421454 0.0049549946857711594 0 -0.0011948194989941287 0.0050690021977689865 0 -0.0010076050117440861 0.0050331709008612537 0 -0.0010515007283483308 0.0049999857385261892 0 -0.0007754653884370536 0.0050979367328557942 0 -0.00077341412494762282 0.005000003523330852 0 -0.0013298321384950878 0.0050017149055025922 0 -0.0012610975204929461 0.0050115931499345413 0 -0.0012027342377421454 0.0049549946857711594 0 -0.00049535974822629029 0.0049999969849681752 0 -0.0007754653884370536 0.0050979367328557942 0 -0.00077341412494762282 0.005000003523330852 0 -0.00070391733822672113 0.0049712789767676017 0 -0.0010076050117440861 0.0050331709008612537 0 -0.0011276951418663574 0.0050067940978931408 0 -0.0012136927701571327 0.0050167662529378119 0 -0.0012027342377421454 0.0049549946857711594 0 -0.0011276951418663574 0.0050067940978931408 0 -0.0012136927701571327 0.0050167662529378119 0 -0.0012170729014016062 0.0050771525327657835 0 -0.0011276951418663574 0.0050067940978931408 0 -0.0011115595463655303 0.0050456584177839357 0 -0.00114004502085935 0.0050313628834062251 0 -0.0011306838261995564 0.0050095405648073249 0 -0.0011763612931641261 0.0050513884374410595 0 -0.0011115595463655303 0.0050456584177839357 0 -0.001138995342294962 0.0050538458948909768 0 -0.0011223126081039208 0.0050720294840618345 0 -0.0011115595463655303 0.0050456584177839357 0 -0.001138995342294962 0.0050538458948909768 0 -0.00114004502085935 0.0050313628834062251 0 -0.0011763612931641261 0.0050513884374410595 0 -0.0012383373403160112 0.0050944024693701153 0 -0.001138995342294962 0.0050538458948909768 0 -0.00114004502085935 0.0050313628834062251 0 -0.0011611277164367208 0.0050515990615857421 0 -0.0012136927701571327 0.0050167662529378119 0 -0.0012170729014016062 0.0050771525327657835 0 -0.0012624127997237324 0.005041690011487617 0 -0.0012170729014016062 0.0050771525327657835 0 -0.0012624127997237324 0.005041690011487617 0 -0.0013032265987108545 0.0051333584976183313 0 -0.0012728002877564815 0.0050431370132434407 0 -0.0013951684915590983 0.0050658714416745715 0 -0.0012624127997237324 0.005041690011487617 0 -0.0013032265987108545 0.0051333584976183313 0 -0.0014239365458001724 0.0050224498866259923 0 -0.0012969079503704043 0.0050326748950188377 0 -0.0012624127997237324 0.005041690011487617 0 -0.0013625644377246325 0.0051082889193844062 0 -0.0014172991875169394 0.0051263765067532446 0 -0.0014239365458001724 0.0050224498866259923 0 -0.0015145937396156559 0.0050931952645662647 0 -0.0013032265987108545 0.0051333584976183313 0 -0.0014172991875169394 0.0051263765067532446 0 -0.0014239365458001724 0.0050224498866259923 0 -0.0012557176474019762 0.0051508122249603735 0 -0.0016736315113650034 0.0050717117645567673 0 -0.0011930361081075784 0.0050946319083731324 0 -0.0011869190358653966 0.0050701654366691199 0 -0.00121980372154531 0.005093105341167959 0 -0.0011930361081075784 0.0050946319083731324 0 -0.0011869190358653966 0.0050701654366691199 0 -0.0011783976893853119 0.005084460667907186 0 -0.0011930361081075784 0.0050946319083731324 0 -0.0011783976893853119 0.005084460667907186 0 -0.0011799052406803025 0.0050947724345125033 0 -0.0014172991875169394 0.0051263765067532446 0 -0.0014062076487263364 0.0052209771374241839 0 -0.0015205801476397291 0.0051826604211266747 0 -0.0012383373403160112 0.0050944024693701153 0 -0.0012557176474019762 0.0051508122249603735 0 -0.0013032265987108545 0.0051333584976183313 0 -0.0014172991875169394 0.0051263765067532446 0 -0.0014062076487263364 0.0052209771374241839 0 -0.0011611277164367208 0.0050515990615857421 0 -0.0011869190358653966 0.0050701654366691199 0 -0.001156450634971483 0.0050743652446533305 0 -0.0011869190358653966 0.0050701654366691199 0 -0.0011783976893853119 0.005084460667907186 0 -0.001156450634971483 0.0050743652446533305 0 -0.0011783976893853119 0.005084460667907186 0 -0.0011658455237662456 0.005092175975483555 0 -0.001156450634971483 0.0050743652446533305 0 -0.0011783976893853119 0.005084460667907186 0 -0.0011799052406803025 0.0050947724345125033 0 -0.0011658455237662456 0.005092175975483555 0 -0.0011658455237662456 0.005092175975483555 0 -0.001156450634971483 0.0050743652446533305 0 -0.0011404520701804846 0.0051012345944142137 0 -0.001156450634971483 0.0050743652446533305 0 -0.0011223126081039208 0.0050720294840618345 0 -0.0011404520701804846 0.0051012345944142137 0 -0.001138995342294962 0.0050538458948909768 0 -0.001156450634971483 0.0050743652446533305 0 -0.0011223126081039208 0.0050720294840618345 0 -0.001138995342294962 0.0050538458948909768 0 -0.0011611277164367208 0.0050515990615857421 0 -0.001156450634971483 0.0050743652446533305 0 -0.0011223126081039208 0.0050720294840618345 0 -0.0011404520701804846 0.0051012345944142137 0 -0.0010988576145376076 0.0050978967439809291 0 -0.0010115207030118251 0.0045876433130231549 0 -0.00099341829991967117 0.0044714978572873041 0 -0.00083241135121228714 0.0040752588858708602 0 -0.00088912790742371275 0.0040153624416301636 0 -0.0007858368368076137 0.0040097517459684942 0 -0.00083241135121228714 0.0040752588858708602 0 -0.00090154083435593161 0.0040797985942697505 0 -0.00088912790742371275 0.0040153624416301636 0 -0.00090154083435593161 0.0040797985942697505 0 -0.00088912790742371275 0.0040153624416301636 0 -0.0009565492294196055 0.0040495791285490778 0 -0.00088912790742371275 0.0040153624416301636 0 -0.0009565492294196055 0.0040495791285490778 0 -0.00099330281449955672 0.0040314995765840262 0 -0.0011658455237662456 0.005092175975483555 0 -0.0011404520701804846 0.0051012345944142137 0 -0.0011828291250306712 0.0051073397968358792 0 -0.0010115207030118251 0.0045876433130231549 0 -0.0010678422856409402 0.0044449155924402113 0 -0.0011799052406803025 0.0050947724345125033 0 -0.0011658455237662456 0.005092175975483555 0 -0.0011828291250306712 0.0051073397968358792 0 -0.0010398638812250621 0.0041338456496021981 0 -0.0010678422856409402 0.0044449155924402113 0 -0.0009565492294196055 0.0040495791285490778 0 -0.0010038691939802077 0.0040820331148351697 0 -0.00099374672585144362 0.0040305265527790859 0 -0.00090154083435593161 0.0040797985942697505 0 -0.0009565492294196055 0.0040495791285490778 0 -0.00095842112543740611 0.0040919627386639028 0 -0.0009565492294196055 0.0040495791285490778 0 -0.00095842112543740611 0.0040919627386639028 0 -0.0010038691939802077 0.0040820331148351697 0 -0.0010038691939802077 0.0040820331148351697 0 -0.00099374672585144362 0.0040305265527790859 0 -0.0010544519570822174 0.0040425063559652629 0 -0.0010038691939802077 0.0040820331148351697 0 -0.0010483142806256098 0.0041071981960594563 0 -0.0010544519570822174 0.0040425063559652629 0 -0.0013841529287230054 0.0049252151611286201 0 -0.0015455167642154269 0.0046382099667261392 0 -0.0010678422856409402 0.0044449155924402113 0 -0.0015455167642154269 0.0046382099667261392 0 -0.0011860138104884121 0.0046327477069875106 0 -0.0013563047548787229 0.0045409126092623899 0 -0.001481170148322726 0.004690160459689301 0 -0.0011930361081075784 0.0050946319083731324 0 -0.0011828291250306712 0.0051073397968358792 0 -0.001198603666711411 0.0051003902316580918 0 -0.0010678422856409402 0.0044449155924402113 0 -0.0013841529287230054 0.0049252151611286201 0 -0.0011930361081075784 0.0050946319083731324 0 -0.0011799052406803025 0.0050947724345125033 0 -0.0011828291250306712 0.0051073397968358792 0 -0.0013251938998021175 0.0049859773245955171 0 -0.0013841529287230054 0.0049252151611286201 0 -0.0011930361081075784 0.0050946319083731324 0 -0.0012010744502370149 0.0051030062710485024 0 -0.00121980372154531 0.005093105341167959 0 -0.0001377546769700249 0.0055849035680739789 0 -0.00019081369132320535 0.0056337904736188356 0 -0.00016817124969997969 0.005542351023175106 0 -0.00060365039871798404 0.0051358102657326123 0 -3.0915452623947421e-05 0.0055292421281002407 0 -0.0001377546769700249 0.0055849035680739789 0 -0.00019081369132320535 0.0056337904736188356 0 -0.00010124886934819683 0.0056118875483124712 0 -0.00069850043016172559 0.004010260183089997 0 -0.00073626041480779269 0.0040324085697863591 0 -0.00070872899994826411 0.0040341170869736499 0 -0.00012815341926613761 0.005621794940178098 0 -0.00011238938919146542 0.0056280201747844873 0 -0.00011692234969133327 0.0056263947324300028 0 -0.00012815341926613761 0.005621794940178098 0 -0.00011238938919146542 0.0056280201747844873 0 -0.00010124886934819683 0.0056118875483124712 0 -0.00011238938919146542 0.0056280201747844873 0 -0.00010124886934819683 0.0056118875483124712 0 -6.2336438161256864e-05 0.0056618865048094881 0 1.6541787415699812e-05 0.0056279083088931429 0 -0.00010124886934819683 0.0056118875483124712 0 -6.2336438161256864e-05 0.0056618865048094881 0 1.6541787415699812e-05 0.0056279083088931429 0 -0.00010124886934819683 0.0056118875483124712 0 -9.1022339564499616e-05 0.0055511814849756192 0 -0.0001377546769700249 0.0055849035680739789 0 -0.00010124886934819683 0.0056118875483124712 0 -9.1022339564499616e-05 0.0055511814849756192 0 -0.0001377546769700249 0.0055849035680739789 0 -9.1022339564499616e-05 0.0055511814849756192 0 -0.00016817124969997969 0.005542351023175106 0 -0.00012567808577093259 0.0054865385143887174 0 -9.1022339564499616e-05 0.0055511814849756192 0 -3.9518149845231828e-05 0.0055020432411559657 0 -0.00012567808577093259 0.0054865385143887174 0 -9.1022339564499616e-05 0.0055511814849756192 0 -0.00016817124969997969 0.005542351023175106 0 -0.0002602354010618344 0.0054798807133484059 0 -0.00012567808577093259 0.0054865385143887174 0 -0.00016817124969997969 0.005542351023175106 0 -0.0002602354010618344 0.0054798807133484059 0 -0.00019081369132320535 0.0056337904736188356 0 -0.00016817124969997969 0.005542351023175106 0 -0.00066061436455897666 0.0053169545477373976 0 -0.00060365039871798404 0.0051358102657326123 0 -0.0010678977370614995 0.005058683358361897 0 -0.0010535305169765297 0.0050943104195727285 0 -0.0010911409936585964 0.0050737188586977818 0 -0.0011115595463655303 0.0050456584177839357 0 -0.0011223126081039208 0.0050720294840618345 0 -0.0010911409936585964 0.0050737188586977818 0 -0.0011223126081039208 0.0050720294840618345 0 -0.0010911409936585964 0.0050737188586977818 0 -0.0010988576145376076 0.0050978967439809291 0 -0.0010535305169765297 0.0050943104195727285 0 -0.0010911409936585964 0.0050737188586977818 0 -0.0010988576145376076 0.0050978967439809291 0 -0.00069850043016172559 0.004010260183089997 0 -0.0007858368368076137 0.0040097517459684942 0 -0.00073626041480779269 0.0040324085697863591 0 -0.00060365039871798404 0.0051358102657326123 0 -0.00099341829991967117 0.0044714978572873041 0 -0.00073626041480779269 0.0040324085697863591 0 -0.00071111462834556286 0.0040460512109484923 0 -0.00070872899994826411 0.0040341170869736499 0 -0.00073626041480779269 0.0040324085697863591 0 -0.00076219257845467454 0.0040705527861518475 0 -0.00071116680551081121 0.0040689283945075146 0 -0.0007858368368076137 0.0040097517459684942 0 -0.00073626041480779269 0.0040324085697863591 0 -0.00076219257845467454 0.0040705527861518475 0 -0.00073626041480779269 0.0040324085697863591 0 -0.00071116680551081121 0.0040689283945075146 0 -0.00071111462834556286 0.0040460512109484923 0 -0.00083241135121228714 0.0040752588858708602 0 -0.0007858368368076137 0.0040097517459684942 0 -0.00076219257845467454 0.0040705527861518475 0 -0.00083241135121228714 0.0040752588858708602 0 -0.00076219257845467454 0.0040705527861518475 0 -0.00077863324413791554 0.0041148382896881658 0 -0.00076219257845467454 0.0040705527861518475 0 -0.00072819898044830154 0.0041159579010708741 0 -0.00077863324413791554 0.0041148382896881658 0 -0.00076219257845467454 0.0040705527861518475 0 -0.00071116680551081121 0.0040689283945075146 0 -0.00072819898044830154 0.0041159579010708741 0 -0.00071116680551081121 0.0040689283945075146 0 -0.00066473338913267035 0.0041197270679732669 0 -0.00072819898044830154 0.0041159579010708741 0 -0.00071116680551081121 0.0040689283945075146 0 -0.0006868538575687149 0.0040494282098863131 0 -0.00066473338913267035 0.0041197270679732669 0 -0.00024727354867297132 0.0046869734054618166 0 -0.00034575175752855496 0.0044420917998181948 0 -0.00071116680551081121 0.0040689283945075146 0 -0.00071111462834556286 0.0040460512109484923 0 -0.0006868538575687149 0.0040494282098863131 0 -0.00060365039871798404 0.0051358102657326123 0 -0.00024727354867297132 0.0046869734054618166 0 -0.00069850043016172559 0.004010260183089997 0 -0.0006868538575687149 0.0040494282098863131 0 -0.00070872899994826411 0.0040341170869736499 0 -0.00071111462834556286 0.0040460512109484923 0 -0.0006868538575687149 0.0040494282098863131 0 -0.00070872899994826411 0.0040341170869736499 0 0.00040287316080057315 0.005512575219729819 0 0.00014686222492092373 0.0052448162278047302 0 -1.0003082724419986e-05 0.0057357626078622373 0 -6.2336438161256864e-05 0.0056618865048094881 0 -9.9232470578939789e-05 0.0057131516584979026 0 -0.00011238938919146542 0.0056280201747844873 0 -0.00011692234969133327 0.0056263947324300028 0 -0.00011523629986348331 0.0056249667652067143 0 -6.4635872568608155e-05 0.0057353285200879549 0 0.00014686222492092373 0.0052448162278047302 0 -0.00011238938919146542 0.0056280201747844873 0 -6.2336438161256864e-05 0.0056618865048094881 0 -9.9232470578939789e-05 0.0057131516584979026 0 -0.00024727354867297132 0.0046869734054618166 0 0.00014686222492092373 0.0052448162278047302 0 -5.4574726265798341e-06 0.0048176633660816457 0 -4.422472954978187e-06 0.004848397802380844 0 5.9532207166644611e-06 0.0048511029947424407 0 0.00014686222492092373 0.0052448162278047302 0 0.00038170301192223745 0.0050806679295082981 0 0.00079099259727029281 0.005288293428925981 0 0.00068660868904617581 0.005263462744803069 0 0.0007287339598447838 0.005436269686186491 0 -1.8191300868933905e-05 0.0048143898233464757 0 -5.4574726265798341e-06 0.0048176633660816457 0 -4.422472954978187e-06 0.004848397802380844 0 -4.422472954978187e-06 0.004848397802380844 0 5.9532207166644611e-06 0.0048511029947424407 0 1.5997755294078982e-05 0.0048954467217146658 0 -0.00066473338913267035 0.0041197270679732669 0 -0.00069376002999611136 0.0041616700453693525 0 -0.00072819898044830154 0.0041159579010708741 0 -0.00066473338913267035 0.0041197270679732669 0 -0.00069376002999611136 0.0041616700453693525 0 -0.00063626455806404354 0.0041850526850946397 0 -0.00034575175752855496 0.0044420917998181948 0 -0.00036358434539710222 0.0044779632184564298 0 0.00038170301192223745 0.0050806679295082981 0 0.00044968663063365031 0.0053462787723096991 0 5.9532207166644611e-06 0.0048511029947424407 0 1.5997755294078982e-05 0.0048954467217146658 0 2.2767873823076954e-05 0.0048971103431772502 0 -0.00069376002999611136 0.0041616700453693525 0 -0.00063626455806404354 0.0041850526850946397 0 -0.00068377417983145068 0.0041941452586741245 0 4.5747383825882028e-05 0.0049532933787554559 0 1.5997755294078982e-05 0.0048954467217146658 0 2.2767873823076954e-05 0.0048971103431772502 0 -0.00063626455806404354 0.0041850526850946397 0 -0.00066761323494039023 0.0042091793358039822 0 -0.00064155899896593436 0.0042843348463229569 0 -0.00063626455806404354 0.0041850526850946397 0 -0.00066761323494039023 0.0042091793358039822 0 -0.00068377417983145068 0.0041941452586741245 0 -0.00069376002999611136 0.0041616700453693525 0 -0.00068377417983145068 0.0041941452586741245 0 -0.00070831242203976078 0.004194738525904281 0 -0.00066761323494039023 0.0042091793358039822 0 -0.00069596486710189374 0.0042072023025805268 0 -0.00071060086629026503 0.0042117524257399615 0 -0.00068377417983145068 0.0041941452586741245 0 -0.00070831242203976078 0.004194738525904281 0 -0.00069596486710189374 0.0042072023025805268 0 -0.00070831242203976078 0.004194738525904281 0 -0.00071063618258562701 0.0042072939129252961 0 -0.00069596486710189374 0.0042072023025805268 0 -0.00066761323494039023 0.0042091793358039822 0 -0.00068377417983145068 0.0041941452586741245 0 -0.00069596486710189374 0.0042072023025805268 0 -0.00069596486710189374 0.0042072023025805268 0 -0.00070891379176124428 0.0042076737064857869 0 -0.00071060086629026503 0.0042117524257399615 0 -0.00074444370043320798 0.0043224704751909674 0 -0.00052542155607145189 0.003933202079682176 0 -0.00071063618258562701 0.0042072939129252961 0 -0.00069596486710189374 0.0042072023025805268 0 -0.00070891379176124428 0.0042076737064857869 0 -0.00071063618258562701 0.0042072939129252961 0 -0.00071748470243623906 0.0042070012961236275 0 -0.00071350065901319855 0.0042051266701896642 0 -0.00071063618258562701 0.0042072939129252961 0 -0.00070891379176124428 0.0042076737064857869 0 -0.00071748470243623906 0.0042070012961236275 0 -0.00070891379176124428 0.0042076737064857869 0 -0.00071748470243623906 0.0042070012961236275 0 -0.00071060086629026503 0.0042117524257399615 0 -0.00071748470243623906 0.0042070012961236275 0 -0.00072404199522052375 0.0042033733506442721 0 -0.0007092711821583659 0.0041925587465878739 0 -0.0005599252840597851 0.0039554772522817708 0 -0.00052542155607145189 0.003933202079682176 0 -0.00066761323494039023 0.0042091793358039822 0 -0.00072040239195398628 0.0042957014587323827 0 -0.00064155899896593436 0.0042843348463229569 0 -0.00056006542488241733 0.0043650258365222107 0 -0.00072040239195398628 0.0042957014587323827 0 -0.00064155899896593436 0.0042843348463229569 0 -0.00057159321460470392 0.0043296738630776519 0 -0.00063626455806404354 0.0041850526850946397 0 -0.00064155899896593436 0.0042843348463229569 0 -2.075782351958529e-05 0.0041052335982284692 0 -0.00052542155607145189 0.003933202079682176 0 -0.00077027371757798144 0.0042752472937187319 0 -0.00078226198012988982 0.0041890291409563416 0 -0.00083772269776865443 0.0042116385723847804 0 -0.00078041359798985911 0.0043162104511613297 0 -0.00069462040424557068 0.0041822253514813383 0 -0.00077027371757798144 0.0042752472937187319 0 -0.00072146814421719294 0.0042151858623361033 0 -0.00078226198012988982 0.0041890291409563416 0 -0.00066503752571645848 0.0041810231475167539 0 -0.0007092711821583659 0.0041925587465878739 0 -0.00072146814421719294 0.0042151858623361033 0 -0.00071748470243623906 0.0042070012961236275 0 -0.0007092711821583659 0.0041925587465878739 0 -0.00071350065901319855 0.0042051266701896642 0 -0.00071063618258562701 0.0042072939129252961 0 -0.00071350065901319855 0.0042051266701896642 0 -0.00072146814421719294 0.0042151858623361033 0 -0.0007092711821583659 0.0041925587465878739 0 -0.00071350065901319855 0.0042051266701896642 0 -0.00072146814421719294 0.0042151858623361033 0 -0.00070831242203976078 0.004194738525904281 0 -0.00072146814421719294 0.0042151858623361033 0 -0.00074945964671456423 0.0041612143491270058 0 -0.00070831242203976078 0.004194738525904281 0 -0.00071063618258562701 0.0042072939129252961 0 -0.00072146814421719294 0.0042151858623361033 0 -0.00072146814421719294 0.0042151858623361033 0 -0.00078226198012988982 0.0041890291409563416 0 -0.00074945964671456423 0.0041612143491270058 0 -0.00078226198012988982 0.0041890291409563416 0 -0.00074945964671456423 0.0041612143491270058 0 -0.00082333406725712825 0.0041436304291579866 0 -0.00069376002999611136 0.0041616700453693525 0 -0.00074945964671456423 0.0041612143491270058 0 -0.00072819898044830154 0.0041159579010708741 0 -0.00069376002999611136 0.0041616700453693525 0 -0.00070831242203976078 0.004194738525904281 0 -0.00074945964671456423 0.0041612143491270058 0 -0.00074945964671456423 0.0041612143491270058 0 -0.00072819898044830154 0.0041159579010708741 0 -0.00077863324413791554 0.0041148382896881658 0 -0.00074945964671456423 0.0041612143491270058 0 -0.00077863324413791554 0.0041148382896881658 0 -0.00082333406725712825 0.0041436304291579866 0 -0.00083241135121228714 0.0040752588858708602 0 -0.00090154083435593161 0.0040797985942697505 0 -0.00085981771633235414 0.0041494512745635821 0 -0.00083241135121228714 0.0040752588858708602 0 -0.00077863324413791554 0.0041148382896881658 0 -0.00082333406725712825 0.0041436304291579866 0 -0.00083253264702620798 0.0040774456606597655 0 -0.00084169487697506986 0.0041443420619303234 0 -0.00090154083435593161 0.0040797985942697505 0 -0.0009307122391818025 0.0041254458043203943 0 -0.00085981771633235414 0.0041494512745635821 0 -0.00090154083435593161 0.0040797985942697505 0 -0.00095842112543740611 0.0040919627386639028 0 -0.0009307122391818025 0.0041254458043203943 0 -0.00085981771633235414 0.0041494512745635821 0 -0.0009383001168892242 0.0041832388064151384 0 -0.00087113786452839767 0.0042201204601983837 0 -0.0009307122391818025 0.0041254458043203943 0 -0.00085981771633235414 0.0041494512745635821 0 -0.0009383001168892242 0.0041832388064151384 0 -0.00084169487697506986 0.0041443420619303234 0 -0.00085441235809255607 0.0042186900440666815 0 -0.0010038691939802077 0.0040820331148351697 0 -0.00099611519028214301 0.0041342186960107979 0 -0.0010483142806256098 0.0041071981960594563 0 -0.00099611519028214301 0.0041342186960107979 0 -0.0010562460696238864 0.0041505313512359638 0 -0.0010483142806256098 0.0041071981960594563 0 -0.00095842112543740611 0.0040919627386639028 0 -0.0010038691939802077 0.0040820331148351697 0 -0.00099611519028214301 0.0041342186960107979 0 -0.00095842112543740611 0.0040919627386639028 0 -0.0009307122391818025 0.0041254458043203943 0 -0.00099611519028214301 0.0041342186960107979 0 -0.00099611519028214301 0.0041342186960107979 0 -0.0009383001168892242 0.0041832388064151384 0 -0.0010239586139583208 0.0041943507604702539 0 -0.0009307122391818025 0.0041254458043203943 0 -0.00099611519028214301 0.0041342186960107979 0 -0.0009383001168892242 0.0041832388064151384 0 -0.00099611519028214301 0.0041342186960107979 0 -0.0010239586139583208 0.0041943507604702539 0 -0.0010562460696238864 0.0041505313512359638 0 -0.0010239586139583208 0.0041943507604702539 0 -0.0010175946672138613 0.0042368702252901878 0 -0.0010717402644687556 0.0042387036274836986 0 -0.0010239586139583208 0.0041943507604702539 0 -0.00097493521090693451 0.0042272147917813497 0 -0.0010175946672138613 0.0042368702252901878 0 -0.0009383001168892242 0.0041832388064151384 0 -0.0010239586139583208 0.0041943507604702539 0 -0.00097493521090693451 0.0042272147917813497 0 -0.0009383001168892242 0.0041832388064151384 0 -0.00097493521090693451 0.0042272147917813497 0 -0.0009194654621661419 0.0042336331201825233 0 -0.00097493521090693451 0.0042272147917813497 0 -0.0009535924735864684 0.0042617398290103765 0 -0.0009194654621661419 0.0042336331201825233 0 -0.0009535924735864684 0.0042617398290103765 0 -0.00099430304729271335 0.0042633743906659244 0 -0.00097827953108857533 0.0042869521117876444 0 -0.00097493521090693451 0.0042272147917813497 0 -0.0009535924735864684 0.0042617398290103765 0 -0.00099430304729271335 0.0042633743906659244 0 -0.00097493521090693451 0.0042272147917813497 0 -0.00099430304729271335 0.0042633743906659244 0 -0.0010175946672138613 0.0042368702252901878 0 -0.00099430304729271335 0.0042633743906659244 0 -0.0010302876706227821 0.0042683839702647285 0 -0.0010109686072943005 0.0042850599667580373 0 -0.00099430304729271335 0.0042633743906659244 0 -0.0010302876706227821 0.0042683839702647285 0 -0.0010175946672138613 0.0042368702252901878 0 -0.00078226198012988982 0.0041890291409563416 0 -0.00082333406725712825 0.0041436304291579866 0 -0.00083772269776865443 0.0042116385723847804 0 -0.0009383001168892242 0.0041832388064151384 0 -0.00087113786452839767 0.0042201204601983837 0 -0.0009194654621661419 0.0042336331201825233 0 -0.0009194654621661419 0.0042336331201825233 0 -0.0008657491252834342 0.0043017757551885843 0 -0.0009192547144621201 0.0042795543393899585 0 -0.00087113786452839767 0.0042201204601983837 0 -0.0009194654621661419 0.0042336331201825233 0 -0.0008657491252834342 0.0043017757551885843 0 -0.0009535924735864684 0.0042617398290103765 0 -0.0009194654621661419 0.0042336331201825233 0 -0.0009192547144621201 0.0042795543393899585 0 -0.00077027371757798144 0.0042752472937187319 0 -0.00083772269776865443 0.0042116385723847804 0 -0.0008657491252834342 0.0043017757551885843 0 -0.00085441235809255607 0.0042186900440666815 0 -0.00086542570522079557 0.0042983655047104004 0 -0.00077027371757798144 0.0042752472937187319 0 -0.0008657491252834342 0.0043017757551885843 0 -0.00081720686350855287 0.0043371880767755933 0 -0.0008657491252834342 0.0043017757551885843 0 -0.00092721788323037798 0.0043314032679233998 0 -0.00081720686350855287 0.0043371880767755933 0 -0.00087733050554195352 0.0043490098232951361 0 -0.0004295310403795655 0.0037734146509067579 0 -0.0009192547144621201 0.0042795543393899585 0 -0.000915233423187993 0.0043029792442761281 0 -0.00094687141324048736 0.0042996067896208861 0 -0.0008657491252834342 0.0043017757551885843 0 -0.0009192547144621201 0.0042795543393899585 0 -0.000915233423187993 0.0043029792442761281 0 -0.000915233423187993 0.0043029792442761281 0 -0.00092721788323037798 0.0043314032679233998 0 -0.00094687141324048736 0.0042996067896208861 0 -0.0008657491252834342 0.0043017757551885843 0 -0.000915233423187993 0.0043029792442761281 0 -0.00092721788323037798 0.0043314032679233998 0 -0.00052304318162188284 0.0028452109091058647 0 -0.00064424658433115943 0.0029697988723062264 0 -0.00035531671742708014 0.0030223788254435655 0 -0.00075241306594234334 0.0042396766365426202 0 -0.00075794926564853253 0.0042757058915042778 0 -0.00043136714631194828 0.0042579186428787393 0 -0.00052304318162188284 0.0028452109091058647 0 -0.00023398229172825067 0.0028534159179373188 0 -0.00035531671742708014 0.0030223788254435655 0 -0.00067503463688273419 0.0036228024254701522 0 -0.00017047991938478596 0.0029970047814252888 0 -0.00075241306594234334 0.0042396766365426202 0 -0.00040420442660163479 0.0042176480224046606 0 -0.00043136714631194828 0.0042579186428787393 0 0.0001745470775731224 0.0022355611502636202 0 0.00018924850076530145 0.00226168857854453 0 0.00022056744327238849 0.0022173938689936464 0 -0.00017047991938478596 0.0029970047814252888 0 -0.00010845502079416914 0.0022933143008193901 0 0.00019396692237521083 0.0022800081096091039 0 0.0001999666644074004 0.0022717984003899129 0 0.00015461741040571748 0.0022628393375309919 0 -0.0004295310403795655 0.0037734146509067579 0 -0.00017047991938478596 0.0029970047814252888 0 -0.00075241306594234334 0.0042396766365426202 0 -0.0010181468494016451 0.0043101751299626512 0 -0.0010099941076885505 0.0043310990208438134 0 -0.0010181468494016451 0.0043101751299626512 0 -0.0010099941076885505 0.0043310990208438134 0 -0.0010468557945005931 0.0043084346426498039 0 -0.0010181468494016451 0.0043101751299626512 0 -0.0010338989731269704 0.004292237318909666 0 -0.0010109686072943005 0.0042850599667580373 0 -0.0010181468494016451 0.0043101751299626512 0 -0.0010338989731269704 0.004292237318909666 0 -0.0010468557945005931 0.0043084346426498039 0 -0.0010302876706227821 0.0042683839702647285 0 -0.0010338989731269704 0.004292237318909666 0 -0.0010109686072943005 0.0042850599667580373 0 -0.0010181468494016451 0.0043101751299626512 0 -0.0010109686072943005 0.0042850599667580373 0 -0.00097827953108857533 0.0042869521117876444 0 -0.00099430304729271335 0.0042633743906659244 0 -0.0010109686072943005 0.0042850599667580373 0 -0.00097827953108857533 0.0042869521117876444 0 -0.0010181468494016451 0.0043101751299626512 0 -0.00097827953108857533 0.0042869521117876444 0 -0.00094687141324048736 0.0042996067896208861 0 -0.00092721788323037798 0.0043314032679233998 0 -0.0010181468494016451 0.0043101751299626512 0 -0.00094687141324048736 0.0042996067896208861 0 -0.00087733050554195352 0.0043490098232951361 0 -0.00098704692999575607 0.0042903729529876868 0 -0.0009535924735864684 0.0042617398290103765 0 -0.00097827953108857533 0.0042869521117876444 0 -0.00094687141324048736 0.0042996067896208861 0 -0.0009535924735864684 0.0042617398290103765 0 -0.0009192547144621201 0.0042795543393899585 0 -0.00094687141324048736 0.0042996067896208861 0 -0.00067503463688273419 0.0036228024254701522 0 -0.00090995543692529819 0.0035652821370745985 0 -0.00052304318162188284 0.0028452109091058647 0 -0.00064424658433115943 0.0029697988723062264 0 -0.00081536153041163694 0.0028369034789288688 0 -0.00075241306594234334 0.0042396766365426202 0 -0.00075794926564853253 0.0042757058915042778 0 -0.0010099941076885505 0.0043310990208438134 0 -0.00064424658433115943 0.0029697988723062264 0 -0.00081536153041163694 0.0028369034789288688 0 -0.00093618400286513636 0.002915942205585065 0 -0.00056649340153421056 0.0024257221200017359 0 -0.00090151395714649851 0.0023008481079728189 0 -0.00058979908140498779 0.002133511769540223 0 -0.00091107298049792121 0.0022619655274798726 0 -0.00087870739570292318 0.0016955215906979387 0 -0.00045637921392165136 0.0018430046165236558 0 -0.00058979908140498779 0.002133511769540223 0 -0.00087870739570292318 0.0016955215906979387 0 -0.00045637921392165136 0.0018430046165236558 0 -0.00058979908140498779 0.002133511769540223 0 -0.00018754636772620208 0.0022043367549507299 0 -0.00058979908140498779 0.002133511769540223 0 -0.00040086384010676709 0.0024011445089609537 0 -0.00060561770769307658 0.0024160276489371604 0 -0.00058979908140498779 0.002133511769540223 0 -0.00040086384010676709 0.0024011445089609537 0 -0.00018754636772620208 0.0022043367549507299 0 -0.00058979908140498779 0.002133511769540223 0 -0.00091107298049792121 0.0022619655274798726 0 -0.00060561770769307658 0.0024160276489371604 0 0.00022056744327238849 0.0022173938689936464 0 0.00015140201734951966 0.0022000424058468606 0 0.00016984463237097183 0.0022199381142626391 0 -0.00010845502079416914 0.0022933143008193901 0 0.00020752586791286673 0.0021815711707102651 0 1.6180123651954989e-05 0.002257877535703418 0 -7.4691041537491864e-05 0.0021147801335385315 0 0.00015140201734951966 0.0022000424058468606 0 0.0001745470775731224 0.0022355611502636202 0 0.00022056744327238849 0.0022173938689936464 0 0.00016984463237097183 0.0022199381142626391 0 1.6180123651954989e-05 0.002257877535703418 0 -7.4691041537491864e-05 0.0021147801335385315 0 -0.00018754636772620208 0.0022043367549507299 0 -0.00045637921392165136 0.0018430046165236558 0 -1.4639465556843485e-05 0.0019629246682037809 0 -0.00018754636772620208 0.0022043367549507299 0 -0.00056649340153421056 0.0024257221200017359 0 -0.00010845502079416914 0.0022933143008193901 0 -0.00010845502079416914 0.0022933143008193901 0 -0.00011880097395205239 0.0021323255655311636 0 -0.00040086384010676709 0.0024011445089609537 0 -6.5294745259803633e-05 0.0023563443802744753 0 -1.7058017534362209e-05 0.0025363668229073559 0 -0.00040086384010676709 0.0024011445089609537 0 -0.00018754636772620208 0.0022043367549507299 0 -6.5294745259803633e-05 0.0023563443802744753 0 1.6180123651954989e-05 0.002257877535703418 0 -0.00018754636772620208 0.0022043367549507299 0 -6.5294745259803633e-05 0.0023563443802744753 0 -6.5294745259803633e-05 0.0023563443802744753 0 0.00010423104253553546 0.0024423868945441965 0 -1.7058017534362209e-05 0.0025363668229073559 0 1.6180123651954989e-05 0.002257877535703418 0 0.00010423104253553546 0.0024423868945441965 0 0.00015140201734951966 0.0022000424058468606 0 1.6180123651954989e-05 0.002257877535703418 0 -6.5294745259803633e-05 0.0023563443802744753 0 0.00010423104253553546 0.0024423868945441965 0 0.00010423104253553546 0.0024423868945441965 0 0.00017418568092488761 0.002492843915876414 0 0.00014069763700026361 0.0025215609918176453 0 0.00010423104253553546 0.0024423868945441965 0 0.00018289804552776997 0.002490945151285335 0 0.00022065077876579241 0.0025366573015816619 0 0.00010423104253553546 0.0024423868945441965 0 0.00017418568092488761 0.002492843915876414 0 0.00018289804552776997 0.002490945151285335 0 8.5202331388844807e-05 0.0024888377154665617 0 0.00024563751675680347 0.0022830004494357784 0 0.00017418568092488761 0.002492843915876414 0 0.00018289804552776997 0.002490945151285335 0 0.0002084050614665915 0.0024918540694070053 0 0.00018289804552776997 0.002490945151285335 0 0.00018524681184320249 0.0025007006750327292 0 0.0002084050614665915 0.0024918540694070053 0 0.00018289804552776997 0.002490945151285335 0 0.00018604394807348199 0.0025143206888613955 0 0.00018524681184320249 0.0025007006750327292 0 0.00010423104253553546 0.0024423868945441965 0 0.00017681240556095368 0.0021994030317179403 0 0.00015140201734951966 0.0022000424058468606 0 0.00018289804552776997 0.002490945151285335 0 0.00022065077876579241 0.0025366573015816619 0 0.00018604394807348199 0.0025143206888613955 0 0.00017681240556095368 0.0021994030317179403 0 0.00015140201734951966 0.0022000424058468606 0 0.00016006514168006477 0.0022267913198590009 0 0.00015140201734951966 0.0022000424058468606 0 0.00016984463237097183 0.0022199381142626391 0 0.00016006514168006477 0.0022267913198590009 0 0.00013923251477781536 0.0026163048787541869 0 0.00011950862015067449 0.0025567935439311899 0 0.00016620952203358127 0.0025440592431300608 0 0.00013923251477781536 0.0026163048787541869 0 0.00011950862015067449 0.0025567935439311899 0 5.6496107174576928e-05 0.0026405038698118031 0 0.00022065077876579241 0.0025366573015816619 0 0.00013923251477781536 0.0026163048787541869 0 0.00016620952203358127 0.0025440592431300608 0 0.00022065077876579241 0.0025366573015816619 0 0.00016620952203358127 0.0025440592431300608 0 0.00018604394807348199 0.0025143206888613955 0 0.00011950862015067449 0.0025567935439311899 0 0.00016620952203358127 0.0025440592431300608 0 0.00015702238934417589 0.0025144313402055479 0 0.00016620952203358127 0.0025440592431300608 0 0.00018604394807348199 0.0025143206888613955 0 0.00015702238934417589 0.0025144313402055479 0 0.00011950862015067449 0.0025567935439311899 0 0.00015702238934417589 0.0025144313402055479 0 6.4234113959432706e-05 0.002510681353793837 0 0.0002084050614665915 0.0024918540694070053 0 0.00025745775619594131 0.0024892182361067119 0 0.00026055472965511522 0.0024896966705400233 0 0.0002084050614665915 0.0024918540694070053 0 0.00025745775619594131 0.0024892182361067119 0 0.00022264686975561894 0.0025449669592721921 0 0.00035848088918594145 0.0024728587201248561 0 0.00023111758189817315 0.0025387823866214075 0 0.00015702238934417589 0.0025144313402055479 0 0.0002084050614665915 0.0024918540694070053 0 6.4234113959432706e-05 0.002510681353793837 0 0.00019838183530798622 0.0024917682476086546 0 0.00016019016434361245 0.0025122164211614116 0 0.00015702238934417589 0.0025144313402055479 0 0.00018524681184320249 0.0025007006750327292 0 0.0002084050614665915 0.0024918540694070053 0 0.00018604394807348199 0.0025143206888613955 0 0.00015702238934417589 0.0025144313402055479 0 0.00018524681184320249 0.0025007006750327292 0 0.00049244663215467356 0.002512421752492406 0 0.00046872299000264305 0.0024225403244494473 0 0.0003950295031681536 0.0025565854912008531 0 0.00035848088918594145 0.0024728587201248561 0 0.00043920432189131482 0.0022922131561093086 0 0.00046872299000264305 0.0024225403244494473 0 0.00063183801349544968 0.0024284915185987027 0 0.00069717113678459646 0.0022889455450296205 0 0.00049244663215467356 0.002512421752492406 0 0.00055328392075620805 0.0024917040497137916 0 0.00046872299000264305 0.0024225403244494473 0 0.00055328392075620805 0.0024917040497137916 0 0.00046872299000264305 0.0024225403244494473 0 0.00063183801349544968 0.0024284915185987027 0 0.00071435254380765312 0.0024639309983589576 0 0.00064307131511804542 0.0025240100436819115 0 0.00075543088306675576 0.0025530444610809863 0 0.00081992454247226056 0.002436838387320419 0 0.00071435254380765312 0.0024639309983589576 0 0.00075543088306675576 0.0025530444610809863 0 0.00071435254380765312 0.0024639309983589576 0 0.00064307131511804542 0.0025240100436819115 0 0.00063183801349544968 0.0024284915185987027 0 0.00055328392075620805 0.0024917040497137916 0 0.00064307131511804542 0.0025240100436819115 0 0.00063183801349544968 0.0024284915185987027 0 0.00063183801349544968 0.0024284915185987027 0 0.00073819468414735006 0.0023887747916572027 0 0.00069717113678459646 0.0022889455450296205 0 0.00071435254380765312 0.0024639309983589576 0 0.00063183801349544968 0.0024284915185987027 0 0.00073819468414735006 0.0023887747916572027 0 0.00081992454247226056 0.002436838387320419 0 0.00071435254380765312 0.0024639309983589576 0 0.00073819468414735006 0.0023887747916572027 0 0.00024910561299910374 0.0025071990297616089 0 0.00026055472965511522 0.0024896966705400233 0 0.00025481081714172034 0.002533628795752859 0 0.00082629415615047416 0.0023281408736449643 0 0.00073819468414735006 0.0023887747916572027 0 0.00069717113678459646 0.0022889455450296205 0 0.00022382022330539998 0.0025541468288076659 0 0.00024910561299910374 0.0025071990297616089 0 0.00025481081714172034 0.002533628795752859 0 0.00016019016434361245 0.0025122164211614116 0 3.7333521634909648e-05 0.0025507346705090648 0 0.00025745775619594131 0.0024892182361067119 0 0.00024910561299910374 0.0025071990297616089 0 0.00026055472965511522 0.0024896966705400233 0 6.4234113959432706e-05 0.002510681353793837 0 5.6496107174576928e-05 0.0026405038698118031 0 -0.00012954461403455955 0.0026521488074393441 0 0.00011950862015067449 0.0025567935439311899 0 6.4234113959432706e-05 0.002510681353793837 0 5.6496107174576928e-05 0.0026405038698118031 0 -2.8777646560079889e-05 0.0027754075712695574 0 5.6496107174576928e-05 0.0026405038698118031 0 0.00014326042446707215 0.0027559083203476682 0 -2.8777646560079889e-05 0.0027754075712695574 0 5.6496107174576928e-05 0.0026405038698118031 0 -0.00012954461403455955 0.0026521488074393441 0 3.1612314265540384e-05 0.0028034116487043676 0 -0.00013084715401924529 0.002948613007913914 0 -0.00036166198794244529 0.0028680415609161395 0 -0.00012954461403455955 0.0026521488074393441 0 -0.00025211636378704572 0.0028097894799928242 0 0.00021111610429079357 0.0025976901336238409 0 0.00022382022330539998 0.0025541468288076659 0 0.00025481081714172034 0.002533628795752859 0 -2.8777646560079889e-05 0.0027754075712695574 0 -0.00012954461403455955 0.0026521488074393441 0 -0.00025211636378704572 0.0028097894799928242 0 0.00028465728515470791 0.0032365245722394921 0 3.7333521634909648e-05 0.0025507346705090648 0 3.1612314265540384e-05 0.0028034116487043676 0 -0.00025017844505605043 0.002805152982612971 0 -0.00034575815178473397 0.0030072481370422679 0 -6.1531152935402511e-06 0.0028313518152924141 0 -0.00025211636378704572 0.0028097894799928242 0 -0.00034575815178473397 0.0030072481370422679 0 2.7952729538581072e-05 0.0031793688845903412 0 -6.1531152935402511e-06 0.0028313518152924141 0 2.7952729538581072e-05 0.0031793688845903412 0 -6.1531152935402511e-06 0.0028313518152924141 0 0.00023661868634545155 0.0028441630151343784 0 -0.00052542155607145189 0.003933202079682176 0 -0.00013084715401924529 0.002948613007913914 0 -0.00072404199522052375 0.0042033733506442721 0 -0.0007092711821583659 0.0041925587465878739 0 -0.00070560437981414181 0.0041316564919396774 0 -0.00066503752571645848 0.0041810231475167539 0 -0.0007092711821583659 0.0041925587465878739 0 -0.00070560437981414181 0.0041316564919396774 0 -0.00078041359798985911 0.0043162104511613297 0 -0.0004295310403795655 0.0037734146509067579 0 -0.00066503752571645848 0.0041810231475167539 0 -0.00062702366015955819 0.0041291916794368912 0 -0.00070560437981414181 0.0041316564919396774 0 0.00019396692237521083 0.0022800081096091039 0 0.00015461741040571748 0.0022628393375309919 0 9.6852753644965852e-05 0.0022701754522811797 0 0.00017681240556095368 0.0021994030317179403 0 0.00016006514168006477 0.0022267913198590009 0 9.6852753644965852e-05 0.0022701754522811797 0 0.00015461741040571748 0.0022628393375309919 0 0.00016006514168006477 0.0022267913198590009 0 9.6852753644965852e-05 0.0022701754522811797 0 -0.0004295310403795655 0.0037734146509067579 0 -0.00013084715401924529 0.002948613007913914 0 -0.00017047991938478596 0.0029970047814252888 0 0.00024680430971597248 0.0023699852502245444 0 0.0001745470775731224 0.0022355611502636202 0 0.00018924850076530145 0.00226168857854453 0 0.00015461741040571748 0.0022628393375309919 0 0.0001745470775731224 0.0022355611502636202 0 0.00015461741040571748 0.0022628393375309919 0 0.00016006514168006477 0.0022267913198590009 0 0.0001745470775731224 0.0022355611502636202 0 0.00016984463237097183 0.0022199381142626391 0 0.00016006514168006477 0.0022267913198590009 0 0.00024563751675680347 0.0022830004494357784 0 -0.00013084715401924529 0.002948613007913914 0 0.00022065077876579241 0.0025366573015816619 0 0.00013923251477781536 0.0026163048787541869 0 0.00014326042446707215 0.0027559083203476682 0 0.00013923251477781536 0.0026163048787541869 0 5.6496107174576928e-05 0.0026405038698118031 0 0.00014326042446707215 0.0027559083203476682 0 -0.0019763602157658079 0.0029670714208513377 0 -0.0024111539811606554 0.00093950224999606632 0 -0.0022100344759079806 0.0013027386362044831 0 -0.0025019971588019201 0.0015478773491169671 0 -0.0021776135943132177 0.0016483458625898191 0 -0.0020015308205431548 0.0015583877142137394 0 -0.0022100344759079806 0.0013027386362044831 0 -0.0018407930824809239 0.0013959242599072368 0 -0.0020015308205431548 0.0015583877142137394 0 -0.0022100344759079806 0.0013027386362044831 0 -0.0021776135943132177 0.0016483458625898191 0 -0.0013081325682489204 0.004278274708649968 0 -0.0012265099690832203 0.0043013645446967272 0 -0.0012431827478941099 0.0042270350344913461 0 -0.0019763602157658079 0.0029670714208513377 0 -0.0014793948664071073 0.0028310645640218014 0 -0.0021880303789107297 0.0011785843322509087 0 -0.0025864523281119755 0.0010879299509759968 0 -0.0025019971588019201 0.0015478773491169671 0 -0.0019763602157658079 0.0029670714208513377 0 -0.0023102276881165505 0.0029971472480842436 0 -0.0019666635381442922 0.00489655042492931 0 -0.0019743091434793105 0.0049015162506744672 0 -0.001965679082054484 0.0049098200826829305 0 -0.0029913714343032319 0.0010167912026140687 0 -0.0028540216599302485 0.0013380657812906169 0 -0.0031396023786730578 0.0012519658981223268 0 -0.0025864523281119755 0.0010879299509759968 0 -0.0029913714343032319 0.0010167912026140687 0 -0.0028540216599302485 0.0013380657812906169 0 -0.0023102276881165505 0.0029971472480842436 0 -0.0024299487430127363 0.0029591065921522912 0 -0.0028540216599302485 0.0013380657812906169 0 -0.002908211403088425 0.0016448281241976264 0 -0.0031563408453241675 0.0015238700283920364 0 -0.0028540216599302485 0.0013380657812906169 0 -0.0025019971588019201 0.0015478773491169671 0 -0.002908211403088425 0.0016448281241976264 0 -0.0025864523281119755 0.0010879299509759968 0 -0.0028540216599302485 0.0013380657812906169 0 -0.0025019971588019201 0.0015478773491169671 0 -0.0025019971588019201 0.0015478773491169671 0 -0.0026707263019943618 0.0017791142670986108 0 -0.002908211403088425 0.0016448281241976264 0 -0.0025019971588019201 0.0015478773491169671 0 -0.0026707263019943618 0.0017791142670986108 0 -0.0023735467475466242 0.0018346736098457082 0 -0.0026707263019943618 0.0017791142670986108 0 -0.002908211403088425 0.0016448281241976264 0 -0.0028965360160978166 0.0018739038956702972 0 -0.002908211403088425 0.0016448281241976264 0 -0.0028965360160978166 0.0018739038956702972 0 -0.0031646793377902308 0.0017762352776251654 0 -0.0028965360160978166 0.0018739038956702972 0 -0.0031646793377902308 0.0017762352776251654 0 -0.0031122123098573568 0.0019637873104481601 0 -0.0028965360160978166 0.0018739038956702972 0 -0.0026399304991127082 0.0020114775079601746 0 -0.0029268741315017178 0.0020552454619102182 0 -0.0031122123098573568 0.0019637873104481601 0 -0.0030902126161617273 0.0021363760089777458 0 -0.0029268741315017178 0.0020552454619102182 0 -0.0028965360160978166 0.0018739038956702972 0 -0.0031122123098573568 0.0019637873104481601 0 -0.0029268741315017178 0.0020552454619102182 0 -0.0026707263019943618 0.0017791142670986108 0 -0.0026399304991127082 0.0020114775079601746 0 -0.0023735467475466242 0.0018346736098457082 0 -0.0026707263019943618 0.0017791142670986108 0 -0.0028965360160978166 0.0018739038956702972 0 -0.0026399304991127082 0.0020114775079601746 0 -0.0026399304991127082 0.0020114775079601746 0 -0.0023735467475466242 0.0018346736098457082 0 -0.0021981765304123694 0.0021044839673494357 0 -0.0023735467475466242 0.0018346736098457082 0 -0.0021085012819106273 0.0018980631743170343 0 -0.0021981765304123694 0.0021044839673494357 0 -0.0023735467475466242 0.0018346736098457082 0 -0.0021776135943132177 0.0016483458625898191 0 -0.0021085012819106273 0.0018980631743170343 0 -0.0025019971588019201 0.0015478773491169671 0 -0.0023735467475466242 0.0018346736098457082 0 -0.0021776135943132177 0.0016483458625898191 0 -0.0021776135943132177 0.0016483458625898191 0 -0.0021085012819106273 0.0018980631743170343 0 -0.0019368912400871141 0.0017822492587364718 0 -0.0020015308205431548 0.0015583877142137394 0 -0.0021776135943132177 0.0016483458625898191 0 -0.0019368912400871141 0.0017822492587364718 0 -0.0021085012819106273 0.0018980631743170343 0 -0.0019368912400871141 0.0017822492587364718 0 -0.0018771850411049863 0.0020994380974817114 0 -0.0016868294639111091 0.0018864129348474049 0 -0.0019368912400871141 0.0017822492587364718 0 -0.0018771850411049863 0.0020994380974817114 0 -0.0016219603054798623 0.0020332078632715966 0 -0.0018193142953894432 0.0016540697139700077 0 -0.0015813641649749511 0.0021773957963500882 0 -0.0014898733591700323 0.0018202449213254677 0 -0.0018268979515041093 0.0016317409908323803 0 -0.0015813641649749511 0.0021773957963500882 0 -0.0014898733591700323 0.0018202449213254677 0 -0.0012176742913069872 0.0019579703508833053 0 -0.0016868294639111091 0.0018864129348474049 0 -0.0019368912400871141 0.0017822492587364718 0 -0.0018268979515041093 0.0016317409908323803 0 -0.0020015308205431548 0.0015583877142137394 0 -0.0019368912400871141 0.0017822492587364718 0 -0.0018268979515041093 0.0016317409908323803 0 -0.0015813641649749511 0.0021773957963500882 0 -0.001233758522990744 0.0023018887516001261 0 -0.0012176742913069872 0.0019579703508833053 0 -0.0015813641649749511 0.0021773957963500882 0 -0.001233758522990744 0.0023018887516001261 0 -0.0013367127290900202 0.0026023009106347366 0 -0.00091107298049792121 0.0022619655274798726 0 -0.001233758522990744 0.0023018887516001261 0 -0.0012176742913069872 0.0019579703508833053 0 -0.0014898733591700323 0.0018202449213254677 0 -0.0012176742913069872 0.0019579703508833053 0 -0.0013485311891944347 0.0015286154964428162 0 -0.00091107298049792121 0.0022619655274798726 0 -0.0012176742913069872 0.0019579703508833053 0 -0.00087870739570292318 0.0016955215906979387 0 -0.00090995543692529819 0.0035652821370745985 0 -0.0010869791721985999 0.0036557438625436441 0 -0.00081536153041163694 0.0028369034789288688 0 -0.00093618400286513636 0.002915942205585065 0 -0.0011093133107801304 0.0028283604788386118 0 -0.0011093133107801304 0.0028283604788386118 0 -0.0012289004292978804 0.0028611003697223058 0 -0.0014053378679122275 0.0028275582539963708 0 -0.00093618400286513636 0.002915942205585065 0 -0.0011093133107801304 0.0028283604788386118 0 -0.0012289004292978804 0.0028611003697223058 0 -0.00090151395714649851 0.0023008481079728189 0 -0.001331700362320723 0.0022147364378752605 0 -0.0012176742913069872 0.0019579703508833053 0 -0.00087870739570292318 0.0016955215906979387 0 -0.0013485311891944347 0.0015286154964428162 0 -0.0010869791721985999 0.0036557438625436441 0 -0.0013992990825381043 0.0028729666400944833 0 -0.0011065514422963049 0.004319419884538718 0 -0.0010658964777384772 0.0042843958533702216 0 -0.0011117259316858717 0.0042666178633434249 0 -0.0011065514422963049 0.004319419884538718 0 -0.0011505439009494957 0.0042863340658506966 0 -0.0011117259316858717 0.0042666178633434249 0 -0.0011505439009494957 0.0042863340658506966 0 -0.0011524035734207599 0.0042553622332979222 0 -0.0011117259316858717 0.0042666178633434249 0 -0.0010099941076885505 0.0043310990208438134 0 -0.0011065514422963049 0.004319419884538718 0 -0.0010468557945005931 0.0043084346426498039 0 -0.0011065514422963049 0.004319419884538718 0 -0.0010658964777384772 0.0042843958533702216 0 -0.0010468557945005931 0.0043084346426498039 0 -0.0010302876706227821 0.0042683839702647285 0 -0.0010338989731269704 0.004292237318909666 0 -0.0010658964777384772 0.0042843958533702216 0 -0.0010338989731269704 0.004292237318909666 0 -0.0010658964777384772 0.0042843958533702216 0 -0.0010468557945005931 0.0043084346426498039 0 -0.0018268979515041093 0.0016317409908323803 0 -0.0016568291810012251 0.0014330393636684331 0 -0.0018407930824809239 0.0013959242599072368 0 -0.0020015308205431548 0.0015583877142137394 0 -0.0018268979515041093 0.0016317409908323803 0 -0.0018407930824809239 0.0013959242599072368 0 -0.0014898733591700323 0.0018202449213254677 0 -0.0013485311891944347 0.0015286154964428162 0 -0.0018268979515041093 0.0016317409908323803 0 -0.0013485311891944347 0.0015286154964428162 0 -0.0018268979515041093 0.0016317409908323803 0 -0.0016568291810012251 0.0014330393636684331 0 -0.001331700362320723 0.0022147364378752605 0 -0.0013992990825381043 0.0028729666400944833 0 -0.0011928197488039335 0.0043107299097966713 0 -0.0011505439009494957 0.0042863340658506966 0 -0.0011908689390462191 0.0042677116180558014 0 -0.0011065514422963049 0.004319419884538718 0 -0.0011928197488039335 0.0043107299097966713 0 -0.0011505439009494957 0.0042863340658506966 0 -0.0011505439009494957 0.0042863340658506966 0 -0.0011908689390462191 0.0042677116180558014 0 -0.0011524035734207599 0.0042553622332979222 0 -0.0011908689390462191 0.0042677116180558014 0 -0.0012265099690832203 0.0043013645446967272 0 -0.0012431827478941099 0.0042270350344913461 0 -0.0011928197488039335 0.0043107299097966713 0 -0.0011908689390462191 0.0042677116180558014 0 -0.0012265099690832203 0.0043013645446967272 0 -0.0013992990825381043 0.0028729666400944833 0 -0.0014793948664071073 0.0028310645640218014 0 -0.0011908689390462191 0.0042677116180558014 0 -0.0012431827478941099 0.0042270350344913461 0 -0.0011780296987791788 0.0042246570327245901 0 -0.0011908689390462191 0.0042677116180558014 0 -0.0011780296987791788 0.0042246570327245901 0 -0.0011524035734207599 0.0042553622332979222 0 -0.0011780296987791788 0.0042246570327245901 0 -0.0011524035734207599 0.0042553622332979222 0 -0.0011250215034023256 0.0042201170212589336 0 -0.0011780296987791788 0.0042246570327245901 0 -0.0011250215034023256 0.0042201170212589336 0 -0.0011777672205590967 0.004169005209887216 0 -0.0012431827478941099 0.0042270350344913461 0 -0.0011780296987791788 0.0042246570327245901 0 -0.0011777672205590967 0.004169005209887216 0 -0.0016110011436112715 0.0048686961047288875 0 -0.0015549520233412368 0.0044969628091784813 0 -0.0019601201942196097 0.0049141203491807738 0 -0.0019528718719168563 0.0049280194217404616 0 -0.0019566715726261124 0.0049244524169262047 0 -0.0010658964777384772 0.0042843958533702216 0 -0.0010717402644687556 0.0042387036274836986 0 -0.0011117259316858717 0.0042666178633434249 0 -0.0010302876706227821 0.0042683839702647285 0 -0.0010175946672138613 0.0042368702252901878 0 -0.0010717402644687556 0.0042387036274836986 0 -0.0010302876706227821 0.0042683839702647285 0 -0.0010658964777384772 0.0042843958533702216 0 -0.0010717402644687556 0.0042387036274836986 0 -0.0010717402644687556 0.0042387036274836986 0 -0.0011117259316858717 0.0042666178633434249 0 -0.0011250215034023256 0.0042201170212589336 0 -0.0011524035734207599 0.0042553622332979222 0 -0.0011117259316858717 0.0042666178633434249 0 -0.0011250215034023256 0.0042201170212589336 0 -0.0010717402644687556 0.0042387036274836986 0 -0.0011250215034023256 0.0042201170212589336 0 -0.0011025740740793542 0.0041790270402368782 0 -0.0011250215034023256 0.0042201170212589336 0 -0.0011025740740793542 0.0041790270402368782 0 -0.0011777672205590967 0.004169005209887216 0 -0.0010239586139583208 0.0041943507604702539 0 -0.0010717402644687556 0.0042387036274836986 0 -0.0011025740740793542 0.0041790270402368782 0 -0.0010239586139583208 0.0041943507604702539 0 -0.0010562460696238864 0.0041505313512359638 0 -0.0011025740740793542 0.0041790270402368782 0 -0.0010562460696238864 0.0041505313512359638 0 -0.0011025740740793542 0.0041790270402368782 0 -0.0011148720999658969 0.0041079975671779456 0 -0.0011025740740793542 0.0041790270402368782 0 -0.0011148720999658969 0.0041079975671779456 0 -0.0011777672205590967 0.004169005209887216 0 -0.0010562460696238864 0.0041505313512359638 0 -0.0011148720999658969 0.0041079975671779456 0 -0.0010483142806256098 0.0041071981960594563 0 -0.0019528718719168563 0.0049280194217404616 0 -0.001949372462564096 0.0049369232825721048 0 -0.0019566715726261124 0.0049244524169262047 0 -0.0019528718719168563 0.0049280194217404616 0 -0.0019492907548870186 0.0049380721369044521 0 -0.001949372462564096 0.0049369232825721048 0 -0.0019415296694126924 0.0049376743929240279 0 -0.0019528718719168563 0.0049280194217404616 0 -0.0019492907548870186 0.0049380721369044521 0 -0.0015156854516856016 0.0045007386787648124 0 -0.0015549520233412368 0.0044969628091784813 0 -0.0019492907548870186 0.0049380721369044521 0 -0.001949372462564096 0.0049369232825721048 0 -0.0019492209787622028 0.0049452819522457937 0 -0.001949372462564096 0.0049369232825721048 0 -0.0019475964191158943 0.0049400339994250522 0 -0.0019566715726261124 0.0049244524169262047 0 -0.001949372462564096 0.0049369232825721048 0 -0.0019475964191158943 0.0049400339994250522 0 -0.0019388825641208582 0.0049517794848232995 0 -0.0019475964191158943 0.0049400339994250522 0 -0.0019558236967673163 0.0049320614840886838 0 -0.0019455332410395405 0.0049488356426614106 0 -0.0019558236967673163 0.0049320614840886838 0 -0.0019566715726261124 0.0049244524169262047 0 -0.0019643668206413343 0.004919630767058516 0 -0.0019475964191158943 0.0049400339994250522 0 -0.0019558236967673163 0.0049320614840886838 0 -0.0019566715726261124 0.0049244524169262047 0 -0.0019601201942196097 0.0049141203491807738 0 -0.0019566715726261124 0.0049244524169262047 0 -0.001965679082054484 0.0049098200826829305 0 -0.0019566715726261124 0.0049244524169262047 0 -0.0019643668206413343 0.004919630767058516 0 -0.001965679082054484 0.0049098200826829305 0 -0.0019666635381442922 0.00489655042492931 0 -0.0019601201942196097 0.0049141203491807738 0 -0.001965679082054484 0.0049098200826829305 0 -0.0019763602157658079 0.0029670714208513377 0 -0.0016110011436112715 0.0048686961047288875 0 -0.0019866056921747401 0.0048988977048444191 0 -0.0019770449477607196 0.0049129548485577429 0 -0.0019873191176474478 0.0049071903620371386 0 -0.0019743091434793105 0.0049015162506744672 0 -0.0019866056921747401 0.0048988977048444191 0 -0.0019770449477607196 0.0049129548485577429 0 -0.0019743091434793105 0.0049015162506744672 0 -0.001965679082054484 0.0049098200826829305 0 -0.0019770449477607196 0.0049129548485577429 0 -0.0019643668206413343 0.004919630767058516 0 -0.0019770449477607196 0.0049129548485577429 0 -0.0019670450211430766 0.004925281322558147 0 -0.0019643668206413343 0.004919630767058516 0 -0.001965679082054484 0.0049098200826829305 0 -0.0019770449477607196 0.0049129548485577429 0 -0.0019770449477607196 0.0049129548485577429 0 -0.0019926342618325028 0.0049304359819316952 0 -0.0019873191176474478 0.0049071903620371386 0 -0.0019770449477607196 0.0049129548485577429 0 -0.0019926342618325028 0.0049304359819316952 0 -0.0019670450211430766 0.004925281322558147 0 -0.0019926342618325028 0.0049304359819316952 0 -0.0019550618265432311 0.0049273787402133737 0 -0.0020772689415642386 0.0048075898740637729 0 -0.0019926342618325028 0.0049304359819316952 0 -0.0019670450211430766 0.004925281322558147 0 -0.0019550618265432311 0.0049273787402133737 0 -0.0019558236967673163 0.0049320614840886838 0 -0.0019643668206413343 0.004919630767058516 0 -0.0019670450211430766 0.004925281322558147 0 -0.0019558236967673163 0.0049320614840886838 0 -0.0019670450211430766 0.004925281322558147 0 -0.0019550618265432311 0.0049273787402133737 0 -0.0019558236967673163 0.0049320614840886838 0 -0.0019524614428131628 0.0049483636027903713 0 -0.0019550618265432311 0.0049273787402133737 0 -0.0019558236967673163 0.0049320614840886838 0 -0.0019524614428131628 0.0049483636027903713 0 -0.0019455332410395405 0.0049488356426614106 0 -0.0019524614428131628 0.0049483636027903713 0 -0.0019550618265432311 0.0049273787402133737 0 -0.001947249982157143 0.00497130186619633 0 -0.0019550618265432311 0.0049273787402133737 0 -0.0019831931818227663 0.0049703076083343492 0 -0.0020089169781477832 0.0050151598042447671 0 -0.0019731871972300556 0.004923921461092994 0 -0.002050073715273916 0.0049121782362193797 0 -0.0019550618265432311 0.0049273787402133737 0 -0.0019831931818227663 0.0049703076083343492 0 -0.001947249982157143 0.00497130186619633 0 -0.001947249982157143 0.00497130186619633 0 -0.0019591978385735407 0.0049441644547318147 0 -0.0020591151539802264 0.0049783599426473871 0 -0.0019591978385735407 0.0049441644547318147 0 -0.0020591151539802264 0.0049783599426473871 0 -0.0020024699753544719 0.0048939722674376891 0 -0.0019591978385735407 0.0049441644547318147 0 -0.0019526650986683234 0.0049358675002340773 0 -0.0020024699753544719 0.0048939722674376891 0 -0.0019402774920711451 0.0049524704118816838 0 -0.0019331707787393828 0.0049635668551322419 0 -0.0019526650986683234 0.0049358675002340773 0 -0.0019591978385735407 0.0049441644547318147 0 -0.0019402774920711451 0.0049524704118816838 0 -0.0019526650986683234 0.0049358675002340773 0 -0.0019591978385735407 0.0049441644547318147 0 -0.0019402774920711451 0.0049524704118816838 0 -0.0019428188628176693 0.0049575712550143057 0 -0.0019402774920711451 0.0049524704118816838 0 -0.0019428188628176693 0.0049575712550143057 0 -0.001935096286449968 0.0049586312274667406 0 -0.001947249982157143 0.00497130186619633 0 -0.0019591978385735407 0.0049441644547318147 0 -0.0019428188628176693 0.0049575712550143057 0 -0.0019524614428131628 0.0049483636027903713 0 -0.001947249982157143 0.00497130186619633 0 -0.0019428188628176693 0.0049575712550143057 0 -0.0019524614428131628 0.0049483636027903713 0 -0.0019428188628176693 0.0049575712550143057 0 -0.0019455332410395405 0.0049488356426614106 0 -0.0019428188628176693 0.0049575712550143057 0 -0.0019455332410395405 0.0049488356426614106 0 -0.001935096286449968 0.0049586312274667406 0 -0.0019475964191158943 0.0049400339994250522 0 -0.0019455332410395405 0.0049488356426614106 0 -0.0019377589337416141 0.0049533191220688258 0 -0.0019455332410395405 0.0049488356426614106 0 -0.0019377589337416141 0.0049533191220688258 0 -0.001935096286449968 0.0049586312274667406 0 -0.0019475964191158943 0.0049400339994250522 0 -0.0019377589337416141 0.0049533191220688258 0 -0.0019388825641208582 0.0049517794848232995 0 -0.0019377589337416141 0.0049533191220688258 0 -0.0019388825641208582 0.0049517794848232995 0 -0.001924850681337658 0.0049721242471027841 0 -0.0019388825641208582 0.0049517794848232995 0 -0.001924850681337658 0.0049721242471027841 0 -0.001930273708912332 0.0049693018775724216 0 -0.001924850681337658 0.0049721242471027841 0 -0.0019159126923307815 0.0049924412127729965 0 -0.001930273708912332 0.0049693018775724216 0 -0.001924850681337658 0.0049721242471027841 0 -0.001935096286449968 0.0049586312274667406 0 -0.0019331707787393828 0.0049635668551322419 0 -0.0019377589337416141 0.0049533191220688258 0 -0.001924850681337658 0.0049721242471027841 0 -0.001935096286449968 0.0049586312274667406 0 -0.0019402774920711451 0.0049524704118816838 0 -0.001935096286449968 0.0049586312274667406 0 -0.0019331707787393828 0.0049635668551322419 0 -0.001924850681337658 0.0049721242471027841 0 -0.0019331707787393828 0.0049635668551322419 0 -0.0019154831128878661 0.0049992445467607989 0 -0.0019331707787393828 0.0049635668551322419 0 -0.0019154831128878661 0.0049992445467607989 0 -0.0019345140683088566 0.004979394256045701 0 -0.001924850681337658 0.0049721242471027841 0 -0.0019159126923307815 0.0049924412127729965 0 -0.0019154831128878661 0.0049992445467607989 0 -0.0019159126923307815 0.0049924412127729965 0 -0.0019154831128878661 0.0049992445467607989 0 -0.00190409941102271 0.0050196387871328206 0 -0.0019154831128878661 0.0049992445467607989 0 -0.0018975962195042985 0.0050400798865071718 0 -0.00190409941102271 0.0050196387871328206 0 -0.0019154831128878661 0.0049992445467607989 0 -0.0018975962195042985 0.0050400798865071718 0 -0.0019158167679136718 0.0050147422283038758 0 -0.0019158167679136718 0.0050147422283038758 0 -0.0019345140683088566 0.004979394256045701 0 -0.001931480458960408 0.004995842143484302 0 -0.0019154831128878661 0.0049992445467607989 0 -0.0019158167679136718 0.0050147422283038758 0 -0.0019345140683088566 0.004979394256045701 0 -0.0021977033812141961 0.0050919440263622979 0 -0.002071849070418348 0.0052567291953354422 0 -0.0019345140683088566 0.004979394256045701 0 -0.0019321188365616579 0.0049669791703988086 0 -0.001931480458960408 0.004995842143484302 0 -0.0019345140683088566 0.004979394256045701 0 -0.0019321188365616579 0.0049669791703988086 0 -0.0019427895829198249 0.0049514127186656726 0 -0.002423511891282348 0.0055784740559544823 0 -0.0024181061671632894 0.0054511258719939408 0 -0.0024570254724011471 0.0055511446279012666 0 -0.0023295932597486358 0.0050905461667362642 0 -0.0023382162999489435 0.0050944335131677771 0 -0.0023381825447509005 0.0050843572843685264 0 -0.0021977033812141961 0.0050919440263622979 0 -0.0024195083288053925 0.0052050841372773696 0 -0.0019576763397237719 0.0049415181973908474 0 -0.0019627075122645413 0.0049329159546023134 0 -0.0019501751454495668 0.0049428035948768075 0 -0.0021977033812141961 0.0050919440263622979 0 -0.0022111911768429586 0.0048944609050163559 0 -0.0021977033812141961 0.0050919440263622979 0 -0.0019266205143605945 0.0049873584335579394 0 -0.0019576763397237719 0.0049415181973908474 0 -0.0019627075122645413 0.0049329159546023134 0 -0.0019427895829198249 0.0049514127186656726 0 -0.0019627075122645413 0.0049329159546023134 0 -0.0019526650986683234 0.0049358675002340773 0 -0.0019427895829198249 0.0049514127186656726 0 -0.0019627075122645413 0.0049329159546023134 0 -0.0019526650986683234 0.0049358675002340773 0 -0.0020024699753544719 0.0048939722674376891 0 -0.0019627075122645413 0.0049329159546023134 0 -0.0020024699753544719 0.0048939722674376891 0 -0.0019501751454495668 0.0049428035948768075 0 -0.0019331707787393828 0.0049635668551322419 0 -0.0019526650986683234 0.0049358675002340773 0 -0.0019427895829198249 0.0049514127186656726 0 -0.0019331707787393828 0.0049635668551322419 0 -0.0019345140683088566 0.004979394256045701 0 -0.0019427895829198249 0.0049514127186656726 0 -0.0015455167642154269 0.0046382099667261392 0 -0.0020410727726130683 0.0049724726184710664 0 -0.0019775002542243751 0.0049695714330931368 0 -0.0019700693092190051 0.0049708188779862871 0 -0.0019738999180526767 0.0049609422454223364 0 -0.0013841529287230054 0.0049252151611286201 0 -0.0016736315113650034 0.0050717117645567673 0 -0.0019586356431752616 0.0049651763176372385 0 -0.0019694417690914712 0.0049667363665702943 0 -0.0019700693092190051 0.0049708188779862871 0 -0.0019586356431752616 0.0049651763176372385 0 -0.0019694417690914712 0.0049667363665702943 0 -0.0019699102223961085 0.0049604438093958864 0 -0.0019694417690914712 0.0049667363665702943 0 -0.0019775002542243751 0.0049695714330931368 0 -0.0019699102223961085 0.0049604438093958864 0 -0.0019300334525228168 0.0050512551657174963 0 -0.0016736315113650034 0.0050717117645567673 0 -0.0019694417690914712 0.0049667363665702943 0 -0.0019775002542243751 0.0049695714330931368 0 -0.0019700693092190051 0.0049708188779862871 0 -0.0011148720999658969 0.0041079975671779456 0 -0.0010483142806256098 0.0041071981960594563 0 -0.0010544519570822174 0.0040425063559652629 0 -0.0015156854516856016 0.0045007386787648124 0 -0.0015455167642154269 0.0046382099667261392 0 -0.0019415296694126924 0.0049376743929240279 0 -0.0019492907548870186 0.0049380721369044521 0 -0.00194094535387216 0.0049286509184630501 0 -0.0019415296694126924 0.0049376743929240279 0 -0.0019180903747263349 0.0049217441618501804 0 -0.00194094535387216 0.0049286509184630501 0 -0.0019775002542243751 0.0049695714330931368 0 -0.0019738999180526767 0.0049609422454223364 0 -0.0019634027299653294 0.0049724498198066413 0 -0.0019738999180526767 0.0049609422454223364 0 -0.0019634027299653294 0.0049724498198066413 0 -0.0019492209787622028 0.0049452819522457937 0 -0.0019634027299653294 0.0049724498198066413 0 -0.0019492209787622028 0.0049452819522457937 0 -0.0019359462954728758 0.0049825218164533122 0 -0.0019492907548870186 0.0049380721369044521 0 -0.00194094535387216 0.0049286509184630501 0 -0.0019492209787622028 0.0049452819522457937 0 -0.0020410727726130683 0.0049724726184710664 0 -0.0019161660948532181 0.004937265087890939 0 -0.0019388825641208582 0.0049517794848232995 0 -0.0019492209787622028 0.0049452819522457937 0 -0.001930273708912332 0.0049693018775724216 0 -0.001949372462564096 0.0049369232825721048 0 -0.0019388825641208582 0.0049517794848232995 0 -0.0019492209787622028 0.0049452819522457937 0 -0.0019492209787622028 0.0049452819522457937 0 -0.001930273708912332 0.0049693018775724216 0 -0.0019359462954728758 0.0049825218164533122 0 -0.0019159126923307815 0.0049924412127729965 0 -0.0019359462954728758 0.0049825218164533122 0 -0.00190409941102271 0.0050196387871328206 0 -0.0019159126923307815 0.0049924412127729965 0 -0.001930273708912332 0.0049693018775724216 0 -0.0019359462954728758 0.0049825218164533122 0 -0.00190409941102271 0.0050196387871328206 0 -0.0018811359797122939 0.0050746742920896289 0 -0.0019685338234185505 0.0050080500348389286 0 -0.0018975962195042985 0.0050400798865071718 0 -0.00190409941102271 0.0050196387871328206 0 -0.0018811359797122939 0.0050746742920896289 0 -0.0018722028855117374 0.0050786520079468354 0 -0.0018413967691907893 0.0051307699240917192 0 -0.0018811359797122939 0.0050746742920896289 0 -0.0016915354695219746 0.0052362391330478437 0 -0.001709521356534117 0.0051017881897991299 0 -0.0019359462954728758 0.0049825218164533122 0 -0.00190409941102271 0.0050196387871328206 0 -0.0019685338234185505 0.0050080500348389286 0 -0.0019634027299653294 0.0049724498198066413 0 -0.0019359462954728758 0.0049825218164533122 0 -0.0019685338234185505 0.0050080500348389286 0 -0.0019775002542243751 0.0049695714330931368 0 -0.0019634027299653294 0.0049724498198066413 0 -0.0019685338234185505 0.0050080500348389286 0 -0.0018413967691907893 0.0051307699240917192 0 -0.0016736315113650034 0.0050717117645567673 0 -0.0019775002542243751 0.0049695714330931368 0 -0.0019685338234185505 0.0050080500348389286 0 -0.0019866074344122996 0.0049801415245417638 0 -0.0016915354695219746 0.0052362391330478437 0 -0.0015205801476397291 0.0051826604211266747 0 -0.0016106931305114765 0.005113038584823276 0 -0.0016915354695219746 0.0052362391330478437 0 -0.0016106931305114765 0.005113038584823276 0 -0.001709521356534117 0.0051017881897991299 0 -0.0014062076487263364 0.0052209771374241839 0 -0.0015205801476397291 0.0051826604211266747 0 -0.0015216289612206596 0.0053295570414165381 0 -0.0016915354695219746 0.0052362391330478437 0 -0.0015205801476397291 0.0051826604211266747 0 -0.0015216289612206596 0.0053295570414165381 0 -0.0013625644377246325 0.0051082889193844062 0 -0.0014323854446741566 0.0050956732533338706 0 -0.0014019124791519464 0.0050801135866014643 0 -0.0013951684915590983 0.0050658714416745715 0 -0.0015554200660250316 0.0050770386036127482 0 -0.0013625644377246325 0.0051082889193844062 0 -0.0014323854446741566 0.0050956732533338706 0 -0.0014771780795584651 0.0051398495877742261 0 -0.0014239365458001724 0.0050224498866259923 0 -0.0015145937396156559 0.0050931952645662647 0 -0.0016253124068048381 0.0050247309343877302 0 -0.0014172991875169394 0.0051263765067532446 0 -0.0015205801476397291 0.0051826604211266747 0 -0.0015145937396156559 0.0050931952645662647 0 -0.0015205801476397291 0.0051826604211266747 0 -0.0015145937396156559 0.0050931952645662647 0 -0.0016106931305114765 0.005113038584823276 0 -0.0015145937396156559 0.0050931952645662647 0 -0.0016106931305114765 0.005113038584823276 0 -0.0016253124068048381 0.0050247309343877302 0 -0.0016106931305114765 0.005113038584823276 0 -0.0016253124068048381 0.0050247309343877302 0 -0.001709521356534117 0.0051017881897991299 0 -0.0014323854446741566 0.0050956732533338706 0 -0.0014771780795584651 0.0051398495877742261 0 -0.0015016463490991326 0.005071431028654089 0 -0.0014771780795584651 0.0051398495877742261 0 -0.0015016463490991326 0.005071431028654089 0 -0.0015783432318877682 0.0050558454709937143 0 -0.0015783432318877682 0.0050558454709937143 0 -0.0018105033639631563 0.0050627763698948853 0 -0.0018025091920605878 0.0049948032428262026 0 -0.0015016463490991326 0.005071431028654089 0 -0.0016244635007403771 0.0050300747563100353 0 -0.0015783432318877682 0.0050558454709937143 0 -0.0016244635007403771 0.0050300747563100353 0 -0.0015783432318877682 0.0050558454709937143 0 -0.0016576844339176375 0.0050703567854923455 0 -0.0014771780795584651 0.0051398495877742261 0 -0.0015783432318877682 0.0050558454709937143 0 -0.0018105033639631563 0.0050627763698948853 0 -0.0016053692281848828 0.0050444052026180101 0 -0.0017284625342830417 0.0050388894490503633 0 -0.0016253124068048381 0.0050247309343877302 0 -0.001709521356534117 0.0051017881897991299 0 -0.0018105033639631563 0.0050627763698948853 0 -0.0015554200660250316 0.0050770386036127482 0 -0.0017879302306502555 0.005070828605736777 0 -0.0018105033639631563 0.0050627763698948853 0 -0.0018577167950453134 0.0050294797733609741 0 -0.0018025091920605878 0.0049948032428262026 0 -0.0018811359797122939 0.0050746742920896289 0 -0.001709521356534117 0.0051017881897991299 0 -0.0018105033639631563 0.0050627763698948853 0 -0.0018975962195042985 0.0050400798865071718 0 -0.0018811359797122939 0.0050746742920896289 0 -0.0018685694966938424 0.0050547641076012654 0 -0.0018811359797122939 0.0050746742920896289 0 -0.0018105033639631563 0.0050627763698948853 0 -0.0018685694966938424 0.0050547641076012654 0 -0.0018685694966938424 0.0050547641076012654 0 -0.0018577167950453134 0.0050294797733609741 0 -0.0018890090836335138 0.0050267057390184127 0 -0.0018105033639631563 0.0050627763698948853 0 -0.0018685694966938424 0.0050547641076012654 0 -0.0018577167950453134 0.0050294797733609741 0 -0.0016244635007403771 0.0050300747563100353 0 -0.0016576844339176375 0.0050703567854923455 0 -0.0017432536878069231 0.0050865912326221157 0 -0.0017284625342830417 0.0050388894490503633 0 -0.0018013970199842325 0.0051265943885862413 0 -0.0015944090793840223 0.0050749555801647868 0 -0.0018013970199842325 0.0051265943885862413 0 -0.0015946098386579663 0.0051076823706534651 0 -0.0016562917810741004 0.0051028422455094563 0 -0.0017466615300104986 0.0051790574300181131 0 -0.0018577167950453134 0.0050294797733609741 0 -0.0018025091920605878 0.0049948032428262026 0 -0.0019055323521668583 0.0050074564029177889 0 -0.0017969265612770059 0.0053047479113774269 0 -0.0018349226139452758 0.0052020851663987866 0 -0.0017540224406510656 0.0051242867999234838 0 -0.0017969265612770059 0.0053047479113774269 0 -0.0018349226139452758 0.0052020851663987866 0 -0.0019362676311267394 0.0052461045915981235 0 -0.0017540224406510656 0.0051242867999234838 0 -0.0016075788825712267 0.0049999795318083351 0 -0.0018856724624018815 0.0049999921527293188 0 -0.0018349226139452758 0.0052020851663987866 0 -0.0017540224406510656 0.0051242867999234838 0 -0.0018856724624018815 0.0049999921527293188 0 -0.0017540224406510656 0.0051242867999234838 0 -0.0016075788825712267 0.0049999795318083351 0 -0.0016278738233055166 0.0051087321598697506 0 -0.0016075788825712267 0.0049999795318083351 0 -0.0016278738233055166 0.0051087321598697506 0 -0.0015311906678790056 0.005089248659128188 0 -0.0015944090793840223 0.0050749555801647868 0 -0.0014732076932900183 0.0050711561966001939 0 -0.0017969265612770059 0.0053047479113774269 0 -0.0017540224406510656 0.0051242867999234838 0 -0.0015958003029590544 0.0052160914354760571 0 -0.0015946098386579663 0.0051076823706534651 0 -0.0016562917810741004 0.0051028422455094563 0 -0.0015373699867136372 0.0050725324536640432 0 -0.0017540224406510656 0.0051242867999234838 0 -0.0016278738233055166 0.0051087321598697506 0 -0.0015958003029590544 0.0052160914354760571 0 -0.0017136004313874043 0.0052000482676158241 0 -0.0015710435607918002 0.0051460234094429886 0 -0.0016278738233055166 0.0051087321598697506 0 -0.0015958003029590544 0.0052160914354760571 0 -0.0015311906678790056 0.005089248659128188 0 -0.0015946098386579663 0.0051076823706534651 0 -0.0015373699867136372 0.0050725324536640432 0 -0.001451358170235601 0.0050781555444387458 0 -0.0015710435607918002 0.0051460234094429886 0 -0.0014353619816126078 0.0050948694165135703 0 -0.0015958003029590544 0.0052160914354760571 0 -0.0015311906678790056 0.005089248659128188 0 -0.001417304288167854 0.0050886863395545254 0 -0.0015016463490991326 0.005071431028654089 0 -0.0016244635007403771 0.0050300747563100353 0 -0.001451358170235601 0.0050781555444387458 0 -0.0015373699867136372 0.0050725324536640432 0 -0.001451358170235601 0.0050781555444387458 0 -0.001417304288167854 0.0050886863395545254 0 -0.0014323854446741566 0.0050956732533338706 0 -0.0015016463490991326 0.005071431028654089 0 -0.0014339175875619265 0.0050824824007547915 0 -0.0015016463490991326 0.005071431028654089 0 -0.001451358170235601 0.0050781555444387458 0 -0.0014339175875619265 0.0050824824007547915 0 -0.001451358170235601 0.0050781555444387458 0 -0.0014283157180702286 0.0050855951303882783 0 -0.0014339175875619265 0.0050824824007547915 0 -0.001451358170235601 0.0050781555444387458 0 -0.001417304288167854 0.0050886863395545254 0 -0.0014283157180702286 0.0050855951303882783 0 -0.0016075788825712267 0.0049999795318083351 0 -0.0015311906678790056 0.005089248659128188 0 -0.0013296077657309053 0.0049999493602432658 0 -0.0015311906678790056 0.005089248659128188 0 -0.0013296077657309053 0.0049999493602432658 0 -0.001417304288167854 0.0050886863395545254 0 -0.0013433029754193939 0.005063673859004093 0 -0.001406363159378566 0.0050939548129938115 0 -0.001417304288167854 0.0050886863395545254 0 -0.0013296077657309053 0.0049999493602432658 0 -0.0013433029754193939 0.005063673859004093 0 -0.001417304288167854 0.0050886863395545254 0 -0.0012624940661672135 0.0050676941220875703 0 -0.0013296077657309053 0.0049999493602432658 0 -0.0013433029754193939 0.005063673859004093 0 -0.0012624940661672135 0.0050676941220875703 0 -0.0013433029754193939 0.005063673859004093 0 -0.001406363159378566 0.0050939548129938115 0 -0.0013709696077368837 0.0050624170211102373 0 -0.001406363159378566 0.0050939548129938115 0 -0.0014019124791519464 0.0050801135866014643 0 -0.001406363159378566 0.0050939548129938115 0 -0.001417304288167854 0.0050886863395545254 0 -0.0014283157180702286 0.0050855951303882783 0 -0.001406363159378566 0.0050939548129938115 0 -0.0014283157180702286 0.0050855951303882783 0 -0.0014339175875619265 0.0050824824007547915 0 -0.001406363159378566 0.0050939548129938115 0 -0.0014339175875619265 0.0050824824007547915 0 -0.0014019124791519464 0.0050801135866014643 0 -0.0014323854446741566 0.0050956732533338706 0 -0.0014339175875619265 0.0050824824007547915 0 -0.0014019124791519464 0.0050801135866014643 0 -0.0022654920123517585 0.0053641896779766359 0 -0.002336299146375051 0.0053737738471168967 0 -0.0022258154901560337 0.0054226397888398328 0 -0.0022118586792297642 0.005347692769931584 0 -0.0022654920123517585 0.0053641896779766359 0 -0.0022258154901560337 0.0054226397888398328 0 -0.0022118586792297642 0.005347692769931584 0 -0.0022654920123517585 0.0053641896779766359 0 -0.0022614307783299123 0.0052605286139417711 0 -0.0022118586792297642 0.005347692769931584 0 -0.0021488008802880566 0.0052944707749038346 0 -0.0022614307783299123 0.0052605286139417711 0 -0.0022654920123517585 0.0053641896779766359 0 -0.002336299146375051 0.0053737738471168967 0 -0.0022614307783299123 0.0052605286139417711 0 -0.0023946728257068046 0.0052882557518149007 0 -0.002336299146375051 0.0053737738471168967 0 -0.0022614307783299123 0.0052605286139417711 0 -0.0023946728257068046 0.0052882557518149007 0 -0.0024534467278674622 0.0053737530733098246 0 -0.0024607921558148335 0.0051970395209154875 0 -0.0024959130578375657 0.0054540167537597429 0 -0.0024838477124946232 0.0051822894709247155 0 -0.0023946728257068046 0.0052882557518149007 0 -0.002398784887203569 0.0053789606855502861 0 -0.0024534467278674622 0.0053737530733098246 0 -0.0023946728257068046 0.0052882557518149007 0 -0.002398784887203569 0.0053789606855502861 0 -0.002336299146375051 0.0053737738471168967 0 -0.0024959130578375657 0.0054540167537597429 0 -0.0024195083288053925 0.0052050841372773696 0 -0.002423511891282348 0.0055784740559544823 0 -0.0024181061671632894 0.0054511258719939408 0 -0.0022039763182616873 0.005476647323628442 0 -0.0024534467278674622 0.0053737530733098246 0 -0.0024181061671632894 0.0054511258719939408 0 -0.0024570254724011471 0.0055511446279012666 0 -0.002398784887203569 0.0053789606855502861 0 -0.002336299146375051 0.0053737738471168967 0 -0.0024181061671632894 0.0054511258719939408 0 -0.002398784887203569 0.0053789606855502861 0 -0.0024534467278674622 0.0053737530733098246 0 -0.0024181061671632894 0.0054511258719939408 0 -0.0024181061671632894 0.0054511258719939408 0 -0.0022039763182616873 0.005476647323628442 0 -0.0022009669868615325 0.0054000497952899264 0 -0.00239680185762179 0.0054441018890867641 0 -0.0022309309645441311 0.0054293692833322386 0 -0.002336299146375051 0.0053737738471168967 0 -0.0024181061671632894 0.0054511258719939408 0 -0.0022258154901560337 0.0054226397888398328 0 -0.0019158167679136718 0.0050147422283038758 0 -0.001931480458960408 0.004995842143484302 0 -0.0019060673354396904 0.005014957115945495 0 -0.0022309309645441311 0.0054293692833322386 0 -0.0019361193455937915 0.005208902884879664 0 -0.0022039763182616873 0.005476647323628442 0 -0.0022009669868615325 0.0054000497952899264 0 -0.001967980266386758 0.0053522216067937748 0 -0.002071849070418348 0.0052567291953354422 0 -0.0019361193455937915 0.005208902884879664 0 -0.0019158167679136718 0.0050147422283038758 0 -0.0018961197158839382 0.0050330715638099658 0 -0.0019060673354396904 0.005014957115945495 0 -0.0018975962195042985 0.0050400798865071718 0 -0.0018685694966938424 0.0050547641076012654 0 -0.0018961197158839382 0.0050330715638099658 0 -0.0018975962195042985 0.0050400798865071718 0 -0.0019158167679136718 0.0050147422283038758 0 -0.0018961197158839382 0.0050330715638099658 0 -0.001937749631755098 0.0050094481913790486 0 -0.0019361193455937915 0.005208902884879664 0 -0.0018577167950453134 0.0050294797733609741 0 -0.0018890090836335138 0.0050267057390184127 0 -0.0019055323521668583 0.0050074564029177889 0 -0.0018961197158839382 0.0050330715638099658 0 -0.0018890090836335138 0.0050267057390184127 0 -0.0019144593355954593 0.0050119119004928296 0 -0.0018685694966938424 0.0050547641076012654 0 -0.0018961197158839382 0.0050330715638099658 0 -0.0018890090836335138 0.0050267057390184127 0 -0.0017969265612770059 0.0053047479113774269 0 -0.0019937630543738409 0.0053838705421624727 0 -0.0019362676311267394 0.0052461045915981235 0 -0.0017136004313874043 0.0052000482676158241 0 -0.0019575851119385647 0.0052812541420957631 0 -0.0016562917810741004 0.0051028422455094563 0 -0.0017466615300104986 0.0051790574300181131 0 -0.0017808089067880058 0.0051515023691942208 0 -0.0018890090836335138 0.0050267057390184127 0 -0.0019055323521668583 0.0050074564029177889 0 -0.0019144593355954593 0.0050119119004928296 0 -0.0019361193455937915 0.005208902884879664 0 -0.0019575851119385647 0.0052812541420957631 0 -0.0018013970199842325 0.0051265943885862413 0 -0.0019361193455937915 0.005208902884879664 0 -0.0017466615300104986 0.0051790574300181131 0 -0.0017674968689685539 0.0051831957801616122 0 -0.0017808089067880058 0.0051515023691942208 0 -0.0020415559427621435 0.0053415267110872725 0 -0.0021488008802880566 0.0052944707749038346 0 -0.0021069215316583474 0.0051765237922571598 0 -0.0022258154901560337 0.0054226397888398328 0 -0.0020156381783255333 0.00538318091246751 0 -0.0021508385073357211 0.0053846707484836642 0 -0.0022118586792297642 0.005347692769931584 0 -0.0022258154901560337 0.0054226397888398328 0 -0.0021508385073357211 0.0053846707484836642 0 -0.0022118586792297642 0.005347692769931584 0 -0.0021508385073357211 0.0053846707484836642 0 -0.0021488008802880566 0.0052944707749038346 0 -0.0019575851119385647 0.0052812541420957631 0 -0.0021578426927272919 0.0053839917254863996 0 -0.0020156381783255333 0.00538318091246751 0 -0.00203436829601404 0.005337626915642945 0 -0.0021508385073357211 0.0053846707484836642 0 -0.0020415559427621435 0.0053415267110872725 0 -0.0021508385073357211 0.0053846707484836642 0 -0.0021488008802880566 0.0052944707749038346 0 -0.0019575851119385647 0.0052812541420957631 0 -0.0020932762799079933 0.005194351150028538 0 -0.0021488008802880566 0.0052944707749038346 0 -0.0021069215316583474 0.0051765237922571598 0 -0.0022614307783299123 0.0052605286139417711 0 -0.0019937630543738409 0.0053838705421624727 0 -0.0020765336023847742 0.0051917537073180109 0 -0.0019362676311267394 0.0052461045915981235 0 -0.0018349226139452758 0.0052020851663987866 0 -0.0019362676311267394 0.0052461045915981235 0 -0.0018856724624018815 0.0049999921527293188 0 -0.0020765336023847742 0.0051917537073180109 0 -0.0019362676311267394 0.0052461045915981235 0 -0.0018856724624018815 0.0049999921527293188 0 -0.0020765336023847742 0.0051917537073180109 0 -0.0018856724624018815 0.0049999921527293188 0 -0.0021637196059865497 0.004999998251854449 0 -0.0020932762799079933 0.005194351150028538 0 -0.0021637224183571912 0.0050000274161198883 0 -0.0021069215316583474 0.0051765237922571598 0 -0.002163770646213601 0.0049999995374075124 0 -0.0022460936539204744 0.0051240030191500056 0 -0.002163770646213601 0.0049999995374075124 0 -0.0023222788469636239 0.0049999931830170489 0 -0.0022460936539204744 0.0051240030191500056 0 -0.0023222788469636239 0.0049999931830170489 0 -0.0022460936539204744 0.0051240030191500056 0 -0.0023757022149047116 0.0051155723645552069 0 -0.0022460936539204744 0.0051240030191500056 0 -0.0022614307783299123 0.0052605286139417711 0 -0.0023757022149047116 0.0051155723645552069 0 -0.0021069215316583474 0.0051765237922571598 0 -0.0022460936539204744 0.0051240030191500056 0 -0.0022614307783299123 0.0052605286139417711 0 -0.0023946728257068046 0.0052882557518149007 0 -0.0022614307783299123 0.0052605286139417711 0 -0.0023757022149047116 0.0051155723645552069 0 -0.0023946728257068046 0.0052882557518149007 0 -0.0024607921558148335 0.0051970395209154875 0 -0.0023757022149047116 0.0051155723645552069 0 -0.0024607921558148335 0.0051970395209154875 0 -0.0024808088044976019 0.0050000004664123854 0 -0.0023757022149047116 0.0051155723645552069 0 -0.0023222788469636239 0.0049999931830170489 0 -0.0024808088044976019 0.0050000004664123854 0 -0.0023757022149047116 0.0051155723645552069 0 -0.0024838477124946232 0.0051822894709247155 0 -0.0024808408216900526 0.0050000551729332491 0 -0.002480870403290562 0.0049999969424353976 0 -0.002618256197556827 0.0051253206480697134 0 -0.0026843014031854803 0.0049999977979385433 0 -0.0025085217311051067 0.0052028505951753788 0 -0.002480870403290562 0.0049999969424353976 0 -0.002618256197556827 0.0051253206480697134 0 -0.0026843014031854803 0.0049999977979385433 0 -0.0027576993349428557 0.0051665529057903486 0 -0.0028877474763465351 0.0049999806320505796 0 -0.002618256197556827 0.0051253206480697134 0 -0.0026843014031854803 0.0049999977979385433 0 -0.0027576993349428557 0.0051665529057903486 0 -0.0026992290758100896 0.0053342127857513759 0 -0.0033563822710009597 0.0048137989122388264 0 -0.0027576993349428557 0.0051665529057903486 0 -0.0026558509848067877 0.0052896213190272668 0 -0.0028340670515258431 0.0053454746522267399 0 -0.002618256197556827 0.0051253206480697134 0 -0.0027576993349428557 0.0051665529057903486 0 -0.0026558509848067877 0.0052896213190272668 0 -0.0025085217311051067 0.0052028505951753788 0 -0.002618256197556827 0.0051253206480697134 0 -0.0026558509848067877 0.0052896213190272668 0 -0.0025241332089004694 0.0053896927201682668 0 -0.0025085217311051067 0.0052028505951753788 0 -0.0026558509848067877 0.0052896213190272668 0 -0.0025241332089004694 0.0053896927201682668 0 -0.0026558509848067877 0.0052896213190272668 0 -0.0026784518959340605 0.0054597506991094936 0 -0.0026558509848067877 0.0052896213190272668 0 -0.0026784518959340605 0.0054597506991094936 0 -0.0028340670515258431 0.0053454746522267399 0 -0.0025560585684913971 0.0051722016961917323 0 -0.0033563822710009597 0.0048137989122388264 0 -0.0025241332089004694 0.0053896927201682668 0 -0.0026784518959340605 0.0054597506991094936 0 -0.0025308609226866265 0.0055678619693051642 0 -0.0025560585684913971 0.0051722016961917323 0 -0.0024195083288053925 0.0052050841372773696 0 -0.0052312229062382214 0.0044190651506018893 0 -0.0052948386225522316 0.0043949196205188929 0 -0.0053189766173900267 0.0044341106485172276 0 -0.0052312229062382214 0.0044190651506018893 0 -0.005240116535665338 0.0043438183845603178 0 -0.0052948386225522316 0.0043949196205188929 0 -0.0052312229062382214 0.0044190651506018893 0 -0.0051653065190161917 0.0043407576657071636 0 -0.005240116535665338 0.0043438183845603178 0 -0.0039971301167632456 0.0045730200846314795 0 -0.0033563822710009597 0.0048137989122388264 0 -0.0026059606274053851 0.0047760370911352655 0 -0.0026525102270881389 0.004789201685050674 0 -0.0026410633058123528 0.0047537133475250059 0 -0.0033563822710009597 0.0048137989122388264 0 -0.0038213778912020383 0.0049908879914290485 0 -0.0051653065190161917 0.0043407576657071636 0 -0.005240116535665338 0.0043438183845603178 0 -0.005247038160388396 0.0042777991380869218 0 -0.005240116535665338 0.0043438183845603178 0 -0.005309569888772828 0.0043367817857896942 0 -0.0052948386225522316 0.0043949196205188929 0 -0.0038213778912020383 0.0049908879914290485 0 -0.0045310619160469096 0.0046619463242447571 0 -0.005240116535665338 0.0043438183845603178 0 -0.005247038160388396 0.0042777991380869218 0 -0.005309569888772828 0.0043367817857896942 0 -0.0038213778912020383 0.0049908879914290485 0 -0.0030395301012809779 0.0053344972741533794 0 -0.0027576993349428557 0.0051665529057903486 0 -0.0028589563032364973 0.0053697732029040343 0 -0.0030605299393067203 0.0052176842961970818 0 -0.0027576993349428557 0.0051665529057903486 0 -0.0030605299393067203 0.0052176842961970818 0 -0.0028877474763465351 0.0049999806320505796 0 -0.0028877225874004379 0.0050000270514536111 0 -0.003162754031214618 0.0049999603622406267 0 -0.0031644789508483147 0.005171914898412391 0 -0.0038213778912020383 0.0049908879914290485 0 -0.0028871481146512351 0.0049999637553399204 0 -0.0030620441200006005 0.0052504772436175696 0 -0.0028877225874004379 0.0050000270514536111 0 -0.0031644789508483147 0.005171914898412391 0 -0.003162754031214618 0.0049999603622406267 0 -0.0031644789508483147 0.005171914898412391 0 -0.0033210258903371317 0.0052354120647018958 0 -0.003162754031214618 0.0049999603622406267 0 -0.0033210258903371317 0.0052354120647018958 0 -0.0034374674688814819 0.0050002252800938549 0 -0.0033210258903371317 0.0052354120647018958 0 -0.003445158052976828 0.0053749837577680617 0 -0.0031889406922583196 0.0054260873923940361 0 -0.0030636839235044472 0.0052586897383066393 0 -0.0031849979140571461 0.0052737885762108279 0 -0.0031889406922583196 0.0054260873923940361 0 -0.0031644789508483147 0.005171914898412391 0 -0.0033210258903371317 0.0052354120647018958 0 -0.0031849979140571461 0.0052737885762108279 0 -0.0033210258903371317 0.0052354120647018958 0 -0.0031849979140571461 0.0052737885762108279 0 -0.0031889406922583196 0.0054260873923940361 0 -0.0030636839235044472 0.0052586897383066393 0 -0.0031644789508483147 0.005171914898412391 0 -0.0031849979140571461 0.0052737885762108279 0 -0.0037133060509146267 0.004999344759951594 0 -0.0035767575887022014 0.0051626989014637347 0 -0.0038025427767302668 0.0053843090172339889 0 -0.0033210258903371317 0.0052354120647018958 0 -0.0035767575887022014 0.0051626989014637347 0 -0.0034374674688814819 0.0050002252800938549 0 -0.0037133060509146267 0.004999344759951594 0 -0.0035767575887022014 0.0051626989014637347 0 -0.0034374674688814819 0.0050002252800938549 0 -0.0033210258903371317 0.0052354120647018958 0 -0.0035767575887022014 0.0051626989014637347 0 -0.003445158052976828 0.0053749837577680617 0 -0.0035767575887022014 0.0051626989014637347 0 -0.0038025427767302668 0.0053843090172339889 0 -0.003445158052976828 0.0053749837577680617 0 -0.0045297752334554344 0.0050639701248562539 0 -0.0043655636115417775 0.0050577330514684138 0 -0.0052317303441565127 0.0047889740619954518 0 -0.0052346325652023436 0.0045453286987256038 0 -0.0053834137904763659 0.0046252610044302317 0 -0.0052346325652023436 0.0045453286987256038 0 -0.0053834137904763659 0.0046252610044302317 0 -0.0053579296670328144 0.0044714167295974907 0 -0.0052346325652023436 0.0045453286987256038 0 -0.0053579296670328144 0.0044714167295974907 0 -0.0053540572566071172 0.0043440476196962364 0 -0.0052346325652023436 0.0045453286987256038 0 -0.0053540572566071172 0.0043440476196962364 0 -0.005141573734489471 0.0043455133763706721 0 -0.0043655636115417775 0.0050577330514684138 0 -0.0045310619160469096 0.0046619463242447571 0 -0.0053834137904763659 0.0046252610044302317 0 -0.0054931153305834025 0.0045477760334956749 0 -0.0054013820360558342 0.0045160706811705597 0 -0.0053834137904763659 0.0046252610044302317 0 -0.0053579296670328144 0.0044714167295974907 0 -0.0054013820360558342 0.0045160706811705597 0 -0.0053579296670328144 0.0044714167295974907 0 -0.0053893751298683158 0.0044293011337166741 0 -0.005365597072570288 0.0044020477695719739 0 -0.0053579296670328144 0.0044714167295974907 0 -0.0054013820360558342 0.0045160706811705597 0 -0.0053893751298683158 0.0044293011337166741 0 -0.0054931153305834025 0.0045477760334956749 0 -0.0054013820360558342 0.0045160706811705597 0 -0.0053893751298683158 0.0044293011337166741 0 -0.0053893751298683158 0.0044293011337166741 0 -0.0052948386225522316 0.0043949196205188929 0 -0.0053189766173900267 0.0044341106485172276 0 -0.0045310619160469096 0.0046619463242447571 0 -0.0055917041114570713 0.0044534618270179686 0 -0.005309569888772828 0.0043367817857896942 0 -0.0053893751298683158 0.0044293011337166741 0 -0.0052948386225522316 0.0043949196205188929 0 -0.0053893751298683158 0.0044293011337166741 0 -0.0053189766173900267 0.0044341106485172276 0 -0.0053406325612041575 0.0044325888142227425 0 -0.0053893751298683158 0.0044293011337166741 0 -0.0053406325612041575 0.0044325888142227425 0 -0.005365597072570288 0.0044020477695719739 0 -0.0053406325612041575 0.0044325888142227425 0 -0.005365597072570288 0.0044020477695719739 0 -0.0053692295606420299 0.0044266478488436036 0 -0.0053406325612041575 0.0044325888142227425 0 -0.0053042431713757124 0.004469218354848605 0 -0.005288700629053773 0.0044521170262833611 0 -0.0053189766173900267 0.0044341106485172276 0 -0.0053406325612041575 0.0044325888142227425 0 -0.005288700629053773 0.0044521170262833611 0 -0.0053579296670328144 0.0044714167295974907 0 -0.0053540572566071172 0.0043440476196962364 0 -0.005365597072570288 0.0044020477695719739 0 -0.0053815893577307452 0.0043276641463460934 0 -0.0054440075150711626 0.0042795866569566585 0 -0.0053540572566071172 0.0043440476196962364 0 -0.005365597072570288 0.0044020477695719739 0 -0.0053692295606420299 0.0044266478488436036 0 -0.0053540572566071172 0.0043440476196962364 0 -0.0053872233783347828 0.0040996027242623185 0 -0.0052072140864985669 0.0041094586247191539 0 -0.0053540572566071172 0.0043440476196962364 0 -0.005599560424302678 0.0040639877345497524 0 -0.0053872233783347828 0.0040996027242623185 0 -0.0055637870762672353 0.003866636642444576 0 -0.005439370450223302 0.0037501059767076424 0 -0.0053280374496929702 0.0039116979407170195 0 -0.0053872233783347828 0.0040996027242623185 0 -0.0055637870762672353 0.003866636642444576 0 -0.0053280374496929702 0.0039116979407170195 0 -0.005599560424302678 0.0040639877345497524 0 -0.0055637870762672353 0.003866636642444576 0 -0.0057426855207361269 0.0038232227124505797 0 -0.0054440075150711626 0.0042795866569566585 0 -0.005720150689295273 0.0040121106270060462 0 -0.005599560424302678 0.0040639877345497524 0 -0.0053872233783347828 0.0040996027242623185 0 -0.0055637870762672353 0.003866636642444576 0 -0.0055637870762672353 0.003866636642444576 0 -0.0056367850097754036 0.003704927513123308 0 -0.005439370450223302 0.0037501059767076424 0 -0.0055637870762672353 0.003866636642444576 0 -0.0056367850097754036 0.003704927513123308 0 -0.0057426855207361269 0.0038232227124505797 0 -0.0056367850097754036 0.003704927513123308 0 -0.005439370450223302 0.0037501059767076424 0 -0.0055199985081332429 0.0036485046980782288 0 -0.0053406325612041575 0.0044325888142227425 0 -0.0053692295606420299 0.0044266478488436036 0 -0.0053462570879299126 0.0044674687994166046 0 -0.0053406325612041575 0.0044325888142227425 0 -0.0053042431713757124 0.004469218354848605 0 -0.0053462570879299126 0.0044674687994166046 0 -0.0056367850097754036 0.003704927513123308 0 -0.0057426855207361269 0.0038232227124505797 0 -0.0057354763202806637 0.003648405790659157 0 -0.005720150689295273 0.0040121106270060462 0 -0.00438931614240844 0.0044554195942098137 0 -0.0057426855207361269 0.0038232227124505797 0 -0.0058470276111893173 0.0036345091740949782 0 -0.0057354763202806637 0.003648405790659157 0 -0.0026997390146682931 0.0049031856552943761 0 -0.0026821807360636516 0.0050241942065314543 0 -0.0028237926696161879 0.0051159655333647943 0 -0.0039803711234557325 0.0047448264618548015 0 -0.00438931614240844 0.0044554195942098137 0 -0.0053042431713757124 0.004469218354848605 0 -0.0053462570879299126 0.0044674687994166046 0 -0.0053140029470778692 0.0045013833952142592 0 -0.0026821807360636516 0.0050241942065314543 0 -0.0026177858089297223 0.005055306617625043 0 -0.0025982986475639098 0.0049563249135276544 0 -0.0026821807360636516 0.0050241942065314543 0 -0.0026177858089297223 0.005055306617625043 0 -0.0026808867925991178 0.0050961395981802462 0 -0.0026177858089297223 0.005055306617625043 0 -0.0025046794034053253 0.0050420811638189093 0 -0.0024896881603413083 0.0051794130039728029 0 -0.0026177858089297223 0.005055306617625043 0 -0.0025982986475639098 0.0049563249135276544 0 -0.0025046794034053253 0.0050420811638189093 0 -0.0025982986475639098 0.0049563249135276544 0 -0.0024527372853426067 0.0049709669851177671 0 -0.0025046794034053253 0.0050420811638189093 0 -0.0026997390146682931 0.0049031856552943761 0 -0.0026821807360636516 0.0050241942065314543 0 -0.0025982986475639098 0.0049563249135276544 0 -0.0026997390146682931 0.0049031856552943761 0 -0.0026650305014874324 0.0048682735726754229 0 -0.0026590406906127498 0.004812767176918452 0 -0.0026650305014874324 0.0048682735726754229 0 -0.002505200419943272 0.0048886076997260572 0 -0.0024235581779488758 0.0047557277029144336 0 -0.0026553566548229999 0.0048606541809096699 0 -0.0025317500562332981 0.0047983117450685307 0 -0.0039803711234557325 0.0047448264618548015 0 -0.0039670603995806434 0.0046254386406656394 0 -0.0026997390146682931 0.0049031856552943761 0 -0.0025982986475639098 0.0049563249135276544 0 -0.0026650305014874324 0.0048682735726754229 0 -0.0025982986475639098 0.0049563249135276544 0 -0.002505200419943272 0.0048886076997260572 0 -0.0024527372853426067 0.0049709669851177671 0 -0.0025982986475639098 0.0049563249135276544 0 -0.0026650305014874324 0.0048682735726754229 0 -0.002505200419943272 0.0048886076997260572 0 -0.0023495714487450324 0.0048655188080713833 0 -0.002505200419943272 0.0048886076997260572 0 -0.0024235581779488758 0.0047557277029144336 0 -0.0023495714487450324 0.0048655188080713833 0 -0.002505200419943272 0.0048886076997260572 0 -0.0024527372853426067 0.0049709669851177671 0 -0.0023495714487450324 0.0048655188080713833 0 -0.0024527372853426067 0.0049709669851177671 0 -0.0023177625350999432 0.0049701704925763238 0 -0.0024527372853426067 0.0049709669851177671 0 -0.0023608808324831901 0.0050558972873473778 0 -0.0023177625350999432 0.0049701704925763238 0 -0.0025046794034053253 0.0050420811638189093 0 -0.0023608808324831901 0.0050558972873473778 0 -0.0024896881603413083 0.0051794130039728029 0 -0.0024527372853426067 0.0049709669851177671 0 -0.0025046794034053253 0.0050420811638189093 0 -0.0023608808324831901 0.0050558972873473778 0 -0.0023608808324831901 0.0050558972873473778 0 -0.0022181324555153488 0.0050168052651611648 0 -0.0021508818953799732 0.0051141265756568452 0 -0.0023608808324831901 0.0050558972873473778 0 -0.0022181324555153488 0.0050168052651611648 0 -0.0023177625350999432 0.0049701704925763238 0 -0.0022181324555153488 0.0050168052651611648 0 -0.0023177625350999432 0.0049701704925763238 0 -0.0021905409507890776 0.004916184292357852 0 -0.0019601763593918315 0.004978253865715614 0 -0.0021094586361116484 0.0050271500876604399 0 -0.001947249982157143 0.00497130186619633 0 -0.0020591151539802264 0.0049783599426473871 0 -0.0021508818953799732 0.0051141265756568452 0 -0.0022181324555153488 0.0050168052651611648 0 -0.0020591151539802264 0.0049783599426473871 0 -0.0021905409507890776 0.004916184292357852 0 -0.0022181324555153488 0.0050168052651611648 0 -0.0020591151539802264 0.0049783599426473871 0 -0.0021508818953799732 0.0051141265756568452 0 -0.0020591151539802264 0.0049783599426473871 0 -0.0020024699753544719 0.0048939722674376891 0 -0.0021905409507890776 0.004916184292357852 0 -0.0020024699753544719 0.0048939722674376891 0 -0.0021905409507890776 0.004916184292357852 0 -0.0022129452306062234 0.004681342152324186 0 -0.0023495714487450324 0.0048655188080713833 0 -0.0021905409507890776 0.004916184292357852 0 -0.0022129452306062234 0.004681342152324186 0 -0.0023495714487450324 0.0048655188080713833 0 -0.0023177625350999432 0.0049701704925763238 0 -0.0021905409507890776 0.004916184292357852 0 -0.0024120101807678413 0.0047325601287981148 0 -0.0025317500562332981 0.0047983117450685307 0 -0.0026076860759163697 0.0048180563241019608 0 -0.0026270198339816103 0.0048057823457615485 0 -0.002631333355873045 0.0048279381621045636 0 -0.0023495714487450324 0.0048655188080713833 0 -0.0022129452306062234 0.004681342152324186 0 -0.0024235581779488758 0.0047557277029144336 0 -0.0020024699753544719 0.0048939722674376891 0 -0.0022129452306062234 0.004681342152324186 0 -0.0019892440535380991 0.0045785900313967814 0 -0.0019398859804608619 0.0048326409310675009 0 -0.0022111911768429586 0.0048944609050163559 0 -0.0026059606274053851 0.0047760370911352655 0 -0.0025975638865715169 0.0048003512975313871 0 -0.0025724166398120546 0.0047982927135769224 0 -0.0024120101807678413 0.0047325601287981148 0 -0.0022111911768429586 0.0048944609050163559 0 -0.0026076860759163697 0.0048180563241019608 0 -0.0025726255841005564 0.0048067959181614193 0 -0.0025975638865715169 0.0048003512975313871 0 -0.0025726255841005564 0.0048067959181614193 0 -0.0025975638865715169 0.0048003512975313871 0 -0.0025724166398120546 0.0047982927135769224 0 -0.0022111911768429586 0.0048944609050163559 0 -0.0024195083288053925 0.0052050841372773696 0 -0.0026076860759163697 0.0048180563241019608 0 -0.0025975638865715169 0.0048003512975313871 0 -0.0026270198339816103 0.0048057823457615485 0 -0.0026059606274053851 0.0047760370911352655 0 -0.0025975638865715169 0.0048003512975313871 0 -0.0026270198339816103 0.0048057823457615485 0 -0.0026525102270881389 0.004789201685050674 0 -0.0026270198339816103 0.0048057823457615485 0 -0.0026590406906127498 0.004812767176918452 0 -0.0026059606274053851 0.0047760370911352655 0 -0.0026525102270881389 0.004789201685050674 0 -0.0026270198339816103 0.0048057823457615485 0 -0.0052312229062382214 0.0044190651506018893 0 -0.0053189766173900267 0.0044341106485172276 0 -0.005288700629053773 0.0044521170262833611 0 -0.0039971301167632456 0.0045730200846314795 0 -0.0039670603995806434 0.0046254386406656394 0 -0.0026650305014874324 0.0048682735726754229 0 -0.0026590406906127498 0.004812767176918452 0 -0.002631333355873045 0.0048279381621045636 0 -0.0026270198339816103 0.0048057823457615485 0 -0.0026590406906127498 0.004812767176918452 0 -0.002631333355873045 0.0048279381621045636 0 -0.0049998978811398951 0.0043778555371283868 0 -0.0050243204936735791 0.0046417998048372145 0 -0.0049793231874321183 0.0048380564912821394 0 -0.0049999621701020359 0.0043773769063286472 0 -0.0050510474536431217 0.004429361784547366 0 -0.0049998978811398951 0.0043778555371283868 0 -0.0050356709217242125 0.0045156600223303636 0 -0.0050243204936735791 0.0046417998048372145 0 -0.005105720412603482 0.0042785242947693865 0 -0.0050486288193409921 0.0043319435972871256 0 -0.0051320693707023416 0.0043666104197490471 0 -0.005105720412603482 0.0042785242947693865 0 -0.0050486288193409921 0.0043319435972871256 0 -0.0050750912480684645 0.0042099563689890476 0 -0.0050356709217242125 0.0045156600223303636 0 -0.005044845831190325 0.0046242596189020558 0 -0.0050909967016365357 0.0046138203522147732 0 -0.0050510474536431217 0.004429361784547366 0 -0.0050180717963395315 0.0044092576763245152 0 -0.005044845831190325 0.0046242596189020558 0 -0.0050243204936735791 0.0046417998048372145 0 -0.0050477697109055928 0.0046788657277825798 0 -0.0050356709217242125 0.0045156600223303636 0 -0.005044845831190325 0.0046242596189020558 0 -0.0050243204936735791 0.0046417998048372145 0 -0.0050243204936735791 0.0046417998048372145 0 -0.0050477697109055928 0.0046788657277825798 0 -0.0049826502846965293 0.0048032113343245116 0 -0.0050028883993542793 0.0046441226809444368 0 -0.0050180717963395315 0.0044092576763245152 0 -0.005044845831190325 0.0046242596189020558 0 -0.0050477697109055928 0.0046788657277825798 0 -0.0050909967016365357 0.0046138203522147732 0 -0.0049998978811398951 0.0043778555371283868 0 -0.0049793231874321183 0.0048380564912821394 0 -0.0049995012703106783 0.0049998643269959847 0 -0.0049793231874321183 0.0048380564912821394 0 -0.0049995012703106783 0.0049998643269959847 0 -0.0047036981075426103 0.0049997964028675049 0 -0.0047036981075426103 0.0049997964028675049 0 -0.0049826502846965293 0.0048032113343245116 0 -0.0050430596291663136 0.0048234851877344683 0 -0.0049793231874321183 0.0048380564912821394 0 -0.0047036981075426103 0.0049997964028675049 0 -0.0049826502846965293 0.0048032113343245116 0 -0.0050477697109055928 0.0046788657277825798 0 -0.0049826502846965293 0.0048032113343245116 0 -0.0050430596291663136 0.0048234851877344683 0 -0.0050243204936735791 0.0046417998048372145 0 -0.0049793231874321183 0.0048380564912821394 0 -0.0049826502846965293 0.0048032113343245116 0 -0.0048207407125517455 0.0050551393920321031 0 -0.0046979552205403258 0.0047157249953596447 0 -0.004629113181125002 0.0052020586257309044 0 -0.0044573663534546084 0.0052041878697992559 0 -0.0045594716488674891 0.0053907655205415643 0 -0.0047025959833320074 0.0049999954330226465 0 -0.004629113181125002 0.0052020586257309044 0 -0.0044373278054732615 0.0049999967095658952 0 -0.0047454219887902854 0.0049706823876780023 0 -0.0048207407125517455 0.0050551393920321031 0 -0.0044373278054732615 0.0049999967095658952 0 -0.0044573663534546084 0.0052041878697992559 0 -0.0042822642081054721 0.0051414171611885284 0 -0.004629113181125002 0.0052020586257309044 0 -0.0044373278054732615 0.0049999967095658952 0 -0.0044573663534546084 0.0052041878697992559 0 -0.0044573663534546084 0.0052041878697992559 0 -0.0045594716488674891 0.0053907655205415643 0 -0.0043522564284137226 0.0052974805179201246 0 -0.0046979552205403258 0.0047157249953596447 0 -0.0044702947540294132 0.005044377080134054 0 -0.004425841562253131 0.0046343910125208948 0 -0.0046572995567630672 0.0045224059550026284 0 -0.0046381303836172958 0.0047417062288742269 0 -0.0050477697109055928 0.0046788657277825798 0 -0.0050430596291663136 0.0048234851877344683 0 -0.0051319850811268755 0.0046687010399149506 0 -0.0050477697109055928 0.0046788657277825798 0 -0.0051319850811268755 0.0046687010399149506 0 -0.005063524685830198 0.0046324129942748576 0 -0.0046979552205403258 0.0047157249953596447 0 -0.0050180717963395315 0.0044092576763245152 0 -0.0048172235641133904 0.0041145867555905762 0 -0.0047367549278611977 0.0041724766197040811 0 -0.0048046990793085042 0.0039945487683215146 0 -0.005105720412603482 0.0042785242947693865 0 -0.0051320693707023416 0.0043666104197490471 0 -0.0051697055350173283 0.0042028463329646841 0 -0.0048172235641133904 0.0041145867555905762 0 -0.0048845982955050488 0.0040511782875810162 0 -0.0048046990793085042 0.0039945487683215146 0 -0.0048335047428970067 0.0042206641741721809 0 -0.0048172235641133904 0.0041145867555905762 0 -0.0047367549278611977 0.0041724766197040811 0 -0.0050180717963395315 0.0044092576763245152 0 -0.0049788796563099442 0.00407486720959159 0 -0.0048335047428970067 0.0042206641741721809 0 -0.0048172235641133904 0.0041145867555905762 0 -0.0048845982955050488 0.0040511782875810162 0 -0.004425841562253131 0.0046343910125208948 0 -0.0045093549862278504 0.0043966040301085694 0 -0.0046572995567630672 0.0045224059550026284 0 -0.0045093549862278504 0.0043966040301085694 0 -0.0046572995567630672 0.0045224059550026284 0 -0.0046834748296850212 0.0043240469969093604 0 -0.0046979552205403258 0.0047157249953596447 0 -0.004702575566596809 0.0041720686231191996 0 -0.0046572995567630672 0.0045224059550026284 0 -0.0047983798896918091 0.0043650983034696899 0 -0.0046834748296850212 0.0043240469969093604 0 -0.0046572995567630672 0.0045224059550026284 0 -0.0048002344641683908 0.0045992946737023737 0 -0.0047983798896918091 0.0043650983034696899 0 -0.0048002344641683908 0.0045992946737023737 0 -0.0049661112754316641 0.004361855882579522 0 -0.0047983798896918091 0.0043650983034696899 0 -0.0048002344641683908 0.0045992946737023737 0 -0.0048097118487818316 0.0047324167245841806 0 -0.0046381303836172958 0.0047417062288742269 0 -0.0048002344641683908 0.0045992946737023737 0 -0.0048097118487818316 0.0047324167245841806 0 -0.0048763036265373101 0.0047327598255736715 0 -0.0046572995567630672 0.0045224059550026284 0 -0.0048002344641683908 0.0045992946737023737 0 -0.0046381303836172958 0.0047417062288742269 0 -0.0044373278054732615 0.0049999967095658952 0 -0.0042822642081054721 0.0051414171611885284 0 -0.004020864012417193 0.0049999975118911561 0 -0.0043522564284137226 0.0052974805179201246 0 -0.0042822642081054721 0.0051414171611885284 0 -0.0041402102361883242 0.0052016865912040263 0 -0.0044573663534546084 0.0052041878697992559 0 -0.0043522564284137226 0.0052974805179201246 0 -0.0042822642081054721 0.0051414171611885284 0 -0.0044702947540294132 0.005044377080134054 0 -0.0044767886917574792 0.005035287835560647 0 -0.0042822642081054721 0.0051414171611885284 0 -0.0041402102361883242 0.0052016865912040263 0 -0.004020864012417193 0.0049999975118911561 0 -0.0048097118487818316 0.0047324167245841806 0 -0.0046381303836172958 0.0047417062288742269 0 -0.0048117828356296797 0.0048585506873914316 0 -0.0048097118487818316 0.0047324167245841806 0 -0.0048117828356296797 0.0048585506873914316 0 -0.0048105487574275074 0.0048381175345848489 0 -0.0048117828356296797 0.0048585506873914316 0 -0.0048105487574275074 0.0048381175345848489 0 -0.0047181013274958166 0.0049955359485501019 0 -0.0048097118487818316 0.0047324167245841806 0 -0.0048105487574275074 0.0048381175345848489 0 -0.0048763036265373101 0.0047327598255736715 0 -0.0048105487574275074 0.0048381175345848489 0 -0.0048469039020573234 0.0048395002964286586 0 -0.0048763036265373101 0.0047327598255736715 0 -0.0048469039020573234 0.0048395002964286586 0 -0.00499200662429707 0.0047742933839271771 0 -0.0048763036265373101 0.0047327598255736715 0 -0.0048469039020573234 0.0048395002964286586 0 -0.0047181013274958166 0.0049955359485501019 0 -0.00499200662429707 0.0047742933839271771 0 -0.0048105487574275074 0.0048381175345848489 0 -0.0048469039020573234 0.0048395002964286586 0 -0.0047181013274958166 0.0049955359485501019 0 -0.0044767886917574792 0.005035287835560647 0 -0.0042834597559255954 0.0050566893651511997 0 -0.0041402102361883242 0.0052016865912040263 0 -0.004020864012417193 0.0049999975118911561 0 -0.0039260925720519067 0.0051019487121821555 0 -0.0048117828356296797 0.0048585506873914316 0 -0.0046319389625710415 0.0049814768040211573 0 -0.0047181013274958166 0.0049955359485501019 0 -0.003712587763105474 0.0050000003229209618 0 -0.004020864012417193 0.0049999975118911561 0 -0.0039260925720519067 0.0051019487121821555 0 -0.0037133060509146267 0.004999344759951594 0 -0.0038025427767302668 0.0053843090172339889 0 -0.0046319389625710415 0.0049814768040211573 0 -0.0037128099335299713 0.0050000037648616881 0 -0.0042834597559255954 0.0050566893651511997 0 -0.0052317303441565127 0.0047889740619954518 0 -0.0047181013274958166 0.0049955359485501019 0 -0.00499200662429707 0.0047742933839271771 0 -0.0038025427767302668 0.0053843090172339889 0 -0.0046319389625710415 0.0049814768040211573 0 -0.0047181013274958166 0.0049955359485501019 0 -0.0045297752334554344 0.0050639701248562539 0 -0.0046946620271436307 0.0050121839964609336 0 -0.0052346325652023436 0.0045453286987256038 0 -0.00499200662429707 0.0047742933839271771 0 -0.0050011217464631039 0.0045472931621139212 0 -0.0052317303441565127 0.0047889740619954518 0 -0.0052346325652023436 0.0045453286987256038 0 -0.00499200662429707 0.0047742933839271771 0 -0.0048002344641683908 0.0045992946737023737 0 -0.0048763036265373101 0.0047327598255736715 0 -0.0050011217464631039 0.0045472931621139212 0 -0.00499200662429707 0.0047742933839271771 0 -0.0048763036265373101 0.0047327598255736715 0 -0.0050011217464631039 0.0045472931621139212 0 -0.0048002344641683908 0.0045992946737023737 0 -0.0050011217464631039 0.0045472931621139212 0 -0.0049661112754316641 0.004361855882579522 0 -0.0050011217464631039 0.0045472931621139212 0 -0.005141573734489471 0.0043455133763706721 0 -0.0049661112754316641 0.004361855882579522 0 -0.0052346325652023436 0.0045453286987256038 0 -0.0050011217464631039 0.0045472931621139212 0 -0.005141573734489471 0.0043455133763706721 0 -0.0053540572566071172 0.0043440476196962364 0 -0.005141573734489471 0.0043455133763706721 0 -0.0052072140864985669 0.0041094586247191539 0 -0.005141573734489471 0.0043455133763706721 0 -0.0049661112754316641 0.004361855882579522 0 -0.0050185262497327724 0.0041458641981755836 0 -0.005141573734489471 0.0043455133763706721 0 -0.0050185262497327724 0.0041458641981755836 0 -0.0052072140864985669 0.0041094586247191539 0 -0.0050185262497327724 0.0041458641981755836 0 -0.0052072140864985669 0.0041094586247191539 0 -0.0050710685028063519 0.0039756251802401553 0 -0.0053872233783347828 0.0040996027242623185 0 -0.0052072140864985669 0.0041094586247191539 0 -0.0053280374496929702 0.0039116979407170195 0 -0.0052072140864985669 0.0041094586247191539 0 -0.0053280374496929702 0.0039116979407170195 0 -0.0051837666347190597 0.003871955936597176 0 -0.005439370450223302 0.0037501059767076424 0 -0.0053280374496929702 0.0039116979407170195 0 -0.0052253663145108127 0.0037100927909686546 0 -0.0053280374496929702 0.0039116979407170195 0 -0.0052253663145108127 0.0037100927909686546 0 -0.0051837666347190597 0.003871955936597176 0 -0.005439370450223302 0.0037501059767076424 0 -0.0052253663145108127 0.0037100927909686546 0 -0.0053145927778236205 0.0035791790780298036 0 -0.0052253663145108127 0.0037100927909686546 0 -0.0051837666347190597 0.003871955936597176 0 -0.0050918417762836005 0.0037047093107650726 0 -0.0052253663145108127 0.0037100927909686546 0 -0.0050918417762836005 0.0037047093107650726 0 -0.0051730028592424371 0.0035972357748351399 0 -0.0051837666347190597 0.003871955936597176 0 -0.0050214587561238496 0.0038354350580069637 0 -0.0050918417762836005 0.0037047093107650726 0 -0.0052072140864985669 0.0041094586247191539 0 -0.0051837666347190597 0.003871955936597176 0 -0.0050710685028063519 0.0039756251802401553 0 -0.0051837666347190597 0.003871955936597176 0 -0.0050710685028063519 0.0039756251802401553 0 -0.0050214587561238496 0.0038354350580069637 0 -0.0050710685028063519 0.0039756251802401553 0 -0.0050214587561238496 0.0038354350580069637 0 -0.0049036427584003683 0.004036077179456427 0 -0.0050214587561238496 0.0038354350580069637 0 -0.0050918417762836005 0.0037047093107650726 0 -0.0050255359477766604 0.0036858882613070888 0 -0.0050214587561238496 0.0038354350580069637 0 -0.0049656039642985384 0.0037532207693671544 0 -0.004906138184994838 0.0038299421307396771 0 -0.0050214587561238496 0.0038354350580069637 0 -0.0050255359477766604 0.0036858882613070888 0 -0.0049656039642985384 0.0037532207693671544 0 -0.0049656039642985384 0.0037532207693671544 0 -0.004906138184994838 0.0038299421307396771 0 -0.0049728164170280698 0.0037736877447191283 0 -0.0048851715135624432 0.0038467755339585069 0 -0.004783242591578799 0.0040285627055337376 0 -0.0050214587561238496 0.0038354350580069637 0 -0.004906138184994838 0.0038299421307396771 0 -0.0049036427584003683 0.004036077179456427 0 -0.0049036427584003683 0.004036077179456427 0 -0.004796845416794141 0.0042086634487354608 0 -0.0046441147001017478 0.0041185336572168831 0 -0.004906138184994838 0.0038299421307396771 0 -0.0049036427584003683 0.004036077179456427 0 -0.0046441147001017478 0.0041185336572168831 0 -0.0050185262497327724 0.0041458641981755836 0 -0.0050710685028063519 0.0039756251802401553 0 -0.0049036427584003683 0.004036077179456427 0 -0.0050185262497327724 0.0041458641981755836 0 -0.0049036427584003683 0.004036077179456427 0 -0.0049016265516920636 0.0042302033585583662 0 -0.0049036427584003683 0.004036077179456427 0 -0.0049016265516920636 0.0042302033585583662 0 -0.004796845416794141 0.0042086634487354608 0 -0.0049661112754316641 0.004361855882579522 0 -0.0050185262497327724 0.0041458641981755836 0 -0.0049016265516920636 0.0042302033585583662 0 -0.0049661112754316641 0.004361855882579522 0 -0.0049016265516920636 0.0042302033585583662 0 -0.0047983798896918091 0.0043650983034696899 0 -0.0046834748296850212 0.0043240469969093604 0 -0.004796845416794141 0.0042086634487354608 0 -0.0046441147001017478 0.0041185336572168831 0 -0.0047983798896918091 0.0043650983034696899 0 -0.0046834748296850212 0.0043240469969093604 0 -0.004796845416794141 0.0042086634487354608 0 -0.0049016265516920636 0.0042302033585583662 0 -0.0047983798896918091 0.0043650983034696899 0 -0.004796845416794141 0.0042086634487354608 0 -0.004702575566596809 0.0041720686231191996 0 -0.004783242591578799 0.0040285627055337376 0 -0.0048845982955050488 0.0040511782875810162 0 -0.0048046990793085042 0.0039945487683215146 0 -0.0049182229542433812 0.0039047690492762729 0 -0.0045093549862278504 0.0043966040301085694 0 -0.0046834748296850212 0.0043240469969093604 0 -0.0046441147001017478 0.0041185336572168831 0 -0.0051697055350173283 0.0042028463329646841 0 -0.0051032952894651462 0.0040746188775165849 0 -0.0050750912480684645 0.0042099563689890476 0 -0.0049788796563099442 0.00407486720959159 0 -0.0049986282862222991 0.0039265635108320582 0 -0.0051697055350173283 0.0042028463329646841 0 -0.0051032952894651462 0.0040746188775165849 0 -0.0051438225407570426 0.0039652282111916643 0 -0.0051032952894651462 0.0040746188775165849 0 -0.0051438225407570426 0.0039652282111916643 0 -0.0050602797930942986 0.0039425588910791788 0 -0.0048046990793085042 0.0039945487683215146 0 -0.0048712380279204949 0.003859318857202611 0 -0.0049182229542433812 0.0039047690492762729 0 -0.0051438225407570426 0.0039652282111916643 0 -0.0049728164170280698 0.0037736877447191283 0 -0.0050443014014081239 0.0038476640203405862 0 -0.004906138184994838 0.0038299421307396771 0 -0.0048712380279204949 0.003859318857202611 0 -0.0049182229542433812 0.0039047690492762729 0 -0.004906138184994838 0.0038299421307396771 0 -0.0048712380279204949 0.003859318857202611 0 -0.0049728164170280698 0.0037736877447191283 0 -0.0049986282862222991 0.0039265635108320582 0 -0.0049812992386114828 0.0037992268215833111 0 -0.0049728164170280698 0.0037736877447191283 0 -0.0049820695844846339 0.0037288458761237844 0 -0.0050443014014081239 0.0038476640203405862 0 -0.0049656039642985384 0.0037532207693671544 0 -0.0049728164170280698 0.0037736877447191283 0 -0.0049930301952488907 0.0036317648999067806 0 -0.0049820695844846339 0.0037288458761237844 0 -0.0050069345895201994 0.0038144022940723096 0 -0.0050443014014081239 0.0038476640203405862 0 -0.0049820695844846339 0.0037288458761237844 0 -0.0050069345895201994 0.0038144022940723096 0 -0.0049588092536221318 0.0037171015471611293 0 -0.0050069345895201994 0.0038144022940723096 0 -0.0050443014014081239 0.0038476640203405862 0 -0.0050602797930942986 0.0039425588910791788 0 -0.0051438225407570426 0.0039652282111916643 0 -0.0050443014014081239 0.0038476640203405862 0 -0.0050602797930942986 0.0039425588910791788 0 -0.0050131376143481539 0.0039093150341911872 0 -0.0050201039697050616 0.0040298507418383362 0 -0.0050585305263973045 0.0040527175478235755 0 -0.0050069345895201994 0.0038144022940723096 0 -0.0050602797930942986 0.0039425588910791788 0 -0.0050131376143481539 0.0039093150341911872 0 -0.0050602797930942986 0.0039425588910791788 0 -0.0050131376143481539 0.0039093150341911872 0 -0.0050585305263973045 0.0040527175478235755 0 -0.0050069345895201994 0.0038144022940723096 0 -0.0050131376143481539 0.0039093150341911872 0 -0.004967892267739641 0.0037525455954519984 0 -0.0050069345895201994 0.0038144022940723096 0 -0.004967892267739641 0.0037525455954519984 0 -0.0049588092536221318 0.0037171015471611293 0 -0.0050131376143481539 0.0039093150341911872 0 -0.004967892267739641 0.0037525455954519984 0 -0.0049999107814610979 0.0039287412827024408 0 -0.004967892267739641 0.0037525455954519984 0 -0.0049999107814610979 0.0039287412827024408 0 -0.004999852690707786 0.0037049745536607867 0 -0.0050131376143481539 0.0039093150341911872 0 -0.0049999107814610979 0.0039287412827024408 0 -0.0050201039697050616 0.0040298507418383362 0 -0.0049999107814610979 0.0039287412827024408 0 -0.0050201039697050616 0.0040298507418383362 0 -0.0049999180425131361 0.0041531587866757086 0 -0.0050201039697050616 0.0040298507418383362 0 -0.0050585305263973045 0.0040527175478235755 0 -0.0050352546588317898 0.0042199405509009483 0 -0.0050201039697050616 0.0040298507418383362 0 -0.0049999180425131361 0.0041531587866757086 0 -0.0050352546588317898 0.0042199405509009483 0 -0.0051032952894651462 0.0040746188775165849 0 -0.0050585305263973045 0.0040527175478235755 0 -0.0050750912480684645 0.0042099563689890476 0 -0.0050585305263973045 0.0040527175478235755 0 -0.0050750912480684645 0.0042099563689890476 0 -0.0050352546588317898 0.0042199405509009483 0 -0.0051032952894651462 0.0040746188775165849 0 -0.0050602797930942986 0.0039425588910791788 0 -0.0050585305263973045 0.0040527175478235755 0 -0.0050486288193409921 0.0043319435972871256 0 -0.0050750912480684645 0.0042099563689890476 0 -0.0050352546588317898 0.0042199405509009483 0 -0.005105720412603482 0.0042785242947693865 0 -0.0051697055350173283 0.0042028463329646841 0 -0.0050750912480684645 0.0042099563689890476 0 -0.0049999317634850798 0.0043770645778411239 0 -0.0050486288193409921 0.0043319435972871256 0 -0.0050352546588317898 0.0042199405509009483 0 -0.0049999317634850798 0.0043770645778411239 0 -0.0049999180425131361 0.0041531587866757086 0 -0.0050352546588317898 0.0042199405509009483 0 -0.0051436176112798389 0.0032572959971486288 0 -0.0049999966046019341 0.0031310048329008921 0 -0.004999998868537984 0.0034178365571718998 0 -0.0047840747650620746 0.0030932871875229157 0 -0.0048983798433738989 0.0031366702401779255 0 -0.004883606932142656 0.002981515143551593 0 -0.0049242045671868849 0.0035118839594821647 0 -0.0048597544225847345 0.0032264874087400684 0 -0.0047840747650620746 0.0030932871875229157 0 -0.0047884482633235477 0.003269401774462167 0 -0.0048983798433738989 0.0031366702401779255 0 -0.0049691829886009779 0.0031501532140606595 0 -0.0049242045671868849 0.0035118839594821647 0 -0.0051436176112798389 0.0032572959971486288 0 -0.004999998868537984 0.0034178365571718998 0 -0.0051494446963299247 0.0035329317352098565 0 -0.004999998868537984 0.0034178365571718998 0 -0.0051494446963299247 0.0035329317352098565 0 -0.0049999987922451153 0.0037046642388772039 0 -0.0049242045671868849 0.0035118839594821647 0 -0.0050000560358392492 0.0037046961825874442 0 -0.004947753420913404 0.0037922055071665391 0 -0.0049242045671868849 0.0035118839594821647 0 -0.004967892267739641 0.0037525455954519984 0 -0.0049773913724656931 0.0037424133456140868 0 -0.004999852690707786 0.0037049745536607867 0 -0.004967892267739641 0.0037525455954519984 0 -0.0048139549746191775 0.0035755277548665211 0 -0.0049065639660923052 0.003639017289640291 0 -0.004967892267739641 0.0037525455954519984 0 -0.0049065639660923052 0.003639017289640291 0 -0.0049588092536221318 0.0037171015471611293 0 -0.0048139549746191775 0.0035755277548665211 0 -0.0048963076131852802 0.0035311215703947622 0 -0.0048403365917320156 0.0033517569395721857 0 -0.0048139549746191775 0.0035755277548665211 0 -0.0049065639660923052 0.003639017289640291 0 -0.0048963076131852802 0.0035311215703947622 0 -0.0048963076131852802 0.0035311215703947622 0 -0.004966664128182848 0.0034799152970138346 0 -0.0048403365917320156 0.0033517569395721857 0 -0.0048963076131852802 0.0035311215703947622 0 -0.0049494822669654626 0.0036060320154059056 0 -0.004966664128182848 0.0034799152970138346 0 -0.0049065639660923052 0.003639017289640291 0 -0.0048963076131852802 0.0035311215703947622 0 -0.0049494822669654626 0.0036060320154059056 0 -0.0049065639660923052 0.003639017289640291 0 -0.0049494822669654626 0.0036060320154059056 0 -0.0049588092536221318 0.0037171015471611293 0 -0.0049820695844846339 0.0037288458761237844 0 -0.0049494822669654626 0.0036060320154059056 0 -0.0049588092536221318 0.0037171015471611293 0 -0.0049728164170280698 0.0037736877447191283 0 -0.0049820695844846339 0.0037288458761237844 0 -0.0049930301952488907 0.0036317648999067806 0 -0.0049820695844846339 0.0037288458761237844 0 -0.0049494822669654626 0.0036060320154059056 0 -0.0049930301952488907 0.0036317648999067806 0 -0.0049930301952488907 0.0036317648999067806 0 -0.004966664128182848 0.0034799152970138346 0 -0.0050395755922467032 0.0034242848510048938 0 -0.0049494822669654626 0.0036060320154059056 0 -0.0049930301952488907 0.0036317648999067806 0 -0.004966664128182848 0.0034799152970138346 0 -0.004966664128182848 0.0034799152970138346 0 -0.0049922594036981797 0.003300011414627779 0 -0.0050395755922467032 0.0034242848510048938 0 -0.004966664128182848 0.0034799152970138346 0 -0.0049922594036981797 0.003300011414627779 0 -0.0048403365917320156 0.0033517569395721857 0 -0.0049922594036981797 0.003300011414627779 0 -0.0048403365917320156 0.0033517569395721857 0 -0.0049775438187111623 0.0030416612079379418 0 -0.0048597544225847345 0.0032264874087400684 0 -0.00498288992939982 0.0030562176403185837 0 -0.0048983798433738989 0.0031366702401779255 0 -0.0049775438187111623 0.0030416612079379418 0 -0.004883606932142656 0.002981515143551593 0 -0.0049922594036981797 0.003300011414627779 0 -0.0049775438187111623 0.0030416612079379418 0 -0.0050903814404216858 0.0031754069378875298 0 -0.0049775438187111623 0.0030416612079379418 0 -0.0050903814404216858 0.0031754069378875298 0 -0.0051405325092684327 0.0029880263603932504 0 -0.0050903814404216858 0.0031754069378875298 0 -0.0051139855725048696 0.0033069444364218297 0 -0.0052068285017530056 0.0030813016357747265 0 -0.0050903814404216858 0.0031754069378875298 0 -0.0052068285017530056 0.0030813016357747265 0 -0.0051405325092684327 0.0029880263603932504 0 -0.0051139855725048696 0.0033069444364218297 0 -0.0051896994157664645 0.0032985892782280736 0 -0.0052068285017530056 0.0030813016357747265 0 -0.0050903814404216858 0.0031754069378875298 0 -0.0051139855725048696 0.0033069444364218297 0 -0.0050395755922467032 0.0034242848510048938 0 -0.0049922594036981797 0.003300011414627779 0 -0.0050903814404216858 0.0031754069378875298 0 -0.0050395755922467032 0.0034242848510048938 0 -0.0051139855725048696 0.0033069444364218297 0 -0.0050395755922467032 0.0034242848510048938 0 -0.0050947249697244085 0.0035146273180222893 0 -0.0049930301952488907 0.0036317648999067806 0 -0.0050395755922467032 0.0034242848510048938 0 -0.0050947249697244085 0.0035146273180222893 0 -0.0050255359477766604 0.0036858882613070888 0 -0.0049930301952488907 0.0036317648999067806 0 -0.0050947249697244085 0.0035146273180222893 0 -0.0050255359477766604 0.0036858882613070888 0 -0.0049656039642985384 0.0037532207693671544 0 -0.0049930301952488907 0.0036317648999067806 0 -0.0050918417762836005 0.0037047093107650726 0 -0.0050255359477766604 0.0036858882613070888 0 -0.0050947249697244085 0.0035146273180222893 0 -0.0050918417762836005 0.0037047093107650726 0 -0.0050947249697244085 0.0035146273180222893 0 -0.0051730028592424371 0.0035972357748351399 0 -0.0051139855725048696 0.0033069444364218297 0 -0.0050947249697244085 0.0035146273180222893 0 -0.0051896994157664645 0.0032985892782280736 0 -0.0050947249697244085 0.0035146273180222893 0 -0.0052567671220787281 0.0034036129496356009 0 -0.0051896994157664645 0.0032985892782280736 0 -0.0050947249697244085 0.0035146273180222893 0 -0.0052567671220787281 0.0034036129496356009 0 -0.0051730028592424371 0.0035972357748351399 0 -0.0052253663145108127 0.0037100927909686546 0 -0.0051730028592424371 0.0035972357748351399 0 -0.0053145927778236205 0.0035791790780298036 0 -0.0052567671220787281 0.0034036129496356009 0 -0.0051730028592424371 0.0035972357748351399 0 -0.0053145927778236205 0.0035791790780298036 0 -0.0053145927778236205 0.0035791790780298036 0 -0.0053804143866911123 0.0034405079426855917 0 -0.0054485671674861453 0.0035762753749051953 0 -0.0052567671220787281 0.0034036129496356009 0 -0.0053804143866911123 0.0034405079426855917 0 -0.0054071603899782704 0.0032404433476969385 0 -0.0052567671220787281 0.0034036129496356009 0 -0.0053145927778236205 0.0035791790780298036 0 -0.0053804143866911123 0.0034405079426855917 0 -0.0052567671220787281 0.0034036129496356009 0 -0.0052959947662571142 0.0031717775423266014 0 -0.0054071603899782704 0.0032404433476969385 0 -0.0052959947662571142 0.0031717775423266014 0 -0.0054071603899782704 0.0032404433476969385 0 -0.0054034093069589484 0.0030869963240125189 0 -0.0052959947662571142 0.0031717775423266014 0 -0.0051896994157664645 0.0032985892782280736 0 -0.0052068285017530056 0.0030813016357747265 0 -0.0052567671220787281 0.0034036129496356009 0 -0.0052959947662571142 0.0031717775423266014 0 -0.0051896994157664645 0.0032985892782280736 0 -0.0052959947662571142 0.0031717775423266014 0 -0.0052068285017530056 0.0030813016357747265 0 -0.0053233679592971433 0.0029597810713101933 0 -0.0052959947662571142 0.0031717775423266014 0 -0.0053233679592971433 0.0029597810713101933 0 -0.0054034093069589484 0.0030869963240125189 0 -0.0053233679592971433 0.0029597810713101933 0 -0.0052466913679158024 0.0029204081800709536 0 -0.0053025601373242531 0.0027799071531314726 0 -0.0052068285017530056 0.0030813016357747265 0 -0.0053233679592971433 0.0029597810713101933 0 -0.0052466913679158024 0.0029204081800709536 0 -0.0052466913679158024 0.0029204081800709536 0 -0.0053025601373242531 0.0027799071531314726 0 -0.0051949547356542952 0.0028247071734230859 0 -0.0053233679592971433 0.0029597810713101933 0 -0.0053025601373242531 0.0027799071531314726 0 -0.0053867418087348061 0.0028340335244776828 0 -0.0053025601373242531 0.0027799071531314726 0 -0.0053158477229189038 0.0026330384311316528 0 -0.0053742191235596178 0.0026995857674413704 0 -0.0053158477229189038 0.0026330384311316528 0 -0.0052286767370120718 0.0026690724064507162 0 -0.0052525903882441041 0.0025490010111776156 0 -0.0053025601373242531 0.0027799071531314726 0 -0.0053158477229189038 0.0026330384311316528 0 -0.0052286767370120718 0.0026690724064507162 0 -0.0053025601373242531 0.0027799071531314726 0 -0.0052286767370120718 0.0026690724064507162 0 -0.0051949547356542952 0.0028247071734230859 0 -0.0052286767370120718 0.0026690724064507162 0 -0.0051262385341752648 0.0027128599928088614 0 -0.0051949547356542952 0.0028247071734230859 0 -0.0052286767370120718 0.0026690724064507162 0 -0.0051586909203611732 0.0025299313477155859 0 -0.0052525903882441041 0.0025490010111776156 0 -0.0052286767370120718 0.0026690724064507162 0 -0.0051262385341752648 0.0027128599928088614 0 -0.0051586909203611732 0.0025299313477155859 0 -0.0051262385341752648 0.0027128599928088614 0 -0.0050552403975628272 0.0026469620857872442 0 -0.0051586909203611732 0.0025299313477155859 0 -0.0051262385341752648 0.0027128599928088614 0 -0.0050865366454596493 0.0028716512864485478 0 -0.0051949547356542952 0.0028247071734230859 0 -0.0050865366454596493 0.0028716512864485478 0 -0.0051949547356542952 0.0028247071734230859 0 -0.0051405325092684327 0.0029880263603932504 0 -0.0052068285017530056 0.0030813016357747265 0 -0.0052466913679158024 0.0029204081800709536 0 -0.0051405325092684327 0.0029880263603932504 0 -0.0052466913679158024 0.0029204081800709536 0 -0.0051949547356542952 0.0028247071734230859 0 -0.0051405325092684327 0.0029880263603932504 0 -0.0049775438187111623 0.0030416612079379418 0 -0.0050865366454596493 0.0028716512864485478 0 -0.0051405325092684327 0.0029880263603932504 0 -0.0049775438187111623 0.0030416612079379418 0 -0.0050865366454596493 0.0028716512864485478 0 -0.0049856402898077884 0.0027975180571771954 0 -0.0049775438187111623 0.0030416612079379418 0 -0.0049856402898077884 0.0027975180571771954 0 -0.004883606932142656 0.002981515143551593 0 -0.0049856402898077884 0.0027975180571771954 0 -0.0049595468687463791 0.0026901164261740741 0 -0.0048885683957360935 0.0027967357054021055 0 -0.0049856402898077884 0.0027975180571771954 0 -0.0048885683957360935 0.0027967357054021055 0 -0.004883606932142656 0.002981515143551593 0 -0.0051262385341752648 0.0027128599928088614 0 -0.0050865366454596493 0.0028716512864485478 0 -0.0049856402898077884 0.0027975180571771954 0 -0.0051262385341752648 0.0027128599928088614 0 -0.0049856402898077884 0.0027975180571771954 0 -0.0050552403975628272 0.0026469620857872442 0 -0.0050552403975628272 0.0026469620857872442 0 -0.0050724079035114949 0.0025240025084412331 0 -0.0051586909203611732 0.0025299313477155859 0 -0.0050724079035114949 0.0025240025084412331 0 -0.005002374992938906 0.00256292387701228 0 -0.0050084374122899488 0.0024646465289407302 0 -0.0050552403975628272 0.0026469620857872442 0 -0.0050724079035114949 0.0025240025084412331 0 -0.005002374992938906 0.00256292387701228 0 -0.0050552403975628272 0.0026469620857872442 0 -0.005002374992938906 0.00256292387701228 0 -0.0049595468687463791 0.0026901164261740741 0 -0.0049856402898077884 0.0027975180571771954 0 -0.0050552403975628272 0.0026469620857872442 0 -0.0049595468687463791 0.0026901164261740741 0 -0.005002374992938906 0.00256292387701228 0 -0.0049595468687463791 0.0026901164261740741 0 -0.0048463688543666714 0.0026505220770770125 0 -0.0049595468687463791 0.0026901164261740741 0 -0.0048463688543666714 0.0026505220770770125 0 -0.0048885683957360935 0.0027967357054021055 0 -0.0048463688543666714 0.0026505220770770125 0 -0.005012196074393618 0.0024461286536908303 0 -0.0050084374122899488 0.0024646465289407302 0 -0.005002374992938906 0.00256292387701228 0 -0.0048463688543666714 0.0026505220770770125 0 -0.0050084374122899488 0.0024646465289407302 0 -0.0049999193736593658 0.0025572467962944622 0 -0.0051212754718526305 0.0026970515244837882 0 -0.005012196074393618 0.0024461286536908303 0 -0.0049847800403281612 0.0026792425646173287 0 -0.0050070556400706812 0.0024723243452390116 0 -0.0049999193736593658 0.0025572467962944622 0 -0.0051212754718526305 0.0026970515244837882 0 -0.0050000069114279596 0.0028441847736096399 0 -0.0051212754718526305 0.0026970515244837882 0 -0.0050000069114279596 0.0028441847736096399 0 -0.0051376779555440616 0.0029819467726219183 0 -0.0049847800403281612 0.0026792425646173287 0 -0.0049616216627150125 0.0029468852942158962 0 -0.0048463688543666714 0.0026505220770770125 0 -0.0048885683957360935 0.0027967357054021055 0 -0.0047823161135373262 0.002899686628179827 0 -0.0048885683957360935 0.0027967357054021055 0 -0.004883606932142656 0.002981515143551593 0 -0.0047823161135373262 0.002899686628179827 0 -0.0047840747650620746 0.0030932871875229157 0 -0.004883606932142656 0.002981515143551593 0 -0.0047823161135373262 0.002899686628179827 0 -0.0049999966046019341 0.0031310048329008921 0 -0.0050000069114279596 0.0028441847736096399 0 -0.0051376779555440616 0.0029819467726219183 0 -0.0049691829886009779 0.0031501532140606595 0 -0.0049616216627150125 0.0029468852942158962 0 -0.0051436176112798389 0.0032572959971486288 0 -0.0049999966046019341 0.0031310048329008921 0 -0.0051376779555440616 0.0029819467726219183 0 -0.0037169084937067336 0.0030678997577599284 0 -0.0035030765098886126 0.0032690172150963486 0 -0.0039565517904020485 0.0032991797489598804 0 -0.0037169084937067336 0.0030678997577599284 0 -0.0035030765098886126 0.0032690172150963486 0 -0.0033834723770313269 0.0030570952805119688 0 -0.0035030765098886126 0.0032690172150963486 0 -0.0033834723770313269 0.0030570952805119688 0 -0.0030553900370085714 0.0032484465047818946 0 -0.0034944473766160625 0.0028617631608678332 0 -0.0031869656780197002 0.0029154209623072497 0 -0.0033229712043841863 0.0025736850843968116 0 -0.0033834723770313269 0.0030570952805119688 0 -0.0034944473766160625 0.0028617631608678332 0 -0.0031869656780197002 0.0029154209623072497 0 -0.0034944473766160625 0.0028617631608678332 0 -0.0036905893591917473 0.0028266990487790505 0 -0.0035593842461781665 0.0027249313260577228 0 -0.0037169084937067336 0.0030678997577599284 0 -0.0033834723770313269 0.0030570952805119688 0 -0.0034944473766160625 0.0028617631608678332 0 -0.0037169084937067336 0.0030678997577599284 0 -0.0034944473766160625 0.0028617631608678332 0 -0.0036905893591917473 0.0028266990487790505 0 -0.0039167133509942186 0.0028443008888992521 0 -0.0039565045495624186 0.0028368148164792913 0 -0.0039565517904020485 0.0032991797489598804 0 -0.0031778843981132236 0.0029616019998493807 0 -0.0029480947286560804 0.003004663323803114 0 -0.0037169084937067336 0.0030678997577599284 0 -0.0036905893591917473 0.0028266990487790505 0 -0.0039167133509942186 0.0028443008888992521 0 -0.0024299487430127363 0.0029591065921522912 0 -0.0029480947286560804 0.003004663323803114 0 -0.0019866056921747401 0.0048988977048444191 0 -0.0019881057726859413 0.0048884523633353962 0 -0.0019873191176474478 0.0049071903620371386 0 -0.0019926342618325028 0.0049304359819316952 0 -0.0019873191176474478 0.0049071903620371386 0 -0.0019837487580643067 0.0049139034430275962 0 -0.0019881057726859413 0.0048884523633353962 0 -0.0019873191176474478 0.0049071903620371386 0 -0.0019837487580643067 0.0049139034430275962 0 -0.0029480947286560804 0.003004663323803114 0 -0.0027936865915694658 0.0044751120381049721 0 -0.0037169084937067336 0.0030678997577599284 0 -0.0039167133509942186 0.0028443008888992521 0 -0.0039565517904020485 0.0032991797489598804 0 -0.0022028660635030955 0.004888947787626538 0 -0.0020772689415642386 0.0048075898740637729 0 -0.0024736525135801921 0.0047172803607189286 0 -0.0022028323049139657 0.0050510869563976145 0 -0.0022028660635030955 0.004888947787626538 0 -0.0024736525135801921 0.0047172803607189286 0 -0.0027936865915694658 0.0044751120381049721 0 -0.002502413723013856 0.0049229318136892498 0 -0.0019926342618325028 0.0049304359819316952 0 -0.0022028660635030955 0.004888947787626538 0 -0.0020772689415642386 0.0048075898740637729 0 -0.0017495072195913995 0.0049693245816912045 0 -0.0027936865915694658 0.0044751120381049721 0 -0.0019926342618325028 0.0049304359819316952 0 -0.0022044672239041612 0.0049677795468211858 0 -0.0022028660635030955 0.004888947787626538 0 -0.0019831931818227663 0.0049703076083343492 0 -0.001947249982157143 0.00497130186619633 0 -0.0020578288450361724 0.0049414447666433657 0 -0.0019831931818227663 0.0049703076083343492 0 -0.0020089169781477832 0.0050151598042447671 0 -0.0020578288450361724 0.0049414447666433657 0 -0.002050073715273916 0.0049121782362193797 0 -0.0024139076420197046 0.0049028290259569597 0 -0.0020089169781477832 0.0050151598042447671 0 -0.0020578288450361724 0.0049414447666433657 0 -0.0022516925582773146 0.005088626335486306 0 -0.0021094586361116484 0.0050271500876604399 0 -0.0024505388712948192 0.0051048258650931936 0 -0.0020578288450361724 0.0049414447666433657 0 -0.0022516925582773146 0.005088626335486306 0 -0.0024117999754252944 0.0050303684026094218 0 -0.0024139076420197046 0.0049028290259569597 0 -0.0025848425104401489 0.0049659616890715443 0 -0.0022516925582773146 0.005088626335486306 0 -0.0024117999754252944 0.0050303684026094218 0 -0.0025692013233589352 0.0051581786150675137 0 -0.0023608808324831901 0.0050558972873473778 0 -0.0021508818953799732 0.0051141265756568452 0 -0.0024896881603413083 0.0051794130039728029 0 -0.002802381018449338 0.0050714792297093204 0 -0.0024736525135801921 0.0047172803607189286 0 -0.0029920732818118404 0.0046908038773257636 0 -0.0031109315979296324 0.00418712869586421 0 -0.0027936865915694658 0.0044751120381049721 0 -0.002802381018449338 0.0050714792297093204 0 -0.0022028323049139657 0.0050510869563976145 0 -0.0024736525135801921 0.0047172803607189286 0 -0.002802381018449338 0.0050714792297093204 0 -0.0029920732818118404 0.0046908038773257636 0 -0.0032608497552583963 0.0048305694802424142 0 -0.0026177858089297223 0.005055306617625043 0 -0.0024896881603413083 0.0051794130039728029 0 -0.0026808867925991178 0.0050961395981802462 0 -0.0024896881603413083 0.0051794130039728029 0 -0.0026808867925991178 0.0050961395981802462 0 -0.0027924954261980325 0.0051567410422721487 0 -0.0024505388712948192 0.0051048258650931936 0 -0.0027963892168868746 0.0051735512611026978 0 -0.0024117999754252944 0.0050303684026094218 0 -0.0025692013233589352 0.0051581786150675137 0 -0.0028191117327517499 0.0051791024172468114 0 -0.0025848425104401489 0.0049659616890715443 0 -0.0041742416413672228 0.0044898332450569829 0 -0.0026808867925991178 0.0050961395981802462 0 -0.0027924954261980325 0.0051567410422721487 0 -0.0028237926696161879 0.0051159655333647943 0 -0.0024896881603413083 0.0051794130039728029 0 -0.0028191117327517499 0.0051791024172468114 0 -0.0027924954261980325 0.0051567410422721487 0 -0.0025692013233589352 0.0051581786150675137 0 -0.0028191117327517499 0.0051791024172468114 0 -0.0029023123579926401 0.0052243434363721322 0 -0.0026821807360636516 0.0050241942065314543 0 -0.0026808867925991178 0.0050961395981802462 0 -0.0028237926696161879 0.0051159655333647943 0 -0.0028191117327517499 0.0051791024172468114 0 -0.0028412719784196485 0.0050801715471996429 0 -0.0029023123579926401 0.0052243434363721322 0 -0.00438931614240844 0.0044554195942098137 0 -0.0041742416413672228 0.0044898332450569829 0 -0.0028191117327517499 0.0051791024172468114 0 -0.0027924954261980325 0.0051567410422721487 0 -0.0028412719784196485 0.0050801715471996429 0 -0.0035268037908650291 0.005206062588947109 0 -0.00438931614240844 0.0044554195942098137 0 -0.0041742416413672228 0.0044898332450569829 0 -0.0056248036793751293 0.0035844127133804193 0 -0.0058470276111893173 0.0036345091740949782 0 -0.0057354763202806637 0.003648405790659157 0 -0.0058023868235962724 0.0035411708364481579 0 -0.0056990756093037668 0.0035838602282899546 0 -0.0058023868235962724 0.0035411708364481579 0 -0.0056499846436458678 0.0035292584341411553 0 -0.0057354763202806637 0.003648405790659157 0 -0.0056990756093037668 0.0035838602282899546 0 -0.0056619924981067696 0.0036276129381369415 0 -0.0057354763202806637 0.003648405790659157 0 -0.0056990756093037668 0.0035838602282899546 0 -0.0058023868235962724 0.0035411708364481579 0 -0.0048268463440454901 0.0038199442113474283 0 -0.0050048210266270855 0.0038219606099900165 0 -0.0049090889376542692 0.0039947204343789679 0 -0.0050048210266270855 0.0038219606099900165 0 -0.0049465411461510189 0.0039957024344503067 0 -0.0049090889376542692 0.0039947204343789679 0 -0.0041742416413672228 0.0044898332450569829 0 -0.0046497215440820076 0.003879801654767518 0 -0.0035384379417358705 0.0046873013366266021 0 -0.0035381694404417446 0.0049568308436249344 0 -0.0037203820247062543 0.0050827646896430007 0 -0.0035384379417358705 0.0046873013366266021 0 -0.0035381694404417446 0.0049568308436249344 0 -0.0034428057021709058 0.0048483678425804127 0 -0.0035381694404417446 0.0049568308436249344 0 -0.0034907195786781048 0.005070891054374518 0 -0.0037203820247062543 0.0050827646896430007 0 -0.0034673079736847012 0.0046249988485267488 0 -0.0037505408138346951 0.0037437449333242931 0 -0.0032608497552583963 0.0048305694802424142 0 -0.0034428057021709058 0.0048483678425804127 0 -0.0034836367637144905 0.0050846863278776657 0 -0.0035381694404417446 0.0049568308436249344 0 -0.0034428057021709058 0.0048483678425804127 0 -0.0034836367637144905 0.0050846863278776657 0 -0.002802381018449338 0.0050714792297093204 0 -0.0032608497552583963 0.0048305694802424142 0 -0.0034836367637144905 0.0050846863278776657 0 -0.0029920732818118404 0.0046908038773257636 0 -0.0035384379417358705 0.0046873013366266021 0 -0.0032608497552583963 0.0048305694802424142 0 -0.0035384379417358705 0.0046873013366266021 0 -0.0032608497552583963 0.0048305694802424142 0 -0.0034428057021709058 0.0048483678425804127 0 -0.005439370450223302 0.0037501059767076424 0 -0.0053145927778236205 0.0035791790780298036 0 -0.0054485671674861453 0.0035762753749051953 0 -0.005439370450223302 0.0037501059767076424 0 -0.0054485671674861453 0.0035762753749051953 0 -0.0055199985081332429 0.0036485046980782288 0 -0.0053804143866911123 0.0034405079426855917 0 -0.0054485671674861453 0.0035762753749051953 0 -0.0055297012557138769 0.0034927826755436716 0 -0.0054485671674861453 0.0035762753749051953 0 -0.0055199985081332429 0.0036485046980782288 0 -0.005565701552070282 0.0035656673638512631 0 -0.0054485671674861453 0.0035762753749051953 0 -0.005565701552070282 0.0035656673638512631 0 -0.0055297012557138769 0.0034927826755436716 0 -0.005565701552070282 0.0035656673638512631 0 -0.0056545486633209465 0.0035150462329645118 0 -0.0055297012557138769 0.0034927826755436716 0 -0.005565701552070282 0.0035656673638512631 0 -0.0056366584025479448 0.0035695398735625834 0 -0.0056545486633209465 0.0035150462329645118 0 -0.005565701552070282 0.0035656673638512631 0 -0.0056053451737002463 0.003622762737608338 0 -0.0056366584025479448 0.0035695398735625834 0 -0.0056367850097754036 0.003704927513123308 0 -0.0055199985081332429 0.0036485046980782288 0 -0.0056053451737002463 0.003622762737608338 0 -0.0055199985081332429 0.0036485046980782288 0 -0.005565701552070282 0.0035656673638512631 0 -0.0056053451737002463 0.003622762737608338 0 -0.0056367850097754036 0.003704927513123308 0 -0.0057354763202806637 0.003648405790659157 0 -0.0056619924981067696 0.0036276129381369415 0 -0.0056367850097754036 0.003704927513123308 0 -0.0056053451737002463 0.003622762737608338 0 -0.0056619924981067696 0.0036276129381369415 0 -0.0056053451737002463 0.003622762737608338 0 -0.0056619924981067696 0.0036276129381369415 0 -0.0056366584025479448 0.0035695398735625834 0 -0.0056990756093037668 0.0035838602282899546 0 -0.0056619924981067696 0.0036276129381369415 0 -0.0056366584025479448 0.0035695398735625834 0 -0.0056336206026638873 0.0035628043605586022 0 -0.0056248036793751293 0.0035844127133804193 0 -0.0056990756093037668 0.0035838602282899546 0 -0.0056366584025479448 0.0035695398735625834 0 -0.0056499846436458678 0.0035292584341411553 0 -0.0056016110152103706 0.0033743727420110746 0 -0.0054071603899782704 0.0032404433476969385 0 -0.005768193674504569 0.0032707252969987289 0 -0.005698322562575805 0.0034940965142802719 0 -0.0056016110152103706 0.0033743727420110746 0 -0.005768193674504569 0.0032707252969987289 0 -0.0056248036793751293 0.0035844127133804193 0 -0.0052371585792551955 0.0035696274354759219 0 -0.0056248036793751293 0.0035844127133804193 0 -0.0055639810860974182 0.0035126734231550436 0 -0.005698322562575805 0.0034940965142802719 0 -0.0056016110152103706 0.0033743727420110746 0 -0.0055297012557138769 0.0034927826755436716 0 -0.0056016110152103706 0.0033743727420110746 0 -0.0055297012557138769 0.0034927826755436716 0 -0.0054071603899782704 0.0032404433476969385 0 -0.0053804143866911123 0.0034405079426855917 0 -0.0055297012557138769 0.0034927826755436716 0 -0.0054071603899782704 0.0032404433476969385 0 -0.0054071603899782704 0.0032404433476969385 0 -0.0054762401416053024 0.0031360084366876587 0 -0.0054034093069589484 0.0030869963240125189 0 -0.0054071603899782704 0.0032404433476969385 0 -0.0054762401416053024 0.0031360084366876587 0 -0.0055413140380887399 0.0031645794847401433 0 -0.0055918154074579536 0.0031410885862968719 0 -0.0052371585792551955 0.0035696274354759219 0 -0.0054762401416053024 0.0031360084366876587 0 -0.0055036562819444608 0.0031000679667699108 0 -0.0054737612738116033 0.003054340914959161 0 -0.0054762401416053024 0.0031360084366876587 0 -0.0055212724150884738 0.0031342214289952004 0 -0.0055413140380887399 0.0031645794847401433 0 -0.0054762401416053024 0.0031360084366876587 0 -0.0055212724150884738 0.0031342214289952004 0 -0.0055036562819444608 0.0031000679667699108 0 -0.0055212724150884738 0.0031342214289952004 0 -0.0055036562819444608 0.0031000679667699108 0 -0.0055260813031255181 0.0031018698160841579 0 -0.0055036562819444608 0.0031000679667699108 0 -0.0055260813031255181 0.0031018698160841579 0 -0.0055155969259902014 0.0030628793838641337 0 -0.0055155969259902014 0.0030628793838641337 0 -0.0055113494252756788 0.0030146775496085773 0 -0.0054737612738116033 0.003054340914959161 0 -0.0055036562819444608 0.0031000679667699108 0 -0.0055155969259902014 0.0030628793838641337 0 -0.0054737612738116033 0.003054340914959161 0 -0.0055155969259902014 0.0030628793838641337 0 -0.0055113494252756788 0.0030146775496085773 0 -0.005527006464751614 0.0030367554598186249 0 -0.0055113494252756788 0.0030146775496085773 0 -0.0054771070709941378 0.0029727643311905031 0 -0.0054737612738116033 0.003054340914959161 0 -0.0055113494252756788 0.0030146775496085773 0 -0.0054771070709941378 0.0029727643311905031 0 -0.0055164461611532777 0.0029488630717208666 0 -0.0054771070709941378 0.0029727643311905031 0 -0.0054737612738116033 0.003054340914959161 0 -0.005425293370281423 0.0029694085105758977 0 -0.0054762401416053024 0.0031360084366876587 0 -0.0054737612738116033 0.003054340914959161 0 -0.0054034093069589484 0.0030869963240125189 0 -0.0053233679592971433 0.0029597810713101933 0 -0.005425293370281423 0.0029694085105758977 0 -0.0054034093069589484 0.0030869963240125189 0 -0.0054737612738116033 0.003054340914959161 0 -0.005425293370281423 0.0029694085105758977 0 -0.0054034093069589484 0.0030869963240125189 0 -0.0031109315979296324 0.00418712869586421 0 -0.0037505408138346951 0.0037437449333242931 0 -0.0033834723770313269 0.0030570952805119688 0 -0.0030553900370085714 0.0032484465047818946 0 -0.0031869656780197002 0.0029154209623072497 0 -0.0050050569960666423 0.0027594745003540313 0 -0.0049904523333240856 0.0025458516829267104 0 -0.0051135247603124722 0.0024755188940732901 0 -0.0037505408138346951 0.0037437449333242931 0 -0.0041654817148722113 0.0026047275888337897 0 -0.0050050569960666423 0.0027594745003540313 0 -0.0048670115432558024 0.0027554884317150942 0 -0.0049007289079217482 0.0027050031477743558 0 -0.0037505408138346951 0.0037437449333242931 0 -0.0046497215440820076 0.003879801654767518 0 -0.0050050569960666423 0.0027594745003540313 0 -0.0049338445251364731 0.0026651080494819361 0 -0.0049904523333240856 0.0025458516829267104 0 -0.0050050569960666423 0.0027594745003540313 0 -0.0049007289079217482 0.0027050031477743558 0 -0.0049338445251364731 0.0026651080494819361 0 -0.0048424480435132825 0.0037497729664092093 0 -0.0050358736399113285 0.0037582044481429973 0 -0.0049224159259916717 0.0035014240939859604 0 -0.0052371585792551955 0.0035696274354759219 0 -0.0046497215440820076 0.003879801654767518 0 -0.0048670115432558024 0.0027554884317150942 0 -0.0049007289079217482 0.0027050031477743558 0 -0.0048366312225846565 0.0026831162843894505 0 -0.0046497215440820076 0.003879801654767518 0 -0.0050477947177876535 0.0031582759499386346 0 -0.0049007289079217482 0.0027050031477743558 0 -0.0048366312225846565 0.0026831162843894505 0 -0.0048988023708846353 0.0026580980877282164 0 -0.0055212724150884738 0.0031342214289952004 0 -0.0055413140380887399 0.0031645794847401433 0 -0.0055536138017131358 0.0031454349359499368 0 -0.0052371585792551955 0.0035696274354759219 0 -0.0050477947177876535 0.0031582759499386346 0 -0.0055260813031255181 0.0031018698160841579 0 -0.0055536138017131358 0.0031454349359499368 0 -0.0055454051016528318 0.0030708725555042417 0 -0.0048366312225846565 0.0026831162843894505 0 -0.0048988023708846353 0.0026580980877282164 0 -0.0049240197065832702 0.0025808735481849731 0 -0.0055212724150884738 0.0031342214289952004 0 -0.0055260813031255181 0.0031018698160841579 0 -0.0055536138017131358 0.0031454349359499368 0 -0.0049338445251364731 0.0026651080494819361 0 -0.0049240197065832702 0.0025808735481849731 0 -0.0049904523333240856 0.0025458516829267104 0 -0.0048988023708846353 0.0026580980877282164 0 -0.0049338445251364731 0.0026651080494819361 0 -0.0049240197065832702 0.0025808735481849731 0 -0.0049007289079217482 0.0027050031477743558 0 -0.0048988023708846353 0.0026580980877282164 0 -0.0049338445251364731 0.0026651080494819361 0 -0.0055454051016528318 0.0030708725555042417 0 -0.0055353023543654976 0.002998443491133547 0 -0.0055724659650076428 0.002918456251083246 0 -0.0049240197065832702 0.0025808735481849731 0 -0.0049904523333240856 0.0025458516829267104 0 -0.0049891021396419946 0.0023539916321918515 0 -0.0048366312225846565 0.0026831162843894505 0 -0.0049240197065832702 0.0025808735481849731 0 -0.0049891021396419946 0.0023539916321918515 0 -0.0055536138017131358 0.0031454349359499368 0 -0.0055454051016528318 0.0030708725555042417 0 -0.0055724659650076428 0.002918456251083246 0 -0.0049904523333240856 0.0025458516829267104 0 -0.0050273780667746898 0.0024094394184461698 0 -0.0049891021396419946 0.0023539916321918515 0 -0.0050477947177876535 0.0031582759499386346 0 -0.0053037072247738059 0.0025856639606526301 0 -0.0055454051016528318 0.0030708725555042417 0 -0.005527006464751614 0.0030367554598186249 0 -0.0055353023543654976 0.002998443491133547 0 -0.0055260813031255181 0.0031018698160841579 0 -0.0055155969259902014 0.0030628793838641337 0 -0.0055454051016528318 0.0030708725555042417 0 -0.0055155969259902014 0.0030628793838641337 0 -0.0055454051016528318 0.0030708725555042417 0 -0.005527006464751614 0.0030367554598186249 0 -0.0055113494252756788 0.0030146775496085773 0 -0.005527006464751614 0.0030367554598186249 0 -0.0055353023543654976 0.002998443491133547 0 -0.0055353023543654976 0.002998443491133547 0 -0.0055164461611532777 0.0029488630717208666 0 -0.0055724659650076428 0.002918456251083246 0 -0.0055113494252756788 0.0030146775496085773 0 -0.0055353023543654976 0.002998443491133547 0 -0.0055164461611532777 0.0029488630717208666 0 -0.0049904523333240856 0.0025458516829267104 0 -0.0050273780667746898 0.0024094394184461698 0 -0.0051135247603124722 0.0024755188940732901 0 -0.0050273780667746898 0.0024094394184461698 0 -0.0051135247603124722 0.0024755188940732901 0 -0.0051917672529767809 0.0022495787083101921 0 -0.0050273780667746898 0.0024094394184461698 0 -0.0049891021396419946 0.0023539916321918515 0 -0.0051121642407304909 0.0022737735786177281 0 -0.0049891021396419946 0.0023539916321918515 0 -0.005112084386052919 0.0022312860867009722 0 -0.0051121642407304909 0.0022737735786177281 0 -0.0041654817148722113 0.0026047275888337897 0 -0.0045881189613027609 0.0021848082362432115 0 -0.0051881255857428909 0.0023548298319249266 0 -0.0045881189613027609 0.0021848082362432115 0 -0.0055164461611532777 0.0029488630717208666 0 -0.0055074793342456451 0.0028825671194318771 0 -0.005462036838344066 0.0028767907290055362 0 -0.0055164461611532777 0.0029488630717208666 0 -0.0055724659650076428 0.002918456251083246 0 -0.0055074793342456451 0.0028825671194318771 0 -0.0055724659650076428 0.002918456251083246 0 -0.0055074793342456451 0.0028825671194318771 0 -0.0054880627882893896 0.0027899766913845997 0 -0.0055074793342456451 0.0028825671194318771 0 -0.0054880627882893896 0.0027899766913845997 0 -0.005462036838344066 0.0028767907290055362 0 -0.0055724659650076428 0.002918456251083246 0 -0.0054880627882893896 0.0027899766913845997 0 -0.0054872709179180322 0.0026670395648887152 0 -0.0054880627882893896 0.0027899766913845997 0 -0.0054284268896823097 0.0027517073934494964 0 -0.0054356770616636177 0.0026752706889661667 0 -0.0054880627882893896 0.0027899766913845997 0 -0.0054872709179180322 0.0026670395648887152 0 -0.0054356770616636177 0.0026752706889661667 0 -0.0053037072247738059 0.0025856639606526301 0 -0.0052834739940182838 0.0024841809768706771 0 -0.0053233679592971433 0.0029597810713101933 0 -0.005425293370281423 0.0029694085105758977 0 -0.0053867418087348061 0.0028340335244776828 0 -0.005425293370281423 0.0029694085105758977 0 -0.005462036838344066 0.0028767907290055362 0 -0.0053867418087348061 0.0028340335244776828 0 -0.0054771070709941378 0.0029727643311905031 0 -0.005425293370281423 0.0029694085105758977 0 -0.005462036838344066 0.0028767907290055362 0 -0.0054771070709941378 0.0029727643311905031 0 -0.0055164461611532777 0.0029488630717208666 0 -0.005462036838344066 0.0028767907290055362 0 -0.005462036838344066 0.0028767907290055362 0 -0.0054284268896823097 0.0027517073934494964 0 -0.0053867418087348061 0.0028340335244776828 0 -0.0054880627882893896 0.0027899766913845997 0 -0.005462036838344066 0.0028767907290055362 0 -0.0054284268896823097 0.0027517073934494964 0 -0.0054284268896823097 0.0027517073934494964 0 -0.0053867418087348061 0.0028340335244776828 0 -0.0053742191235596178 0.0026995857674413704 0 -0.0053025601373242531 0.0027799071531314726 0 -0.0053867418087348061 0.0028340335244776828 0 -0.0053742191235596178 0.0026995857674413704 0 -0.0053742191235596178 0.0026995857674413704 0 -0.0054055087332343836 0.0026350685250688529 0 -0.005372850184957003 0.0026043101389854159 0 -0.0054284268896823097 0.0027517073934494964 0 -0.0053742191235596178 0.0026995857674413704 0 -0.0054055087332343836 0.0026350685250688529 0 -0.0054284268896823097 0.0027517073934494964 0 -0.0054055087332343836 0.0026350685250688529 0 -0.0054356770616636177 0.0026752706889661667 0 -0.0054055087332343836 0.0026350685250688529 0 -0.005372850184957003 0.0026043101389854159 0 -0.0053865308911557417 0.0025876855453204704 0 -0.0053158477229189038 0.0026330384311316528 0 -0.0053742191235596178 0.0026995857674413704 0 -0.005372850184957003 0.0026043101389854159 0 -0.0053158477229189038 0.0026330384311316528 0 -0.005372850184957003 0.0026043101389854159 0 -0.0053245130442717619 0.0025269991038590492 0 -0.0052834739940182838 0.0024841809768706771 0 -0.0052222411097768004 0.0025072412653003246 0 -0.005112084386052919 0.0022312860867009722 0 -0.0052143927464994274 0.0024924116743972879 0 -0.0050516914833435142 0.0023446024461348009 0 -0.0054872709179180322 0.0026670395648887152 0 -0.0053746914751709729 0.0025767297020808464 0 -0.0052143927464994274 0.0024924116743972879 0 -0.0054055087332343836 0.0026350685250688529 0 -0.0053746914751709729 0.0025767297020808464 0 -0.0054356770616636177 0.0026752706889661667 0 -0.0054872709179180322 0.0026670395648887152 0 -0.0053746914751709729 0.0025767297020808464 0 -0.0054356770616636177 0.0026752706889661667 0 -0.0054055087332343836 0.0026350685250688529 0 -0.0053746914751709729 0.0025767297020808464 0 -0.0053865308911557417 0.0025876855453204704 0 -0.0053746914751709729 0.0025767297020808464 0 -0.0053865308911557417 0.0025876855453204704 0 -0.0052143927464994274 0.0024924116743972879 0 -0.0048502675482839088 0.0023780495048302194 0 -0.0050516914833435142 0.0023446024461348009 0 -0.0049861153598195138 0.0025777500474176802 0 -0.0052143927464994274 0.0024924116743972879 0 -0.0050516914833435142 0.0023446024461348009 0 -0.0049861153598195138 0.0025777500474176802 0 -0.004635445805314344 0.0020859871356354721 0 -0.0043104932374262491 0.0023459913814576866 0 -0.0040637325313383878 0.0020117625843388376 0 -0.004635445805314344 0.0020859871356354721 0 -0.0043104932374262491 0.0023459913814576866 0 -0.0045028610790708501 0.0026594980698607901 0 -0.0047207211051062898 0.0022773669623691799 0 -0.0045279185878505214 0.0026361840918091867 0 -0.004635445805314344 0.0020859871356354721 0 -0.004549911144426471 0.0016305900884976483 0 -0.0040637325313383878 0.0020117625843388376 0 -0.004635445805314344 0.0020859871356354721 0 -0.0047719639126470714 0.0016654019998983745 0 -0.004549911144426471 0.0016305900884976483 0 -0.0048502675482839088 0.0023780495048302194 0 -0.0050516914833435142 0.0023446024461348009 0 -0.0050469413472663581 0.0022524859571385952 0 -0.0047207211051062898 0.0022773669623691799 0 -0.0049598309951973726 0.00187702654798936 0 -0.005112084386052919 0.0022312860867009722 0 -0.0050516914833435142 0.0023446024461348009 0 -0.0050469413472663581 0.0022524859571385952 0 -0.0049598309951973726 0.00187702654798936 0 -0.0045881189613027609 0.0021848082362432115 0 -0.0040478171319929084 0.0019362983815354776 0 -0.0045881189613027609 0.0021848082362432115 0 -0.0047719639126470714 0.0016654019998983745 0 -0.004549911144426471 0.0016305900884976483 0 -0.0049177173815696234 0.0013331538633249724 0 -0.005112084386052919 0.0022312860867009722 0 -0.0050469413472663581 0.0022524859571385952 0 -0.0051121642407304909 0.0022737735786177281 0 -0.0036307292104325517 0.0022751475601657878 0 -0.0037294126484852955 0.0026372490244576216 0 -0.0033229712043841863 0.0025736850843968116 0 -0.0037294126484852955 0.0026372490244576216 0 -0.0035593842461781665 0.0027249313260577228 0 -0.0033229712043841863 0.0025736850843968116 0 -0.0036905893591917473 0.0028266990487790505 0 -0.0037294126484852955 0.0026372490244576216 0 -0.0035593842461781665 0.0027249313260577228 0 -0.0034944473766160625 0.0028617631608678332 0 -0.0035593842461781665 0.0027249313260577228 0 -0.0033229712043841863 0.0025736850843968116 0 -0.0029913714343032319 0.0010167912026140687 0 -0.0033576704856789178 0.00096455239219526078 0 -0.0031396023786730578 0.0012519658981223268 0 -0.0033576704856789178 0.00096455239219526078 0 -0.0031396023786730578 0.0012519658981223268 0 -0.0033901961821846613 0.0013764729267041675 0 -0.0029480947286560804 0.003004663323803114 0 -0.0037458884098814545 0.0016466388104361925 0 -0.0039583232877020182 0.0028356227755733095 0 -0.0037294126484852955 0.0026372490244576216 0 -0.0039575546934113165 0.0024028911740367727 0 -0.0036905893591917473 0.0028266990487790505 0 -0.0039167133509942186 0.0028443008888992521 0 -0.0037294126484852955 0.0026372490244576216 0 -0.0039167133509942186 0.0028443008888992521 0 -0.0039583232877020182 0.0028356227755733095 0 -0.0037294126484852955 0.0026372490244576216 0 -0.0036307292104325517 0.0022751475601657878 0 -0.0037294126484852955 0.0026372490244576216 0 -0.0039575546934113165 0.0024028911740367727 0 -0.0028540216599302485 0.0013380657812906169 0 -0.0031396023786730578 0.0012519658981223268 0 -0.0031563408453241675 0.0015238700283920364 0 -0.0031396023786730578 0.0012519658981223268 0 -0.0033901961821846613 0.0013764729267041675 0 -0.0031563408453241675 0.0015238700283920364 0 -0.0031563408453241675 0.0015238700283920364 0 -0.0035003223667856385 0.001794251523064296 0 -0.0031646793377902308 0.0017762352776251654 0 -0.0033901961821846613 0.0013764729267041675 0 -0.0031563408453241675 0.0015238700283920364 0 -0.0035003223667856385 0.001794251523064296 0 -0.002908211403088425 0.0016448281241976264 0 -0.0031563408453241675 0.0015238700283920364 0 -0.0031646793377902308 0.0017762352776251654 0 -0.0037458884098814545 0.0016466388104361925 0 -0.0038185316372761216 0.0019545328967747219 0 -0.0036307292104325517 0.0022751475601657878 0 -0.0039575546934113165 0.0024028911740367727 0 -0.0039476740591631882 0.0019759203227496945 0 -0.0040478171319929084 0.0019362983815354776 0 -0.0038185316372761216 0.0019545328967747219 0 -0.00358430709839711 0.0017077148918573598 0 -0.0034523815644330619 0.0018519989784384426 0 -0.0039311291168399546 0.0028365810651670917 0 -0.0038185316372761216 0.0019545328967747219 0 -0.003686079230843796 0.0019632894723642731 0 -0.0031646793377902308 0.0017762352776251654 0 -0.0033041923747658629 0.0018781167694682987 0 -0.0031122123098573568 0.0019637873104481601 0 -0.0035003223667856385 0.001794251523064296 0 -0.0034523815644330619 0.0018519989784384426 0 -0.0033041923747658629 0.0018781167694682987 0 -0.0035003223667856385 0.001794251523064296 0 -0.0031646793377902308 0.0017762352776251654 0 -0.0033041923747658629 0.0018781167694682987 0 -0.0034523815644330619 0.0018519989784384426 0 -0.0033041923747658629 0.0018781167694682987 0 -0.0032965733131961488 0.0020661823243472749 0 -0.0032965733131961488 0.0020661823243472749 0 -0.0031122123098573568 0.0019637873104481601 0 -0.0030902126161617273 0.0021363760089777458 0 -0.0033041923747658629 0.0018781167694682987 0 -0.0032965733131961488 0.0020661823243472749 0 -0.0031122123098573568 0.0019637873104481601 0 -0.0032965733131961488 0.0020661823243472749 0 -0.0032854655522181041 0.0026745561867197545 0 -0.0039311291168399546 0.0028365810651670917 0 -0.0032965733131961488 0.0020661823243472749 0 -0.0030902126161617273 0.0021363760089777458 0 -0.0031518293023673621 0.0022697996429147061 0 -0.0032996067827653058 0.0020792557061942497 0 -0.0032259482072721879 0.0025423176420490906 0 -0.0030902126161617273 0.0021363760089777458 0 -0.0031518293023673621 0.0022697996429147061 0 -0.0028813001590500347 0.0022485356649710928 0 -0.0038185316372761216 0.0019545328967747219 0 -0.003920229313112901 0.0027837906030719847 0 -0.0043104932374262491 0.0023459913814576866 0 -0.0039311291168399546 0.0028365810651670917 0 -0.0045028610790708501 0.0026594980698607901 0 -0.0034523815644330619 0.0018519989784384426 0 -0.0032965733131961488 0.0020661823243472749 0 -0.0039311291168399546 0.0028365810651670917 0 -0.0043104932374262491 0.0023459913814576866 0 -0.0040637325313383878 0.0020117625843388376 0 -0.0039311291168399546 0.0028365810651670917 0 -0.0039311291168399546 0.0028365810651670917 0 -0.0043964168533232066 0.0031530282470975269 0 -0.0045028610790708501 0.0026594980698607901 0 -0.0039311291168399546 0.0028365810651670917 0 -0.0031832964848853792 0.0033193520958216456 0 -0.0043964168533232066 0.0031530282470975269 0 -0.0054614977871752001 0.0023800163485900505 0 -0.0054387450192111171 0.002369731148404232 0 -0.0054339871981441681 0.0023879290223132697 0 -0.0038648000967500618 0.0025248732039495295 0 -0.0050081640848763029 0.0028113916170486334 0 -0.0032854655522181041 0.0026745561867197545 0 -0.0039311291168399546 0.0028365810651670917 0 -0.0031832964848853792 0.0033193520958216456 0 -0.0031518293023673621 0.0022697996429147061 0 -0.0030836881799024577 0.0025053188101870801 0 -0.0028813001590500347 0.0022485356649710928 0 -0.0032259482072721879 0.0025423176420490906 0 -0.0038648000967500618 0.0025248732039495295 0 -0.0054614977871752001 0.0023800163485900505 0 -0.0054596175696695831 0.0023350308871519856 0 -0.0054785691708894822 0.002335619141411025 0 -0.0038648000967500618 0.0025248732039495295 0 -0.0043548572258361538 0.0026845283281883119 0 -0.0054614977871752001 0.0023800163485900505 0 -0.0054506453899703317 0.0023550307924773877 0 -0.0054596175696695831 0.0023350308871519856 0 -0.0054614977871752001 0.0023800163485900505 0 -0.0054387450192111171 0.002369731148404232 0 -0.0054506453899703317 0.0023550307924773877 0 -0.0054387450192111171 0.002369731148404232 0 -0.0054456589595591152 0.0023336728863940226 0 -0.0054327696354058829 0.0023624987039515739 0 -0.0054387450192111171 0.002369731148404232 0 -0.0054506453899703317 0.0023550307924773877 0 -0.0054456589595591152 0.0023336728863940226 0 -0.0054506453899703317 0.0023550307924773877 0 -0.0054456589595591152 0.0023336728863940226 0 -0.0054596175696695831 0.0023350308871519856 0 -0.0054456589595591152 0.0023336728863940226 0 -0.0054596175696695831 0.0023350308871519856 0 -0.0054576559273585195 0.0023053328838171768 0 -0.0054596175696695831 0.0023350308871519856 0 -0.0054576559273585195 0.0023053328838171768 0 -0.0054785691708894822 0.002335619141411025 0 -0.0054576559273585195 0.0023053328838171768 0 -0.0054693421399940453 0.0022911577979211474 0 -0.0054785691708894822 0.002335619141411025 0 -0.0054062354353754402 0.0023662489056457273 0 -0.0054327696354058829 0.0023624987039515739 0 -0.0054094571859105711 0.0023125358724210331 0 -0.0054327696354058829 0.0023624987039515739 0 -0.0054310662636261262 0.0023086082513082626 0 -0.0054094571859105711 0.0023125358724210331 0 -0.0054456589595591152 0.0023336728863940226 0 -0.0054327696354058829 0.0023624987039515739 0 -0.0054310662636261262 0.0023086082513082626 0 -0.0054387450192111171 0.002369731148404232 0 -0.0054327696354058829 0.0023624987039515739 0 -0.0054339871981441681 0.0023879290223132697 0 -0.0054327696354058829 0.0023624987039515739 0 -0.0054212867825979049 0.0023902250534574739 0 -0.0054339871981441681 0.0023879290223132697 0 -0.0054062354353754402 0.0023662489056457273 0 -0.0054327696354058829 0.0023624987039515739 0 -0.0054212867825979049 0.0023902250534574739 0 -0.005249515780025053 0.0026588900378918677 0 -0.0050081640848763029 0.0028113916170486334 0 -0.0054212867825979049 0.0023902250534574739 0 -0.0054187104719646516 0.0024269178399862852 0 -0.0054339871981441681 0.0023879290223132697 0 -0.0051702387823435777 0.0029058472167866763 0 -0.0043964168533232066 0.0031530282470975269 0 -0.0045028610790708501 0.0026594980698607901 0 -0.0048502675482839088 0.0023780495048302194 0 -0.0045028610790708501 0.0026594980698607901 0 -0.0049861153598195138 0.0025777500474176802 0 -0.0051702387823435777 0.0029058472167866763 0 -0.0045028610790708501 0.0026594980698607901 0 -0.0049861153598195138 0.0025777500474176802 0 -0.0051702387823435777 0.0029058472167866763 0 -0.0049861153598195138 0.0025777500474176802 0 -0.0052823627067554108 0.0026372760569744647 0 -0.0053865308911557417 0.0025876855453204704 0 -0.0052143927464994274 0.0024924116743972879 0 -0.0052823627067554108 0.0026372760569744647 0 -0.0052143927464994274 0.0024924116743972879 0 -0.0049861153598195138 0.0025777500474176802 0 -0.0052823627067554108 0.0026372760569744647 0 -0.0053865308911557417 0.0025876855453204704 0 -0.0052823627067554108 0.0026372760569744647 0 -0.0053833044433510991 0.0025605926593278865 0 -0.0051702387823435777 0.0029058472167866763 0 -0.0052823627067554108 0.0026372760569744647 0 -0.0053833044433510991 0.0025605926593278865 0 -0.0054187104719646516 0.0024269178399862852 0 -0.0053833044433510991 0.0025605926593278865 0 -0.005400046802644499 0.0024234499429912544 0 -0.005249515780025053 0.0026588900378918677 0 -0.0053713062532381728 0.0025793299378442029 0 -0.005372850184957003 0.0026043101389854159 0 -0.0053660562840982234 0.0025595457858304193 0 -0.0053245130442717619 0.0025269991038590492 0 -0.0053865308911557417 0.0025876855453204704 0 -0.0053833044433510991 0.0025605926593278865 0 -0.0053660562840982234 0.0025595457858304193 0 -0.005372850184957003 0.0026043101389854159 0 -0.0053865308911557417 0.0025876855453204704 0 -0.0053660562840982234 0.0025595457858304193 0 -0.0053833044433510991 0.0025605926593278865 0 -0.0053660562840982234 0.0025595457858304193 0 -0.0053320570341417999 0.002485090286988627 0 -0.0053833044433510991 0.0025605926593278865 0 -0.0053320570341417999 0.002485090286988627 0 -0.0053633182996425371 0.0024466984511321874 0 -0.0053660562840982234 0.0025595457858304193 0 -0.0053320570341417999 0.002485090286988627 0 -0.0053245130442717619 0.0025269991038590492 0 -0.0053321571421393226 0.0024767760236643127 0 -0.0052750289166598524 0.0024243832943918646 0 -0.0053320570341417999 0.002485090286988627 0 -0.0053245130442717619 0.0025269991038590492 0 -0.0053113749051365913 0.002453194195916001 0 -0.0053320570341417999 0.002485090286988627 0 -0.0052919976913313026 0.002354411039520202 0 -0.0052495911368286227 0.0023526356180571038 0 -0.0053320570341417999 0.002485090286988627 0 -0.0052343502500213773 0.0023946651647152204 0 -0.0052495911368286227 0.0023526356180571038 0 -0.0053320570341417999 0.002485090286988627 0 -0.0053354664134911698 0.0023987111095371918 0 -0.0053633182996425371 0.0024466984511321874 0 -0.0053320570341417999 0.002485090286988627 0 -0.0053354664134911698 0.0023987111095371918 0 -0.0052919976913313026 0.002354411039520202 0 -0.0053354664134911698 0.0023987111095371918 0 -0.0053260006159711621 0.0023397607226866915 0 -0.0053581993681970537 0.0023775968237872845 0 -0.0053260006159711621 0.0023397607226866915 0 -0.0052919976913313026 0.002354411039520202 0 -0.0052942686915447585 0.002318126934848942 0 -0.0053260006159711621 0.0023397607226866915 0 -0.0052942686915447585 0.002318126934848942 0 -0.0053196017333502444 0.0023171606149312149 0 -0.0053354664134911698 0.0023987111095371918 0 -0.0053260006159711621 0.0023397607226866915 0 -0.0052919976913313026 0.002354411039520202 0 -0.0052919976913313026 0.002354411039520202 0 -0.0052617828109102699 0.0023219815138867325 0 -0.0052942686915447585 0.002318126934848942 0 -0.0052919976913313026 0.002354411039520202 0 -0.0052617828109102699 0.0023219815138867325 0 -0.0052495911368286227 0.0023526356180571038 0 -0.0054062354353754402 0.0023662489056457273 0 -0.0054212867825979049 0.0023902250534574739 0 -0.005400046802644499 0.0024234499429912544 0 -0.0054212867825979049 0.0023902250534574739 0 -0.0054187104719646516 0.0024269178399862852 0 -0.005400046802644499 0.0024234499429912544 0 -0.0053833044433510991 0.0025605926593278865 0 -0.005400046802644499 0.0024234499429912544 0 -0.0053633182996425371 0.0024466984511321874 0 -0.005400046802644499 0.0024234499429912544 0 -0.0053633182996425371 0.0024466984511321874 0 -0.0053581993681970537 0.0023775968237872845 0 -0.0053354664134911698 0.0023987111095371918 0 -0.0053633182996425371 0.0024466984511321874 0 -0.0053581993681970537 0.0023775968237872845 0 -0.0053260006159711621 0.0023397607226866915 0 -0.0053581993681970537 0.0023775968237872845 0 -0.0053461298528510101 0.0023096263849483657 0 -0.0053581993681970537 0.0023775968237872845 0 -0.0053754201891740867 0.0023432467869553431 0 -0.0053461298528510101 0.0023096263849483657 0 -0.005400046802644499 0.0024234499429912544 0 -0.0053581993681970537 0.0023775968237872845 0 -0.0053754201891740867 0.0023432467869553431 0 -0.0054062354353754402 0.0023662489056457273 0 -0.005400046802644499 0.0024234499429912544 0 -0.0053754201891740867 0.0023432467869553431 0 -0.0054062354353754402 0.0023662489056457273 0 -0.0053754201891740867 0.0023432467869553431 0 -0.0054094571859105711 0.0023125358724210331 0 -0.0053754201891740867 0.0023432467869553431 0 -0.0053592540391892178 0.0022678612542764058 0 -0.0053461298528510101 0.0023096263849483657 0 -0.0053754201891740867 0.0023432467869553431 0 -0.0053592540391892178 0.0022678612542764058 0 -0.0054094571859105711 0.0023125358724210331 0 -0.0053592540391892178 0.0022678612542764058 0 -0.0053461298528510101 0.0023096263849483657 0 -0.0053228736734576261 0.0023016037100737556 0 -0.0053592540391892178 0.0022678612542764058 0 -0.005273851997987954 0.0021868127662680713 0 -0.0052223816853890527 0.0022016006021031965 0 -0.0053601104202557421 0.0022655345122635034 0 -0.005276794626204253 0.0022490567724208475 0 -0.005273851997987954 0.0021868127662680713 0 -0.0053217552805961575 0.0021683761312368093 0 -0.005232390650446765 0.0021213463167042922 0 -0.0053592540391892178 0.0022678612542764058 0 -0.005273851997987954 0.0021868127662680713 0 -0.0053217552805961575 0.0021683761312368093 0 -0.0053592540391892178 0.0022678612542764058 0 -0.0053217552805961575 0.0021683761312368093 0 -0.0054129123218016242 0.0022420073932971863 0 -0.0052617828109102699 0.0023219815138867325 0 -0.0052942686915447585 0.002318126934848942 0 -0.0052453377117428947 0.0022866619226741807 0 -0.0052223816853890527 0.0022016006021031965 0 -0.00521121074671335 0.002166341594763086 0 -0.0050985542988872213 0.0021135360927884545 0 -0.005276794626204253 0.0022490567724208475 0 -0.0051750702864653787 0.002200490567730477 0 -0.0052942686915447585 0.002318126934848942 0 -0.0053228736734576261 0.0023016037100737556 0 -0.0052453377117428947 0.0022866619226741807 0 -0.0052942686915447585 0.002318126934848942 0 -0.0053196017333502444 0.0023171606149312149 0 -0.0053228736734576261 0.0023016037100737556 0 -0.0053196017333502444 0.0023171606149312149 0 -0.005328800168988377 0.0023160797460801946 0 -0.0053228736734576261 0.0023016037100737556 0 -0.0053260006159711621 0.0023397607226866915 0 -0.0053461298528510101 0.0023096263849483657 0 -0.005328800168988377 0.0023160797460801946 0 -0.0053461298528510101 0.0023096263849483657 0 -0.005328800168988377 0.0023160797460801946 0 -0.0053228736734576261 0.0023016037100737556 0 -0.0053260006159711621 0.0023397607226866915 0 -0.0053196017333502444 0.0023171606149312149 0 -0.005328800168988377 0.0023160797460801946 0 -0.005273851997987954 0.0021868127662680713 0 -0.00521121074671335 0.002166341594763086 0 -0.005232390650446765 0.0021213463167042922 0 -0.00521121074671335 0.002166341594763086 0 -0.0051664310427737559 0.0021033425538822402 0 -0.005232390650446765 0.0021213463167042922 0 -0.005273851997987954 0.0021868127662680713 0 -0.0052223816853890527 0.0022016006021031965 0 -0.00521121074671335 0.002166341594763086 0 -0.00521121074671335 0.002166341594763086 0 -0.0051664310427737559 0.0021033425538822402 0 -0.0051123908277420247 0.0021218169176293357 0 -0.00521121074671335 0.002166341594763086 0 -0.0050985542988872213 0.0021135360927884545 0 -0.0051037935116009653 0.002069237381827513 0 -0.0052029227043883719 0.0021541572358431101 0 -0.0051085048232189781 0.0020977850149423195 0 -0.0051664310427737559 0.0021033425538822402 0 -0.005232390650446765 0.0021213463167042922 0 -0.0051478452004197926 0.0020308563087337562 0 -0.0051664310427737559 0.0021033425538822402 0 -0.0051478452004197926 0.0020308563087337562 0 -0.0051080729947351119 0.0020615090200584983 0 -0.005232390650446765 0.0021213463167042922 0 -0.0051478452004197926 0.0020308563087337562 0 -0.0052571904686707378 0.0020718751289357275 0 -0.0048234177988781901 0.0010928805200503503 0 -0.0047972689357888409 0.0011068966434247946 0 -0.0048153696222835943 0.0010951219590267394 0 -0.0049619309156392344 0.0015817770400653435 0 -0.0050309078511358235 0.0015816894508681059 0 -0.0047787627218219891 0.001133812367548549 0 -0.0048234177988781901 0.0010928805200503503 0 -0.0047972689357888409 0.0011068966434247946 0 -0.0047787627218219891 0.001133812367548549 0 -0.0047620165817533373 0.0011342393766596058 0 -0.0047972689357888409 0.0011068966434247946 0 -0.0053217552805961575 0.0021683761312368093 0 -0.0053561619790988522 0.0021252177900154593 0 -0.0054129123218016242 0.0022420073932971863 0 -0.0053217552805961575 0.0021683761312368093 0 -0.005232390650446765 0.0021213463167042922 0 -0.0052571904686707378 0.0020718751289357275 0 -0.0053217552805961575 0.0021683761312368093 0 -0.0052571904686707378 0.0020718751289357275 0 -0.0053561619790988522 0.0021252177900154593 0 -0.0050309078511358235 0.0015816894508681059 0 -0.0050591970963401785 0.00157472690867846 0 -0.0048234177988781901 0.0010928805200503503 0 -0.0048099789322182908 0.0010925037238582983 0 -0.0047827206991997769 0.0010777063712967879 0 -0.0048234177988781901 0.0010928805200503503 0 -0.0048099789322182908 0.0010925037238582983 0 -0.0048153696222835943 0.0010951219590267394 0 -0.0047510565800801671 0.0010225471845450617 0 -0.0047827206991997769 0.0010777063712967879 0 -0.004724680259510278 0.0011120371668806982 0 -0.0048234177988781901 0.0010928805200503503 0 -0.0047510565800801671 0.0010225471845450617 0 -0.0047827206991997769 0.0010777063712967879 0 -0.0047510565800801671 0.0010225471845450617 0 -0.0045551542620007879 0.00098945552675494758 0 -0.004724680259510278 0.0011120371668806982 0 -0.0050591970963401785 0.00157472690867846 0 -0.0049298074172915906 0.0015831407509497577 0 -0.0053561619790988522 0.0021252177900154593 0 -0.005420926514271427 0.0021704174356402314 0 -0.0054129123218016242 0.0022420073932971863 0 -0.005420926514271427 0.0021704174356402314 0 -0.0054445193838366891 0.0022362646032521661 0 -0.0054129123218016242 0.0022420073932971863 0 -0.0049298074172915906 0.0015831407509497577 0 -0.0051221915023410896 0.0015572046716223319 0 -0.0045551542620007879 0.00098945552675494758 0 -0.0043104283972633514 0.00096668134488239797 0 -0.0044101280736146917 0.0011151081965686074 0 -0.0054525449398807237 0.0021982416072939487 0 -0.0054605237502284056 0.002237972327528035 0 -0.0054747291975528181 0.0022325973248068275 0 -0.0054525449398807237 0.0021982416072939487 0 -0.0054445193838366891 0.0022362646032521661 0 -0.0054605237502284056 0.002237972327528035 0 -0.005420926514271427 0.0021704174356402314 0 -0.0054525449398807237 0.0021982416072939487 0 -0.0054445193838366891 0.0022362646032521661 0 -0.0054445193838366891 0.0022362646032521661 0 -0.0054569339767559719 0.0022675322500363584 0 -0.0054466666765964501 0.002286062593316008 0 -0.0054445193838366891 0.0022362646032521661 0 -0.0054605237502284056 0.002237972327528035 0 -0.0054569339767559719 0.0022675322500363584 0 -0.0054605237502284056 0.002237972327528035 0 -0.0054569339767559719 0.0022675322500363584 0 -0.0054723951699525222 0.0022703529738695364 0 -0.0054569339767559719 0.0022675322500363584 0 -0.0054693421399940453 0.0022911577979211474 0 -0.0054723951699525222 0.0022703529738695364 0 -0.0054569339767559719 0.0022675322500363584 0 -0.0054576559273585195 0.0023053328838171768 0 -0.0054693421399940453 0.0022911577979211474 0 -0.0054456589595591152 0.0023336728863940226 0 -0.0054466666765964501 0.002286062593316008 0 -0.0054310662636261262 0.0023086082513082626 0 -0.0054456589595591152 0.0023336728863940226 0 -0.0054576559273585195 0.0023053328838171768 0 -0.0054466666765964501 0.002286062593316008 0 -0.0054569339767559719 0.0022675322500363584 0 -0.0054576559273585195 0.0023053328838171768 0 -0.0054466666765964501 0.002286062593316008 0 -0.0054466666765964501 0.002286062593316008 0 -0.0054310662636261262 0.0023086082513082626 0 -0.0054129123218016242 0.0022420073932971863 0 -0.0054310662636261262 0.0023086082513082626 0 -0.0054094571859105711 0.0023125358724210331 0 -0.0054129123218016242 0.0022420073932971863 0 -0.0053592540391892178 0.0022678612542764058 0 -0.0054094571859105711 0.0023125358724210331 0 -0.0054129123218016242 0.0022420073932971863 0 -0.0054445193838366891 0.0022362646032521661 0 -0.0054466666765964501 0.002286062593316008 0 -0.0054129123218016242 0.0022420073932971863 0 -0.005067774263771435 0.0020538014637197805 0 -0.0051086778354659124 0.0020842722790883439 0 -0.0049999827941128493 0.0018394801176379995 0 -0.005067774263771435 0.0020538014637197805 0 -0.0049999349040493885 0.002054941923812744 0 -0.0049999827941128493 0.0018394801176379995 0 -0.005067774263771435 0.0020538014637197805 0 -0.0050994834564349464 0.0021416437011503773 0 -0.0051086778354659124 0.0020842722790883439 0 -0.005067774263771435 0.0020538014637197805 0 -0.0050994834564349464 0.0021416437011503773 0 -0.0050743015197245531 0.0021721447573607852 0 -0.0050994834564349464 0.0021416437011503773 0 -0.0050743015197245531 0.0021721447573607852 0 -0.005104395627780537 0.0022379771515046191 0 -0.0050743015197245531 0.0021721447573607852 0 -0.005074182143287329 0.0022916814524553113 0 -0.005104395627780537 0.0022379771515046191 0 -0.005067774263771435 0.0020538014637197805 0 -0.0050743015197245531 0.0021721447573607852 0 -0.0049999349040493885 0.002054941923812744 0 -0.0050743015197245531 0.0021721447573607852 0 -0.0049999349040493885 0.002054941923812744 0 -0.004999970417440356 0.0022704052720844657 0 -0.0050743015197245531 0.0021721447573607852 0 -0.004999970417440356 0.0022704052720844657 0 -0.005074182143287329 0.0022916814524553113 0 -0.0049998959778575387 0.0022708169811726463 0 -0.005012196074393618 0.0024461286536908303 0 -0.005022095233886803 0.002405372984224486 0 -0.0049999798686151719 0.0022705471109178699 0 -0.0050468882845253896 0.0023467010218293258 0 -0.0049999193736593658 0.0025572467962944622 0 -0.0049998959778575387 0.0022708169811726463 0 -0.005012196074393618 0.0024461286536908303 0 -0.005012196074393618 0.0024461286536908303 0 -0.0050084374122899488 0.0024646465289407302 0 -0.005022095233886803 0.002405372984224486 0 -0.0050468882845253896 0.0023467010218293258 0 -0.005099888782997105 0.0023934011156908899 0 -0.005074182143287329 0.0022916814524553113 0 -0.0050922934991674594 0.0024014897340049351 0 -0.005104395627780537 0.0022379771515046191 0 -0.0050084374122899488 0.0024646465289407302 0 -0.005022095233886803 0.002405372984224486 0 -0.0050922934991674594 0.0024014897340049351 0 -0.0050724079035114949 0.0025240025084412331 0 -0.0050084374122899488 0.0024646465289407302 0 -0.0050922934991674594 0.0024014897340049351 0 -0.0050724079035114949 0.0025240025084412331 0 -0.0050922934991674594 0.0024014897340049351 0 -0.0051586909203611732 0.0025299313477155859 0 -0.0050922934991674594 0.0024014897340049351 0 -0.0051606949327254823 0.0022694753575227271 0 -0.0051971091371451452 0.0024235936770390632 0 -0.0050922934991674594 0.0024014897340049351 0 -0.005104395627780537 0.0022379771515046191 0 -0.0051606949327254823 0.0022694753575227271 0 -0.005104395627780537 0.0022379771515046191 0 -0.0051291250003462499 0.0021843504722466175 0 -0.0051606949327254823 0.0022694753575227271 0 -0.0050994834564349464 0.0021416437011503773 0 -0.0051291250003462499 0.0021843504722466175 0 -0.0051086778354659124 0.0020842722790883439 0 -0.0050994834564349464 0.0021416437011503773 0 -0.005104395627780537 0.0022379771515046191 0 -0.0051291250003462499 0.0021843504722466175 0 -0.0051291250003462499 0.0021843504722466175 0 -0.0051606949327254823 0.0022694753575227271 0 -0.0051536408602337342 0.0021962668330474835 0 -0.0051763612172667532 0.0022553713059151556 0 -0.0051606949327254823 0.0022694753575227271 0 -0.0051536408602337342 0.0021962668330474835 0 -0.0051763612172667532 0.0022553713059151556 0 -0.0051934697182705802 0.0022875844244736611 0 -0.0051913014558755827 0.002322406766957942 0 -0.0051763612172667532 0.0022553713059151556 0 -0.0051934697182705802 0.0022875844244736611 0 -0.0051931439555127981 0.0022601055515209067 0 -0.0051763612172667532 0.0022553713059151556 0 -0.0051913014558755827 0.002322406766957942 0 -0.0051606949327254823 0.0022694753575227271 0 -0.0052443991042935185 0.0023753474492753078 0 -0.0051606949327254823 0.0022694753575227271 0 -0.0051971091371451452 0.0024235936770390632 0 -0.00521592896264606 0.0023466927699826714 0 -0.0051601047814432048 0.0022812510689624414 0 -0.0050922934991674594 0.0024014897340049351 0 -0.0051971091371451452 0.0024235936770390632 0 -0.0051586909203611732 0.0025299313477155859 0 -0.0051971091371451452 0.0024235936770390632 0 -0.0051586909203611732 0.0025299313477155859 0 -0.0052525903882441041 0.0025490010111776156 0 -0.0051971091371451452 0.0024235936770390632 0 -0.0052710695146128738 0.0024649264058212565 0 -0.0052525903882441041 0.0025490010111776156 0 -0.0052443991042935185 0.0023753474492753078 0 -0.0051971091371451452 0.0024235936770390632 0 -0.0052710695146128738 0.0024649264058212565 0 -0.0052710695146128738 0.0024649264058212565 0 -0.0052525903882441041 0.0025490010111776156 0 -0.0053245130442717619 0.0025269991038590492 0 -0.0053158477229189038 0.0026330384311316528 0 -0.0052525903882441041 0.0025490010111776156 0 -0.0053245130442717619 0.0025269991038590492 0 -0.0052710695146128738 0.0024649264058212565 0 -0.0053245130442717619 0.0025269991038590492 0 -0.0053113749051365913 0.002453194195916001 0 -0.0052343502500213773 0.0023946651647152204 0 -0.005213514346683927 0.0023165200182220969 0 -0.0052495911368286227 0.0023526356180571038 0 -0.0052443991042935185 0.0023753474492753078 0 -0.0052710695146128738 0.0024649264058212565 0 -0.0053113749051365913 0.002453194195916001 0 -0.00521592896264606 0.0023466927699826714 0 -0.0052750289166598524 0.0024243832943918646 0 -0.0051913014558755827 0.002322406766957942 0 -0.0052343502500213773 0.0023946651647152204 0 -0.005213514346683927 0.0023165200182220969 0 -0.0051934697182705802 0.0022875844244736611 0 -0.0051913014558755827 0.002322406766957942 0 -0.005213514346683927 0.0023165200182220969 0 -0.0051934697182705802 0.0022875844244736611 0 -0.005213514346683927 0.0023165200182220969 0 -0.0051931439555127981 0.0022601055515209067 0 -0.005213514346683927 0.0023165200182220969 0 -0.0052306477374772205 0.0023059520436507054 0 -0.0051931439555127981 0.0022601055515209067 0 -0.005213514346683927 0.0023165200182220969 0 -0.0052306477374772205 0.0023059520436507054 0 -0.0052495911368286227 0.0023526356180571038 0 -0.0052617828109102699 0.0023219815138867325 0 -0.0052306477374772205 0.0023059520436507054 0 -0.0052495911368286227 0.0023526356180571038 0 -0.0052617828109102699 0.0023219815138867325 0 -0.0052306477374772205 0.0023059520436507054 0 -0.0052453377117428947 0.0022866619226741807 0 -0.0051750702864653787 0.002200490567730477 0 -0.0051007872983796767 0.0021474755750907049 0 -0.0052306477374772205 0.0023059520436507054 0 -0.0052453377117428947 0.0022866619226741807 0 -0.0051931439555127981 0.0022601055515209067 0 -0.0050985542988872213 0.0021135360927884545 0 -0.0050582692029609308 0.0020584813781620421 0 -0.0050052121011182615 0.0020367603276184192 0 -0.005025278270807388 0.0020580854492841488 0 -0.0051123908277420247 0.0021218169176293357 0 -0.0050708910559076909 0.0020577680454783205 0 -0.0050582692029609308 0.0020584813781620421 0 -0.0050198290989593537 0.0020137037268580611 0 -0.0051037935116009653 0.002069237381827513 0 -0.0050582692029609308 0.0020584813781620421 0 -0.0050198290989593537 0.0020137037268580611 0 -0.0050052121011182615 0.0020367603276184192 0 -0.0050244337397406802 0.0020349072552644141 0 -0.0051085048232189781 0.0020977850149423195 0 -0.0051123908277420247 0.0021218169176293357 0 -0.0051080729947351119 0.0020615090200584983 0 -0.0050708910559076909 0.0020577680454783205 0 -0.0050985542988872213 0.0021135360927884545 0 -0.0050582692029609308 0.0020584813781620421 0 -0.0051037935116009653 0.002069237381827513 0 -0.0051664310427737559 0.0021033425538822402 0 -0.0051123908277420247 0.0021218169176293357 0 -0.0051080729947351119 0.0020615090200584983 0 -0.0051080729947351119 0.0020615090200584983 0 -0.0050482862405174913 0.0020002096033011349 0 -0.0050708910559076909 0.0020577680454783205 0 -0.0051478452004197926 0.0020308563087337562 0 -0.0051080729947351119 0.0020615090200584983 0 -0.0050482862405174913 0.0020002096033011349 0 -0.0047787627218219891 0.001133812367548549 0 -0.0047620165817533373 0.0011342393766596058 0 -0.0047872531491773666 0.0011507006589847274 0 -0.0049619309156392344 0.0015817770400653435 0 -0.0049166223682990933 0.0015768602123163802 0 -0.0047620165817533373 0.0011342393766596058 0 -0.0047872531491773666 0.0011507006589847274 0 -0.0048310511560821136 0.0012347046062782705 0 -0.005025278270807388 0.0020580854492841488 0 -0.0050482862405174913 0.0020002096033011349 0 -0.0050020232820502568 0.0020078649120061141 0 -0.005025278270807388 0.0020580854492841488 0 -0.0050482862405174913 0.0020002096033011349 0 -0.0050708910559076909 0.0020577680454783205 0 -0.0050482862405174913 0.0020002096033011349 0 -0.0050020232820502568 0.0020078649120061141 0 -0.004986069353802215 0.0019775765219449768 0 -0.0049166223682990933 0.0015768602123163802 0 -0.0049415065149487408 0.0015813070808934906 0 -0.0047872531491773666 0.0011507006589847274 0 -0.0049013505019225847 0.0011859566362920479 0 -0.0048310511560821136 0.0012347046062782705 0 -0.0049082811698630989 0.0012409616915476677 0 -0.0049013505019225847 0.0011859566362920479 0 -0.0048310511560821136 0.0012347046062782705 0 -0.0049564278929538795 0.0012462149472738662 0 -0.0049013505019225847 0.0011859566362920479 0 -0.0050164442491258 0.0012367820666480795 0 -0.0049564278929538795 0.0012462149472738662 0 -0.0049082811698630989 0.0012409616915476677 0 -0.0049013505019225847 0.0011859566362920479 0 -0.0050020232820502568 0.0020078649120061141 0 -0.004986069353802215 0.0019775765219449768 0 -0.0049797316611409617 0.0019821809065006172 0 -0.004986069353802215 0.0019775765219449768 0 -0.0049797316611409617 0.0019821809065006172 0 -0.0049748002141453808 0.001955554848994089 0 -0.0050198290989593537 0.0020137037268580611 0 -0.0049797316611409617 0.0019821809065006172 0 -0.0050052121011182615 0.0020367603276184192 0 -0.0050244337397406802 0.0020349072552644141 0 -0.0049834342866563524 0.0019918242006061854 0 -0.005025278270807388 0.0020580854492841488 0 -0.0050020232820502568 0.0020078649120061141 0 -0.0049797316611409617 0.0019821809065006172 0 -0.0049797316611409617 0.0019821809065006172 0 -0.0050052121011182615 0.0020367603276184192 0 -0.0049761704264466257 0.0019659012147697067 0 -0.0051007872983796767 0.0021474755750907049 0 -0.0050658688217175363 0.002079668706947228 0 -0.0051763612172667532 0.0022553713059151556 0 -0.0051931439555127981 0.0022601055515209067 0 -0.0051536408602337342 0.0021962668330474835 0 -0.0049761704264466257 0.0019659012147697067 0 -0.004978657619835191 0.001944853950794659 0 -0.004995602818570654 0.0018857414483817705 0 -0.0050658688217175363 0.002079668706947228 0 -0.005043839309863539 0.0019818602711187292 0 -0.0051291250003462499 0.0021843504722466175 0 -0.0051536408602337342 0.0021962668330474835 0 -0.0051086778354659124 0.0020842722790883439 0 -0.004978657619835191 0.001944853950794659 0 -0.0049891999602722824 0.0019183923903846622 0 -0.004995602818570654 0.0018857414483817705 0 -0.0049797316611409617 0.0019821809065006172 0 -0.0049761704264466257 0.0019659012147697067 0 -0.004978657619835191 0.001944853950794659 0 -0.0049797316611409617 0.0019821809065006172 0 -0.004978657619835191 0.001944853950794659 0 -0.0049748002141453808 0.001955554848994089 0 -0.0049415065149487408 0.0015813070808934906 0 -0.0049890511519041407 0.0016050334225773499 0 -0.0050164442491258 0.0012367820666480795 0 -0.0049969876231440958 0.0012755275028321854 0 -0.0050316081690879606 0.0012867480092789382 0 -0.0049564278929538795 0.0012462149472738662 0 -0.0050164442491258 0.0012367820666480795 0 -0.0049969876231440958 0.0012755275028321854 0 -0.0050164442491258 0.0012367820666480795 0 -0.0050504301922935273 0.0012930213072000823 0 -0.0050588157767291102 0.0012984467165440003 0 -0.0050164442491258 0.0012367820666480795 0 -0.0050703547686353411 0.0013132131023604813 0 -0.0050588157767291102 0.0012984467165440003 0 -0.0050504301922935273 0.0012930213072000823 0 -0.0050316081690879606 0.0012867480092789382 0 -0.0050466301789999978 0.0012963917231460715 0 -0.0050504301922935273 0.0012930213072000823 0 -0.005056272865566579 0.0012998705157515082 0 -0.0050523558456545825 0.0012987773085302954 0 -0.0050164442491258 0.0012367820666480795 0 -0.0050504301922935273 0.0012930213072000823 0 -0.0050316081690879606 0.0012867480092789382 0 -0.004978657619835191 0.001944853950794659 0 -0.0049748002141453808 0.001955554848994089 0 -0.0049891999602722824 0.0019183923903846622 0 -0.0049890511519041407 0.0016050334225773499 0 -0.0050413689404355966 0.0015673665873919074 0 -0.0049748002141453808 0.001955554848994089 0 -0.0050015451219544765 0.0019407507279207868 0 -0.0049891999602722824 0.0019183923903846622 0 -0.0050015451219544765 0.0019407507279207868 0 -0.0050173115550421121 0.0019002763457415424 0 -0.0049891999602722824 0.0019183923903846622 0 -0.0050413689404355966 0.0015673665873919074 0 -0.0050586340780298389 0.0017590539142740241 0 -0.0050703547686353411 0.0013132131023604813 0 -0.0050588157767291102 0.0012984467165440003 0 -0.0050650216556744196 0.0013127060168598287 0 -0.0050703547686353411 0.0013132131023604813 0 -0.0050650216556744196 0.0013127060168598287 0 -0.0050583966837377944 0.001326010030769945 0 -0.0050588157767291102 0.0012984467165440003 0 -0.0050650216556744196 0.0013127060168598287 0 -0.0050631000570220694 0.0013082935854388563 0 -0.0050650216556744196 0.0013127060168598287 0 -0.0050631000570220694 0.0013082935854388563 0 -0.0050583966837377944 0.001326010030769945 0 -0.0050504301922935273 0.0012930213072000823 0 -0.0050598585103218937 0.0013020734045132896 0 -0.005056272865566579 0.0012998705157515082 0 -0.0050504301922935273 0.0012930213072000823 0 -0.0050588157767291102 0.0012984467165440003 0 -0.0050598585103218937 0.0013020734045132896 0 -0.0050588157767291102 0.0012984467165440003 0 -0.0050631000570220694 0.0013082935854388563 0 -0.0050598585103218937 0.0013020734045132896 0 -0.0050631000570220694 0.0013082935854388563 0 -0.0050598585103218937 0.0013020734045132896 0 -0.0050599044503577568 0.0013019065966582901 0 -0.0050703547686353411 0.0013132131023604813 0 -0.0050583966837377944 0.001326010030769945 0 -0.0050375932900338311 0.0014027496413698045 0 -0.0050000294457718739 0.0013250652552010056 0 -0.0050863859018985789 0.0012519053861452013 0 -0.0050000092523127216 0.0013250705991445959 0 -0.0050583966837377944 0.001326010030769945 0 -0.0050567906800010765 0.0012944791454957102 0 -0.0050631000570220694 0.0013082935854388563 0 -0.0050583966837377944 0.001326010030769945 0 -0.0050567906800010765 0.0012944791454957102 0 -0.0050000092523127216 0.0013250705991445959 0 -0.0050583966837377944 0.001326010030769945 0 -0.0050375932900338311 0.0014027496413698045 0 -0.0050000092523127216 0.0013250705991445959 0 -0.0050375932900338311 0.0014027496413698045 0 -0.0049999797454972419 0.0015495388261374458 0 -0.0052247998475946711 0.0014035089955065339 0 -0.0050916298189864649 0.0014881101751459446 0 -0.005108457681095282 0.0015941626077117757 0 -0.0050413689404355966 0.0015673665873919074 0 -0.0050773718991110979 0.0013885994539602599 0 -0.0052247998475946711 0.0014035089955065339 0 -0.0050375932900338311 0.0014027496413698045 0 -0.0050916298189864649 0.0014881101751459446 0 -0.0050375932900338311 0.0014027496413698045 0 -0.0050916298189864649 0.0014881101751459446 0 -0.0049999797454972419 0.0015495388261374458 0 -0.0050916298189864649 0.0014881101751459446 0 -0.0049999797454972419 0.0015495388261374458 0 -0.005108457681095282 0.0015941626077117757 0 -0.0050173115550421121 0.0019002763457415424 0 -0.0050033110307057998 0.0018562217295593198 0 -0.0049999686645287719 0.0017745676932416317 0 -0.0050586340780298389 0.0017590539142740241 0 -0.0050000192031178564 0.0017740469914952074 0 -0.0049999797454972419 0.0015495388261374458 0 -0.005108457681095282 0.0015941626077117757 0 -0.0050000094776583787 0.0017740564927815504 0 -0.0050173115550421121 0.0019002763457415424 0 -0.0049891999602722824 0.0019183923903846622 0 -0.0050033110307057998 0.0018562217295593198 0 -0.0049891999602722824 0.0019183923903846622 0 -0.0050033110307057998 0.0018562217295593198 0 -0.004995602818570654 0.0018857414483817705 0 -0.005043839309863539 0.0019818602711187292 0 -0.0049999739707359755 0.0018392279261530981 0 -0.0050033110307057998 0.0018562217295593198 0 -0.004995602818570654 0.0018857414483817705 0 -0.0050000431460307838 0.0018387780930229222 0 -0.0050033110307057998 0.0018562217295593198 0 -0.0050000431460307838 0.0018387780930229222 0 -0.0049999686645287719 0.0017745676932416317 0 -0.0051059896473069997 0.00065984133408843399 0 -0.0051500772553465879 0.00080358706024030334 0 -0.004999995457157725 0.00084755778407099496 0 -0.0051059896473069997 0.00065984133408843399 0 -0.004999995457157725 0.00084755778407099496 0 -0.0049999945035703874 0.00055729869545199408 0 -0.0051059896473069997 0.00065984133408843399 0 -0.0052792521098115859 0.00069149854587510177 0 -0.0051500772553465879 0.00080358706024030334 0 -0.0051059896473069997 0.00065984133408843399 0 -0.0052792521098115859 0.00069149854587510177 0 -0.0051578407506026741 0.00057858588450495816 0 -0.0052792521098115859 0.00069149854587510177 0 -0.0051500772553465879 0.00080358706024030334 0 -0.0052342509613300522 0.0008792729667699942 0 -0.0052792521098115859 0.00069149854587510177 0 -0.0052342509613300522 0.0008792729667699942 0 -0.0053437665200676979 0.0009381977231582724 0 -0.0051500772553465879 0.00080358706024030334 0 -0.0052342509613300522 0.0008792729667699942 0 -0.0051288962718674756 0.0009356330081337832 0 -0.0051500772553465879 0.00080358706024030334 0 -0.004999995457157725 0.00084755778407099496 0 -0.0051288962718674756 0.0009356330081337832 0 -0.0049999987190562428 0.00084759319827115828 0 -0.0049999987368674623 0.0010098945707033671 0 -0.0051324264926456489 0.00094896376166910912 0 -0.0050000219416077513 0.00084759904214758944 0 -0.0051474745860462801 0.00095566038305646762 0 -0.0050002420148331367 0.0010099230417168737 0 -0.0051175284871616475 0.0010986494598871253 0 -0.0049999987368674623 0.0010098945707033671 0 -0.0051324264926456489 0.00094896376166910912 0 -0.0052473265563803655 0.0010599130746067537 0 -0.0049999999046862953 0.0010099096086064979 0 -0.0051278076360417677 0.0011943442042349484 0 -0.0052543980288117416 0.0010657446798822809 0 -0.0050000002831898649 0.0013250878559273138 0 -0.0049999982740160879 0.0011674946088200153 0 -0.0051278076360417677 0.0011943442042349484 0 -0.0049999999046862953 0.0010099096086064979 0 -0.0049999982740160879 0.0011674946088200153 0 -0.0051278076360417677 0.0011943442042349484 0 -0.0050552903897115083 0.0013013385219232277 0 -0.0050599044503577568 0.0013019065966582901 0 -0.0050566845712061124 0.0013032353328931265 0 -0.0050552903897115083 0.0013013385219232277 0 -0.0050566845712061124 0.0013032353328931265 0 -0.0050502474558930957 0.0013020801792494666 0 -0.0050552903897115083 0.0013013385219232277 0 -0.005056272865566579 0.0012998705157515082 0 -0.0050599044503577568 0.0013019065966582901 0 -0.0050552903897115083 0.0013013385219232277 0 -0.005056272865566579 0.0012998705157515082 0 -0.0050523558456545825 0.0012987773085302954 0 -0.0050598585103218937 0.0013020734045132896 0 -0.005056272865566579 0.0012998705157515082 0 -0.0050599044503577568 0.0013019065966582901 0 -0.0050631000570220694 0.0013082935854388563 0 -0.0050567906800010765 0.0012944791454957102 0 -0.0050599044503577568 0.0013019065966582901 0 -0.0050567906800010765 0.0012944791454957102 0 -0.0050599044503577568 0.0013019065966582901 0 -0.0050566845712061124 0.0013032353328931265 0 -0.0050863859018985789 0.0012519053861452013 0 -0.0051175284871616475 0.0010986494598871253 0 -0.0050567906800010765 0.0012944791454957102 0 -0.0050566845712061124 0.0013032353328931265 0 -0.0050569440877272828 0.0013078418665944959 0 -0.0050566845712061124 0.0013032353328931265 0 -0.0050569440877272828 0.0013078418665944959 0 -0.0050518083967861218 0.0013074937515772571 0 -0.0050548268666432104 0.0011090946905774231 0 -0.0050182654709016337 0.0011457471926085286 0 -0.0049321887954930851 0.0010834235906852681 0 -0.0050569440877272828 0.0013078418665944959 0 -0.0050524281717512732 0.0013090159160311491 0 -0.0050518083967861218 0.0013074937515772571 0 -0.0052342509613300522 0.0008792729667699942 0 -0.0051288962718674756 0.0009356330081337832 0 -0.0052545778344044803 0.0010278212457778778 0 -0.0051175284871616475 0.0010986494598871253 0 -0.0048358659597511839 0.0010793218283484426 0 -0.0052342509613300522 0.0008792729667699942 0 -0.0052545778344044803 0.0010278212457778778 0 -0.0053437665200676979 0.0009381977231582724 0 -0.0050699340573670407 0.0010672044017437561 0 -0.0048358659597511839 0.0010793218283484426 0 -0.0051175284871616475 0.0010986494598871253 0 -0.0050699340573670407 0.0010672044017437561 0 -0.0051324264926456489 0.00094896376166910912 0 -0.0052473265563803655 0.0010599130746067537 0 -0.0052625516241014934 0.0010444857082877999 0 -0.0051474745860462801 0.00095566038305646762 0 -0.0050699340573670407 0.0010672044017437561 0 -0.0050699340573670407 0.0010672044017437561 0 -0.0047360628907258144 0.00094223002381163177 0 -0.0046317880637219908 0.0010386850573867394 0 -0.0045470174359235338 0.0010502479620201216 0 -0.0046877545308464958 0.0010670871509498403 0 -0.0045600727739121558 0.00095983984182494838 0 -0.0046406917711194328 0.00099996078903625239 0 -0.004695797533029949 0.00092606232103242781 0 -0.0047360628907258144 0.00094223002381163177 0 -0.0046573285701554147 0.00098520706508946473 0 -0.0045600727739121558 0.00095983984182494838 0 -0.0045931801909925131 0.0010267865132947271 0 -0.0046406917711194328 0.00099996078903625239 0 -0.0045931801909925131 0.0010267865132947271 0 -0.0046317880637219908 0.0010386850573867394 0 -0.0046406917711194328 0.00099996078903625239 0 -0.0045931801909925131 0.0010267865132947271 0 -0.0046317880637219908 0.0010386850573867394 0 -0.0045470174359235338 0.0010502479620201216 0 -0.0045262680372355653 0.0010344054192444507 0 -0.0045802731332311702 0.00097763371218518203 0 -0.0045470174359235338 0.0010502479620201216 0 -0.0045802731332311702 0.00097763371218518203 0 -0.0045931801909925131 0.0010267865132947271 0 -0.0045470174359235338 0.0010502479620201216 0 -0.0046896554204348545 0.001095502609912227 0 -0.0046895489020962605 0.0010960948316327439 0 -0.0046902667151352499 0.0010969516555621043 0 -0.0048358659597511839 0.0010793218283484426 0 -0.0049278814785413379 0.0012346359011667567 0 -0.0050524281717512732 0.0013090159160311491 0 -0.0050518083967861218 0.0013074937515772571 0 -0.0050467324441965337 0.0013069074438926819 0 -0.0048358659597511839 0.0010793218283484426 0 -0.0046399488814472898 0.0010766033549587332 0 -0.0050204835977611488 0.0012662185186157846 0 -0.0049278814785413379 0.0012346359011667567 0 -0.0050518083967861218 0.0013074937515772571 0 -0.0050489441408703038 0.0013062873448649163 0 -0.005043263957023811 0.0013113605306959311 0 -0.0050566845712061124 0.0013032353328931265 0 -0.0050489441408703038 0.0013062873448649163 0 -0.0050502474558930957 0.0013020801792494666 0 -0.0050566845712061124 0.0013032353328931265 0 -0.0050518083967861218 0.0013074937515772571 0 -0.0050489441408703038 0.0013062873448649163 0 -0.0050489441408703038 0.0013062873448649163 0 -0.005043263957023811 0.0013113605306959311 0 -0.0050429478399518918 0.0013026572685529419 0 -0.005043263957023811 0.0013113605306959311 0 -0.005030031740065272 0.0013078067297523435 0 -0.0050429478399518918 0.0013026572685529419 0 -0.0049278814785413379 0.0012346359011667567 0 -0.00501598673556174 0.0012980454354592507 0 -0.0050316081690879606 0.0012867480092789382 0 -0.005030031740065272 0.0013078067297523435 0 -0.0050429478399518918 0.0013026572685529419 0 -0.0049969876231440958 0.0012755275028321854 0 -0.0050316081690879606 0.0012867480092789382 0 -0.005030031740065272 0.0013078067297523435 0 -0.0050316081690879606 0.0012867480092789382 0 -0.0050466301789999978 0.0012963917231460715 0 -0.0050429478399518918 0.0013026572685529419 0 -0.0050466301789999978 0.0012963917231460715 0 -0.0050523558456545825 0.0012987773085302954 0 -0.0050502474558930957 0.0013020801792494666 0 -0.0050504301922935273 0.0012930213072000823 0 -0.0050466301789999978 0.0012963917231460715 0 -0.0050523558456545825 0.0012987773085302954 0 -0.0050552903897115083 0.0013013385219232277 0 -0.0050523558456545825 0.0012987773085302954 0 -0.0050502474558930957 0.0013020801792494666 0 -0.0050489441408703038 0.0013062873448649163 0 -0.0050502474558930957 0.0013020801792494666 0 -0.0050429478399518918 0.0013026572685529419 0 -0.0050466301789999978 0.0012963917231460715 0 -0.0050502474558930957 0.0013020801792494666 0 -0.0050429478399518918 0.0013026572685529419 0 -0.0049278814785413379 0.0012346359011667567 0 -0.0048099021698676725 0.0011937857196049134 0 -0.0046895489020962605 0.0010960948316327439 0 -0.0046902667151352499 0.0010969516555621043 0 -0.004692602664976636 0.0010989759874295078 0 -0.0050500430712909763 0.0013239047763954122 0 -0.005030031740065272 0.0013078067297523435 0 -0.0049518878141724737 0.0012986932472282091 0 -0.0049969876231440958 0.0012755275028321854 0 -0.005030031740065272 0.0013078067297523435 0 -0.0049518878141724737 0.0012986932472282091 0 -0.0049564278929538795 0.0012462149472738662 0 -0.0049969876231440958 0.0012755275028321854 0 -0.0049518878141724737 0.0012986932472282091 0 -0.0047047451259317587 0.001027951424006417 0 -0.0047431646239840513 0.00098675981882551892 0 -0.0046912425435612186 0.0010492777645933029 0 -0.004695797533029949 0.00092606232103242781 0 -0.0048370263783393394 0.00085739140828082179 0 -0.0046877545308464958 0.0010670871509498403 0 -0.0046912425435612186 0.0010492777645933029 0 -0.0046876861777126796 0.0010619090777649108 0 -0.0046317880637219908 0.0010386850573867394 0 -0.0046912425435612186 0.0010492777645933029 0 -0.0046406917711194328 0.00099996078903625239 0 -0.0046317880637219908 0.0010386850573867394 0 -0.0046877545308464958 0.0010670871509498403 0 -0.0046912425435612186 0.0010492777645933029 0 -0.0046912425435612186 0.0010492777645933029 0 -0.0046406917711194328 0.00099996078903625239 0 -0.004695797533029949 0.00092606232103242781 0 -0.0047360628907258144 0.00094223002381163177 0 -0.0046789485617752709 0.00078862587009537427 0 -0.0045600727739121558 0.00095983984182494838 0 -0.004695797533029949 0.00092606232103242781 0 -0.0047435952622796197 0.00076922552746596458 0 -0.004695797533029949 0.00092606232103242781 0 -0.0047435952622796197 0.00076922552746596458 0 -0.0048370263783393394 0.00085739140828082179 0 -0.0049165137411039299 0.00072830964062185928 0 -0.0047360628907258144 0.00094223002381163177 0 -0.0045892014114291349 0.00092363598528512141 0 -0.0046301913635673981 0.00078046571669578122 0 -0.0047435952622796197 0.00076922552746596458 0 -0.0045296344856365998 0.00072682680175704853 0 -0.0045892014114291349 0.00092363598528512141 0 -0.0046301913635673981 0.00078046571669578122 0 -0.0045296344856365998 0.00072682680175704853 0 -0.0046301913635673981 0.00078046571669578122 0 -0.0046658901373354067 0.00068873283024998449 0 -0.0046658901373354067 0.00068873283024998449 0 -0.0047435952622796197 0.00076922552746596458 0 -0.0048121835830965435 0.00066278655194391088 0 -0.0046301913635673981 0.00078046571669578122 0 -0.0046658901373354067 0.00068873283024998449 0 -0.0047435952622796197 0.00076922552746596458 0 -0.0048370263783393394 0.00085739140828082179 0 -0.0049524386725783602 0.0006682827730416439 0 -0.0048121835830965435 0.00066278655194391088 0 -0.0047435952622796197 0.00076922552746596458 0 -0.0048370263783393394 0.00085739140828082179 0 -0.0048121835830965435 0.00066278655194391088 0 -0.0047431646239840513 0.00098675981882551892 0 -0.0048688602789060623 0.00068373978170422809 0 -0.0046864971567574304 0.0010380173558032753 0 -0.00468242220299945 0.00094195391512308954 0 -0.0045350504564557644 0.00088829199378676722 0 -0.0046157371578835977 0.0011272113778582663 0 -0.0048688602789060623 0.00068373978170422809 0 -0.0046859220811270282 0.0010442464809277828 0 -0.0046864971567574304 0.0010380173558032753 0 -0.0046878303732847135 0.0010327578521226218 0 -0.0046859220811270282 0.0010442464809277828 0 -0.0046831142319463366 0.0010444378873491588 0 -0.0046878303732847135 0.0010327578521226218 0 -0.0046859220811270282 0.0010442464809277828 0 -0.0046831142319463366 0.0010444378873491588 0 -0.0046858836837940969 0.0010535553030650887 0 -0.0046912425435612186 0.0010492777645933029 0 -0.0046831142319463366 0.0010444378873491588 0 -0.0046858836837940969 0.0010535553030650887 0 -0.0046912425435612186 0.0010492777645933029 0 -0.0046858836837940969 0.0010535553030650887 0 -0.0046876861777126796 0.0010619090777649108 0 -0.0046858836837940969 0.0010535553030650887 0 -0.0046876861777126796 0.0010619090777649108 0 -0.0046889237589636699 0.0010624092177144804 0 -0.0046902667151352499 0.0010969516555621043 0 -0.004692602664976636 0.0010989759874295078 0 -0.0047017378705230236 0.0011010533126116482 0 -0.0048099021698676725 0.0011937857196049134 0 -0.0047802367318033135 0.0011711399527539912 0 -0.0046399488814472898 0.0010766033549587332 0 -0.0047067552831028224 0.001092038227605216 0 -0.0046877545308464958 0.0010670871509498403 0 -0.0046876861777126796 0.0010619090777649108 0 -0.0046856475824122246 0.0010749061923024854 0 -0.0049082811698630989 0.0012409616915476677 0 -0.0049518878141724737 0.0012986932472282091 0 -0.0048310511560821136 0.0012347046062782705 0 -0.0046876861777126796 0.0010619090777649108 0 -0.0046856475824122246 0.0010749061923024854 0 -0.0046889237589636699 0.0010624092177144804 0 -0.0049564278929538795 0.0012462149472738662 0 -0.0049082811698630989 0.0012409616915476677 0 -0.0049518878141724737 0.0012986932472282091 0 -0.0047135471035574909 0.0011085557700128304 0 -0.0047017378705230236 0.0011010533126116482 0 -0.0047325627508543197 0.0011151833916138456 0 -0.0046856475824122246 0.0010749061923024854 0 -0.0047018537435039994 0.0010680282308211668 0 -0.0047325627508543197 0.0011151833916138456 0 -0.004692602664976636 0.0010989759874295078 0 -0.0047135471035574909 0.0011085557700128304 0 -0.0047017378705230236 0.0011010533126116482 0 -0.0047067552831028224 0.001092038227605216 0 -0.0047269533864715482 0.0011099468045478113 0 -0.0046856475824122246 0.0010749061923024854 0 -0.0046889237589636699 0.0010624092177144804 0 -0.0047018537435039994 0.0010680282308211668 0 -0.0046859220811270282 0.0010442464809277828 0 -0.0047018537435039994 0.0010680282308211668 0 -0.0046864971567574304 0.0010380173558032753 0 -0.0046859220811270282 0.0010442464809277828 0 -0.0046889237589636699 0.0010624092177144804 0 -0.0047018537435039994 0.0010680282308211668 0 -0.0046859220811270282 0.0010442464809277828 0 -0.0046858836837940969 0.0010535553030650887 0 -0.0046889237589636699 0.0010624092177144804 0 -0.0047018537435039994 0.0010680282308211668 0 -0.0047431233009484824 0.0010912381804660479 0 -0.004741386204208351 0.0010526031239100648 0 -0.0047018537435039994 0.0010680282308211668 0 -0.004741386204208351 0.0010526031239100648 0 -0.0046864971567574304 0.0010380173558032753 0 -0.0047651318645793618 0.0011412867642039805 0 -0.0047802367318033135 0.0011711399527539912 0 -0.0047018537435039994 0.0010680282308211668 0 -0.0047325627508543197 0.0011151833916138456 0 -0.0047431233009484824 0.0010912381804660479 0 -0.0047620165817533373 0.0011342393766596058 0 -0.0047135471035574909 0.0011085557700128304 0 -0.0047325627508543197 0.0011151833916138456 0 -0.0047620165817533373 0.0011342393766596058 0 -0.0047431233009484824 0.0010912381804660479 0 -0.0047813733104789492 0.0010800318888679083 0 -0.0047620165817533373 0.0011342393766596058 0 -0.0047325627508543197 0.0011151833916138456 0 -0.0047431233009484824 0.0010912381804660479 0 -0.0047431233009484824 0.0010912381804660479 0 -0.004741386204208351 0.0010526031239100648 0 -0.0047813733104789492 0.0010800318888679083 0 -0.004741386204208351 0.0010526031239100648 0 -0.0047395589998978655 0.00098801149186555481 0 -0.0047915912933700943 0.0010186569275406365 0 -0.004741386204208351 0.0010526031239100648 0 -0.0047395589998978655 0.00098801149186555481 0 -0.0046864971567574304 0.0010380173558032753 0 -0.0047395589998978655 0.00098801149186555481 0 -0.0046864971567574304 0.0010380173558032753 0 -0.00468242220299945 0.00094195391512308954 0 -0.0047395589998978655 0.00098801149186555481 0 -0.00468242220299945 0.00094195391512308954 0 -0.0047254141275283957 0.00091553946406679784 0 -0.00468242220299945 0.00094195391512308954 0 -0.0046731163582283729 0.00085639472729906962 0 -0.0045350504564557644 0.00088829199378676722 0 -0.00468242220299945 0.00094195391512308954 0 -0.0047254141275283957 0.00091553946406679784 0 -0.0046731163582283729 0.00085639472729906962 0 -0.0047395589998978655 0.00098801149186555481 0 -0.0047254141275283957 0.00091553946406679784 0 -0.004769204581377944 0.00093303212044144597 0 -0.0047395589998978655 0.00098801149186555481 0 -0.004769204581377944 0.00093303212044144597 0 -0.0047915912933700943 0.0010186569275406365 0 -0.004769204581377944 0.00093303212044144597 0 -0.0047351692655079143 0.00087246955600888592 0 -0.0047854691852100952 0.00085620016317119693 0 -0.0047776962299682559 0.00081275325759768292 0 -0.0048250684904374095 0.00078701541793964574 0 -0.0047254141275283957 0.00091553946406679784 0 -0.004769204581377944 0.00093303212044144597 0 -0.0047351692655079143 0.00087246955600888592 0 -0.0047254141275283957 0.00091553946406679784 0 -0.0047351692655079143 0.00087246955600888592 0 -0.0046731163582283729 0.00085639472729906962 0 -0.0047776962299682559 0.00081275325759768292 0 -0.0046792268450546537 0.00085673611118588643 0 -0.0048145154557426928 0.00075948432610831358 0 -0.0046731163582283729 0.00085639472729906962 0 -0.0047701751115664217 0.00062635559987401796 0 -0.0046731163582283729 0.00085639472729906962 0 -0.0046380764174219239 0.00062905271504655794 0 -0.0047701751115664217 0.00062635559987401796 0 -0.0047701751115664217 0.00062635559987401796 0 -0.0048543930922563044 0.00052506340848205578 0 -0.0049662279686328832 0.0006752063629804554 0 -0.0048145154557426928 0.00075948432610831358 0 -0.0047701751115664217 0.00062635559987401796 0 -0.0049662279686328832 0.0006752063629804554 0 -0.0048426104269568759 0.0005173169876251585 0 -0.0048250684904374095 0.00078701541793964574 0 -0.0048543930922563044 0.00052506340848205578 0 -0.0048666274716198214 0.00038769179772830687 0 -0.0047745630708814239 0.00039699135880694593 0 -0.0047701751115664217 0.00062635559987401796 0 -0.0048543930922563044 0.00052506340848205578 0 -0.0047745630708814239 0.00039699135880694593 0 -0.0048543930922563044 0.00052506340848205578 0 -0.0048666274716198214 0.00038769179772830687 0 -0.0049021251274404586 0.00045570194684464276 0 -0.0053560547771137248 -0.00018641289934800257 0 -0.0052952890398620086 -0.00017341329525499938 0 -0.005321995107902505 -0.00011797890919476634 0 -0.00515170662012269 -2.8268750431443499e-05 0 -0.0050368885112563643 0.00016120827653156537 0 -0.0048781689736675073 0.00023128973803620707 0 -0.0048666274716198214 0.00038769179772830687 0 -0.0047745630708814239 0.00039699135880694593 0 -0.0052952890398620086 -0.00017341329525499938 0 -0.0052688645100247532 -0.00017639563758760777 0 -0.0052714153533175937 -0.00013117367382300903 0 -0.0052952890398620086 -0.00017341329525499938 0 -0.005321995107902505 -0.00011797890919476634 0 -0.0052714153533175937 -0.00013117367382300903 0 -0.0046380764174219239 0.00062905271504655794 0 -0.0047701751115664217 0.00062635559987401796 0 -0.0047745630708814239 0.00039699135880694593 0 -0.0052902184320580874 -3.3733034037819367e-05 0 -0.005321995107902505 -0.00011797890919476634 0 -0.005257232777869685 -7.9907472067946236e-05 0 -0.005321995107902505 -0.00011797890919476634 0 -0.005257232777869685 -7.9907472067946236e-05 0 -0.0052714153533175937 -0.00013117367382300903 0 -0.0049788121012667424 0.00025385276459175985 0 -0.0050368885112563643 0.00016120827653156537 0 -0.005257232777869685 -7.9907472067946236e-05 0 -0.0052714153533175937 -0.00013117367382300903 0 -0.0052236285086434573 -0.00011667880406642229 0 -0.005257232777869685 -7.9907472067946236e-05 0 -0.0052236285086434573 -0.00011667880406642229 0 -0.005212524522030579 -7.4992451456252905e-05 0 -0.0052714153533175937 -0.00013117367382300903 0 -0.0052462733982517502 -0.00015268322446782413 0 -0.0052236285086434573 -0.00011667880406642229 0 -0.0052688645100247532 -0.00017639563758760777 0 -0.0052714153533175937 -0.00013117367382300903 0 -0.0052462733982517502 -0.00015268322446782413 0 -0.0052462733982517502 -0.00015268322446782413 0 -0.0052213158450588352 -0.00015032252422411452 0 -0.0052236285086434573 -0.00011667880406642229 0 -0.0052213158450588352 -0.00015032252422411452 0 -0.0052124075619991153 -0.000126665219147158 0 -0.0052236285086434573 -0.00011667880406642229 0 -0.0052213158450588352 -0.00015032252422411452 0 -0.0052124075619991153 -0.000126665219147158 0 -0.0051974016877187872 -0.00013200704937585544 0 -0.0052532996413424456 -0.00012544319194440203 0 -0.0050820727809707143 6.7885442449634111e-07 0 -0.0052124075619991153 -0.000126665219147158 0 -0.0052236285086434573 -0.00011667880406642229 0 -0.0052073528146103949 -0.00011212665220037817 0 -0.0052236285086434573 -0.00011667880406642229 0 -0.005212524522030579 -7.4992451456252905e-05 0 -0.0051641656236455077 -9.0513547149307746e-05 0 -0.005257232777869685 -7.9907472067946236e-05 0 -0.005212524522030579 -7.4992451456252905e-05 0 -0.0051999106051992114 -1.3895462925895833e-05 0 -0.0050360850016398333 0.00022474604761224946 0 -0.0050820727809707143 6.7885442449634111e-07 0 -0.005212524522030579 -7.4992451456252905e-05 0 -0.0051999106051992114 -1.3895462925895833e-05 0 -0.0051641656236455077 -9.0513547149307746e-05 0 -0.0048681114241719567 0.00051071093585480234 0 -0.004751875001406591 0.00047566668244783075 0 -0.0047880972148887447 0.00035549885690788318 0 -0.0052902184320580874 -3.3733034037819367e-05 0 -0.005257232777869685 -7.9907472067946236e-05 0 -0.0051999106051992114 -1.3895462925895833e-05 0 -0.0052902184320580874 -3.3733034037819367e-05 0 -0.0051999106051992114 -1.3895462925895833e-05 0 -0.0052353532525343067 6.8829212828451302e-05 0 -0.0049788121012667424 0.00025385276459175985 0 -0.0048688602789060623 0.00068373978170422809 0 -0.0046731163582283729 0.00085639472729906962 0 -0.0046380764174219239 0.00062905271504655794 0 -0.0045350504564557644 0.00088829199378676722 0 -0.0048681114241719567 0.00051071093585480234 0 -0.0049524386725783602 0.0006682827730416439 0 -0.0048121835830965435 0.00066278655194391088 0 -0.0050360850016398333 0.00022474604761224946 0 -0.0048688602789060623 0.00068373978170422809 0 -0.0048681114241719567 0.00051071093585480234 0 -0.0048121835830965435 0.00066278655194391088 0 -0.0047089483429668599 0.00059371397290013074 0 -0.0046658901373354067 0.00068873283024998449 0 -0.0048121835830965435 0.00066278655194391088 0 -0.0047089483429668599 0.00059371397290013074 0 -0.0045296344856365998 0.00072682680175704853 0 -0.0046658901373354067 0.00068873283024998449 0 -0.0045894462614950336 0.00059353690440262156 0 -0.0046658901373354067 0.00068873283024998449 0 -0.0047089483429668599 0.00059371397290013074 0 -0.0045894462614950336 0.00059353690440262156 0 -0.0051627952425580661 -6.5077387626797116e-05 0 -0.0051308827402891674 -9.023490740101307e-05 0 -0.0051054783734335368 -3.2577514818366143e-05 0 -0.0047089483429668599 0.00059371397290013074 0 -0.0045894462614950336 0.00059353690440262156 0 -0.0046275230755834307 0.00043729215005772155 0 -0.0045894462614950336 0.00059353690440262156 0 -0.0046275230755834307 0.00043729215005772155 0 -0.0044711325427563243 0.00051702992860051854 0 -0.0048463502261492548 0.00019881251320294889 0 -0.004992402427795522 0.00038127357175010359 0 -0.0048681114241719567 0.00051071093585480234 0 -0.0047089483429668599 0.00059371397290013074 0 -0.004751875001406591 0.00047566668244783075 0 -0.0046275230755834307 0.00043729215005772155 0 -0.004751875001406591 0.00047566668244783075 0 -0.0047880972148887447 0.00035549885690788318 0 -0.0047089483429668599 0.00059371397290013074 0 -0.0046275230755834307 0.00043729215005772155 0 -0.004751875001406591 0.00047566668244783075 0 -0.0052166349688964418 -9.5729640083668568e-05 0 -0.0051974016877187872 -0.00013200704937585544 0 -0.0051695488884967913 -0.00011251402505420693 0 -0.0048463502261492548 0.00019881251320294889 0 -0.0050820727809707143 6.7885442449634111e-07 0 -0.0051627952425580661 -6.5077387626797116e-05 0 -0.0052166349688964418 -9.5729640083668568e-05 0 -0.0051695488884967913 -0.00011251402505420693 0 -0.0050820727809707143 6.7885442449634111e-07 0 -0.0051740530531683183 -0.00012245077463195713 0 -0.0052124075619991153 -0.000126665219147158 0 -0.0052073528146103949 -0.00011212665220037817 0 -0.0051974016877187872 -0.00013200704937585544 0 -0.0051975597225543176 -0.00019083073681440109 0 -0.0051974016877187872 -0.00013200704937585544 0 -0.0051679930512763608 -0.000155546666982866 0 -0.0051975597225543176 -0.00019083073681440109 0 -0.0052213158450588352 -0.00015032252422411452 0 -0.0051974016877187872 -0.00013200704937585544 0 -0.0051974016877187872 -0.00013200704937585544 0 -0.0051679930512763608 -0.000155546666982866 0 -0.0051695488884967913 -0.00011251402505420693 0 -0.0051325568908552072 -0.0001677728914468907 0 -0.0051679930512763608 -0.000155546666982866 0 -0.0051416411629186436 -0.00013372074153152714 0 -0.0051679930512763608 -0.000155546666982866 0 -0.0051416411629186436 -0.00013372074153152714 0 -0.0051695488884967913 -0.00011251402505420693 0 -0.0051416411629186436 -0.00013372074153152714 0 -0.0051695488884967913 -0.00011251402505420693 0 -0.0051308827402891674 -9.023490740101307e-05 0 -0.0051627952425580661 -6.5077387626797116e-05 0 -0.0051695488884967913 -0.00011251402505420693 0 -0.0051308827402891674 -9.023490740101307e-05 0 -0.0051308827402891674 -9.023490740101307e-05 0 -0.0050888062368854596 -0.00010536317657456686 0 -0.0051054783734335368 -3.2577514818366143e-05 0 -0.0051416411629186436 -0.00013372074153152714 0 -0.0051308827402891674 -9.023490740101307e-05 0 -0.0050888062368854596 -0.00010536317657456686 0 -0.0051416411629186436 -0.00013372074153152714 0 -0.005102273609587496 -0.00014651415620404681 0 -0.0050888062368854596 -0.00010536317657456686 0 -0.005105303555603324 -0.00017714976640542397 0 -0.0051325568908552072 -0.0001677728914468907 0 -0.005102273609587496 -0.00014651415620404681 0 -0.0051325568908552072 -0.0001677728914468907 0 -0.0051416411629186436 -0.00013372074153152714 0 -0.005102273609587496 -0.00014651415620404681 0 -0.0050000023808645933 -2.3315544370768111e-05 0 -0.0050827905491078271 -4.4017840169512015e-05 0 -0.0051511594984584332 0.00019336510418255126 0 -0.0050731221479392678 -0.00010496403272832712 0 -0.0051337371986686902 1.2268018095589389e-05 0 -0.0050692772394877739 -0.00017226511728047429 0 -0.005102273609587496 -0.00014651415620404681 0 -0.0050888062368854596 -0.00010536317657456686 0 -0.0050000023808645933 -2.3315544370768111e-05 0 -0.0051511594984584332 0.00019336510418255126 0 -0.004999998358118438 0.00026698505548875039 0 -0.0051511594984584332 0.00019336510418255126 0 -0.004999998358118438 0.00026698505548875039 0 -0.0051015037389006701 0.00035340553826606588 0 -0.0051015037389006701 0.00035340553826606588 0 -0.0052190400164808352 0.00043112164373835897 0 -0.0050356654517438411 0.00052234439224291133 0 -0.004999998358118438 0.00026698505548875039 0 -0.0049999945035703874 0.00055729869545199408 0 -0.0050356654517438411 0.00052234439224291133 0 -0.004999998358118438 0.00026698505548875039 0 -0.0051015037389006701 0.00035340553826606588 0 -0.0050356654517438411 0.00052234439224291133 0 -0.0051511594984584332 0.00019336510418255126 0 -0.0051015037389006701 0.00035340553826606588 0 -0.0052190400164808352 0.00043112164373835897 0 -0.0051337371986686902 1.2268018095589389e-05 0 -0.004992402427795522 0.00038127357175010359 0 -0.0045296344856365998 0.00072682680175704853 0 -0.0045894462614950336 0.00059353690440262156 0 -0.0044711325427563243 0.00051702992860051854 0 -0.0052792521098115859 0.00069149854587510177 0 -0.0052090025320581006 0.00044030169342662242 0 -0.0051578407506026741 0.00057858588450495816 0 -0.0049165137411039299 0.00072830964062185928 0 -0.004992402427795522 0.00038127357175010359 0 -0.0052090025320581006 0.00044030169342662242 0 -0.0051578407506026741 0.00057858588450495816 0 -0.0050356654517438411 0.00052234439224291133 0 -0.0051059896473069997 0.00065984133408843399 0 -0.0051578407506026741 0.00057858588450495816 0 -0.0050356654517438411 0.00052234439224291133 0 -0.004992402427795522 0.00038127357175010359 0 -0.0051162845233883184 0.00050042001248952321 0 -0.0051059896473069997 0.00065984133408843399 0 -0.0049999945035703874 0.00055729869545199408 0 -0.0050356654517438411 0.00052234439224291133 0 -0.0047965291258137456 0.0010296540683807718 0 -0.0047829256629019152 0.0010361966238195235 0 -0.0047604900764149603 0.0010258337269781509 0 -0.0047965291258137456 0.0010296540683807718 0 -0.0048064465451257213 0.0010325153591418837 0 -0.0047829256629019152 0.0010361966238195235 0 -0.0047965291258137456 0.0010296540683807718 0 -0.0048062640909940293 0.0010415125019502328 0 -0.0048064465451257213 0.0010325153591418837 0 -0.0048064465451257213 0.0010325153591418837 0 -0.0047911552804695452 0.001026382869036208 0 -0.004800840948403752 0.001002973275811855 0 -0.0048062640909940293 0.0010415125019502328 0 -0.0048064465451257213 0.0010325153591418837 0 -0.0047911552804695452 0.001026382869036208 0 -0.0048064465451257213 0.0010325153591418837 0 -0.0047829256629019152 0.0010361966238195235 0 -0.004784888372281958 0.0010553780120193526 0 -0.0047829256629019152 0.0010361966238195235 0 -0.0047604900764149603 0.0010258337269781509 0 -0.0047615584021839658 0.0010457032492657079 0 -0.0042030188763164111 0.0015528641706811072 0 -0.0043723452689054089 0.0014601257375263942 0 -0.0041508868551388706 0.0014236354533238482 0 -0.0037194238105866598 0.00093799387588767492 0 -0.0046778512796731148 0.0012435715462728023 0 -0.0047276153122002788 0.0010348679639709008 0 -0.0047604900764149603 0.0010258337269781509 0 -0.0047615584021839658 0.0010457032492657079 0 -0.0043723452689054089 0.0014601257375263942 0 -0.0042483120981140305 0.0013160458470436141 0 -0.0041508868551388706 0.0014236354533238482 0 -0.0043723452689054089 0.0014601257375263942 0 -0.0043864122877068593 0.0012648720396000008 0 -0.0042483120981140305 0.0013160458470436141 0 -0.0046495139757801182 0.0012002235639827089 0 -0.0046778512796731148 0.0012435715462728023 0 -0.0045465416616935874 0.001356434903588751 0 -0.0043723452689054089 0.0014601257375263942 0 -0.0043864122877068593 0.0012648720396000008 0 -0.0043864122877068593 0.0012648720396000008 0 -0.0042483120981140305 0.0013160458470436141 0 -0.0042121245958551563 0.0011860147010333065 0 -0.0043104283972633514 0.00096668134488239797 0 -0.0042121245958551563 0.0011860147010333065 0 -0.0040578451194116117 0.0011092158044246671 0 -0.0043864122877068593 0.0012648720396000008 0 -0.0042121245958551563 0.0011860147010333065 0 -0.0044101280736146917 0.0011151081965686074 0 -0.0043104283972633514 0.00096668134488239797 0 -0.0042121245958551563 0.0011860147010333065 0 -0.0044101280736146917 0.0011151081965686074 0 -0.0043864122877068593 0.0012648720396000008 0 -0.0044101280736146917 0.0011151081965686074 0 -0.0045592555953495682 0.0011711954497947673 0 -0.0045551542620007879 0.00098945552675494758 0 -0.0044101280736146917 0.0011151081965686074 0 -0.0045592555953495682 0.0011711954497947673 0 -0.0045465416616935874 0.001356434903588751 0 -0.0045592555953495682 0.0011711954497947673 0 -0.0047049960232965499 0.0012389689157160898 0 -0.0045465416616935874 0.001356434903588751 0 -0.0043864122877068593 0.0012648720396000008 0 -0.0045592555953495682 0.0011711954497947673 0 -0.0046495139757801182 0.0012002235639827089 0 -0.0047577103036210034 0.0011478010075023097 0 -0.0047965291258137456 0.0010296540683807718 0 -0.0048062640909940293 0.0010415125019502328 0 -0.0048119965401782067 0.0010592956510890868 0 -0.0045592555953495682 0.0011711954497947673 0 -0.0047049960232965499 0.0012389689157160898 0 -0.004724680259510278 0.0011120371668806982 0 -0.0045551542620007879 0.00098945552675494758 0 -0.0045592555953495682 0.0011711954497947673 0 -0.004724680259510278 0.0011120371668806982 0 -0.0048119965401782067 0.0010592956510890868 0 -0.004810337661423387 0.0010907392726790554 0 -0.0048106227400814897 0.0011074418486154327 0 -0.0047049960232965499 0.0012389689157160898 0 -0.004724680259510278 0.0011120371668806982 0 -0.0048106227400814897 0.0011074418486154327 0 -0.0047827206991997769 0.0010777063712967879 0 -0.004724680259510278 0.0011120371668806982 0 -0.0048106227400814897 0.0011074418486154327 0 -0.0048099789322182908 0.0010925037238582983 0 -0.0047827206991997769 0.0010777063712967879 0 -0.0048106227400814897 0.0011074418486154327 0 -0.004810337661423387 0.0010907392726790554 0 -0.0048106227400814897 0.0011074418486154327 0 -0.0048185145294105374 0.0010817091520353697 0 -0.0048099789322182908 0.0010925037238582983 0 -0.0048106227400814897 0.0011074418486154327 0 -0.0048153696222835943 0.0010951219590267394 0 -0.0048106227400814897 0.0011074418486154327 0 -0.0048185145294105374 0.0010817091520353697 0 -0.0048153696222835943 0.0010951219590267394 0 -0.004810337661423387 0.0010907392726790554 0 -0.0048185145294105374 0.0010817091520353697 0 -0.0048407633531649718 0.0010416529246106885 0 -0.0048108956587735157 0.0010858623999775332 0 -0.0048017542285243497 0.0010380933556565818 0 -0.004810337661423387 0.0010907392726790554 0 -0.004799975835676585 0.0010521837158828026 0 -0.0047668089577845574 0.001045903471754531 0 -0.0048119965401782067 0.0010592956510890868 0 -0.004810337661423387 0.0010907392726790554 0 -0.004799975835676585 0.0010521837158828026 0 -0.0048062640909940293 0.0010415125019502328 0 -0.0048119965401782067 0.0010592956510890868 0 -0.004799975835676585 0.0010521837158828026 0 -0.0047577103036210034 0.0011478010075023097 0 -0.0048014066164827297 0.0011156116604305573 0 -0.0047972689357888409 0.0011068966434247946 0 -0.004805191116641655 0.0010852702738534537 0 -0.0047813733104789492 0.0010800318888679083 0 -0.0047620165817533373 0.0011342393766596058 0 -0.0047972689357888409 0.0011068966434247946 0 -0.0047813733104789492 0.0010800318888679083 0 -0.0047972689357888409 0.0011068966434247946 0 -0.004805191116641655 0.0010852702738534537 0 -0.0048153696222835943 0.0010951219590267394 0 -0.0048185145294105374 0.0010817091520353697 0 -0.004805191116641655 0.0010852702738534537 0 -0.0048153696222835943 0.0010951219590267394 0 -0.0048185145294105374 0.0010817091520353697 0 -0.0048108365894865262 0.0010589726325973842 0 -0.0048407633531649718 0.0010416529246106885 0 -0.0048185145294105374 0.0010817091520353697 0 -0.004805191116641655 0.0010852702738534537 0 -0.0048108365894865262 0.0010589726325973842 0 -0.004741386204208351 0.0010526031239100648 0 -0.0047813733104789492 0.0010800318888679083 0 -0.0047915912933700943 0.0010186569275406365 0 -0.004805191116641655 0.0010852702738534537 0 -0.0048108365894865262 0.0010589726325973842 0 -0.0047813733104789492 0.0010800318888679083 0 -0.0048108365894865262 0.0010589726325973842 0 -0.0047813733104789492 0.0010800318888679083 0 -0.0047915912933700943 0.0010186569275406365 0 -0.0047915912933700943 0.0010186569275406365 0 -0.004827373586439262 0.00095063035074676794 0 -0.0048407633531649718 0.0010416529246106885 0 -0.0048108365894865262 0.0010589726325973842 0 -0.0047915912933700943 0.0010186569275406365 0 -0.0048407633531649718 0.0010416529246106885 0 -0.0047774166478284615 0.0010021884262124419 0 -0.0048017542285243497 0.0010380933556565818 0 -0.004769204581377944 0.00093303212044144597 0 -0.0047915912933700943 0.0010186569275406365 0 -0.004827373586439262 0.00095063035074676794 0 -0.0047418673505471194 0.0010130005249081395 0 -0.0047668089577845574 0.001045903471754531 0 -0.0047911552804695452 0.001026382869036208 0 -0.0047418673505471194 0.0010130005249081395 0 -0.0047911552804695452 0.001026382869036208 0 -0.0047733020773163106 0.00098698514251493747 0 -0.004799975835676585 0.0010521837158828026 0 -0.0047668089577845574 0.001045903471754531 0 -0.0047911552804695452 0.001026382869036208 0 -0.0048062640909940293 0.0010415125019502328 0 -0.004799975835676585 0.0010521837158828026 0 -0.0047911552804695452 0.001026382869036208 0 -0.0047911552804695452 0.001026382869036208 0 -0.004800840948403752 0.001002973275811855 0 -0.0047733020773163106 0.00098698514251493747 0 -0.004800840948403752 0.001002973275811855 0 -0.0047733020773163106 0.00098698514251493747 0 -0.0048057666218527459 0.0009678566316182447 0 -0.0047733020773163106 0.00098698514251493747 0 -0.0047489084066406131 0.00096205264455209846 0 -0.0047792734749523376 0.00094448423669794379 0 -0.0047733020773163106 0.00098698514251493747 0 -0.0047792734749523376 0.00094448423669794379 0 -0.0048057666218527459 0.0009678566316182447 0 -0.0047418673505471194 0.0010130005249081395 0 -0.0047443683006274644 0.00098549039606699983 0 -0.0047181153284259992 0.00097729965626731897 0 -0.0047774166478284615 0.0010021884262124419 0 -0.0048250684904374095 0.00078701541793964574 0 -0.004769204581377944 0.00093303212044144597 0 -0.004827373586439262 0.00095063035074676794 0 -0.0047854691852100952 0.00085620016317119693 0 -0.0047418673505471194 0.0010130005249081395 0 -0.0047733020773163106 0.00098698514251493747 0 -0.0047443683006274644 0.00098549039606699983 0 -0.0047733020773163106 0.00098698514251493747 0 -0.0047443683006274644 0.00098549039606699983 0 -0.0047489084066406131 0.00096205264455209846 0 -0.0047443683006274644 0.00098549039606699983 0 -0.0047489084066406131 0.00096205264455209846 0 -0.0047181153284259992 0.00097729965626731897 0 -0.0049552740712275325 0.00049207055598851233 0 -0.0048988207394214485 0.0005080659325646346 0 -0.0048920162803227996 0.00054540914897700137 0 -0.0048498378829346716 0.00072480175620639738 0 -0.0048250684904374095 0.00078701541793964574 0 -0.0048543930922563044 0.00052506340848205578 0 -0.0048988207394214485 0.0005080659325646346 0 -0.0048920162803227996 0.00054540914897700137 0 -0.0049552740712275325 0.00049207055598851233 0 -0.0048988207394214485 0.0005080659325646346 0 -0.0049021251274404586 0.00045570194684464276 0 -0.0048543930922563044 0.00052506340848205578 0 -0.0048988207394214485 0.0005080659325646346 0 -0.0049021251274404586 0.00045570194684464276 0 -0.0049552740712275325 0.00049207055598851233 0 -0.0049021251274404586 0.00045570194684464276 0 -0.0049364027225061516 0.00042167351038896288 0 -0.0049552740712275325 0.00049207055598851233 0 -0.0049364027225061516 0.00042167351038896288 0 -0.0049794986900500871 0.00040055983710626558 0 -0.0049463237157674339 0.0003666317658489309 0 -0.0049364027225061516 0.00042167351038896288 0 -0.0049794986900500871 0.00040055983710626558 0 -0.0049463237157674339 0.0003666317658489309 0 -0.0049364027225061516 0.00042167351038896288 0 -0.0048969478192974732 0.00039091493125952318 0 -0.0049021251274404586 0.00045570194684464276 0 -0.0049364027225061516 0.00042167351038896288 0 -0.0048969478192974732 0.00039091493125952318 0 -0.0049052732254011031 0.00043318794548290656 0 -0.0049129291936456368 0.00038854451768007117 0 -0.0048666274716198214 0.00038769179772830687 0 -0.0049021251274404586 0.00045570194684464276 0 -0.0049331575023119087 0.00033338170348586364 0 -0.0048781689736675073 0.00023128973803620707 0 -0.0048666274716198214 0.00038769179772830687 0 -0.0049331575023119087 0.00033338170348586364 0 -0.0048859203461866698 0.00069687926106341011 0 -0.0049805340431728802 0.0006469278430146565 0 -0.0047792734749523376 0.00094448423669794379 0 -0.0048132660239376306 0.00092274392849768234 0 -0.0048057666218527459 0.0009678566316182447 0 -0.0049552740712275325 0.00049207055598851233 0 -0.0050097422828165082 0.00044086412794756141 0 -0.0049794986900500871 0.00040055983710626558 0 -0.0048498378829346716 0.00072480175620639738 0 -0.0048859203461866698 0.00069687926106341011 0 -0.0050097422828165082 0.00044086412794756141 0 -0.0049794986900500871 0.00040055983710626558 0 -0.005008139082519447 0.00035871788488247685 0 -0.0049463237157674339 0.0003666317658489309 0 -0.0049794986900500871 0.00040055983710626558 0 -0.005008139082519447 0.00035871788488247685 0 -0.0050548515749990032 0.00032747642644982537 0 -0.005008139082519447 0.00035871788488247685 0 -0.0050647677293038347 0.00039762439172422837 0 -0.0050097422828165082 0.00044086412794756141 0 -0.005008139082519447 0.00035871788488247685 0 -0.0050647677293038347 0.00039762439172422837 0 -0.0049805340431728802 0.0006469278430146565 0 -0.0047787630660320367 0.00065922034416065426 0 -0.0047787630660320367 0.00065922034416065426 0 -0.0048010588894736471 0.0010756524429436172 0 -0.0047532780526267117 0.0010786254544033751 0 -0.0047590778227528541 0.0010765924066854563 0 -0.0047591475837470715 0.001072610393697106 0 -0.0048132660239376306 0.00092274392849768234 0 -0.0048532790131984313 0.00089958846484250986 0 -0.0048427506851531563 0.00094832469116082287 0 -0.0047590778227528541 0.0010765924066854563 0 -0.0047687896023182593 0.0010688850238399833 0 -0.0047591475837470715 0.001072610393697106 0 -0.0051046644606259567 0.00031700771132652563 0 -0.0050647677293038347 0.00039762439172422837 0 -0.0051321139995756182 0.00035784582881135432 0 -0.0041027401200388319 0.0010316756890004675 0 -0.0047787630660320367 0.00065922034416065426 0 -0.0047687896023182593 0.0010688850238399833 0 -0.0047591475837470715 0.001072610393697106 0 -0.004761494470421769 0.0010633925321675082 0 -0.0048132660239376306 0.00092274392849768234 0 -0.0048427506851531563 0.00094832469116082287 0 -0.0048057666218527459 0.0009678566316182447 0 -0.0048427506851531563 0.00094832469116082287 0 -0.0048057666218527459 0.0009678566316182447 0 -0.0048294245799048053 0.00099188072354948692 0 -0.0047687896023182593 0.0010688850238399833 0 -0.004784888372281958 0.0010553780120193526 0 -0.004761494470421769 0.0010633925321675082 0 -0.0048010588894736471 0.0010756524429436172 0 -0.0048092804250904645 0.0010074370466285631 0 -0.004784888372281958 0.0010553780120193526 0 -0.0047615584021839658 0.0010457032492657079 0 -0.004761494470421769 0.0010633925321675082 0 -0.0047829256629019152 0.0010361966238195235 0 -0.004784888372281958 0.0010553780120193526 0 -0.0047615584021839658 0.0010457032492657079 0 -0.0048056752897808015 0.0010362358404491772 0 -0.0048092804250904645 0.0010074370466285631 0 -0.004800840948403752 0.001002973275811855 0 -0.0048057666218527459 0.0009678566316182447 0 -0.0048294245799048053 0.00099188072354948692 0 -0.0048064465451257213 0.0010325153591418837 0 -0.004800840948403752 0.001002973275811855 0 -0.0048294245799048053 0.00099188072354948692 0 -0.0027574766750080616 5.912820672038037e-05 0 -0.0029439455881589897 0.00052784135520527679 0 -0.0025844760143077 0.00047778132570835253 0 -0.0047276153122002788 0.0010348679639709008 0 -0.0047615584021839658 0.0010457032492657079 0 -0.0047417746113941539 0.0010568018399231033 0 -0.0037194238105866598 0.00093799387588767492 0 -0.0038290519500920632 0.00070469851984321884 0 -0.0047615584021839658 0.0010457032492657079 0 -0.004761494470421769 0.0010633925321675082 0 -0.0047417746113941539 0.0010568018399231033 0 -0.004761494470421769 0.0010633925321675082 0 -0.0047417746113941539 0.0010568018399231033 0 -0.0047507127307570337 0.0010707737098692685 0 -0.0038290519500920632 0.00070469851984321884 0 -0.003947787065406742 0.0010963692733101142 0 -0.0029439455881589897 0.00052784135520527679 0 -0.0027596361763917621 0.00082974353727031859 0 -0.0031336459081719053 0.00099772011101308057 0 -0.0029439455881589897 0.00052784135520527679 0 -0.0027596361763917621 0.00082974353727031859 0 -0.0025844760143077 0.00047778132570835253 0 -0.0027596361763917621 0.00082974353727031859 0 -0.0028313540074898199 0.001112295278753446 0 -0.0031336459081719053 0.00099772011101308057 0 -0.0047591475837470715 0.001072610393697106 0 -0.004761494470421769 0.0010633925321675082 0 -0.0047507127307570337 0.0010707737098692685 0 -0.0047532780526267117 0.0010786254544033751 0 -0.0047591475837470715 0.001072610393697106 0 -0.0047507127307570337 0.0010707737098692685 0 -0.0041027401200388319 0.0010316756890004675 0 -0.003947787065406742 0.0010963692733101142 0 -0.0033264249895790642 0.0014661510250419721 0 -0.0031336459081719053 0.00099772011101308057 0 -0.0029990503515342514 0.0013169826836280333 0 -0.0028313540074898199 0.001112295278753446 0 -0.0031336459081719053 0.00099772011101308057 0 -0.0029990503515342514 0.0013169826836280333 0 -0.0028313540074898199 0.001112295278753446 0 -0.0029990503515342514 0.0013169826836280333 0 -0.0027384604739055553 0.0013824573079262794 0 -0.0025007685724221587 0.0014122009085936653 0 -0.0022775816844308899 0.0012262787656758412 0 -0.0025483001269899748 0.0010889131039650464 0 -0.0025007685724221587 0.0014122009085936653 0 -0.0027384604739055553 0.0013824573079262794 0 -0.0025483001269899748 0.0010889131039650464 0 -0.0028313540074898199 0.001112295278753446 0 -0.0027384604739055553 0.0013824573079262794 0 -0.0025483001269899748 0.0010889131039650464 0 -0.0023276289507689171 0.0015555989681118555 0 -0.0025007685724221587 0.0014122009085936653 0 -0.0022775816844308899 0.0012262787656758412 0 -0.0023276289507689171 0.0015555989681118555 0 -0.0022775816844308899 0.0012262787656758412 0 -0.0020455031182743232 0.00130567140439187 0 -0.0020028881560025394 0.00081418162760778213 0 -0.0016817404223005573 0.00087935432130714294 0 -0.0022775816844308899 0.0012262787656758412 0 -0.0020274110116880743 0.0013209499590579208 0 -0.0020241561015660269 0.0010053449435578493 0 -0.002219766358527428 0.0011080949113895519 0 -0.0016817404223005573 0.00087935432130714294 0 -0.0022775816844308899 0.0012262787656758412 0 -0.0022983139126413659 0.00098764476506122052 0 -0.0025483001269899748 0.0010889131039650464 0 -0.0022775816844308899 0.0012262787656758412 0 -0.0022983139126413659 0.00098764476506122052 0 -0.0020241561015660269 0.0010053449435578493 0 -0.0022983139126413659 0.00098764476506122052 0 -0.0021449244449398075 0.00083923917327640817 0 -0.0020241561015660269 0.0010053449435578493 0 -0.0022983139126413659 0.00098764476506122052 0 -0.0021449244449398075 0.00083923917327640817 0 -0.0024403591897892061 0.00079118309479906084 0 -0.0027596361763917621 0.00082974353727031859 0 -0.0025483001269899748 0.0010889131039650464 0 -0.0024403591897892061 0.00079118309479906084 0 -0.0022983139126413659 0.00098764476506122052 0 -0.0025483001269899748 0.0010889131039650464 0 -0.0024403591897892061 0.00079118309479906084 0 -0.0027596361763917621 0.00082974353727031859 0 -0.0028313540074898199 0.001112295278753446 0 -0.0025483001269899748 0.0010889131039650464 0 -0.00046830885350422402 0.001128534850426828 0 -0.00077784351612870538 0.00037360362474246167 0 -1.6996692510457671e-06 0.00073265532555801048 0 -0.00046830885350422402 0.001128534850426828 0 -0.0012943841679352679 0.00083607382865401086 0 -0.00077784351612870538 0.00037360362474246167 0 -0.00053754772482431557 7.82681838840027e-05 0 -0.0016817404223005573 0.00087935432130714294 0 -0.0016817404223005573 0.00087935432130714294 0 -0.0013196793935815855 0.00075771879014149954 0 -0.0020274110116880743 0.0013209499590579208 0 -0.0020241561015660269 0.0010053449435578493 0 -0.0017252132325459287 0.0010627151344900084 0 -0.0021449244449398075 0.00083923917327640817 0 -0.0020241561015660269 0.0010053449435578493 0 -0.0019452999337439701 0.00075272474500666701 0 -0.0020241561015660269 0.0010053449435578493 0 -0.0017387231391869232 0.00084328319048122195 0 -0.0019452999337439701 0.00075272474500666701 0 -0.0020241561015660269 0.0010053449435578493 0 -0.0017252132325459287 0.0010627151344900084 0 -0.0017387231391869232 0.00084328319048122195 0 -0.00077784351612870538 0.00037360362474246167 0 -0.00026054571480410284 -8.8400020285037153e-05 0 -1.6996692510457671e-06 0.00073265532555801048 0 -0.0017252132325459287 0.0010627151344900084 0 -0.0017387231391869232 0.00084328319048122195 0 -0.0014113559534867088 0.00079447453921600072 0 -0.0013196793935815855 0.00075771879014149954 0 -3.6352590607899968e-05 0.00075527312815055385 0 -0.00035803010232184101 0.0016484334138555808 0 -0.00053418800276868806 0.0017164984175855502 0 -0.00040339839259882223 0.0014832937701590645 0 -0.00035803010232184101 0.0016484334138555808 0 -0.00033199539192862451 0.0018142144756906292 0 -0.00053418800276868806 0.0017164984175855502 0 -3.6352590607899968e-05 0.00075527312815055385 0 -0.0011342476160304739 0.0011347750541459657 0 -0.0017387231391869232 0.00084328319048122195 0 -0.0014113559534867088 0.00079447453921600072 0 -0.0017146300860708715 0.00062297883965239281 0 -0.0017146300860708715 0.00062297883965239281 0 -0.0019452999337439701 0.00075272474500666701 0 -0.0020060936346151768 0.00045744925356922916 0 -0.0011342476160304739 0.0011347750541459657 0 -0.0017122208385326155 0.0010468578007790808 0 -0.0017387231391869232 0.00084328319048122195 0 -0.0017146300860708715 0.00062297883965239281 0 -0.0019452999337439701 0.00075272474500666701 0 -0.0019701852253075705 0.00053953148378110436 0 -0.0017122208385326155 0.0010468578007790808 0 -0.0019452999337439701 0.00075272474500666701 0 -0.0020179303666533932 0.00047034178227867233 0 -0.0022218931869518056 0.00063301257518470408 0 -0.00053418800276868806 0.0017164984175855502 0 -0.0007592076171112663 0.0016016700327132949 0 -0.00062993727366315692 0.0014813035856633958 0 -0.0007592076171112663 0.0016016700327132949 0 -0.00062993727366315692 0.0014813035856633958 0 -0.00083068709071737956 0.0013320956510441916 0 -0.0017122208385326155 0.0010468578007790808 0 -0.0014648291804145953 0.0012724717437727975 0 -0.00053418800276868806 0.0017164984175855502 0 -0.00062993727366315692 0.0014813035856633958 0 -0.00040339839259882223 0.0014832937701590645 0 -0.00062993727366315692 0.0014813035856633958 0 -0.00040339839259882223 0.0014832937701590645 0 -0.00062984042314374411 0.0012470279449299094 0 -0.0004439335115005022 0.0014437264360834332 0 -0.00051529422286938562 0.0013333039299185281 0 -0.0027596361763917621 0.00082974353727031859 0 -0.0024403591897892061 0.00079118309479906084 0 -0.0025844760143077 0.00047778132570835253 0 -0.0024403591897892061 0.00079118309479906084 0 -0.0022218931869518056 0.00063301257518470408 0 -0.0025844760143077 0.00047778132570835253 0 -0.0021449244449398075 0.00083923917327640817 0 -0.0024403591897892061 0.00079118309479906084 0 -0.0022218931869518056 0.00063301257518470408 0 -0.0021449244449398075 0.00083923917327640817 0 -0.0019452999337439701 0.00075272474500666701 0 -0.0022218931869518056 0.00063301257518470408 0 -0.0020746526583286162 0.0012772344057581518 0 -0.0022083836246543352 0.0012015468176983374 0 -0.0021135106957397712 0.0011164970842126067 0 -0.0022083836246543352 0.0012015468176983374 0 -0.0023403526691946866 0.0011239902212192051 0 -0.0021135106957397712 0.0011164970842126067 0 -0.0022218931869518056 0.00063301257518470408 0 -0.0022992431823150375 0.00031335482454529398 0 -0.0025844760143077 0.00047778132570835253 0 -0.0020179303666533932 0.00047034178227867233 0 -0.0022218931869518056 0.00063301257518470408 0 -0.0022992431823150375 0.00031335482454529398 0 -0.0017122208385326155 0.0010468578007790808 0 -0.0022893832090616476 0.00075753445140193008 0 -0.0022893832090616476 0.00075753445140193008 0 -0.0028496793095339149 0.00097761154929037293 0 -0.0027574766750080616 5.912820672038037e-05 0 -0.0025844760143077 0.00047778132570835253 0 -0.0025772555999216593 0.00015789653274281645 0 -0.0022992431823150375 0.00031335482454529398 0 -0.0025844760143077 0.00047778132570835253 0 -0.0025772555999216593 0.00015789653274281645 0 -0.0037194238105866598 0.00093799387588767492 0 -0.0036782089847045433 0.0013533319377226395 0 -0.0037194238105866598 0.00093799387588767492 0 -0.0028496793095339149 0.00097761154929037293 0 -0.003151745031124858 0.0012437220010603741 0 -0.0031549903794142438 0.0012120315331562944 0 -0.0031267876374144357 0.001192585002108709 0 -0.0031798413932559678 0.0012283217188639778 0 -0.003151745031124858 0.0012437220010603741 0 -0.0031549903794142438 0.0012120315331562944 0 -0.0031798413932559678 0.0012283217188639778 0 -0.0031549903794142438 0.0012120315331562944 0 -0.0031611413759127581 0.0011833368170124047 0 -0.0031611413759127581 0.0011833368170124047 0 -0.0031267876374144357 0.001192585002108709 0 -0.003144398810261833 0.001135770531067054 0 -0.0036782089847045433 0.0013533319377226395 0 -0.0038173774863255175 0.0012236115357506135 0 -0.0031549903794142438 0.0012120315331562944 0 -0.0031611413759127581 0.0011833368170124047 0 -0.0031267876374144357 0.001192585002108709 0 -0.0031267876374144357 0.001192585002108709 0 -0.0030945642862644515 0.0011786918617301806 0 -0.003144398810261833 0.001135770531067054 0 -0.0019738481875827673 0.0020926404894239291 0 -0.0019195142104404344 0.0021464110194918695 0 -0.0018940084442564328 0.0018784545011672361 0 -0.0026062033972259328 0.0014948993232809411 0 -0.0038173774863255175 0.0012236115357506135 0 -0.0031267876374144357 0.001192585002108709 0 -0.0030945642862644515 0.0011786918617301806 0 -0.0030903024398717532 0.0011937144972698384 0 -0.0026062033972259328 0.0014948993232809411 0 -0.0021531390582920102 0.0012889679695771968 0 -0.002326040821350947 0.0015601734387895346 0 -0.0024681443807454467 0.0014159088860191144 0 -0.0023754909022065795 0.0013304396408336319 0 -0.0026062033972259328 0.0014948993232809411 0 -0.0016896629494524886 0.001389798178676916 0 -0.0016896629494524886 0.001389798178676916 0 -0.0021531390582920102 0.0012889679695771968 0 -0.0028496793095339149 0.00097761154929037293 0 -0.0021531390582920102 0.0012889679695771968 0 -0.0023403526691946866 0.0011239902212192051 0 -0.0021505420824023849 0.00095600361971801126 0 -0.0021135106957397712 0.0011164970842126067 0 -0.0021531390582920102 0.0012889679695771968 0 -0.0014648291804145953 0.0012724717437727975 0 -0.003151745031124858 0.0012437220010603741 0 -0.0031267876374144357 0.001192585002108709 0 -0.0030903024398717532 0.0011937144972698384 0 -0.00090272873522698519 0.0010493133882103203 0 -0.00083068709071737956 0.0013320956510441916 0 -0.00062984042314374411 0.0012470279449299094 0 -0.00062993727366315692 0.0014813035856633958 0 -0.00083068709071737956 0.0013320956510441916 0 -0.00062984042314374411 0.0012470279449299094 0 -0.0016896629494524886 0.001389798178676916 0 -0.00051529422286938562 0.0013333039299185281 0 -0.00086868142510927227 0.0010178577057888463 0 -0.00090272873522698519 0.0010493133882103203 0 -0.00062984042314374411 0.0012470279449299094 0 -0.00040339839259882223 0.0014832937701590645 0 -0.00055521599518972052 0.0013329499812306492 0 -0.00036942918459703704 0.0013108862157365485 0 -0.00055521599518972052 0.0013329499812306492 0 -0.00036942918459703704 0.0013108862157365485 0 -0.000461261286334808 0.0011723865791621955 0 -0.00036942918459703704 0.0013108862157365485 0 -0.000461261286334808 0.0011723865791621955 0 -0.00024779038071205776 0.0011823747498960282 0 -0.000461261286334808 0.0011723865791621955 0 -0.00053139690785514442 0.0010034304893629217 0 -0.00033365928949519841 0.001023031337722303 0 -0.000461261286334808 0.0011723865791621955 0 -0.00033365928949519841 0.001023031337722303 0 -0.00024779038071205776 0.0011823747498960282 0 -0.00072336648453494496 0.0011748693647847545 0 -0.000461261286334808 0.0011723865791621955 0 -0.00053139690785514442 0.0010034304893629217 0 -0.00072336648453494496 0.0011748693647847545 0 -0.00055521599518972052 0.0013329499812306492 0 -0.000461261286334808 0.0011723865791621955 0 -0.0019195142104404344 0.0021464110194918695 0 -0.0016377931951773303 0.001904006945704954 0 -0.0018940084442564328 0.0018784545011672361 0 -0.0016896629494524886 0.001389798178676916 0 -0.001050528863554669 0.0014645613595004375 0 -0.0016377931951773303 0.001904006945704954 0 -0.001860755348647838 0.0015920672089266349 0 -0.0018940084442564328 0.0018784545011672361 0 -0.00053139690785514442 0.0010034304893629217 0 -0.00033365928949519841 0.001023031337722303 0 -0.00033718679707296634 0.00083446576034984532 0 -0.001050528863554669 0.0014645613595004375 0 -0.00087152363703222159 0.001207119631717733 0 -0.0016377931951773303 0.001904006945704954 0 -0.0015731074644770935 0.001475717321399606 0 -0.0013414881712908117 0.0016509439508282076 0 -0.0015731074644770935 0.001475717321399606 0 -0.0013414881712908117 0.0016509439508282076 0 -0.0012160339534847751 0.0012157857549731841 0 -0.0015731074644770935 0.001475717321399606 0 -0.001860755348647838 0.0015920672089266349 0 -0.0017599576791326305 0.0012044181653549214 0 -0.0016377931951773303 0.001904006945704954 0 -0.0015731074644770935 0.001475717321399606 0 -0.001860755348647838 0.0015920672089266349 0 -0.0020768581371811258 0.0016547601464913402 0 -0.0019790121739854628 0.0014071654499632617 0 -0.0021791695272017604 0.0012361479882615676 0 -0.0039123088625855297 0.0012405296030575694 0 -0.0040578451194116117 0.0011092158044246671 0 -0.0040046335573714524 0.00095502608791696157 0 -0.0029677348020430761 0.0013934286428225948 0 -0.0036504589739379508 0.0017627405807450157 0 -0.001860755348647838 0.0015920672089266349 0 -0.0020768581371811258 0.0016547601464913402 0 -0.0019790121739854628 0.0014071654499632617 0 -0.0039123088625855297 0.0012405296030575694 0 -0.0040578451194116117 0.0011092158044246671 0 -0.0039860596918209505 0.0012779254993113146 0 -0.0042121245958551563 0.0011860147010333065 0 -0.0040578451194116117 0.0011092158044246671 0 -0.0039860596918209505 0.0012779254993113146 0 -0.0042483120981140305 0.0013160458470436141 0 -0.0042121245958551563 0.0011860147010333065 0 -0.0041013375765005262 0.0012968586595112502 0 -0.0042121245958551563 0.0011860147010333065 0 -0.0040278733457992846 0.0013841847236857295 0 -0.0039860596918209505 0.0012779254993113146 0 -0.0042483120981140305 0.0013160458470436141 0 -0.0041508868551388706 0.0014236354533238482 0 -0.0041013375765005262 0.0012968586595112502 0 -0.0038173774863255175 0.0012236115357506135 0 -0.0039417754820788497 0.0013433422134275237 0 -0.0042447237985415009 0.0011950308870663198 0 -0.0038173774863255175 0.0012236115357506135 0 -0.0026062033972259328 0.0014948993232809411 0 -0.0029677348020430761 0.0013934286428225948 0 -0.001860755348647838 0.0015920672089266349 0 -0.0020768581371811258 0.0016547601464913402 0 -0.0018940084442564328 0.0018784545011672361 0 -0.0019738481875827673 0.0020926404894239291 0 -0.0020768581371811258 0.0016547601464913402 0 -0.0018940084442564328 0.0018784545011672361 0 -0.0037981281951765902 0.0016198002252655668 0 -0.0039123088625855297 0.0012405296030575694 0 -0.0040301814827412965 0.0014039507136709207 0 -0.0039123088625855297 0.0012405296030575694 0 -0.0040301814827412965 0.0014039507136709207 0 -0.0039860596918209505 0.0012779254993113146 0 0.00088372619595107735 0.0019283032898080733 0 0.00081116360160966156 0.0019037574227541111 0 0.00081449142834464261 0.0019942731988238887 0 0.00081116360160966156 0.0019037574227541111 0 0.00081449142834464261 0.0019942731988238887 0 0.00076381932864990189 0.0019334631037030048 0 0.00088372619595107735 0.0019283032898080733 0 0.00081116360160966156 0.0019037574227541111 0 0.00080642383702691513 0.0018114358304332774 0 0.00081449142834464261 0.0019942731988238887 0 0.00072320949036632496 0.0020078104330638075 0 0.00076509849218221032 0.0020722695649236806 0 0.00081449142834464261 0.0019942731988238887 0 0.00076381932864990189 0.0019334631037030048 0 0.00072320949036632496 0.0020078104330638075 0 0.00088372619595107735 0.0019283032898080733 0 0.00081449142834464261 0.0019942731988238887 0 0.00088019265200764613 0.0020137843138857913 0 0.00081449142834464261 0.0019942731988238887 0 0.00088019265200764613 0.0020137843138857913 0 0.00084381615134169119 0.0020629483861859645 0 0.00051848806631551037 0.0014124994685259734 0 -0.0001057506648458315 0.0015863017275519141 0 0.00011188965987106319 0.00092064075034438463 0 -0.00015686011832163264 0.00096578383991908524 0 -0.00014612309899694997 0.00066820241766475652 0 0.00088372619595107735 0.0019283032898080733 0 0.00088019265200764613 0.0020137843138857913 0 0.00094231965806941542 0.0020224671915977143 0 -0.00033718679707296634 0.00083446576034984532 0 -0.00015686011832163264 0.00096578383991908524 0 -0.00014612309899694997 0.00066820241766475652 0 -0.0013414881712908117 0.0016509439508282076 0 -0.0010431244860966034 0.0013907365438513856 0 -0.0012160339534847751 0.0012157857549731841 0 -0.00087152363703222159 0.001207119631717733 0 -0.0001057506648458315 0.0015863017275519141 0 -0.00033365928949519841 0.001023031337722303 0 -0.00033718679707296634 0.00083446576034984532 0 -0.00015686011832163264 0.00096578383991908524 0 0.00011188965987106319 0.00092064075034438463 0 -0.00015686011832163264 0.00096578383991908524 0 9.5475986946438369e-06 0.0011676836227768957 0 -0.00033365928949519841 0.001023031337722303 0 -0.00015686011832163264 0.00096578383991908524 0 -0.00024779038071205776 0.0011823747498960282 0 -0.00015686011832163264 0.00096578383991908524 0 9.5475986946438369e-06 0.0011676836227768957 0 -0.00024779038071205776 0.0011823747498960282 0 9.5475986946438369e-06 0.0011676836227768957 0 -0.00024779038071205776 0.0011823747498960282 0 -0.00016043516511325006 0.0013591782956949335 0 -0.00036942918459703704 0.0013108862157365485 0 -0.00024779038071205776 0.0011823747498960282 0 -0.00016043516511325006 0.0013591782956949335 0 -0.00040339839259882223 0.0014832937701590645 0 -0.00036942918459703704 0.0013108862157365485 0 -0.00016043516511325006 0.0013591782956949335 0 9.5475986946438369e-06 0.0011676836227768957 0 -0.00016043516511325006 0.0013591782956949335 0 0.00014427475212236993 0.0013785424464865643 0 0.00090944869859479625 0.00102800441575886 0 0.00095620261176029202 0.0013438616840105147 0 9.5475986946438369e-06 0.0011676836227768957 0 0.00014427475212236993 0.0013785424464865643 0 0.00037365181873992462 0.0011783659821123665 0 0.00011188965987106319 0.00092064075034438463 0 9.5475986946438369e-06 0.0011676836227768957 0 0.00037365181873992462 0.0011783659821123665 0 0.00051848806631551037 0.0014124994685259734 0 0.00095620261176029202 0.0013438616840105147 0 0.00081116360160966156 0.0019037574227541111 0 0.00080642383702691513 0.0018114358304332774 0 0.00074266797844640259 0.0018486255762931647 0 0.0014585597414333773 0.0011427481866164504 0 0.0014602513109730007 0.00086542198274471656 0 0.0010377193952955037 0.00095900007306969884 0 0.0017138315316299888 0.00070514551883741965 0 0.0014585597414333773 0.0011427481866164504 0 0.0014602513109730007 0.00086542198274471656 0 0.00095620261176029202 0.0013438616840105147 0 0.0011350852518846111 0.0010382924130367727 0 0.0017138315316299888 0.00070514551883741965 0 0.0014602513109730007 0.00086542198274471656 0 0.0014668285068290797 0.00060461022970403043 0 0.0014602513109730007 0.00086542198274471656 0 0.0014668285068290797 0.00060461022970403043 0 0.0010377193952955037 0.00095900007306969884 0 0.0017138315316299888 0.00070514551883741965 0 0.0014668285068290797 0.00060461022970403043 0 0.0016061024280811735 0.00057146232841494835 0 0.0014668285068290797 0.00060461022970403043 0 0.0015439623356107073 0.00054480731108366319 0 0.0015599585906550307 0.00053734672795210784 0 0.0015439623356107073 0.00054480731108366319 0 0.0016061024280811735 0.00057146232841494835 0 0.0015795487534880997 0.0005147762145286624 0 0.0014668285068290797 0.00060461022970403043 0 0.0015439623356107073 0.00054480731108366319 0 0.0016061024280811735 0.00057146232841494835 0 0.0017138315316299888 0.00070514551883741965 0 0.0016061024280811735 0.00057146232841494835 0 0.0017628960586579545 0.00055465138476861473 0 0.0016061024280811735 0.00057146232841494835 0 0.0016306230353629158 0.00050981918699275776 0 0.0017628960586579545 0.00055465138476861473 0 0.0016306230353629158 0.00050981918699275776 0 0.001609973139138938 0.00047183336764440614 0 0.0016899666538129237 0.00044829291731449746 0 0.0016254165278282232 0.00051406145363216548 0 0.0017172577121119085 0.00041556304743046595 0 0.0016306230353629158 0.00050981918699275776 0 0.001609973139138938 0.00047183336764440614 0 0.0015795487534880997 0.0005147762145286624 0 0.001609973139138938 0.00047183336764440614 0 0.0015795487534880997 0.0005147762145286624 0 0.0015895884675309116 0.00041897615416127792 0 0.0015795487534880997 0.0005147762145286624 0 0.0015778679472101341 0.00051700834075715416 0 0.001620113808533732 0.00047849410773854079 0 0.0015439623356107073 0.00054480731108366319 0 0.0015795487534880997 0.0005147762145286624 0 0.0015778679472101341 0.00051700834075715416 0 0.0016061024280811735 0.00057146232841494835 0 0.0016306230353629158 0.00050981918699275776 0 0.0015795487534880997 0.0005147762145286624 0 -0.00040339839259882223 0.0014832937701590645 0 -0.00016043516511325006 0.0013591782956949335 0 -8.361606857659798e-05 0.0015830275157216768 0 -0.00035803010232184101 0.0016484334138555808 0 -0.00040339839259882223 0.0014832937701590645 0 -8.361606857659798e-05 0.0015830275157216768 0 -0.00016043516511325006 0.0013591782956949335 0 0.00014427475212236993 0.0013785424464865643 0 -8.361606857659798e-05 0.0015830275157216768 0 0.00090944869859479625 0.00102800441575886 0 0.00094348400301614416 0.0010976134465868631 0 0.0016306230353629158 0.00050981918699275776 0 0.0017628960586579545 0.00055465138476861473 0 0.0016932345932525223 0.00047311286511826612 0 0.0017628960586579545 0.00055465138476861473 0 0.0017485580697474004 0.00049334247766984456 0 0.0016932345932525223 0.00047311286511826612 0 -0.00035803010232184101 0.0016484334138555808 0 -0.00033199539192862451 0.0018142144756906292 0 -8.361606857659798e-05 0.0015830275157216768 0 -3.6352590607899968e-05 0.00075527312815055385 0 0.00094348400301614416 0.0010976134465868631 0 0.0017834183440925415 0.00048903568948799022 0 0.0017628960586579545 0.00055465138476861473 0 0.0017485580697474004 0.00049334247766984456 0 0.0017834183440925415 0.00048903568948799022 0 0.0017485580697474004 0.00049334247766984456 0 0.0017378475863441803 0.00044943041830883713 0 -3.6352590607899968e-05 0.00075527312815055385 0 0.0011369193504762983 0.00022939340409906955 0 -0.00026054571480410284 -8.8400020285037153e-05 0 0.00046601106797648469 0.00033589494510569774 0 -1.6996692510457671e-06 0.00073265532555801048 0 0.0017475073066669877 0.00039198710563137837 0 0.0016899666538129237 0.00044829291731449746 0 0.0016519614369373001 0.00033171197116956024 0 0.0017485580697474004 0.00049334247766984456 0 0.0017378475863441803 0.00044943041830883713 0 0.0016932345932525223 0.00047311286511826612 0 0.0011369193504762983 0.00022939340409906955 0 0.0017172577121119085 0.00041556304743046595 0 0.00052410251295192175 -0.00014122982881823945 0 0.00042233340214437514 -0.00028243615984119763 0 0.00070435537278940551 -0.00032145362810141341 0 0.0011369193504762983 0.00022939340409906955 0 0.0011598442689787548 -2.3188325600601513e-05 0 0.00041810466702265828 -0.00048195909840137587 0 0.00042233340214437514 -0.00028243615984119763 0 0.00070435537278940551 -0.00032145362810141341 0 0.00032645472113577967 -4.9623546367054859e-05 0 0.00042233340214437514 -0.00028243615984119763 0 0.0002209322292201206 -0.00031931741211555474 0 0.0011369193504762983 0.00022939340409906955 0 6.8198799686386446e-05 0.00024622333267286826 0 0.00041810466702265828 -0.00048195909840137587 0 0.00042233340214437514 -0.00028243615984119763 0 0.0002209322292201206 -0.00031931741211555474 0 -0.00053754772482431557 7.82681838840027e-05 0 6.8198799686386446e-05 0.00024622333267286826 0 0.0015795487534880997 0.0005147762145286624 0 0.0016865269652021116 0.00042148195752072181 0 0.001620113808533732 0.00047849410773854079 0 0.0015795487534880997 0.0005147762145286624 0 0.0015895884675309116 0.00041897615416127792 0 0.0015063759900424615 0.00036110191856741333 0 0.0015805818733701695 0.0004957065873221995 0 0.0016031110006135892 0.00039857052303740657 0 0.0015895884675309116 0.00041897615416127792 0 0.0015749609360033261 0.00034466995936947831 0 0.0015063759900424615 0.00036110191856741333 0 0.001609973139138938 0.00047183336764440614 0 0.0016899666538129237 0.00044829291731449746 0 0.0015895884675309116 0.00041897615416127792 0 0.0016899666538129237 0.00044829291731449746 0 0.0015895884675309116 0.00041897615416127792 0 0.0016519614369373001 0.00033171197116956024 0 0.0015895884675309116 0.00041897615416127792 0 0.0016519614369373001 0.00033171197116956024 0 0.0015749609360033261 0.00034466995936947831 0 0.0010239277412173269 -0.00014782899135402607 0 0.00074934078467713547 -0.00013226696874409744 0 0.00070435537278940551 -0.00032145362810141341 0 0.00074934078467713547 -0.00013226696874409744 0 0.00052410251295192175 -0.00014122982881823945 0 0.00070435537278940551 -0.00032145362810141341 0 0.0012631578268427583 4.9036739042461671e-05 0 0.0011598442689787548 -2.3188325600601513e-05 0 0.001549946002242946 0.00026710181996857237 0 0.0015749609360033261 0.00034466995936947831 0 0.0015063759900424615 0.00036110191856741333 0 0.001549946002242946 0.00026710181996857237 0 0.0016519614369373001 0.00033171197116956024 0 0.0015749609360033261 0.00034466995936947831 0 0.001550419489859558 0.00019517023760720826 0 0.0016031110006135892 0.00039857052303740657 0 0.0016865269652021116 0.00042148195752072181 0 0.0016478697897755173 0.00043506849595010346 0 0.0016969411392625138 0.00036682632264782231 0 0.0017641959235577464 0.00028266239092993359 0 0.0016865269652021116 0.00042148195752072181 0 0.0016969411392625138 0.00036682632264782231 0 0.0016865269652021116 0.00042148195752072181 0 0.0016478697897755173 0.00043506849595010346 0 0.001620113808533732 0.00047849410773854079 0 0.0016478697897755173 0.00043506849595010346 0 0.001620113808533732 0.00047849410773854079 0 0.0016015273531549737 0.0004976767688137084 0 0.0016478697897755173 0.00043506849595010346 0 0.0016121489266017332 0.00044844552471345807 0 0.0016015273531549737 0.0004976767688137084 0 0.0016478697897755173 0.00043506849595010346 0 0.0016593562715641664 0.00037058845498562685 0 0.0016121489266017332 0.00044844552471345807 0 0.0017243739523722849 0.00030809615319387691 0 0.0016969411392625138 0.00036682632264782231 0 0.0016593562715641664 0.00037058845498562685 0 0.0016478697897755173 0.00043506849595010346 0 0.0016969411392625138 0.00036682632264782231 0 0.0016593562715641664 0.00037058845498562685 0 0.0016593562715641664 0.00037058845498562685 0 0.001616812023092174 0.00035331092981066452 0 0.0016054234216302647 0.00040770282820688347 0 0.0016629721194583555 0.0003048950792424163 0 0.0016593562715641664 0.00037058845498562685 0 0.001616812023092174 0.00035331092981066452 0 0.001616812023092174 0.00035331092981066452 0 0.001575022359350646 0.00040102728931788159 0 0.001554892447809637 0.00033774630174474181 0 0.0016195343639263432 0.00029219833536231872 0 0.001616812023092174 0.00035331092981066452 0 0.001554892447809637 0.00033774630174474181 0 0.001616812023092174 0.00035331092981066452 0 0.001575022359350646 0.00040102728931788159 0 0.0016054234216302647 0.00040770282820688347 0 0.0016054234216302647 0.00040770282820688347 0 0.0016121489266017332 0.00044844552471345807 0 0.0015688163527395446 0.00045265339937711164 0 0.001575022359350646 0.00040102728931788159 0 0.0016054234216302647 0.00040770282820688347 0 0.0015688163527395446 0.00045265339937711164 0 0.0016593562715641664 0.00037058845498562685 0 0.0016054234216302647 0.00040770282820688347 0 0.0016121489266017332 0.00044844552471345807 0 0.0016121489266017332 0.00044844552471345807 0 0.0015923253774456571 0.00049261942540018157 0 0.0016015273531549737 0.0004976767688137084 0 0.0016121489266017332 0.00044844552471345807 0 0.0015923253774456571 0.00049261942540018157 0 0.0015688163527395446 0.00045265339937711164 0 0.0015923253774456571 0.00049261942540018157 0 0.0015688163527395446 0.00045265339937711164 0 0.0015496339357276242 0.00049816073530183449 0 0.0015496339357276242 0.00049816073530183449 0 0.0015716285815385719 0.00051122811123704352 0 0.0015507481830039534 0.00053043574692086728 0 0.0015923253774456571 0.00049261942540018157 0 0.0015496339357276242 0.00049816073530183449 0 0.0015716285815385719 0.00051122811123704352 0 0.0015923253774456571 0.00049261942540018157 0 0.0015716285815385719 0.00051122811123704352 0 0.0015805608616524154 0.00052152023347072597 0 0.0015812837792372619 0.00053227123010742938 0 0.0015599585906550307 0.00053734672795210784 0 0.0016015273531549737 0.0004976767688137084 0 0.0015923253774456571 0.00049261942540018157 0 0.0015812837792372619 0.00053227123010742938 0 0.0015805608616524154 0.00052152023347072597 0 0.0014668285068290797 0.00060461022970403043 0 0.0015812837792372619 0.00053227123010742938 0 0.0015599585906550307 0.00053734672795210784 0 0.0015599585906550307 0.00053734672795210784 0 0.0015778679472101341 0.00051700834075715416 0 0.001620113808533732 0.00047849410773854079 0 0.0015599585906550307 0.00053734672795210784 0 0.001620113808533732 0.00047849410773854079 0 0.0016015273531549737 0.0004976767688137084 0 0.0015439623356107073 0.00054480731108366319 0 0.0015599585906550307 0.00053734672795210784 0 0.0015778679472101341 0.00051700834075715416 0 0.0015923253774456571 0.00049261942540018157 0 0.0015812837792372619 0.00053227123010742938 0 0.0016015273531549737 0.0004976767688137084 0 0.0013732171032170861 0.00037940156098009839 0 0.0014190580991157093 0.00038590894723451616 0 0.0014156138649873608 0.00045914709874014472 0 0.0014190580991157093 0.00038590894723451616 0 0.0013819811531897643 0.00032085456305307208 0 0.0014324473172089083 0.00031974069024585179 0 0.0013732171032170861 0.00037940156098009839 0 0.0014190580991157093 0.00038590894723451616 0 0.0013819811531897643 0.00032085456305307208 0 0.0014190580991157093 0.00038590894723451616 0 0.0014324473172089083 0.00031974069024585179 0 0.0014711747968175282 0.00038545118726639784 0 0.0014324473172089083 0.00031974069024585179 0 0.0014711747968175282 0.00038545118726639784 0 0.0014808143493609312 0.00031876954819554923 0 0.0014711747968175282 0.00038545118726639784 0 0.0014898968577319479 0.00043703626876083858 0 0.0014530428819415097 0.00044022573303995017 0 0.0014190580991157093 0.00038590894723451616 0 0.0014711747968175282 0.00038545118726639784 0 0.0014530428819415097 0.00044022573303995017 0 0.0014711747968175282 0.00038545118726639784 0 0.0015123646153878394 0.00036293643209235675 0 0.0015276590041752543 0.00040975928284378224 0 0.0014711747968175282 0.00038545118726639784 0 0.0015276590041752543 0.00040975928284378224 0 0.0014898968577319479 0.00043703626876083858 0 0.0015123646153878394 0.00036293643209235675 0 0.0014808143493609312 0.00031876954819554923 0 0.001554892447809637 0.00033774630174474181 0 0.0014711747968175282 0.00038545118726639784 0 0.0015123646153878394 0.00036293643209235675 0 0.0014808143493609312 0.00031876954819554923 0 0.001575022359350646 0.00040102728931788159 0 0.001554892447809637 0.00033774630174474181 0 0.0015276590041752543 0.00040975928284378224 0 0.0015123646153878394 0.00036293643209235675 0 0.001554892447809637 0.00033774630174474181 0 0.0015276590041752543 0.00040975928284378224 0 0.001575022359350646 0.00040102728931788159 0 0.0015688163527395446 0.00045265339937711164 0 0.0015276590041752543 0.00040975928284378224 0 0.0015688163527395446 0.00045265339937711164 0 0.0015276590041752543 0.00040975928284378224 0 0.001519754298381367 0.00046500627986092378 0 0.0015688163527395446 0.00045265339937711164 0 0.0015496339357276242 0.00049816073530183449 0 0.001519754298381367 0.00046500627986092378 0 0.0015496339357276242 0.00049816073530183449 0 0.001519754298381367 0.00046500627986092378 0 0.001503447564939112 0.00050321525716222619 0 0.0015496339357276242 0.00049816073530183449 0 0.001503447564939112 0.00050321525716222619 0 0.001516227255259882 0.00053117161123988107 0 0.001519754298381367 0.00046500627986092378 0 0.001503447564939112 0.00050321525716222619 0 0.0014778132120637343 0.0004780800436902376 0 0.001503447564939112 0.00050321525716222619 0 0.0014778132120637343 0.0004780800436902376 0 0.0014589092559165622 0.00052062203228693343 0 0.001519754298381367 0.00046500627986092378 0 0.0014778132120637343 0.0004780800436902376 0 0.0014898968577319479 0.00043703626876083858 0 0.0015276590041752543 0.00040975928284378224 0 0.001519754298381367 0.00046500627986092378 0 0.0014898968577319479 0.00043703626876083858 0 0.0014778132120637343 0.0004780800436902376 0 0.0014898968577319479 0.00043703626876083858 0 0.0014530428819415097 0.00044022573303995017 0 0.0014778132120637343 0.0004780800436902376 0 0.0014530428819415097 0.00044022573303995017 0 0.0014477153425820075 0.00048495028643722783 0 0.0014589092559165622 0.00052062203228693343 0 0.0014477153425820075 0.00048495028643722783 0 0.0014298746250170611 0.00051988499194192766 0 0.0014778132120637343 0.0004780800436902376 0 0.0014589092559165622 0.00052062203228693343 0 0.0014477153425820075 0.00048495028643722783 0 0.0014052738052797269 0.00051379789147095942 0 0.0014298746250170611 0.00051988499194192766 0 0.0014156138649873608 0.00045914709874014472 0 0.0014477153425820075 0.00048495028643722783 0 0.0014298746250170611 0.00051988499194192766 0 0.0014156138649873608 0.00045914709874014472 0 0.0014052738052797269 0.00051379789147095942 0 0.0014140012550423252 0.00054846458621923204 0 0.0014298746250170611 0.00051988499194192766 0 0.0014190580991157093 0.00038590894723451616 0 0.0014530428819415097 0.00044022573303995017 0 0.0014156138649873608 0.00045914709874014472 0 0.0014530428819415097 0.00044022573303995017 0 0.0014477153425820075 0.00048495028643722783 0 0.0014156138649873608 0.00045914709874014472 0 0.0014141356547000012 0.00057479577035941863 0 0.0014270026954832425 0.00057116065685493083 0 0.0014307338999771464 0.00055530637672778621 0 0.0014141356547000012 0.00057479577035941863 0 0.0014270026954832425 0.00057116065685493083 0 0.001425410540024413 0.00057741260811260348 0 0.0014304945807436218 0.00057761524747740323 0 0.0014270026954832425 0.00057116065685493083 0 0.001425410540024413 0.00057741260811260348 0 0.0014304945807436218 0.00057761524747740323 0 0.0014270026954832425 0.00057116065685493083 0 0.0014367209976967601 0.00056688199820356287 0 0.0014270026954832425 0.00057116065685493083 0 0.0014307338999771464 0.00055530637672778621 0 0.0014367209976967601 0.00056688199820356287 0 0.0014589092559165622 0.00052062203228693343 0 0.0014298746250170611 0.00051988499194192766 0 0.0014307338999771464 0.00055530637672778621 0 0.0014140012550423252 0.00054846458621923204 0 0.0014298746250170611 0.00051988499194192766 0 0.0014307338999771464 0.00055530637672778621 0 0.0014589092559165622 0.00052062203228693343 0 0.0014522333253735671 0.000554311999536296 0 0.001480851526387932 0.00053969129488862125 0 0.0014589092559165622 0.00052062203228693343 0 0.0014307338999771464 0.00055530637672778621 0 0.0014522333253735671 0.000554311999536296 0 0.0014522333253735671 0.000554311999536296 0 0.0014462808925597499 0.00057160787885862077 0 0.0014674775087995305 0.00056461639307218601 0 0.0014522333253735671 0.000554311999536296 0 0.0014367209976967601 0.00056688199820356287 0 0.0014462808925597499 0.00057160787885862077 0 0.0014307338999771464 0.00055530637672778621 0 0.0014522333253735671 0.000554311999536296 0 0.0014367209976967601 0.00056688199820356287 0 0.0014304945807436218 0.00057761524747740323 0 0.0014367209976967601 0.00056688199820356287 0 0.0014462808925597499 0.00057160787885862077 0 0.0014304945807436218 0.00057761524747740323 0 0.0014462808925597499 0.00057160787885862077 0 0.0014374473323182499 0.00058246912115636788 0 0.0014462808925597499 0.00057160787885862077 0 0.0014584191970505389 0.00058164218025065864 0 0.0014374473323182499 0.00058246912115636788 0 0.0014462808925597499 0.00057160787885862077 0 0.0014674775087995305 0.00056461639307218601 0 0.0014584191970505389 0.00058164218025065864 0 0.0014777137390207917 0.00057500466305074381 0 0.0014947217638486537 0.00059450615241921328 0 0.0014584191970505389 0.00058164218025065864 0 0.0014777137390207917 0.00057500466305074381 0 0.0014674775087995305 0.00056461639307218601 0 0.0014584191970505389 0.00058164218025065864 0 0.0014777137390207917 0.00057500466305074381 0 0.0014926283437165845 0.00055977805073138245 0 0.0014947217638486537 0.00059450615241921328 0 0.0014777137390207917 0.00057500466305074381 0 0.0014926283437165845 0.00055977805073138245 0 0.0014674775087995305 0.00056461639307218601 0 0.0014926283437165845 0.00055977805073138245 0 0.0014674775087995305 0.00056461639307218601 0 0.001480851526387932 0.00053969129488862125 0 0.001503447564939112 0.00050321525716222619 0 0.0014589092559165622 0.00052062203228693343 0 0.001480851526387932 0.00053969129488862125 0 0.001503447564939112 0.00050321525716222619 0 0.001480851526387932 0.00053969129488862125 0 0.001516227255259882 0.00053117161123988107 0 0.0014522333253735671 0.000554311999536296 0 0.0014674775087995305 0.00056461639307218601 0 0.001480851526387932 0.00053969129488862125 0 0.0014926283437165845 0.00055977805073138245 0 0.001480851526387932 0.00053969129488862125 0 0.001516227255259882 0.00053117161123988107 0 0.0014926283437165845 0.00055977805073138245 0 0.001516227255259882 0.00053117161123988107 0 0.0015232955899308338 0.0005541487620167704 0 0.001516227255259882 0.00053117161123988107 0 0.0015232955899308338 0.0005541487620167704 0 0.0015507481830039534 0.00053043574692086728 0 0.0015232955899308338 0.0005541487620167704 0 0.0014947217638486537 0.00059450615241921328 0 0.0015599155447128909 0.00055923036105302577 0 0.0014926283437165845 0.00055977805073138245 0 0.0015232955899308338 0.0005541487620167704 0 0.0014947217638486537 0.00059450615241921328 0 -0.00042083169015145691 0.0019527555449573434 0 -0.00035708324039085513 0.0020589902037302247 0 -0.00020548739709450048 0.0019448772516910322 0 -0.00042083169015145691 0.0019527555449573434 0 -0.00035708324039085513 0.0020589902037302247 0 -0.00042751750251846074 0.0020108947335005759 0 -0.00035708324039085513 0.0020589902037302247 0 -0.0003188322158279296 0.002204945715929964 0 -0.0002103768539658415 0.0021156770777903647 0 -0.0003188322158279296 0.002204945715929964 0 -0.00042772618089113797 0.0021526333369629668 0 -0.00039973219816573228 0.0024137429291855588 0 -0.00035708324039085513 0.0020589902037302247 0 -0.0003188322158279296 0.002204945715929964 0 -0.00042772618089113797 0.0021526333369629668 0 -0.00035708324039085513 0.0020589902037302247 0 -0.00042772618089113797 0.0021526333369629668 0 -0.00042751750251846074 0.0020108947335005759 0 -0.00042772618089113797 0.0021526333369629668 0 -0.00048621471164248269 0.0021319263542699785 0 -0.00042751750251846074 0.0020108947335005759 0 -0.0003733712773398406 0.0019970554467357653 0 -0.00061455646638094931 0.002090832164330321 0 -0.00048621471164248269 0.0021319263542699785 0 -0.00042751750251846074 0.0020108947335005759 0 -0.00056894040677219263 0.002118884318273184 0 -0.00042772618089113797 0.0021526333369629668 0 -0.00048621471164248269 0.0021319263542699785 0 -0.00045020533988698034 0.0022026221482483355 0 -0.00042083169015145691 0.0019527555449573434 0 -0.00042751750251846074 0.0020108947335005759 0 -0.0003989784514842175 0.0020282819503025804 0 0.0014947217638486537 0.00059450615241921328 0 0.0014584191970505389 0.00058164218025065864 0 0.001429928510043782 0.00059705861976569853 0 0.00054980435443083612 0.0012714646364105292 0 0.0004862741865499153 0.0012701167898496431 0 -0.00042751750251846074 0.0020108947335005759 0 -0.0003989784514842175 0.0020282819503025804 0 -0.0003817701809750002 0.0019928961573362687 0 0.0014584191970505389 0.00058164218025065864 0 0.0014374473323182499 0.00058246912115636788 0 0.001429928510043782 0.00059705861976569853 0 0.0014304945807436218 0.00057761524747740323 0 0.0014374473323182499 0.00058246912115636788 0 0.0014280830497970748 0.00058360827313665511 0 0.0014374473323182499 0.00058246912115636788 0 0.0014280830497970748 0.00058360827313665511 0 0.001429928510043782 0.00059705861976569853 0 0.0014280830497970748 0.00058360827313665511 0 0.001429928510043782 0.00059705861976569853 0 0.0014239563136822625 0.0005751628183450155 0 -0.00048621471164248269 0.0021319263542699785 0 -0.00053940286266655182 0.002160688635658652 0 -0.00050444376212700791 0.0022089646109697543 0 -0.00048621471164248269 0.0021319263542699785 0 -0.00053940286266655182 0.002160688635658652 0 -0.00056894040677219263 0.002118884318273184 0 -0.00053940286266655182 0.002160688635658652 0 -0.00056894040677219263 0.002118884318273184 0 -0.00059294353898974299 0.0021800872591626972 0 -0.00016244998165215936 0.0019568718825558008 0 -0.0003989784514842175 0.0020282819503025804 0 -0.0003817701809750002 0.0019928961573362687 0 -0.00016244998165215936 0.0019568718825558008 0 -0.0003817701809750002 0.0019928961573362687 0 -0.00019225767550296968 0.0019231610251666319 0 0.0014174760949074705 0.00054905278718654865 0 0.001429928510043782 0.00059705861976569853 0 0.0014239563136822625 0.0005751628183450155 0 -0.00056894040677219263 0.002118884318273184 0 -0.00059294353898974299 0.0021800872591626972 0 -0.00065872919481450496 0.0021699250382977344 0 -0.00061455646638094931 0.002090832164330321 0 0.00031005770882979236 0.0020197477053390139 0 0.00083437151779913916 0.0015428626718116353 0 0.0004862741865499153 0.0012701167898496431 0 0.0014174760949074705 0.00054905278718654865 0 0.0014233010807430861 0.00056612689548348675 0 0.0014239563136822625 0.0005751628183450155 0 0.0014272532282607773 0.00056786791535420216 0 0.0014233010807430861 0.00056612689548348675 0 0.0014247474213521024 0.00057411946313593758 0 0.0014247474213521024 0.00057411946313593758 0 0.0014239563136822625 0.0005751628183450155 0 0.0014256741090015032 0.00057888310289426871 0 0.0014233010807430861 0.00056612689548348675 0 0.0014247474213521024 0.00057411946313593758 0 0.0014239563136822625 0.0005751628183450155 0 0.0014280830497970748 0.00058360827313665511 0 0.0014239563136822625 0.0005751628183450155 0 0.0014256741090015032 0.00057888310289426871 0 0.0014304945807436218 0.00057761524747740323 0 0.0014256741090015032 0.00057888310289426871 0 0.001425410540024413 0.00057741260811260348 0 0.0014304945807436218 0.00057761524747740323 0 0.0014280830497970748 0.00058360827313665511 0 0.0014256741090015032 0.00057888310289426871 0 0.0014247474213521024 0.00057411946313593758 0 0.0014256741090015032 0.00057888310289426871 0 0.001425410540024413 0.00057741260811260348 0 0.00043459942884978932 0.0016330495943108895 0 0.0003875337985372795 0.0011494653693982252 0 0.00016943364338392516 0.0016679890296588172 0 0.00043459942884978932 0.0016330495943108895 0 0.00068143916315881062 0.0013947060061762085 0 0.0003875337985372795 0.0011494653693982252 0 0.00043459942884978932 0.0016330495943108895 0 0.00016943364338392516 0.0016679890296588172 0 0.00021712310187920218 0.0019343014489533704 0 0.00043459942884978932 0.0016330495943108895 0 0.00065170098133703958 0.0016605332494146945 0 0.00054118958065192571 0.0018697769541568183 0 0.00043459942884978932 0.0016330495943108895 0 0.00065170098133703958 0.0016605332494146945 0 0.00068143916315881062 0.0013947060061762085 0 0.00065170098133703958 0.0016605332494146945 0 0.00092681418944250431 0.0014550378928512107 0 0.00074266797844640259 0.0018486255762931647 0 0.0013779085512954769 0.0014404187145399454 0 0.00092681418944250431 0.0014550378928512107 0 0.00074266797844640259 0.0018486255762931647 0 0.00095620261176029202 0.0013438616840105147 0 0.00078169247672729551 0.0018723988003438411 0 0.0013779085512954769 0.0014404187145399454 0 0.00092681418944250431 0.0014550378928512107 0 0.0010377193952955037 0.00095900007306969884 0 0.00065170098133703958 0.0016605332494146945 0 0.00092681418944250431 0.0014550378928512107 0 0.00068143916315881062 0.0013947060061762085 0 0.00068143916315881062 0.0013947060061762085 0 0.0010377193952955037 0.00095900007306969884 0 0.0003875337985372795 0.0011494653693982252 0 0.0014447824585514981 0.00061376724404169753 0 0.0010039326518240799 0.0008348666867213113 0 0.0014668285068290797 0.00060461022970403043 0 0.0010377193952955037 0.00095900007306969884 0 0.0003875337985372795 0.0011494653693982252 0 0.0014668285068290797 0.00060461022970403043 0 0.0015812837792372619 0.00053227123010742938 0 0.0015809917829191734 0.00051523648703794391 0 0.00092681418944250431 0.0014550378928512107 0 0.00068143916315881062 0.0013947060061762085 0 0.0010377193952955037 0.00095900007306969884 0 0.0015812837792372619 0.00053227123010742938 0 0.0015809917829191734 0.00051523648703794391 0 0.0015805608616524154 0.00052152023347072597 0 0.0015716285815385719 0.00051122811123704352 0 0.0015805608616524154 0.00052152023347072597 0 0.0015507481830039534 0.00053043574692086728 0 0.0015805608616524154 0.00052152023347072597 0 0.0015507481830039534 0.00053043574692086728 0 0.0015599155447128909 0.00055923036105302577 0 0.0015809917829191734 0.00051523648703794391 0 0.0015805608616524154 0.00052152023347072597 0 0.0015599155447128909 0.00055923036105302577 0 0.0015496339357276242 0.00049816073530183449 0 0.001516227255259882 0.00053117161123988107 0 0.0015507481830039534 0.00053043574692086728 0 0.0015232955899308338 0.0005541487620167704 0 0.0015507481830039534 0.00053043574692086728 0 0.0015599155447128909 0.00055923036105302577 0 -0.00042083169015145691 0.0019527555449573434 0 -0.00013770932472430646 0.0016465270608280046 0 -0.00020548739709450048 0.0019448772516910322 0 0.00054980435443083612 0.0012714646364105292 0 0.00071606813914223575 0.0010944364971125034 0 -0.00013770932472430646 0.0016465270608280046 0 1.6279717738429158e-06 0.0018433244264950731 0 -0.00020548739709450048 0.0019448772516910322 0 0.0010039326518240799 0.0008348666867213113 0 0.00071606813914223575 0.0010944364971125034 0 0.0003875337985372795 0.0011494653693982252 0 -0.00013770932472430646 0.0016465270608280046 0 0.00016943364338392516 0.0016679890296588172 0 -0.00013770932472430646 0.0016465270608280046 0 0.00016943364338392516 0.0016679890296588172 0 1.6279717738429158e-06 0.0018433244264950731 0 0.00016943364338392516 0.0016679890296588172 0 1.6279717738429158e-06 0.0018433244264950731 0 0.00021712310187920218 0.0019343014489533704 0 1.6279717738429158e-06 0.0018433244264950731 0 -2.4517667863813172e-05 0.0020355410128135845 0 0.00021712310187920218 0.0019343014489533704 0 1.6279717738429158e-06 0.0018433244264950731 0 -2.4517667863813172e-05 0.0020355410128135845 0 -0.00020548739709450048 0.0019448772516910322 0 -2.4517667863813172e-05 0.0020355410128135845 0 0.00014532914747842837 0.0021995323473273506 0 0.00021712310187920218 0.0019343014489533704 0 -2.4517667863813172e-05 0.0020355410128135845 0 -0.00020548739709450048 0.0019448772516910322 0 -0.0002103768539658415 0.0021156770777903647 0 -0.00035708324039085513 0.0020589902037302247 0 -0.00020548739709450048 0.0019448772516910322 0 -0.0002103768539658415 0.0021156770777903647 0 -2.4517667863813172e-05 0.0020355410128135845 0 -0.0002103768539658415 0.0021156770777903647 0 -6.3008793467419621e-05 0.0022025178597240062 0 -6.3008793467419621e-05 0.0022025178597240062 0 -5.5188263187392799e-05 0.0023626522449299767 0 -0.00019274039219603102 0.0023206244656283534 0 -0.0002103768539658415 0.0021156770777903647 0 -6.3008793467419621e-05 0.0022025178597240062 0 -0.00019274039219603102 0.0023206244656283534 0 -0.0003188322158279296 0.002204945715929964 0 -0.0002103768539658415 0.0021156770777903647 0 -0.00019274039219603102 0.0023206244656283534 0 -2.4517667863813172e-05 0.0020355410128135845 0 0.00014532914747842837 0.0021995323473273506 0 -6.3008793467419621e-05 0.0022025178597240062 0 -6.3008793467419621e-05 0.0022025178597240062 0 9.8213611573756105e-05 0.0023890995511848963 0 -5.5188263187392799e-05 0.0023626522449299767 0 0.00014532914747842837 0.0021995323473273506 0 -6.3008793467419621e-05 0.0022025178597240062 0 9.8213611573756105e-05 0.0023890995511848963 0 0.00014532914747842837 0.0021995323473273506 0 0.00019037333299259848 0.002320026291446951 0 9.8213611573756105e-05 0.0023890995511848963 0 0.00014532914747842837 0.0021995323473273506 0 0.00019037333299259848 0.002320026291446951 0 0.00030965611722647202 0.0022792751462524909 0 0.00019037333299259848 0.002320026291446951 0 0.00030965611722647202 0.0022792751462524909 0 0.00023651721636674261 0.0024143847818801434 0 0.00030965611722647202 0.0022792751462524909 0 0.0003433520056490414 0.0021154855473535339 0 0.00046400440285261174 0.002226477685403681 0 0.00014532914747842837 0.0021995323473273506 0 0.00030965611722647202 0.0022792751462524909 0 0.0003433520056490414 0.0021154855473535339 0 0.00014532914747842837 0.0021995323473273506 0 0.0003433520056490414 0.0021154855473535339 0 0.00021712310187920218 0.0019343014489533704 0 0.0003433520056490414 0.0021154855473535339 0 0.00054118958065192571 0.0018697769541568183 0 0.00021712310187920218 0.0019343014489533704 0 0.00043459942884978932 0.0016330495943108895 0 0.00054118958065192571 0.0018697769541568183 0 0.00021712310187920218 0.0019343014489533704 0 0.00054118958065192571 0.0018697769541568183 0 0.00076381932864990189 0.0019334631037030048 0 0.00072320949036632496 0.0020078104330638075 0 0.00053187259583874192 0.0018906802398023807 0 0.0005897110496632242 0.002053710002641828 0 0.00081116360160966156 0.0019037574227541111 0 0.00074266797844640259 0.0018486255762931647 0 0.00076381932864990189 0.0019334631037030048 0 0.0003433520056490414 0.0021154855473535339 0 0.00054118958065192571 0.0018697769541568183 0 0.00046400440285261174 0.002226477685403681 0 0.00065170098133703958 0.0016605332494146945 0 0.00054118958065192571 0.0018697769541568183 0 0.00074266797844640259 0.0018486255762931647 0 0.00054118958065192571 0.0018697769541568183 0 0.00074266797844640259 0.0018486255762931647 0 0.00076381932864990189 0.0019334631037030048 0 0.0005897110496632242 0.002053710002641828 0 0.00031043812843622385 0.0026299057379639886 0 0.00030965611722647202 0.0022792751462524909 0 0.00046400440285261174 0.002226477685403681 0 0.00033023906159372336 0.0023926609423733725 0 0.00046400440285261174 0.002226477685403681 0 0.00033023906159372336 0.0023926609423733725 0 0.00037081040251537396 0.0025089719610745841 0 0.00046400440285261174 0.002226477685403681 0 0.00037081040251537396 0.0025089719610745841 0 0.00046215372651244968 0.002511764130026157 0 0.00033023906159372336 0.0023926609423733725 0 0.00027546167371184289 0.002517640834660551 0 0.00037081040251537396 0.0025089719610745841 0 0.00027546167371184289 0.002517640834660551 0 0.00030410625292999428 0.0025770824861625977 0 0.00037081040251537396 0.0025089719610745841 0 0.00027546167371184289 0.002517640834660551 0 0.00030410625292999428 0.0025770824861625977 0 0.00022785148796472077 0.0025969117515498683 0 0.00034720844043059255 0.0025564110183464582 0 0.00032196566298930285 0.0026135111872228663 0 0.00037844136533643697 0.0025321536207802953 0 0.00037081040251537396 0.0025089719610745841 0 0.00034720844043059255 0.0025564110183464582 0 0.00037844136533643697 0.0025321536207802953 0 0.00036851527802154245 0.002590505659801495 0 0.00031043812843622385 0.0026299057379639886 0 0.00030410625292999428 0.0025770824861625977 0 0.00034720844043059255 0.0025564110183464582 0 0.00032196566298930285 0.0026135111872228663 0 0.00030410625292999428 0.0025770824861625977 0 0.00037081040251537396 0.0025089719610745841 0 0.00034720844043059255 0.0025564110183464582 0 0.00032196566298930285 0.0026135111872228663 0 0.00027453172095999516 0.0027083846824865988 0 0.00030699077873009916 0.0026905416253076124 0 0.00032196566298930285 0.0026135111872228663 0 0.00025978993059820219 0.0026496284487496735 0 0.00027453172095999516 0.0027083846824865988 0 0.00030410625292999428 0.0025770824861625977 0 0.00032196566298930285 0.0026135111872228663 0 0.00025978993059820219 0.0026496284487496735 0 0.00025978993059820219 0.0026496284487496735 0 0.00019284481212553898 0.0026796754157241923 0 0.00022785148796472077 0.0025969117515498683 0 0.00030410625292999428 0.0025770824861625977 0 0.00025978993059820219 0.0026496284487496735 0 0.00022785148796472077 0.0025969117515498683 0 0.00025978993059820219 0.0026496284487496735 0 0.00023137959770148887 0.0027125756725675772 0 0.00019284481212553898 0.0026796754157241923 0 0.00023137959770148887 0.0027125756725675772 0 0.00019284481212553898 0.0026796754157241923 0 0.00019456452510202283 0.0027455207953777619 0 0.00023137959770148887 0.0027125756725675772 0 0.00027453172095999516 0.0027083846824865988 0 0.00022568978685853658 0.0027744508539814827 0 0.00025978993059820219 0.0026496284487496735 0 0.00023137959770148887 0.0027125756725675772 0 0.00027453172095999516 0.0027083846824865988 0 0.00011765021211086171 0.0026804613553771768 0 0.00019284481212553898 0.0026796754157241923 0 0.00014601290640979696 0.0026102572272666508 0 0.00011765021211086171 0.0026804613553771768 0 0.00014601290640979696 0.0026102572272666508 0 4.8220662543921889e-05 0.0026240576339600511 0 0.00011765021211086171 0.0026804613553771768 0 0.00019284481212553898 0.0026796754157241923 0 0.00014415266416215196 0.0027400371669278716 0 0.00022785148796472077 0.0025969117515498683 0 0.00014601290640979696 0.0026102572272666508 0 0.00018494707793799398 0.0025231003949580076 0 0.00019284481212553898 0.0026796754157241923 0 0.00022785148796472077 0.0025969117515498683 0 0.00014601290640979696 0.0026102572272666508 0 0.00014601290640979696 0.0026102572272666508 0 0.00018494707793799398 0.0025231003949580076 0 9.3189419363563723e-05 0.0025426315666814575 0 0.00018494707793799398 0.0025231003949580076 0 9.8213611573756105e-05 0.0023890995511848963 0 9.3189419363563723e-05 0.0025426315666814575 0 0.00027546167371184289 0.002517640834660551 0 0.00018494707793799398 0.0025231003949580076 0 0.00023651721636674261 0.0024143847818801434 0 0.00027546167371184289 0.002517640834660551 0 0.00022785148796472077 0.0025969117515498683 0 0.00018494707793799398 0.0025231003949580076 0 0.00030965611722647202 0.0022792751462524909 0 0.00033023906159372336 0.0023926609423733725 0 0.00023651721636674261 0.0024143847818801434 0 0.00033023906159372336 0.0023926609423733725 0 0.00027546167371184289 0.002517640834660551 0 0.00023651721636674261 0.0024143847818801434 0 0.00019037333299259848 0.002320026291446951 0 0.00023651721636674261 0.0024143847818801434 0 9.8213611573756105e-05 0.0023890995511848963 0 0.00018494707793799398 0.0025231003949580076 0 0.00023651721636674261 0.0024143847818801434 0 9.8213611573756105e-05 0.0023890995511848963 0 9.8213611573756105e-05 0.0023890995511848963 0 -5.5188263187392799e-05 0.0023626522449299767 0 6.8134331709136145e-06 0.0024887413629647243 0 6.8134331709136145e-06 0.0024887413629647243 0 -0.00010855123065192017 0.0024641761989428359 0 -4.5480884144419033e-05 0.0025732732288438324 0 -5.5188263187392799e-05 0.0023626522449299767 0 6.8134331709136145e-06 0.0024887413629647243 0 -0.00010855123065192017 0.0024641761989428359 0 9.8213611573756105e-05 0.0023890995511848963 0 6.8134331709136145e-06 0.0024887413629647243 0 9.3189419363563723e-05 0.0025426315666814575 0 -5.5188263187392799e-05 0.0023626522449299767 0 -0.00019274039219603102 0.0023206244656283534 0 -0.00010855123065192017 0.0024641761989428359 0 -0.00019274039219603102 0.0023206244656283534 0 -0.00010855123065192017 0.0024641761989428359 0 -0.00020300358604500072 0.00251300884809099 0 -0.00010855123065192017 0.0024641761989428359 0 -0.00020300358604500072 0.00251300884809099 0 -0.00013149634319447521 0.0026133729484803508 0 -0.00020300358604500072 0.00251300884809099 0 -0.00013149634319447521 0.0026133729484803508 0 -0.00026064865121055135 0.002635661189546893 0 -0.00010855123065192017 0.0024641761989428359 0 -0.00013149634319447521 0.0026133729484803508 0 -4.5480884144419033e-05 0.0025732732288438324 0 -0.00013149634319447521 0.0026133729484803508 0 -4.5480884144419033e-05 0.0025732732288438324 0 -2.9523624053776589e-05 0.002701794557092694 0 -0.00013149634319447521 0.0026133729484803508 0 -2.9523624053776589e-05 0.002701794557092694 0 -0.00012471694297024982 0.0027134586434401798 0 -0.00013149634319447521 0.0026133729484803508 0 -0.00012471694297024982 0.0027134586434401798 0 -0.00026064865121055135 0.002635661189546893 0 6.8134331709136145e-06 0.0024887413629647243 0 9.3189419363563723e-05 0.0025426315666814575 0 4.8220662543921889e-05 0.0026240576339600511 0 0.00014601290640979696 0.0026102572272666508 0 9.3189419363563723e-05 0.0025426315666814575 0 4.8220662543921889e-05 0.0026240576339600511 0 6.8134331709136145e-06 0.0024887413629647243 0 -4.5480884144419033e-05 0.0025732732288438324 0 4.8220662543921889e-05 0.0026240576339600511 0 -4.5480884144419033e-05 0.0025732732288438324 0 4.8220662543921889e-05 0.0026240576339600511 0 -2.9523624053776589e-05 0.002701794557092694 0 0.00011765021211086171 0.0026804613553771768 0 4.8220662543921889e-05 0.0026240576339600511 0 6.7653785110417838e-05 0.0027215008591450996 0 4.8220662543921889e-05 0.0026240576339600511 0 6.7653785110417838e-05 0.0027215008591450996 0 -2.9523624053776589e-05 0.002701794557092694 0 6.7653785110417838e-05 0.0027215008591450996 0 -2.9523624053776589e-05 0.002701794557092694 0 3.074653822878914e-05 0.0027853125998895637 0 -2.9523624053776589e-05 0.002701794557092694 0 3.074653822878914e-05 0.0027853125998895637 0 -5.5348802491999196e-05 0.0027880563148063322 0 3.074653822878914e-05 0.0027853125998895637 0 7.4627094414017541e-05 0.0028442249830432191 0 0.00010733984783306872 0.0027922717254699435 0 6.7653785110417838e-05 0.0027215008591450996 0 3.074653822878914e-05 0.0027853125998895637 0 0.00010733984783306872 0.0027922717254699435 0 -2.9523624053776589e-05 0.002701794557092694 0 -0.00012471694297024982 0.0027134586434401798 0 -5.5348802491999196e-05 0.0027880563148063322 0 -0.00012471694297024982 0.0027134586434401798 0 -5.5348802491999196e-05 0.0027880563148063322 0 -0.00016253244740766724 0.0028082485945576116 0 -6.2896458768392039e-05 0.0028537214651762916 0 -0.00016253244740766724 0.0028082485945576116 0 -6.6807400001465543e-05 0.0029182671137289702 0 -0.00010468332495395441 0.0028607440377585625 0 -7.8987154236438977e-05 0.0028990414124440934 0 -5.5348802491999196e-05 0.0027880563148063322 0 -6.2896458768392039e-05 0.0028537214651762916 0 -0.00016253244740766724 0.0028082485945576116 0 -5.5348802491999196e-05 0.0027880563148063322 0 -6.2896458768392039e-05 0.0028537214651762916 0 5.2253330531892425e-06 0.0028443358760030677 0 -6.2896458768392039e-05 0.0028537214651762916 0 -2.368974048916083e-05 0.0028886974579811976 0 -6.6807400001465543e-05 0.0029182671137289702 0 3.074653822878914e-05 0.0027853125998895637 0 5.2253330531892425e-06 0.0028443358760030677 0 7.4627094414017541e-05 0.0028442249830432191 0 3.074653822878914e-05 0.0027853125998895637 0 -5.5348802491999196e-05 0.0027880563148063322 0 5.2253330531892425e-06 0.0028443358760030677 0 5.2253330531892425e-06 0.0028443358760030677 0 -2.368974048916083e-05 0.0028886974579811976 0 4.6586729519483204e-05 0.0028909772000140824 0 -6.2896458768392039e-05 0.0028537214651762916 0 5.2253330531892425e-06 0.0028443358760030677 0 -2.368974048916083e-05 0.0028886974579811976 0 5.2253330531892425e-06 0.0028443358760030677 0 4.6586729519483204e-05 0.0028909772000140824 0 7.4627094414017541e-05 0.0028442249830432191 0 7.4627094414017541e-05 0.0028442249830432191 0 0.00012691975186360718 0.0028396462025450262 0 0.00010872336702935727 0.0028908008647228109 0 4.6586729519483204e-05 0.0028909772000140824 0 7.4627094414017541e-05 0.0028442249830432191 0 0.00010872336702935727 0.0028908008647228109 0 7.4627094414017541e-05 0.0028442249830432191 0 0.00012691975186360718 0.0028396462025450262 0 0.00010733984783306872 0.0027922717254699435 0 0.00012691975186360718 0.0028396462025450262 0 0.00016276532247534958 0.002856616697148779 0 0.00017121365847876587 0.0028037857153028587 0 0.00012691975186360718 0.0028396462025450262 0 0.00010872336702935727 0.0028908008647228109 0 0.00016276532247534958 0.002856616697148779 0 0.00010872336702935727 0.0028908008647228109 0 0.00016858761135656167 0.0028877929125173986 0 0.00016276532247534958 0.002856616697148779 0 0.00016858761135656167 0.0028877929125173986 0 0.0001962122463372974 0.0028535154472875148 0 0.00018506733271204826 0.0028844646931259444 0 0.00016858761135656167 0.0028877929125173986 0 0.0001962122463372974 0.0028535154472875148 0 0.00016276532247534958 0.002856616697148779 0 0.0001962122463372974 0.0028535154472875148 0 0.00016276532247534958 0.002856616697148779 0 0.00017121365847876587 0.0028037857153028587 0 0.0001962122463372974 0.0028535154472875148 0 0.00017121365847876587 0.0028037857153028587 0 0.00022568978685853658 0.0027744508539814827 0 0.0001962122463372974 0.0028535154472875148 0 0.00022568978685853658 0.0027744508539814827 0 0.00023275932041333386 0.002818182939673646 0 0.00027453172095999516 0.0027083846824865988 0 0.00022568978685853658 0.0027744508539814827 0 0.00025368862799099445 0.0027754449744103204 0 0.00022568978685853658 0.0027744508539814827 0 0.00025368862799099445 0.0027754449744103204 0 0.00023275932041333386 0.002818182939673646 0 0.00023137959770148887 0.0027125756725675772 0 0.00022568978685853658 0.0027744508539814827 0 0.00019456452510202283 0.0027455207953777619 0 0.00017121365847876587 0.0028037857153028587 0 0.00022568978685853658 0.0027744508539814827 0 0.00019456452510202283 0.0027455207953777619 0 0.00019284481212553898 0.0026796754157241923 0 0.00019456452510202283 0.0027455207953777619 0 0.00014415266416215196 0.0027400371669278716 0 0.00017121365847876587 0.0028037857153028587 0 0.00019456452510202283 0.0027455207953777619 0 0.00014415266416215196 0.0027400371669278716 0 6.7653785110417838e-05 0.0027215008591450996 0 0.00014415266416215196 0.0027400371669278716 0 0.00010733984783306872 0.0027922717254699435 0 0.00011765021211086171 0.0026804613553771768 0 6.7653785110417838e-05 0.0027215008591450996 0 0.00014415266416215196 0.0027400371669278716 0 0.00012691975186360718 0.0028396462025450262 0 0.00017121365847876587 0.0028037857153028587 0 0.00010733984783306872 0.0027922717254699435 0 0.00017121365847876587 0.0028037857153028587 0 0.00014415266416215196 0.0027400371669278716 0 0.00010733984783306872 0.0027922717254699435 0 0.0008046520882109122 0.0021110570898740175 0 0.00077000695588048723 0.0021604915894280039 0 0.00076513294884799081 0.0020988966764704194 0 0.00082489034719341648 0.0021482904901175951 0 0.0008046520882109122 0.0021110570898740175 0 0.00077000695588048723 0.0021604915894280039 0 0.00082489034719341648 0.0021482904901175951 0 0.00081212486938979551 0.0022051615994154545 0 0.00077000695588048723 0.0021604915894280039 0 0.00031005770882979236 0.0020197477053390139 0 7.4013385033214917e-05 0.0022162699476310026 0 -0.00059294353898974299 0.0021800872591626972 0 -0.00065872919481450496 0.0021699250382977344 0 -0.0005939733964683173 0.0022530214735511501 0 -0.0005939733964683173 0.0022530214735511501 0 -0.00046370732394295086 0.0022770932153076458 0 -0.00050444376212700791 0.0022089646109697543 0 -0.00053940286266655182 0.002160688635658652 0 -0.00059294353898974299 0.0021800872591626972 0 -0.00050444376212700791 0.0022089646109697543 0 -0.00059294353898974299 0.0021800872591626972 0 -0.0005939733964683173 0.0022530214735511501 0 -0.00050444376212700791 0.0022089646109697543 0 -0.0005939733964683173 0.0022530214735511501 0 -0.00051422889852508879 0.0023447733558640176 0 -0.00046370732394295086 0.0022770932153076458 0 0.00077000695588048723 0.0021604915894280039 0 0.00072665446541370993 0.0021218719477030961 0 0.00076513294884799081 0.0020988966764704194 0 7.4013385033214917e-05 0.0022162699476310026 0 0.00010882552450503262 0.0022070683725817701 0 -0.00043769180731820207 0.0023517777140783609 0 -0.00046370732394295086 0.0022770932153076458 0 -0.0003578145673474381 0.0023385315191419773 0 -0.00051422889852508879 0.0023447733558640176 0 -0.00043769180731820207 0.0023517777140783609 0 -0.00046370732394295086 0.0022770932153076458 0 -0.00042772618089113797 0.0021526333369629668 0 -0.00045020533988698034 0.0022026221482483355 0 -0.00039118855740294324 0.0022399417409030165 0 -0.00046370732394295086 0.0022770932153076458 0 -0.00050444376212700791 0.0022089646109697543 0 -0.00045020533988698034 0.0022026221482483355 0 -0.00048621471164248269 0.0021319263542699785 0 -0.00050444376212700791 0.0022089646109697543 0 -0.00045020533988698034 0.0022026221482483355 0 -0.00046370732394295086 0.0022770932153076458 0 -0.00045020533988698034 0.0022026221482483355 0 -0.00039118855740294324 0.0022399417409030165 0 -0.00042449530247315947 0.0021854210403440349 0 -0.00039952617269819855 0.0023039440677260726 0 -0.0003188322158279296 0.002204945715929964 0 -0.00019274039219603102 0.0023206244656283534 0 -0.00039973219816573228 0.0024137429291855588 0 -0.00019274039219603102 0.0023206244656283534 0 -0.00020300358604500072 0.00251300884809099 0 -0.00039973219816573228 0.0024137429291855588 0 -0.0002218361572629503 0.0025484145080458907 0 -0.00024960310660483075 0.0026043478094464065 0 -0.00046370732394295086 0.0022770932153076458 0 -0.00039118855740294324 0.0022399417409030165 0 -0.0003578145673474381 0.0023385315191419773 0 -0.00039952617269819855 0.0023039440677260726 0 -0.00024960310660483075 0.0026043478094464065 0 -0.00020300358604500072 0.00251300884809099 0 -0.00039973219816573228 0.0024137429291855588 0 -0.00032855731248594813 0.0026657027332209482 0 -0.00024960310660483075 0.0026043478094464065 0 -6.6667020539113871e-05 0.0025553435166083228 0 -0.00043769180731820207 0.0023517777140783609 0 -0.0003578145673474381 0.0023385315191419773 0 -0.00043287995533197634 0.0024346180648298671 0 -0.00012471694297024982 0.0027134586434401798 0 -0.00026064865121055135 0.002635661189546893 0 -0.00016253244740766724 0.0028082485945576116 0 -8.4017780047120178e-05 0.0028040998828498301 0 -9.1186429887764442e-05 0.0028475735056410685 0 -6.5467958167410976e-05 0.0028712575545403098 0 -8.4017780047120178e-05 0.0028040998828498301 0 -9.1186429887764442e-05 0.0028475735056410685 0 -0.00012555039841945264 0.002857915719324442 0 -0.00024960310660483075 0.0026043478094464065 0 -0.00010468332495395441 0.0028607440377585625 0 -9.1186429887764442e-05 0.0028475735056410685 0 -6.5467958167410976e-05 0.0028712575545403098 0 -8.0611047868162645e-05 0.0029029260772602196 0 -9.1186429887764442e-05 0.0028475735056410685 0 -8.0611047868162645e-05 0.0029029260772602196 0 -0.00012555039841945264 0.002857915719324442 0 -6.5467958167410976e-05 0.0028712575545403098 0 -8.0611047868162645e-05 0.0029029260772602196 0 -6.6807400001465543e-05 0.0029182671137289702 0 -8.0611047868162645e-05 0.0029029260772602196 0 -7.9826187631374079e-05 0.0029021335238139231 0 -8.2581386007360327e-05 0.0029067396540999298 0 -8.0611047868162645e-05 0.0029029260772602196 0 -7.9826187631374079e-05 0.0029021335238139231 0 -8.001756164768763e-05 0.0029030615880626053 0 -4.57617398281281e-05 0.002976037527239247 0 -6.6667020539113871e-05 0.0025553435166083228 0 -8.2581386007360327e-05 0.0029067396540999298 0 -8.0216651855527298e-05 0.0029051418148160024 0 -7.5623134242173439e-05 0.0029056373680692929 0 -7.9826187631374079e-05 0.0029021335238139231 0 -8.2581386007360327e-05 0.0029067396540999298 0 -8.0216651855527298e-05 0.0029051418148160024 0 -7.9826187631374079e-05 0.0029021335238139231 0 -7.0036962758082951e-05 0.0028973115582150554 0 -8.001756164768763e-05 0.0029030615880626053 0 0.00028697441891574124 0.0025679705944798917 0 -6.6667020539113871e-05 0.0025553435166083228 0 -0.00013242127843286232 0.0028678508289347155 0 0.00028697441891574124 0.0025679705944798917 0 0.00070493906898214142 0.0020485032992241087 0 0.00067753912571306431 0.0020805041140949158 0 0.00072734134059187019 0.0020824092859710558 0 0.00072665446541370993 0.0021218719477030961 0 0.00067753912571306431 0.0020805041140949158 0 0.00072734134059187019 0.0020824092859710558 0 -0.00051422889852508879 0.0023447733558640176 0 -0.00043769180731820207 0.0023517777140783609 0 -0.00043287995533197634 0.0024346180648298671 0 0.00010882552450503262 0.0022070683725817701 0 -6.6667020539113871e-05 0.0025553435166083228 0 0.00072665446541370993 0.0021218719477030961 0 0.00076513294884799081 0.0020988966764704194 0 0.00072734134059187019 0.0020824092859710558 0 0.00076513294884799081 0.0020988966764704194 0 0.00072734134059187019 0.0020824092859710558 0 0.00076040608689552326 0.0020601364784646153 0 0.00070493906898214142 0.0020485032992241087 0 0.00076040608689552326 0.0020601364784646153 0 0.00079834842063395371 0.0020083927431971686 0 0.00070493906898214142 0.0020485032992241087 0 0.00072734134059187019 0.0020824092859710558 0 0.00076040608689552326 0.0020601364784646153 0 0.00028697441891574124 0.0025679705944798917 0 0.00082833945553924997 0.0023510331927382132 0 0.00028697441891574124 0.0025679705944798917 0 0.00043939286589434997 0.002914119057956278 0 0.00076040608689552326 0.0020601364784646153 0 0.0007978751869666663 0.0020443894702301883 0 0.00079834842063395371 0.0020083927431971686 0 0.00076040608689552326 0.0020601364784646153 0 0.0007978751869666663 0.0020443894702301883 0 0.0007976801834357251 0.0020697529548438947 0 0.0007978751869666663 0.0020443894702301883 0 0.00082172801250264245 0.0020295105758251146 0 0.00081835200129743324 0.0020494327086173865 0 0.0007978751869666663 0.0020443894702301883 0 0.00082172801250264245 0.0020295105758251146 0 0.00079834842063395371 0.0020083927431971686 0 0.0007978751869666663 0.0020443894702301883 0 0.00081835200129743324 0.0020494327086173865 0 0.0007976801834357251 0.0020697529548438947 0 0.00082504088399314157 0.002064147498216254 0 0.00081835200129743324 0.0020494327086173865 0 0.0007976801834357251 0.0020697529548438947 0 0.00082504088399314157 0.002064147498216254 0 0.00082680500154877858 0.0020819037249749325 0 0.0007976801834357251 0.0020697529548438947 0 0.00076513294884799081 0.0020988966764704194 0 0.00076040608689552326 0.0020601364784646153 0 0.0007976801834357251 0.0020697529548438947 0 0.0008046520882109122 0.0021110570898740175 0 0.00076513294884799081 0.0020988966764704194 0 0.0007976801834357251 0.0020697529548438947 0 0.00082922563361601084 0.0021008862177502303 0 0.00082680500154877858 0.0020819037249749325 0 0.0008046520882109122 0.0021110570898740175 0 0.00082680500154877858 0.0020819037249749325 0 0.0008046520882109122 0.0021110570898740175 0 0.0007976801834357251 0.0020697529548438947 0 0.00082319997703933425 0.0028892820263150595 0 0.00081833617766563429 0.0029832889390340768 0 0.00070546964052859687 0.0030371856642105299 0 0.00082319997703933425 0.0028892820263150595 0 0.00061231383535785989 0.0031642525597990554 0 0.00064433364861676422 0.0029782699266313853 0 0.00082319997703933425 0.0028892820263150595 0 0.00064433364861676422 0.0029782699266313853 0 0.00058659760382135176 0.0027538303943534163 0 0.00087514339698759828 0.0029505613124791641 0 0.00043939286589434997 0.002914119057956278 0 0.00087361763231697475 0.0029353013842645867 0 0.00082319997703933425 0.0028892820263150595 0 0.00081833617766563429 0.0029832889390340768 0 0.00090666755133488454 0.0030024662019115921 0 0.00081833617766563429 0.0029832889390340768 0 0.00079505015038611952 0.00305303985056824 0 0.0008433418963259662 0.0025519797309342001 0 0.00082833945553924997 0.0023510331927382132 0 0.00081833617766563429 0.0029832889390340768 0 0.00079505015038611952 0.00305303985056824 0 0.00070546964052859687 0.0030371856642105299 0 0.00084263879059399266 0.0020325406788320351 0 0.00082172801250264245 0.0020295105758251146 0 0.00079834842063395371 0.0020083927431971686 0 0.00082468775216304989 0.0020657112742323781 0 0.00082833945553924997 0.0023510331927382132 0 0.00082833945553924997 0.0023510331927382132 0 0.00043939286589434997 0.002914119057956278 0 0.0003363563853492022 0.0026945338960766398 0 0.00068739597632113737 0.0025154561875154577 0 0.00050846729508104789 0.0024856682604197087 0 0.00061231383535785989 0.0031642525597990554 0 0.00051434469257569473 0.0030589011469373899 0 0.00064433364861676422 0.0029782699266313853 0 0.00064433364861676422 0.0029782699266313853 0 0.00047816844626291492 0.0029693889552262149 0 0.00058659760382135176 0.0027538303943534163 0 0.00051434469257569473 0.0030589011469373899 0 0.00064433364861676422 0.0029782699266313853 0 0.00047816844626291492 0.0029693889552262149 0 0.00041188500752038933 0.0028739645150599835 0 0.00047816844626291492 0.0029693889552262149 0 0.00027149624261447102 0.0029796951089211959 0 0.00047816844626291492 0.0029693889552262149 0 0.00031999172399994929 0.0031252224893485565 0 0.00027149624261447102 0.0029796951089211959 0 0.00051434469257569473 0.0030589011469373899 0 0.00047816844626291492 0.0029693889552262149 0 0.00031999172399994929 0.0031252224893485565 0 0.00041188500752038933 0.0028739645150599835 0 0.00027149624261447102 0.0029796951089211959 0 0.00026244591909799079 0.0028819375292419738 0 0.00061231383535785989 0.0031642525597990554 0 0.00051434469257569473 0.0030589011469373899 0 0.00031999172399994929 0.0031252224893485565 0 -8.2581386007360327e-05 0.0029067396540999298 0 -7.5623134242173439e-05 0.0029056373680692929 0 -8.5270068785873578e-05 0.0029134617476761584 0 0.00043939286589434997 0.002914119057956278 0 8.3198702871175133e-05 0.003030443614584862 0 -8.5270068785873578e-05 0.0029134617476761584 0 -6.6807400001465543e-05 0.0029182671137289702 0 -5.7609323680873564e-05 0.0029478769052968057 0 8.3198702871175133e-05 0.003030443614584862 0 -1.1244880780957816e-05 0.0030205863376992397 0 -8.0611047868162645e-05 0.0029029260772602196 0 -8.5270068785873578e-05 0.0029134617476761584 0 -6.6807400001465543e-05 0.0029182671137289702 0 -8.0611047868162645e-05 0.0029029260772602196 0 -8.2581386007360327e-05 0.0029067396540999298 0 -8.5270068785873578e-05 0.0029134617476761584 0 0.00027149624261447102 0.0029796951089211959 0 0.00012841652910833843 0.002940682126807126 0 1.584198499179463e-05 0.0030948693688187005 0 0.00031999172399994929 0.0031252224893485565 0 0.00027149624261447102 0.0029796951089211959 0 1.584198499179463e-05 0.0030948693688187005 0 0.00027149624261447102 0.0029796951089211959 0 0.00026244591909799079 0.0028819375292419738 0 0.00012841652910833843 0.002940682126807126 0 0.00018713623460596399 0.0027883190973526655 0 0.0002788563216606299 0.0026536561159674226 0 7.6579358551128783e-05 0.0027070164724540438 0 0.00012841652910833843 0.002940682126807126 0 0.00018713623460596399 0.0027883190973526655 0 3.9640883456042683e-05 0.0028347579211423822 0 0.00026244591909799079 0.0028819375292419738 0 0.00012841652910833843 0.002940682126807126 0 0.00018713623460596399 0.0027883190973526655 0 0.00026244591909799079 0.0028819375292419738 0 0.00018713623460596399 0.0027883190973526655 0 0.00034659188036065942 0.0027897979459059817 0 0.00018713623460596399 0.0027883190973526655 0 0.0002788563216606299 0.0026536561159674226 0 0.00034659188036065942 0.0027897979459059817 0 0.00014069763700026361 0.0025215609918176453 0 0.00020286512159096081 0.0026313556496364277 0 -1.7058017534362209e-05 0.0025363668229073559 0 0.0002432344228647559 0.0026436700106660911 0 -3.9864850598621374e-05 0.0025336114158506246 0 0.00017418568092488761 0.002492843915876414 0 0.00014069763700026361 0.0025215609918176453 0 0.00022264686975561894 0.0025449669592721921 0 0.00014069763700026361 0.0025215609918176453 0 0.00022264686975561894 0.0025449669592721921 0 0.00020286512159096081 0.0026313556496364277 0 0.00017418568092488761 0.002492843915876414 0 0.0002084050614665915 0.0024918540694070053 0 0.00022264686975561894 0.0025449669592721921 0 0.00022264686975561894 0.0025449669592721921 0 0.00020286512159096081 0.0026313556496364277 0 0.0003950295031681536 0.0025565854912008531 0 0.00046872299000264305 0.0024225403244494473 0 0.00022264686975561894 0.0025449669592721921 0 0.0003950295031681536 0.0025565854912008531 0 0.00020286512159096081 0.0026313556496364277 0 0.0003950295031681536 0.0025565854912008531 0 0.00049981222151725818 0.0027621352981742949 0 0.00041188500752038933 0.0028739645150599835 0 0.00047816844626291492 0.0029693889552262149 0 0.00058659760382135176 0.0027538303943534163 0 0.0002432344228647559 0.0026436700106660911 0 0.00054942592999930118 0.0027572579285259436 0 0.00041188500752038933 0.0028739645150599835 0 0.00034659188036065942 0.0027897979459059817 0 0.00058659760382135176 0.0027538303943534163 0 0.0002788563216606299 0.0026536561159674226 0 0.00034659188036065942 0.0027897979459059817 0 0.00058659760382135176 0.0027538303943534163 0 0.00041188500752038933 0.0028739645150599835 0 0.00026244591909799079 0.0028819375292419738 0 0.00034659188036065942 0.0027897979459059817 0 0.00049981222151725818 0.0027621352981742949 0 0.00055375591134962376 0.0025811775125749981 0 0.00067494017469098288 0.0027258489691082775 0 0.0003950295031681536 0.0025565854912008531 0 0.00049981222151725818 0.0027621352981742949 0 0.00055375591134962376 0.0025811775125749981 0 0.00049244663215467356 0.002512421752492406 0 0.0003950295031681536 0.0025565854912008531 0 0.00055375591134962376 0.0025811775125749981 0 0.00055328392075620805 0.0024917040497137916 0 0.00064307131511804542 0.0025240100436819115 0 0.00055375591134962376 0.0025811775125749981 0 0.00049244663215467356 0.002512421752492406 0 0.00055328392075620805 0.0024917040497137916 0 0.00055375591134962376 0.0025811775125749981 0 0.00055375591134962376 0.0025811775125749981 0 0.00067562105447117296 0.0026047372696267916 0 0.00067494017469098288 0.0027258489691082775 0 0.00064307131511804542 0.0025240100436819115 0 0.00067562105447117296 0.0026047372696267916 0 0.00075543088306675576 0.0025530444610809863 0 0.00064307131511804542 0.0025240100436819115 0 0.00055375591134962376 0.0025811775125749981 0 0.00067562105447117296 0.0026047372696267916 0 0.00081138792380351177 0.002612014433437556 0 0.00075543088306675576 0.0025530444610809863 0 0.00075015730068078365 0.0026418765810314561 0 0.00067562105447117296 0.0026047372696267916 0 0.00075543088306675576 0.0025530444610809863 0 0.00075015730068078365 0.0026418765810314561 0 0.00084166065263287281 0.002701177230803055 0 0.00075015730068078365 0.0026418765810314561 0 0.00067494017469098288 0.0027258489691082775 0 0.00067562105447117296 0.0026047372696267916 0 0.00075015730068078365 0.0026418765810314561 0 0.00067494017469098288 0.0027258489691082775 0 0.00079607525711496185 0.0028654212690346096 0 0.00049981222151725818 0.0027621352981742949 0 0.00067494017469098288 0.0027258489691082775 0 0.00084166065263287281 0.002701177230803055 0 0.00079607525711496185 0.0028654212690346096 0 0.00067494017469098288 0.0027258489691082775 0 0.00087087094015460948 0.0028445275385427559 0 0.00082319997703933425 0.0028892820263150595 0 0.00058659760382135176 0.0027538303943534163 0 0.00080643474340412024 0.0028572770017956796 0 0.00054942592999930118 0.0027572579285259436 0 -0.00013968851562777315 0.0030122091957441107 0 -0.00024218056808983498 0.0030286303649300354 0 -0.00031981570623161403 0.0030708849317402859 0 -0.00025175322731197714 0.0027820301021757193 0 -0.00049232364242138738 0.0028317186775697885 0 -0.00031981570623161403 0.0030708849317402859 0 -0.00069924300700983499 0.0030414516896795332 0 -0.00049232364242138738 0.0028317186775697885 0 0.00010872336702935727 0.0028908008647228109 0 0.00016858761135656167 0.0028877929125173986 0 0.00015385126707071124 0.0029514933649747734 0 0.00016858761135656167 0.0028877929125173986 0 0.00015385126707071124 0.0029514933649747734 0 0.00017983933376041888 0.0028956819036085489 0 4.6586729519483204e-05 0.0028909772000140824 0 0.00010872336702935727 0.0028908008647228109 0 6.6968392433355478e-05 0.0029652548292122246 0 0.00010872336702935727 0.0028908008647228109 0 6.6968392433355478e-05 0.0029652548292122246 0 0.00015385126707071124 0.0029514933649747734 0 4.6586729519483204e-05 0.0028909772000140824 0 6.6968392433355478e-05 0.0029652548292122246 0 9.0621184257712163e-07 0.0029203125500309431 0 6.6968392433355478e-05 0.0029652548292122246 0 9.0621184257712163e-07 0.0029203125500309431 0 -5.7609323680873564e-05 0.0029478769052968057 0 -2.368974048916083e-05 0.0028886974579811976 0 4.6586729519483204e-05 0.0028909772000140824 0 9.0621184257712163e-07 0.0029203125500309431 0 -2.368974048916083e-05 0.0028886974579811976 0 9.0621184257712163e-07 0.0029203125500309431 0 -6.6807400001465543e-05 0.0029182671137289702 0 9.0621184257712163e-07 0.0029203125500309431 0 -6.6807400001465543e-05 0.0029182671137289702 0 -5.7609323680873564e-05 0.0029478769052968057 0 0.00012841652910833843 0.002940682126807126 0 1.584198499179463e-05 0.0030948693688187005 0 1.3062375032458577e-05 0.002963805460721637 0 1.584198499179463e-05 0.0030948693688187005 0 1.3062375032458577e-05 0.002963805460721637 0 -0.00011155236112667822 0.002942176591410009 0 1.3062375032458577e-05 0.002963805460721637 0 -0.00011155236112667822 0.002942176591410009 0 3.9640883456042683e-05 0.0028347579211423822 0 0.00012841652910833843 0.002940682126807126 0 1.3062375032458577e-05 0.002963805460721637 0 3.9640883456042683e-05 0.0028347579211423822 0 -0.00031981570623161403 0.0030708849317402859 0 1.584198499179463e-05 0.0030948693688187005 0 -0.00011155236112667822 0.002942176591410009 0 -0.00031981570623161403 0.0030708849317402859 0 -0.00011155236112667822 0.002942176591410009 0 -0.00025175322731197714 0.0027820301021757193 0 -0.00013968851562777315 0.0030122091957441107 0 -1.1244880780957816e-05 0.0030205863376992397 0 -0.00011155236112667822 0.002942176591410009 0 -0.00025175322731197714 0.0027820301021757193 0 -8.121611522338345e-05 0.0027223045571460737 0 -0.00025175322731197714 0.0027820301021757193 0 -8.121611522338345e-05 0.0027223045571460737 0 -0.00023762411567014141 0.0026135651792878948 0 -0.00025175322731197714 0.0027820301021757193 0 -0.00023762411567014141 0.0026135651792878948 0 -0.00042563617104052112 0.0026198338419726182 0 -0.00011155236112667822 0.002942176591410009 0 3.9640883456042683e-05 0.0028347579211423822 0 -8.121611522338345e-05 0.0027223045571460737 0 0.00018713623460596399 0.0027883190973526655 0 3.9640883456042683e-05 0.0028347579211423822 0 7.6579358551128783e-05 0.0027070164724540438 0 3.9640883456042683e-05 0.0028347579211423822 0 -8.121611522338345e-05 0.0027223045571460737 0 7.6579358551128783e-05 0.0027070164724540438 0 0.00010423104253553546 0.0024423868945441965 0 0.00014069763700026361 0.0025215609918176453 0 -1.7058017534362209e-05 0.0025363668229073559 0 0.0002788563216606299 0.0026536561159674226 0 7.6579358551128783e-05 0.0027070164724540438 0 -4.8086024664132641e-05 0.0025365521043240395 0 -8.121611522338345e-05 0.0027223045571460737 0 7.6579358551128783e-05 0.0027070164724540438 0 -4.8086024664132641e-05 0.0025365521043240395 0 -0.00038060301837553008 0.0024117341494069066 0 -3.9864850598621374e-05 0.0025336114158506246 0 -0.00040086384010676709 0.0024011445089609537 0 -4.8086024664132641e-05 0.0025365521043240395 0 -0.00023762411567014141 0.0026135651792878948 0 -8.121611522338345e-05 0.0027223045571460737 0 -4.8086024664132641e-05 0.0025365521043240395 0 -0.00023762411567014141 0.0026135651792878948 0 -0.00040086384010676709 0.0024011445089609537 0 -0.00042563617104052112 0.0026198338419726182 0 -0.00060561770769307658 0.0024160276489371604 0 -0.00040086384010676709 0.0024011445089609537 0 -0.00023762411567014141 0.0026135651792878948 0 -0.00042563617104052112 0.0026198338419726182 0 -0.00042563617104052112 0.0026198338419726182 0 -0.00049232364242138738 0.0028317186775697885 0 -0.0007166122847405851 0.002643250190641351 0 -0.00025175322731197714 0.0027820301021757193 0 -0.00042563617104052112 0.0026198338419726182 0 -0.00049232364242138738 0.0028317186775697885 0 -0.00069924300700983499 0.0030414516896795332 0 -0.00049232364242138738 0.0028317186775697885 0 -0.0007166122847405851 0.002643250190641351 0 -0.00091107298049792121 0.0022619655274798726 0 -0.0007166122847405851 0.002643250190641351 0 -0.00060561770769307658 0.0024160276489371604 0 -0.00042563617104052112 0.0026198338419726182 0 -0.0007166122847405851 0.002643250190641351 0 -0.00060561770769307658 0.0024160276489371604 0 -0.00091107298049792121 0.0022619655274798726 0 -0.001233758522990744 0.0023018887516001261 0 -0.0010234781715436232 0.0027016725452619801 0 -0.00091107298049792121 0.0022619655274798726 0 -0.0007166122847405851 0.002643250190641351 0 -0.0010234781715436232 0.0027016725452619801 0 -0.001233758522990744 0.0023018887516001261 0 -0.0013367127290900202 0.0026023009106347366 0 -0.0010234781715436232 0.0027016725452619801 0 -0.0015253698699003268 0.0023622887767993477 0 -0.00059257293212548355 0.00268468139896325 0 -0.0015390544921331289 0.002165044608828842 0 -0.0013868996462939179 0.0024491232739551525 0 -0.0017427099680912162 0.0023793797697388556 0 -0.0013367127290900202 0.0026023009106347366 0 -0.0010234781715436232 0.0027016725452619801 0 -0.0011159838258659978 0.0029892700129383479 0 -0.00069924300700983499 0.0030414516896795332 0 -0.0007166122847405851 0.002643250190641351 0 -0.0010234781715436232 0.0027016725452619801 0 -0.00069924300700983499 0.0030414516896795332 0 -0.0010234781715436232 0.0027016725452619801 0 -0.0011159838258659978 0.0029892700129383479 0 -0.00059257293212548355 0.00268468139896325 0 0.00034829179529627548 0.0029272393683595888 0 0.00015385126707071124 0.0029514933649747734 0 0.00019785939187595727 0.0029499414744487765 0 0.00017983933376041888 0.0028956819036085489 0 -0.00024218056808983498 0.0030286303649300354 0 -0.00059257293212548355 0.00268468139896325 0 2.2733662913880792e-05 0.0023893817541622351 0 -0.00037763423969031529 0.0026426094520902053 0 -5.6317932706584062e-05 0.0028337513297999636 0 -0.00037763423969031529 0.0026426094520902053 0 -5.6317932706584062e-05 0.0028337513297999636 0 -0.00019790308258634464 0.0029483736872718989 0 -5.6317932706584062e-05 0.0028337513297999636 0 -0.00019790308258634464 0.0029483736872718989 0 -0.00011545738765207661 0.0029724269918180615 0 -0.00019790308258634464 0.0029483736872718989 0 -0.00011545738765207661 0.0029724269918180615 0 -0.00017914169768197107 0.0029921487931434628 0 -5.6317932706584062e-05 0.0028337513297999636 0 -0.00011545738765207661 0.0029724269918180615 0 4.2494475549963886e-05 0.0029143291270750452 0 2.2733662913880792e-05 0.0023893817541622351 0 -5.6317932706584062e-05 0.0028337513297999636 0 0.00017983933376041888 0.0028956819036085489 0 -5.6317932706584062e-05 0.0028337513297999636 0 4.2494475549963886e-05 0.0029143291270750452 0 0.00017983933376041888 0.0028956819036085489 0 -0.0011382874545996652 0.0033076218315798971 0 -0.00079655090967507987 0.0027467811001378986 0 -0.0015242758364853984 0.0027288244433393239 0 -0.0011382874545996652 0.0033076218315798971 0 -0.0015242758364853984 0.0027288244433393239 0 -0.0018765226460273744 0.0030527197840259273 0 -0.00027877630458802202 0.0029724656368003959 0 -0.00062259958527198099 0.0031523306972822546 0 -0.00019790308258634464 0.0029483736872718989 0 -0.0011382874545996652 0.0033076218315798971 0 -0.00079655090967507987 0.0027467811001378986 0 -0.00019790308258634464 0.0029483736872718989 0 -0.00030499591733234774 0.0029552245701475535 0 -0.0002310068397497358 0.0029998066095134621 0 -0.00037763423969031529 0.0026426094520902053 0 -0.00019790308258634464 0.0029483736872718989 0 -0.00079655090967507987 0.0027467811001378986 0 -0.00037763423969031529 0.0026426094520902053 0 -0.00079655090967507987 0.0027467811001378986 0 -0.00093857503458185992 0.0022171143851579438 0 -0.00059257293212548355 0.00268468139896325 0 -0.0013703158037724386 0.0022725108419655807 0 2.2733662913880792e-05 0.0023893817541622351 0 -0.00037763423969031529 0.0026426094520902053 0 -0.00093857503458185992 0.0022171143851579438 0 -0.0015242758364853984 0.0027288244433393239 0 -0.00093857503458185992 0.0022171143851579438 0 -0.0020362920875168266 0.0023121315181459058 0 -0.00079655090967507987 0.0027467811001378986 0 -0.0015242758364853984 0.0027288244433393239 0 -0.00093857503458185992 0.0022171143851579438 0 -0.0017427099680912162 0.0023793797697388556 0 -0.0018771850411049863 0.0020994380974817114 0 -0.0020362920875168266 0.0023121315181459058 0 -0.0013703158037724386 0.0022725108419655807 0 -0.0019718841043028655 0.0023082438881633343 0 -0.0015390544921331289 0.002165044608828842 0 -0.0017427099680912162 0.0023793797697388556 0 -0.0018771850411049863 0.0020994380974817114 0 -0.0016219603054798623 0.0020332078632715966 0 -0.0015253698699003268 0.0023622887767993477 0 -0.0016868294639111091 0.0018864129348474049 0 -0.0015390544921331289 0.002165044608828842 0 -0.0018771850411049863 0.0020994380974817114 0 -0.0018771850411049863 0.0020994380974817114 0 -0.0021981765304123694 0.0021044839673494357 0 -0.0020362920875168266 0.0023121315181459058 0 -0.0021085012819106273 0.0018980631743170343 0 -0.0018771850411049863 0.0020994380974817114 0 -0.0021981765304123694 0.0021044839673494357 0 -0.0020362920875168266 0.0023121315181459058 0 -0.0024986752380034287 0.0022533557866028448 0 -0.0024269198276266799 0.0025693656815256208 0 -0.0021981765304123694 0.0021044839673494357 0 -0.0020362920875168266 0.0023121315181459058 0 -0.0024986752380034287 0.0022533557866028448 0 -0.0030902126161617273 0.0021363760089777458 0 -0.0029268741315017178 0.0020552454619102182 0 -0.0028813001590500347 0.0022485356649710928 0 -0.0026399304991127082 0.0020114775079601746 0 -0.0029268741315017178 0.0020552454619102182 0 -0.0028813001590500347 0.0022485356649710928 0 -0.0026399304991127082 0.0020114775079601746 0 -0.0021981765304123694 0.0021044839673494357 0 -0.0024986752380034287 0.0022533557866028448 0 -0.0026399304991127082 0.0020114775079601746 0 -0.0028813001590500347 0.0022485356649710928 0 -0.0024986752380034287 0.0022533557866028448 0 -0.0028813001590500347 0.0022485356649710928 0 -0.0027254722136025753 0.0024979721378529719 0 -0.0024986752380034287 0.0022533557866028448 0 -0.0027254722136025753 0.0024979721378529719 0 -0.0024986752380034287 0.0022533557866028448 0 -0.0024269198276266799 0.0025693656815256208 0 -0.0030836881799024577 0.0025053188101870801 0 -0.0028813001590500347 0.0022485356649710928 0 -0.0027254722136025753 0.0024979721378529719 0 -0.0038648000967500618 0.0025248732039495295 0 -0.0024873537501309793 0.0025068096306292208 0 -0.0031883393141344633 0.0024591162895385124 0 -0.0027254722136025753 0.0024979721378529719 0 -0.0027753571040123656 0.0028058668548558885 0 -0.0031883393141344633 0.0024591162895385124 0 -0.0027753571040123656 0.0028058668548558885 0 -0.0030830624351123807 0.0029715501893699788 0 -0.0027254722136025753 0.0024979721378529719 0 -0.0027753571040123656 0.0028058668548558885 0 -0.0024269198276266799 0.0025693656815256208 0 -0.0027753571040123656 0.0028058668548558885 0 -0.0024708884416489063 0.0029737959240949911 0 -0.0024269198276266799 0.0025693656815256208 0 -0.0027753571040123656 0.0028058668548558885 0 -0.0024708884416489063 0.0029737959240949911 0 -0.0027889335130368239 0.0031851253329172927 0 -0.0024708884416489063 0.0029737959240949911 0 -0.0027889335130368239 0.0031851253329172927 0 -0.0024895855950590059 0.0034152316431588395 0 -0.0027753571040123656 0.0028058668548558885 0 -0.0027889335130368239 0.0031851253329172927 0 -0.0030830624351123807 0.0029715501893699788 0 -0.0015242758364853984 0.0027288244433393239 0 -0.0020362920875168266 0.0023121315181459058 0 -0.0021125527997737825 0.0027781261213566211 0 -0.0020362920875168266 0.0023121315181459058 0 -0.0024269198276266799 0.0025693656815256208 0 -0.0021125527997737825 0.0027781261213566211 0 -0.0024708884416489063 0.0029737959240949911 0 -0.0024269198276266799 0.0025693656815256208 0 -0.0021125527997737825 0.0027781261213566211 0 -0.0024708884416489063 0.0029737959240949911 0 -0.0022168739072685483 0.0031154984861751145 0 -0.0024895855950590059 0.0034152316431588395 0 -0.0021125527997737825 0.0027781261213566211 0 -0.0022168739072685483 0.0031154984861751145 0 -0.0018765226460273744 0.0030527197840259273 0 -0.0024708884416489063 0.0029737959240949911 0 -0.0021125527997737825 0.0027781261213566211 0 -0.0022168739072685483 0.0031154984861751145 0 -0.0011382874545996652 0.0033076218315798971 0 -0.0018765226460273744 0.0030527197840259273 0 -0.0019796831868094588 0.0034851716258420796 0 -0.0022168739072685483 0.0031154984861751145 0 -0.0018765226460273744 0.0030527197840259273 0 -0.0019690999959317431 0.0033346750326015422 0 -0.0019078193003674007 0.0032582055818550838 0 -0.0017209619447198141 0.002802158394245721 0 -0.0015242758364853984 0.0027288244433393239 0 -0.0021125527997737825 0.0027781261213566211 0 -0.0018765226460273744 0.0030527197840259273 0 -0.00062259958527198099 0.0031523306972822546 0 -0.0017209619447198141 0.002802158394245721 0 -0.0004696113385472847 0.0029747763955275406 0 -0.00041376996665086903 0.0030680866866656989 0 -0.00034879642502173771 0.0030298943572062893 0 -0.0022168739072685483 0.0031154984861751145 0 -0.0019690999959317431 0.0033346750326015422 0 -0.0024895855950590059 0.0034152316431588395 0 -0.0017209619447198141 0.002802158394245721 0 -0.0024813845528211587 0.0027825533512564459 0 -0.0023765092701277632 0.0020863276027282204 0 -0.0025458273088986129 0.002304413020444338 0 -0.0026617321516092499 0.0021423992920831642 0 -0.0025458273088986129 0.002304413020444338 0 -0.0024669697238644196 0.0023852977727592843 0 -0.0026664342127590136 0.0024598763103493835 0 -0.0023765092701277632 0.0020863276027282204 0 -0.0025458273088986129 0.002304413020444338 0 -0.0024549765042121358 0.0023971568135641311 0 -0.0024300301071793246 0.0021765179092767249 0 -0.0016644283657364564 0.0026468074944149024 0 -0.00050537861226425992 0.0031240106516117797 0 -0.00039208623420894405 0.0031355374081017246 0 -0.00041376996665086903 0.0030680866866656989 0 -0.0017209619447198141 0.002802158394245721 0 -0.0016644283657364564 0.0026468074944149024 0 -0.0004696113385472847 0.0029747763955275406 0 -0.00050537861226425992 0.0031240106516117797 0 -0.00041376996665086903 0.0030680866866656989 0 -0.0054693421399940453 0.0022911577979211474 0 -0.0054785691708894822 0.002335619141411025 0 -0.0054847551038185007 0.0022759982861849264 0 -0.0043548572258361538 0.0026845283281883119 0 -0.003921465053745926 0.0025450082488697088 0 -0.0027889335130368239 0.0031851253329172927 0 -0.0030830624351123807 0.0029715501893699788 0 -0.0029777443748134741 0.003499336367785559 0 -0.0054693421399940453 0.0022911577979211474 0 -0.0054723951699525222 0.0022703529738695364 0 -0.0054847551038185007 0.0022759982861849264 0 -0.0050565898416722512 0.0025974519977772477 0 -0.003921465053745926 0.0025450082488697088 0 -0.0027889335130368239 0.0031851253329172927 0 -0.0029777443748134741 0.003499336367785559 0 -0.0024895855950590059 0.0034152316431588395 0 -0.003921465053745926 0.0025450082488697088 0 -0.0024813845528211587 0.0027825533512564459 0 -0.0029401860425645843 0.0021994507053390761 0 -0.0026617321516092499 0.0021423992920831642 0 -0.0027386467014228542 0.0023138327732038777 0 -0.0027386467014228542 0.0023138327732038777 0 -0.0028819701006978938 0.0024319417625398737 0 -0.0026664342127590136 0.0024598763103493835 0 -0.0025458273088986129 0.002304413020444338 0 -0.0026617321516092499 0.0021423992920831642 0 -0.0027386467014228542 0.0023138327732038777 0 -0.0025458273088986129 0.002304413020444338 0 -0.0027386467014228542 0.0023138327732038777 0 -0.0026664342127590136 0.0024598763103493835 0 -0.0054723951699525222 0.0022703529738695364 0 -0.0054768416197780384 0.002271953731701254 0 -0.0054747291975528181 0.0022325973248068275 0 -0.0054605237502284056 0.002237972327528035 0 -0.0054723951699525222 0.0022703529738695364 0 -0.0054747291975528181 0.0022325973248068275 0 -0.0029401860425645843 0.0021994507053390761 0 -0.0027386467014228542 0.0023138327732038777 0 -0.0028819701006978938 0.0024319417625398737 0 -0.003921465053745926 0.0025450082488697088 0 -0.0042017394982900537 0.0023724196988819716 0 -0.0042017394982900537 0.0023724196988819716 0 -0.0036504589739379508 0.0017627405807450157 0 -0.0054525449398807237 0.0021982416072939487 0 -0.0054747291975528181 0.0022325973248068275 0 -0.0054664907232819075 0.0022061512511714547 0 -0.0028819701006978938 0.0024319417625398737 0 -0.0026664342127590136 0.0024598763103493835 0 -0.0028285583585437564 0.0026581620433070376 0 -0.0026664342127590136 0.0024598763103493835 0 -0.0028285583585437564 0.0026581620433070376 0 -0.0025390685109472704 0.0026641914680000842 0 -0.0019790121739854628 0.0014071654499632617 0 -0.0021791695272017604 0.0012361479882615676 0 -0.001789396107132151 0.0012464696964644656 0 -0.0036504589739379508 0.0017627405807450157 0 -0.0018004734397699508 0.0019646386116572963 0 -0.0051221915023410896 0.0015572046716223319 0 -0.0036504589739379508 0.0017627405807450157 0 -0.0043104283972633514 0.00096668134488239797 0 -0.0040578451194116117 0.0011092158044246671 0 -0.0040046335573714524 0.00095502608791696157 0 -0.00050537861226425992 0.0031240106516117797 0 -0.00039208623420894405 0.0031355374081017246 0 -0.00042700225514072008 0.0031980565769181399 0 -0.00070165950201170454 0.0029259445233753754 0 -0.00080685227151632596 0.0022604404165030255 0 -0.0016644283657364564 0.0026468074944149024 0 -0.00070165950201170454 0.0029259445233753754 0 -0.0013308485263787586 0.002285278722334244 0 -0.0012135299289096502 0.002402348809653833 0 -0.0013882035477252798 0.0025129218322713343 0 -0.0016644283657364564 0.0026468074944149024 0 -0.0018004734397699508 0.0019646386116572963 0 -0.0024669697238644196 0.0023852977727592843 0 -0.0026664342127590136 0.0024598763103493835 0 -0.0025390685109472704 0.0026641914680000842 0 -0.001860755348647838 0.0015920672089266349 0 -0.0019790121739854628 0.0014071654499632617 0 -0.001789396107132151 0.0012464696964644656 0 -0.0018087854834195861 0.0012871570638537627 0 -0.0018004734397699508 0.0019646386116572963 0 -0.0018004734397699508 0.0019646386116572963 0 -0.00080685227151632596 0.0022604404165030255 0 -0.0015731074644770935 0.001475717321399606 0 -0.0017599576791326305 0.0012044181653549214 0 -0.0012160339534847751 0.0012157857549731841 0 -0.0012135299289096502 0.002402348809653833 0 -0.0013882035477252798 0.0025129218322713343 0 -0.0010958766618787263 0.0025202721310757931 0 -0.00080685227151632596 0.0022604404165030255 0 0.00013865997819604913 0.0026796063204984964 0 -0.00035143368094374687 0.0032705144202893693 0 -0.00030981898642076913 0.0031832248522820281 0 -0.00022498498826251987 0.0032730728538683221 0 -0.00027202146969758937 0.0023962351208901174 0 -0.00048063416186222281 0.0021818356740297617 0 -4.6921971107684731e-05 0.0021929216793544399 0 -0.0001057506648458315 0.0015863017275519141 0 -0.00080685227151632596 0.0022604404165030255 0 -0.00039208623420894405 0.0031355374081017246 0 -0.00042700225514072008 0.0031980565769181399 0 -0.00030981898642076913 0.0031832248522820281 0 -0.00042700225514072008 0.0031980565769181399 0 -0.00035143368094374687 0.0032705144202893693 0 -0.00030981898642076913 0.0031832248522820281 0 -0.00039208623420894405 0.0031355374081017246 0 -0.00030981898642076913 0.0031832248522820281 0 -0.00031754443100184999 0.0031183669389157932 0 -0.00030981898642076913 0.0031832248522820281 0 -0.00021503350224376646 0.0031705055095569913 0 -0.00022498498826251987 0.0032730728538683221 0 -0.00021503350224376646 0.0031705055095569913 0 -0.00022498498826251987 0.0032730728538683221 0 -0.00017065456675722482 0.0031577527035403568 0 -0.00021503350224376646 0.0031705055095569913 0 -0.00017065456675722482 0.0031577527035403568 0 -0.00018370441077108401 0.0031226528243188715 0 -0.00030981898642076913 0.0031832248522820281 0 -0.00021503350224376646 0.0031705055095569913 0 -0.00024731282603210423 0.0031213206996666314 0 0.00088019265200764613 0.0020137843138857913 0 0.00094231965806941542 0.0020224671915977143 0 0.00090903348956391378 0.0020573532247131284 0 -0.0001057506648458315 0.0015863017275519141 0 0.00013865997819604913 0.0026796063204984964 0 -1.4655691485375418e-05 0.0030745304307611887 0 -7.6414323101928422e-05 0.0030774857748265645 0 -7.7673831007933053e-05 0.0031014206559269765 0 0.00088019265200764613 0.0020137843138857913 0 0.00090903348956391378 0.0020573532247131284 0 0.00084381615134169119 0.0020629483861859645 0 0.00013865997819604913 0.0026796063204984964 0 0.00044101617582244847 0.0025676376950456519 0 -7.6414323101928422e-05 0.0030774857748265645 0 -9.9115768371010998e-05 0.0031048449423368772 0 -7.7673831007933053e-05 0.0031014206559269765 0 0.00044101617582244847 0.0025676376950456519 0 0.00031043812843622385 0.0026299057379639886 0 -7.6414323101928422e-05 0.0030774857748265645 0 -0.00011440692832442284 0.0030886153561318413 0 -9.9115768371010998e-05 0.0031048449423368772 0 0.00081449142834464261 0.0019942731988238887 0 0.00084381615134169119 0.0020629483861859645 0 0.00076509849218221032 0.0020722695649236806 0 0.00037844136533643697 0.0025321536207802953 0 0.00030699077873009916 0.0026905416253076124 0 0.00028077907743295858 0.0028388699338107951 0 0.00031043812843622385 0.0026299057379639886 0 5.452172568502834e-05 0.0030014709952207383 0 -0.00011440692832442284 0.0030886153561318413 0 -9.9115768371010998e-05 0.0031048449423368772 0 -8.9243595303925078e-05 0.0031280587186430929 0 -9.9115768371010998e-05 0.0031048449423368772 0 -9.3442213270639908e-05 0.0031202092844822456 0 -8.9243595303925078e-05 0.0031280587186430929 0 0.00032196566298930285 0.0026135111872228663 0 0.00037844136533643697 0.0025321536207802953 0 0.00030699077873009916 0.0026905416253076124 0 -9.9115768371010998e-05 0.0031048449423368772 0 -9.3442213270639908e-05 0.0031202092844822456 0 -7.7673831007933053e-05 0.0031014206559269765 0 -9.3442213270639908e-05 0.0031202092844822456 0 -9.3272564188889574e-05 0.0031347222566853444 0 -8.9243595303925078e-05 0.0031280587186430929 0 0.00027932687849134568 0.0027599313594883954 0 0.00030699077873009916 0.0026905416253076124 0 0.00028077907743295858 0.0028388699338107951 0 0.00027453172095999516 0.0027083846824865988 0 0.00027932687849134568 0.0027599313594883954 0 0.00025368862799099445 0.0027754449744103204 0 0.00027453172095999516 0.0027083846824865988 0 0.00027932687849134568 0.0027599313594883954 0 0.00030699077873009916 0.0026905416253076124 0 0.00013865997819604913 0.0026796063204984964 0 -0.0002272549874403277 0.003331242923144846 0 -1.4655691485375418e-05 0.0030745304307611887 0 -7.7673831007933053e-05 0.0031014206559269765 0 -9.3272564188889574e-05 0.0031347222566853444 0 -0.00022498498826251987 0.0032730728538683221 0 -9.3272564188889574e-05 0.0031347222566853444 0 -0.00017065456675722482 0.0031577527035403568 0 -9.3442213270639908e-05 0.0031202092844822456 0 -7.7673831007933053e-05 0.0031014206559269765 0 -9.3272564188889574e-05 0.0031347222566853444 0 -0.00017065456675722482 0.0031577527035403568 0 -0.00014119154890245827 0.0031084973369792128 0 -0.00018370441077108401 0.0031226528243188715 0 -0.00014119154890245827 0.0031084973369792128 0 -0.00018370441077108401 0.0031226528243188715 0 -0.00019707356084514382 0.0030769808501141535 0 -9.3272564188889574e-05 0.0031347222566853444 0 -0.00017065456675722482 0.0031577527035403568 0 -0.00014119154890245827 0.0031084973369792128 0 -9.3272564188889574e-05 0.0031347222566853444 0 -0.00014119154890245827 0.0031084973369792128 0 -8.9243595303925078e-05 0.0031280587186430929 0 -0.00014119154890245827 0.0031084973369792128 0 -8.9243595303925078e-05 0.0031280587186430929 0 -0.00015586284452441044 0.003050091849997565 0 -0.00014119154890245827 0.0031084973369792128 0 -0.00015586284452441044 0.003050091849997565 0 -0.00019707356084514382 0.0030769808501141535 0 0.00028077907743295858 0.0028388699338107951 0 0.00021540986421533464 0.002862958276063116 0 0.00013130281251627323 0.0029082040172256764 0 0.00025368862799099445 0.0027754449744103204 0 0.00025397778755135926 0.0028113741568264266 0 0.00023275932041333386 0.002818182939673646 0 0.00027932687849134568 0.0027599313594883954 0 0.00025368862799099445 0.0027754449744103204 0 0.00025397778755135926 0.0028113741568264266 0 0.00027932687849134568 0.0027599313594883954 0 0.00025397778755135926 0.0028113741568264266 0 0.00028077907743295858 0.0028388699338107951 0 0.00025397778755135926 0.0028113741568264266 0 0.00028077907743295858 0.0028388699338107951 0 0.00021540986421533464 0.002862958276063116 0 0.0001962122463372974 0.0028535154472875148 0 0.00021540986421533464 0.002862958276063116 0 0.00023275932041333386 0.002818182939673646 0 0.00025397778755135926 0.0028113741568264266 0 0.00021540986421533464 0.002862958276063116 0 0.00023275932041333386 0.002818182939673646 0 0.0001962122463372974 0.0028535154472875148 0 0.00021540986421533464 0.002862958276063116 0 0.00018506733271204826 0.0028844646931259444 0 0.00021540986421533464 0.002862958276063116 0 0.00013130281251627323 0.0029082040172256764 0 0.00018506733271204826 0.0028844646931259444 0 4.2494475549963886e-05 0.0029143291270750452 0 0.00017983933376041888 0.0028956819036085489 0 0.00013130281251627323 0.0029082040172256764 0 0.00017983933376041888 0.0028956819036085489 0 0.00013130281251627323 0.0029082040172256764 0 0.00018506733271204826 0.0028844646931259444 0 0.00016858761135656167 0.0028877929125173986 0 0.00017983933376041888 0.0028956819036085489 0 0.00018506733271204826 0.0028844646931259444 0 -0.00011545738765207661 0.0029724269918180615 0 -8.9243595303925078e-05 0.0031280587186430929 0 -0.00015586284452441044 0.003050091849997565 0 -8.8983777361602143e-05 0.0029345436748736235 0 5.452172568502834e-05 0.0030014709952207383 0 -0.00011545738765207661 0.0029724269918180615 0 0.00028077907743295858 0.0028388699338107951 0 0.00013130281251627323 0.0029082040172256764 0 -0.00011545738765207661 0.0029724269918180615 0 4.2494475549963886e-05 0.0029143291270750452 0 0.00013130281251627323 0.0029082040172256764 0 -0.00011545738765207661 0.0029724269918180615 0 -0.00015586284452441044 0.003050091849997565 0 -0.00017914169768197107 0.0029921487931434628 0 -0.00015586284452441044 0.003050091849997565 0 -0.00017914169768197107 0.0029921487931434628 0 -0.0002310068397497358 0.0029998066095134621 0 -0.00019790308258634464 0.0029483736872718989 0 -0.00017914169768197107 0.0029921487931434628 0 -0.0002310068397497358 0.0029998066095134621 0 -0.00030499591733234774 0.0029552245701475535 0 -0.0002310068397497358 0.0029998066095134621 0 -0.0002694167227530741 0.0030601590288929837 0 -0.00015586284452441044 0.003050091849997565 0 -0.0002310068397497358 0.0029998066095134621 0 -0.00019707356084514382 0.0030769808501141535 0 -0.0002310068397497358 0.0029998066095134621 0 -0.00019707356084514382 0.0030769808501141535 0 -0.0002694167227530741 0.0030601590288929837 0 -0.00030499591733234774 0.0029552245701475535 0 -0.0004696113385472847 0.0029747763955275406 0 -0.00034879642502173771 0.0030298943572062893 0 -0.00030499591733234774 0.0029552245701475535 0 -0.00034879642502173771 0.0030298943572062893 0 -0.0002694167227530741 0.0030601590288929837 0 -0.00034879642502173771 0.0030298943572062893 0 -0.00031754443100184999 0.0031183669389157932 0 -0.0002694167227530741 0.0030601590288929837 0 -0.00041376996665086903 0.0030680866866656989 0 -0.00034879642502173771 0.0030298943572062893 0 -0.00031754443100184999 0.0031183669389157932 0 -0.00039208623420894405 0.0031355374081017246 0 -0.00041376996665086903 0.0030680866866656989 0 -0.00031754443100184999 0.0031183669389157932 0 -0.00030981898642076913 0.0031832248522820281 0 -0.00031754443100184999 0.0031183669389157932 0 -0.00024731282603210423 0.0031213206996666314 0 -0.00031754443100184999 0.0031183669389157932 0 -0.00024731282603210423 0.0031213206996666314 0 -0.0002694167227530741 0.0030601590288929837 0 -0.00024731282603210423 0.0031213206996666314 0 -0.00018370441077108401 0.0031226528243188715 0 -0.00019707356084514382 0.0030769808501141535 0 -0.00021503350224376646 0.0031705055095569913 0 -0.00024731282603210423 0.0031213206996666314 0 -0.00018370441077108401 0.0031226528243188715 0 -0.00024731282603210423 0.0031213206996666314 0 -0.00019707356084514382 0.0030769808501141535 0 -0.0002694167227530741 0.0030601590288929837 0 
</DataArray>
</PointData>
<CellData Scalars="region_id,cross_section_updated," Vectors="" Tensors="stress,">
<DataArray type="Float64" Name="region_id" format="ascii">
5 5 5 5 5 5 6 5 5 5 6 5 5 5 6 5 5 5 5 5 5 6 6 5 5 5 5 6 6 5 6 6 5 6 5 5 5 6 5 5 6 5 5 5 5 5 5 5 6 5 5 5 5 5 5 5 5 6 5 5 6 5 6 5 6 5 6 5 5 5 5 5 5 5 5 5 5 5 5 5 5 5 5 6 5 5 5 5 5 5 5 5 6 5 5 6 6 5 5 5 5 5 5 5 5 5 5 5 5 6 5 5 5 5 5 6 5 5 6 5 5 5 5 5 5 5 5 5 5 5 5 5 5 5 5 5 5 5 6 5 5 5 5 5 6 5 5 5 5 5 5 5 5 5 5 5 5 5 5 5 5 5 5 5 5 5 5 5 5 6 5 6 5 5 5 6 5 5 5 6 5 5 5 6 6 5 5 6 5 5 5 5 6 5 5 5 5 5 6 5 5 5 5 6 5 6 5 5 6 5 5 5 6 5 5 6 5 5 5 5 5 5 5 5 5 5 6 5 5 6 5 5 5 5 5 5 5 6 5 5 5 5 5 5 5 5 5 5 5 5 5 5 5 5 5 5 5 5 5 6 5 6 5 5 5 5 5 6 5 5 5 5 5 5 5 5 6 5 5 5 6 5 5 6 5 5 5 5 6 5 5 6 5 5 5 5 5 6 5 6 5 5 5 5 5 5 5 5 5 5 5 5 5 5 5 5 5 5 6 5 5 5 5 5 6 6 5 5 5 5 5 5 5 5 5 5 6 5 5 5 5 5 5 5 5 5 6 5 5 6 6 5 5 5 6 5 5 6 5 5 5 5 5 5 5 5 5 5 5 5 5 5 5 6 5 5 5 5 5 5 5 5 6 5 5 6 5 5 5 5 6 5 5 5 5 5 5 5 5 5 5 5 5 5 5 6 6 5 5 6 6 5 6 5 6 5 6 5 5 6 5 5 5 5 5 5 5 5 5 6 6 5 5 6 5 5 5 5 5 6 5 5 6 5 5 5 5 6 5 5 5 6 5 5 5 6 5 6 5 5 6 5 5 5 5 5 5 5 5 5 5 5 6 5 5 5 5 5 5 6 5 5 5 6 5 5 5 5 5 5 5 6 5 5 5 5 5 6 5 6 5 5 5 5 5 6 6 5 5 5 6 6 5 6 5 5 5 5 5 5 5 6 5 5 5 5 5 5 5 5 5 5 5 5 5 5 6 5 5 6 5 6 5 5 5 5 5 5 5 5 5 5 5 5 5 5 6 5 5 5 5 5 5 5 5 5 5 5 5 5 5 5 5 6 5 5 5 5 5 5 5 5 5 5 5 6 6 5 5 5 5 5 5 5 5 5 5 5 5 5 5 5 5 6 5 5 5 5 5 5 5 6 5 5 5 5 5 5 5 5 6 5 5 5 6 5 5 5 5 5 5 5 5 5 5 5 5 5 5 5 5 5 5 5 5 5 5 5 5 5 5 5 5 6 5 6 5 5 5 5 5 5 5 5 5 5 5 5 5 6 5 5 5 6 5 5 5 5 5 5 5 5 5 5 5 5 5 6 6 5 5 5 5 5 5 5 6 5 5 5 5 5 5 5 5 5 5 5 6 5 5 5 5 5 5 5 6 5 5 5 5 5 5 5 5 5 5 5 5 5 5 5 5 5 6 5 5 5 5 5 5 5 5 5 5 6 5 5 5 5 5 6 5 5 5 6 5 5 5 5 6 5 5 5 5 5 5 5 6 5 6 5 5 6 5 6 5 5 5 5 5 5 5 5 5 5 5 5 5 5 5 5 5 5 5 5 5 5 5 5 5 5 5 5 5 5 5 5 5 5 5 6 5 6 6 5 5 5 5 5 5 5 5 5 5 5 6 5 5 5 5 5 5 5 6 5 6 5 6 5 5 5 5 5 5 6 5 6 6 5 5 5 5 5 5 5 5 5 5 5 5 5 5 5 5 5 6 5 5 5 5 5 5 5 5 5 5 5 5 5 5 6 5 5 5 5 5 5 5 5 5 5 5 5 5 6 5 5 5 5 5 5 5 5 5 6 5 5 5 5 5 6 6 5 5 5 5 6 6 5 5 5 5 5 5 5 5 5 5 5 6 5 5 5 5 6 5 5 5 5 5 5 6 5 5 6 5 6 5 5 5 6 5 5 5 5 5 5 5 6 5 5 5 5 6 6 5 5 6 5 5 5 6 6 6 6 5 5 6 5 5 5 5 5 5 5 5 6 6 5 5 5 5 5 5 6 5 6 5 5 5 6 5 5 5 5 5 5 5 5 5 5 5 5 5 5 5 5 5 5 5 5 5 5 5 5 5 5 5 5 6 5 5 5 5 5 5 5 5 5 5 5 5 5 5 5 5 5 5 5 5 5 6 5 5 5 5 5 5 5 5 5 6 5 5 5 5 5 5 6 5 5 5 5 5 6 5 5 5 5 5 6 5 5 5 5 5 5 5 5 5 5 6 5 5 5 5 6 6 5 5 6 5 5 5 5 6 5 5 6 5 5 5 5 5 6 6 5 5 5 5 5 5 6 5 5 5 5 5 5 5 6 6 5 5 5 6 5 5 5 6 5 5 6 5 6 5 5 5 6 5 5 6 6 5 5 5 5 5 5 6 5 6 5 6 5 5 5 6 6 5 6 5 5 5 5 5 5 5 5 5 5 5 5 5 5 5 5 6 5 5 5 5 5 5 5 6 5 5 5 5 5 6 5 5 5 6 5 5 5 5 6 5 6 5 6 5 5 5 5 6 5 5 6 5 5 5 5 5 5 5 5 5 5 5 6 5 5 5 5 6 5 5 5 5 6 5 5 5 5 5 5 6 5 5 5 6 5 6 6 5 5 5 5 5 5 5 5 5 5 5 5 5 5 5 5 5 5 5 5 5 5 5 5 5 5 5 5 6 5 5 6 6 5 6 5 5 5 5 6 5 5 6 5 5 5 5 5 5 5 5 5 5 5 5 5 5 5 5 5 5 5 5 5 5 5 5 5 5 5 5 6 5 5 5 5 5 5 5 5 6 5 5 5 5 5 5 5 6 5 6 5 5 5 6 5 5 5 5 5 5 5 6 5 6 5 5 5 5 5 6 5 5 5 5 5 5 5 5 5 5 5 5 5 5 5 5 5 5 5 5 5 5 5 5 5 5 5 5 5 5 5 5 5 5 5 5 5 5 5 6 6 5 5 6 5 5 5 6 5 5 5 6 6 5 5 6 5 5 5 5 5 5 5 5 5 5 5 5 5 5 5 5 5 5 5 5 5 6 5 6 5 5 5 5 5 5 5 5 5 5 5 5 5 5 5 5 5 5 5 5 5 5 5 5 5 5 5 5 5 5 5 5 5 5 5 5 5 5 5 5 5 5 5 5 5 6 5 6 5 6 5 5 6 5 5 5 5 5 5 5 5 5 5 5 5 5 5 5 5 5 5 5 5 5 5 5 5 5 5 5 6 5 5 5 5 5 5 5 5 5 5 5 5 5 5 5 5 5 5 5 5 5 5 5 5 5 5 5 5 5 5 5 5 5 5 5 5 5 5 5 5 5 5 5 5 5 5 5 5 5 6 5 5 5 5 6 5 5 5 5 5 5 5 5 6 5 5 5 5 5 6 6 6 5 5 5 5 6 6 5 5 6 5 5 5 5 5 5 5 5 5 5 5 5 5 5 6 6 5 6 5 5 5 5 5 5 5 5 5 5 5 5 5 5 5 5 5 5 6 5 5 5 5 5 5 6 5 5 5 5 5 5 5 5 5 5 5 5 5 5 5 5 5 5 6 5 5 5 5 5 5 5 5 5 6 5 5 6 5 5 5 5 5 5 5 5 5 5 5 5 5 5 5 5 6 5 6 5 5 5 5 6 5 6 5 5 6 6 5 5 6 5 5 5 6 5 5 5 5 5 5 6 5 5 5 6 5 5 5 5 6 5 5 5 5 5 5 5 6 5 5 5 5 5 6 5 5 6 5 5 5 5 5 5 5 6 5 5 5 6 6 5 5 5 6 5 5 5 5 5 6 6 6 5 5 5 5 5 5 5 5 5 6 6 5 6 5 5 5 5 5 6 5 5 6 5 6 5 5 5 6 5 5 6 5 5 5 5 5 5 5 6 5 5 6 6 5 5 6 5 6 5 5 6 5 5 6 5 6 5 5 5 6 5 5 6 5 6 5 5 6 5 6 5 5 5 5 6 6 5 5 5 5 5 5 5 5 5 6 5 5 5 5 5 5 5 5 5 5 5 5 5 5 5 5 5 5 6 6 5 5 5 6 5 5 5 5 6 5 5 6 5 5 5 6 5 5 6 5 5 5 5 6 5 5 5 5 5 6 5 5 5 6 6 5 5 6 5 5 5 5 5 6 6 5 5 5 5 6 5 5 5 5 6 5 5 5 5 5 5 5 5 5 5 5 5 5 5 5 5 5 5 5 5 5 5 5 5 5 5 5 5 6 5 5 5 5 5 5 5 5 5 5 5 6 5 5 5 5 6 5 5 5 6 5 5 6 5 5 5 5 5 6 5 5 5 5 5 5 5 5 5 5 5 5 5 5 5 5 5 5 5 5 6 5 5 5 5 5 6 5 5 5 5 5 5 5 6 5 5 5 5 5 5 5 5 5 5 5 5 5 6 5 5 5 5 5 6 6 5 5 5 5 6 5 6 5 5 5 6 6 5 5 6 5 5 5 6 5 5 5 5 6 5 5 6 6 5 5 5 5 5 5 6 5 5 6 5 5 5 5 6 5 5 5 5 5 5 5 5 5 5 5 5 5 5 5 5 5 5 5 6 5 6 5 5 5 6 5 6 5 6 5 5 6 5 5 6 6 6 5 5 5 6 5 5 5 5 5 5 6 5 5 5 5 5 5 5 6 5 6 5 5 5 5 5 5 5 6 5 5 5 5 5 5 5 5 5 5 5 6 5 5 6 5 5 5 5 5 5 5 5 5 5 5 5 5 5 5 5 6 5 5 5 5 5 5 5 5 5 5 5 5 5 5 5 5 5 5 5 5 5 6 5 5 5 6 5 5 5 5 5 5 5 5 5 5 6 5 5 5 5 5 5 5 5 5 5 6 5 5 5 5 5 5 6 5 5 5 6 5 5 5 5 5 5 5 5 5 5 5 5 5 5 5 5 5 5 5 5 5 6 5 5 5 5 5 6 5 5 6 5 5 5 5 5 5 6 5 5 5 5 6 5 5 5 5 5 5 5 5 5 5 5 5 5 5 5 5 5 5 6 5 5 5 5 5 6 5 5 5 6 5 6 5 5 5 5 5 5 5 6 5 5 5 6 6 5 5 5 5 5 6 5 5 5 6 5 5 5 5 5 5 5 5 5 5 5 5 5 5 5 6 5 5 5 5 5 5 6 5 5 5 5 5 5 5 5 5 5 5 6 5 5 5 5 5 5 5 5 5 6 5 5 5 5 6 6 5 5 5 5 5 5 5 5 6 6 5 6 5 5 5 5 5 6 5 5 5 5 5 5 6 5 6 5 5 5 5 5 5 5 5 5 5 6 5 5 5 5 5 5 6 5 5 5 5 5 5 5 5 6 5 5 5 5 5 6 5 5 6 5 5 5 5 5 5 6 5 5 5 5 5 5 5 5 6 5 5 5 5 6 5 5 5 5 5 5 5 5 5 5 6 5 5 5 5 5 5 5 5 5 6 5 5 5 5 6 5 5 5 5 5 5 5 5 6 5 6 5 5 5 6 5 5 5 5 5 5 5 5 6 5 5 5 6 5 5 5 6 5 5 6 5 5 5 5 5 5 5 5 5 5 5 5 5 5 5 5 5 5 5 5 5 5 5 5 5 5 5 5 5 5 5 5 5 5 5 5 5 5 5 5 5 5 5 5 5 5 5 5 5 5 5 5 5 6 5 5 5 6 5 5 5 5 5 5 6 5 6 5 5 5 5 6 6 5 5 5 5 5 5 5 5 5 5 5 5 5 5 5 5 5 5 5 5 5 5 6 5 5 6 5 5 5 6 5 5 5 5 5 5 5 5 5 5 5 5 5 5 6 5 6 5 6 5 5 5 5 5 5 5 5 5 5 5 5 5 5 5 5 5 6 5 5 5 5 5 5 5 5 5 5 5 5 5 5 5 5 5 5 5 5 5 5 5 5 5 5 5 5 5 5 5 5 5 6 5 5 5 5 5 5 6 5 5 6 5 6 5 5 6 5 5 5 6 5 5 5 5 5 5 5 5 5 5 5 5 5 5 5 5 5 5 5 5 5 5 5 5 5 6 5 5 5 5 6 5 5 6 5 5 5 5 5 5 5 5 5 5 5 5 5 5 5 5 5 5 5 5 5 5 5 5 5 5 5 5 5 5 6 5 5 5 6 5 5 5 5 6 5 5 5 5 5 6 5 5 5 5 6 5 5 5 5 5 5 5 5 5 5 5 5 5 5 6 6 5 6 5 6 5 5 5 5 5 5 5 5 5 5 5 5 5 5 5 5 5 5 5 5 5 5 5 5 5 6 6 5 5 6 5 5 6 5 5 5 5 5 5 5 5 5 5 5 6 5 5 6 5 5 5 5 5 5 5 5 5 5 5 5 5 5 6 6 5 6 6 5 5 5 5 6 5 5 5 6 6 5 5 5 5 5 5 5 6 5 5 5 5 5 5 5 5 5 5 5 5 5 5 5 5 6 5 5 5 5 6 5 5 5 5 5 5 5 6 5 5 5 5 5 5 5 6 5 5 6 5 5 5 5 5 5 5 5 5 5 5 5 5 5 5 6 5 5 5 5 5 5 5 5 6 5 5 5 5 5 5 5 6 5 5 5 5 5 6 5 5 5 5 6 5 5 5 5 5 5 5 5 5 5 5 5 6 5 5 5 5 5 5 5 5 5 5 5 5 5 5 6 5 5 5 5 5 5 5 5 5 5 5 5 5 6 6 5 5 6 5 5 5 5 6 5 5 5 6 5 5 6 5 5 5 5 6 5 5 5 5 5 5 5 5 5 5 5 5 5 5 5 5 5 5 5 5 5 5 5 5 5 5 5 5 5 5 5 5 5 5 6 5 5 5 6 5 6 5 5 5 5 5 5 5 5 5 5 5 5 5 5 6 5 5 5 5 5 5 5 5 6 5 5 5 6 5 5 5 5 5 5 5 6 5 6 5 5 5 5 5 5 5 5 5 5 5 5 5 5 6 5 5 6 5 5 5 5 5 5 5 6 5 5 5 5 5 5 5 5 5 5 5 5 5 5 5 5 5 5 5 5 5 5 5 5 5 5 5 6 5 5 6 5 5 5 6 5 5 6 5 5 5 5 5 5 5 5 5 5 5 5 5 5 5 5 5 5 5 6 5 5 5 5 5 5 5 5 5 5 5 5 5 6 5 5 5 5 5 5 5 5 5 5 5 5 5 5 5 5 5 5 5 6 5 5 5 5 5 5 5 5 5 5 5 5 5 5 5 5 6 5 5 6 5 5 5 6 5 5 6 5 5 5 5 5 5 5 5 5 5 5 5 5 5 6 5 5 6 5 5 5 5 5 5 5 5 5 5 5 5 5 5 5 5 5 5 5 5 5 5 5 5 5 5 5 5 5 5 5 5 5 5 5 5 6 5 5 5 5 6 5 5 5 5 5 5 5 5 5 5 5 5 5 5 5 6 5 6 6 5 5 6 5 6 5 5 5 5 5 5 5 5 6 5 5 6 5 5 5 5 6 6 5 6 5 5 5 5 5 5 5 5 5 5 5 5 5 5 5 5 5 5 5 5 5 6 5 5 5 5 5 5 5 5 5 5 5 5 5 5 5 5 5 5 5 5 5 5 5 5 5 6 5 5 5 5 5 6 5 5 5 5 5 5 5 5 5 6 5 5 5 5 5 5 5 5 5 5 5 5 5 5 5 5 5 6 6 5 5 6 5 5 5 6 5 5 5 5 5 5 5 5 5 5 6 5 5 6 5 6 5 5 5 5 6 5 5 5 6 5 5 5 5 5 5 6 5 5 5 5 5 5 6 5 5 5 5 5 5 5 5 5 5 5 5 5 5 6 5 5 6 5 5 5 6 6 5 5 5 5 5 5 5 5 5 5 6 5 5 5 6 5 5 5 5 6 5 5 5 5 5 5 5 5 6 5 5 5 5 5 6 6 5 5 5 6 5 6 6 5 5 5 5 5 6 5 5 5 5 5 5 6 5 5 5 5 5 5 5 6 5 5 6 5 5 6 5 5 5 5 5 5 5 5 5 5 5 5 5 5 6 5 5 5 6 5 5 6 5 5 5 5 6 5 5 5 5 5 5 5 5 6 5 5 5 5 6 5 5 5 5 5 5 5 5 6 5 5 5 5 5 5 5 5 5 6 5 5 5 6 5 5 6 5 5 6 5 5 5 5 5 5 5 5 5 6 5 5 5 5 5 5 5 5 5 5 5 5 5 5 5 5 6 5 5 5 5 5 5 5 5 5 5 5 5 5 5 5 5 5 5 5 5 5 5 5 5 5 5 6 5 6 5 5 5 5 5 5 5 5 5 5 6 5 5 6 5 5 5 5 5 5 5 5 5 5 5 5 5 5 5 5 5 5 5 5 5 6 5 5 5 5 5 5 5 5 5 6 5 6 5 5 5 5 5 5 5 6 5 6 5 5 5 5 5 5 5 5 5 5 5 6 5 5 5 5 6 5 6 5 5 5 5 5 5 6 5 5 6 5 5 6 5 5 5 6 6 6 5 5 5 5 5 5 5 5 5 5 5 5 5 6 5 5 5 5 5 5 5 6 5 6 5 6 5 5 6 6 5 5 5 5 5 5 6 5 5 5 5 6 5 6 5 6 5 6 5 5 5 5 6 5 5 5 5 5 6 5 5 5 5 5 5 5 5 5 5 5 5 5 5 6 5 5 5 5 5 6 5 5 5 6 5 5 5 5 5 5 5 5 5 5 5 5 5 5 5 5 5 6 5 5 5 5 6 5 5 5 5 5 5 6 5 5 5 5 5 5 5 5 5 5 6 5 5 6 5 6 5 5 5 5 5 5 5 5 5 5 5 6 5 5 5 5 5 5 6 5 6 6 5 6 5 5 5 5 5 5 5 6 5 5 5 5 5 5 5 5 5 5 5 5 5 5 5 5 6 5 5 5 5 5 5 5 5 5 5 6 5 5 5 5 5 5 5 5 5 5 6 5 5 5 5 6 5 5 5 5 5 6 5 5 5 5 6 5 5 5 5 5 5 5 5 5 5 5 5 5 5 5 5 5 5 6 5 5 5 5 5 5 5 5 6 5 6 6 5 5 5 5 5 6 5 5 5 5 5 5 5 5 5 5 5 5 5 5 6 5 5 6 5 6 6 5 5 5 5 5 5 6 5 5 5 5 6 5 6 5 5 6 5 5 5 5 5 5 6 6 5 5 5 5 5 5 5 5 5 5 5 5 5 5 5 6 5 5 5 5 5 5 5 6 5 6 5 5 5 6 5 6 5 5 5 5 5 5 5 5 6 5 5 5 5 5 6 5 6 5 5 5 5 6 5 5 5 5 5 6 5 5 5 5 5 5 5 5 5 5 5 5 5 5 5 5 5 5 5 5 5 5 5 5 6 5 5 5 6 5 6 5 5 5 6 5 5 5 5 5 5 5 5 5 5 5 5 5 5 5 5 5 6 6 6 6 5 5 5 5 5 5 6 5 5 5 6 5 5 5 5 5 5 5 5 5 5 6 6 6 5 5 6 6 5 5 5 5 5 5 5 5 5 6 5 5 5 5 5 5 5 5 6 6 5 5 5 6 5 5 5 5 5 5 5 5 5 5 5 6 5 6 5 5 5 5 5 6 6 5 5 6 6 5 5 5 5 5 5 5 5 5 5 5 5 5 5 5 5 5 5 5 5 5 5 5 5 5 5 5 5 5 5 5 5 5 5 5 5 5 5 5 5 5 5 6 6 5 5 5 5 5 5 5 5 5 5 5 5 5 5 5 5 5 5 5 5 6 5 5 5 5 5 5 5 5 5 5 5 5 5 5 5 5 6 5 6 5 5 5 5 5 5 5 5 6 5 5 5 5 5 5 5 5 5 5 5 6 5 5 6 5 5 6 5 5 5 5 6 5 5 5 5 6 5 5 6 5 6 5 5 5 5 5 6 5 5 5 5 5 5 5 6 5 5 5 5 5 5 5 5 5 5 5 5 5 5 5 5 5 5 5 5 5 5 5 5 6 5 5 5 6 5 5 6 5 5 5 6 5 5 5 5 6 5 6 5 5 5 5 5 5 5 5 6 5 5 5 5 5 5 5 5 5 5 6 5 5 6 5 5 6 5 5 6 6 5 5 5 5 5 5 5 6 6 5 5 5 6 5 5 6 6 5 5 5 6 6 5 6 5 5 6 5 5 5 5 6 5 6 6 5 5 5 6 5 6 6 5 6 6 6 6 5 6 5 6 5 6 5 5 5 6 5 5 6 5 6 6 5 5 5 5 6 5 6 6 5 5 5 6 6 5 5 6 6 5 5 5 5 6 5 5 5 5 6 5 5 5 5 6 5 6 5 6 5 6 5 6 5 6 5 5 5 5 5 6 5 5 6 6 6 5 5 6 6 5 6 5 5 6 5 5 5 5 5 5 6 5 5 6 5 6 5 5 5 5 6 5 6 5 6 5 5 5 6 5 5 6 5 6 5 6 5 5 5 5 5 6 5 5 5 5 5 5 5 5 5 5 6 5 5 5 5 6 5 5 6 5 5 5 5 5 6 5 5 6 5 5 5 6 5 6 5 5 5 6 5 5 5 5 6 5 5 5 5 6 6 5 5 5 5 5 5 6 5 5 6 5 5 5 5 5 5 5 5 5 5 5 5 5 5 5 5 5 5 5 5 5 5 5 5 5 5 5 5 5 5 5 5 5 5 5 5 5 5 5 5 5 5 5 5 5 5 5 5 5 5 5 5 5 5 5 5 5 5 6 5 5 5 5 5 5 5 5 5 5 5 5 6 5 5 6 5 5 5 6 5 5 5 5 5 5 5 5 5 5 5 5 5 5 5 6 5 5 5 5 5 5 5 5 5 5 5 5 5 5 5 5 6 5 5 5 5 5 5 5 5 5 5 5 5 5 6 5 5 6 5 5 6 5 6 5 5 5 5 5 5 5 6 5 5 5 5 5 5 5 5 5 5 5 5 6 5 5 5 6 5 5 5 5 5 5 5 5 5 6 5 5 5 5 5 5 6 5 5 5 5 5 5 6 5 5 5 6 5 5 5 5 5 5 5 6 5 5 5 5 5 5 5 5 5 5 6 5 5 5 5 5 5 5 5 5 5 5 5 5 5 5 5 6 5 6 5 5 5 5 5 5 5 5 5 5 6 5 6 5 5 5 5 5 5 5 5 5 5 5 6 5 5 5 5 5 5 5 5 5 5 5 6 5 5 5 5 5 5 5 6 5 5 5 5 5 5 5 6 5 5 5 5 5 5 5 5 5 5 5 6 5 5 5 5 5 5 5 5 6 5 6 5 5 5 5 5 5 5 5 5 5 6 5 5 5 6 5 5 5 5 5 5 5 5 5 6 5 5 5 5 5 5 5 5 5 5 5 5 5 5 5 5 6 5 5 5 5 5 5 5 5 5 5 5 5 5 5 5 5 5 5 6 5 5 6 5 5 6 5 5 5 5 5 6 5 5 5 5 5 5 5 5 5 5 5 5 5 5 5 5 5 5 5 5 5 5 5 5 5 5 5 5 5 5 5 5 5 5 5 5 5 5 5 5 5 5 5 5 5 5 5 5 5 5 5 5 5 5 5 5 5 5 5 6 5 5 6 5 5 5 5 5 5 5 5 5 5 5 5 5 5 5 5 5 5 5 5 5 5 5 5 6 6 5 5 5 5 5 5 5 5 5 5 5 5 5 5 5 5 6 6 5 5 5 5 5 5 5 6 5 6 5 5 6 6 5 5 5 5 5 5 5 5 5 5 5 6 5 6 5 5 5 6 5 5 5 6 5 6 5 5 5 5 5 6 6 5 5 5 5 5 5 5 5 5 5 5 5 5 5 5 5 5 5 5 5 5 5 5 5 5 5 5 5 5 5 5 5 5 5 5 5 5 5 5 5 5 5 5 5 5 5 5 5 5 5 5 5 5 5 5 5 5 5 5 5 5 5 5 5 5 5 5 5 5 5 5 5 5 5 5 5 5 5 5 5 5 5 5 5 5 5 5 5 5 5 5 5 5 5 5 5 5 5 5 5 5 5 5 5 6 6 5 6 5 6 5 5 6 5 5 5 5 6 5 5 5 5 5 5 5 6 6 6 5 5 5 5 5 6 6 5 5 5 5 5 5 5 5 5 5 5 5 5 5 5 5 5 5 5 5 5 5 5 5 5 5 5 5 5 5 5 5 5 5 6 5 5 6 5 5 5 5 5 5 5 5 5 5 5 6 5 5 5 5 5 5 5 6 5 5 5 5 5 5 5 5 5 5 5 5 5 5 5 5 6 5 5 6 5 5 5 5 5 5 5 5 5 5 5 5 5 5 5 5 5 5 5 5 5 5 5 6 5 5 6 5 5 6 5 5 5 5 5 5 5 6 5 5 5 5 5 5 6 5 5 6 5 5 5 5 6 5 6 5 5 6 5 5 5 5 6 5 6 5 5 6 5 5 5 5 5 5 5 5 5 5 5 5 6 5 5 5 6 5 5 6 5 5 5 5 6 5 5 5 5 5 5 5 5 5 5 6 5 5 5 5 5 5 5 5 5 5 6 5 5 5 5 5 5 5 5 5 5 5 5 6 5 5 6 5 5 5 5 5 5 5 5 5 5 6 5 5 5 5 5 6 5 6 6 5 5 6 5 5 5 5 5 5 5 5 5 6 6 5 5 5 5 5 5 6 5 5 5 5 5 5 5 5 5 5 5 5 5 5 5 5 5 5 5 5 5 5 5 5 5 6 5 5 5 5 5 5 5 5 5 5 5 5 5 5 5 5 5 5 5 5 5 5 5 5 5 5 5 5 5 5 5 5 5 5 5 5 5 5 5 5 6 5 5 5 5 5 5 5 5 5 5 6 5 5 5 6 5 6 5 5 5 6 5 5 5 6 5 6 5 6 5 6 6 5 5 6 5 5 5 6 5 5 5 5 5 6 5 5 5 5 6 5 5 5 6 5 5 5 5 6 5 6 5 5 5 5 5 5 5 5 5 5 5 5 5 5 6 5 5 5 5 6 5 5 6 5 5 6 6 5 5 6 5 6 5 5 5 6 6 6 6 5 5 6 5 5 5 5 6 5 6 5 5 6 6 6 5 6 5 5 6 6 6 5 5 5 5 5 5 5 5 5 6 6 5 5 5 5 6 6 5 5 5 6 5 6 5 5 5 5 5 5 5 5 5 5 5 6 5 5 5 5 5 5 5 5 5 5 5 5 5 5 5 5 5 5 5 5 5 5 5 6 5 5 5 5 5 5 5 5 5 5 5 5 5 5 5 5 6 5 5 6 5 5 5 5 5 5 5 5 5 6 5 5 5 6 6 5 5 6 5 5 5 5 5 6 5 6 5 5 5 6 5 5 5 5 5 5 5 6 5 5 6 5 5 5 5 6 5 5 5 6 6 5 5 6 5 5 5 6 5 5 5 5 5 5 5 6 5 5 6 5 6 6 6 5 6 5 6 6 5 5 5 5 5 5 6 5 5 6 5 5 5 5 5 5 5 5 5 5 5 5 5 5 5 5 5 5 5 5 5 5 5 5 5 5 5 5 5 5 5 5 5 5 5 6 6 5 5 5 5 5 5 5 5 6 6 6 6 5 5 6 5 5 5 5 5 5 5 5 6 5 5 6 5 5 5 6 5 5 5 5 6 5 5 5 5 5 5 5 5 5 5 5 5 5 5 6 5 5 5 5 5 6 5 5 5 5 5 5 5 5 6 5 5 5 6 6 5 5 6 6 5 5 5 5 5 6 5 5 5 5 5 5 6 5 6 5 5 5 5 5 5 5 5 6 6 5 6 6 6 5 6 5 5 5 5 5 5 6 5 5 5 5 5 5 5 6 5 5 5 5 5 5 5 5 5 5 5 5 5 5 5 5 5 5 5 5 5 5 5 5 5 5 5 5 5 5 5 5 5 5 5 5 5 5 5 5 5 5 5 5 5 5 5 5 5 5 5 5 5 5 5 5 5 6 5 5 5 5 5 5 5 6 5 5 6 5 5 5 6 5 6 5 5 6 5 5 5 5 5 5 5 6 5 5 5 6 5 5 5 5 5 5 5 6 5 6 5 5 5 5 5 5 5 5 5 5 5 5 5 5 5 5 5 5 5 5 5 5 5 5 5 6 6 5 6 5 5 5 5 5 5 5 6 5 6 5 6 6 6 5 5 6 5 5 6 5 5 5 6 5 5 5 5 5 5 5 6 6 5 5 6 5 5 5 6 5 5 5 5 6 5 6 5 5 5 5 5 5 6 5 6 5 5 5 5 5 6 5 5 6 5 5 5 5 5 5 5 5 5 5 5 5 5 5 5 5 6 5 5 6 6 5 6 5 5 5 5 5 5 5 5 6 5 5 5 5 5 5 5 5 5 5 5 5 5 5 5 5 6 5 5 5 6 5 5 6 5 5 5 5 5 5 6 5 5 5 5 5 5 5 5 5 5 5 5 5 5 5 5 5 5 5 6 6 5 5 5 5 5 5 5 6 5 5 5 6 5 5 6 5 6 5 5 6 5 6 6 5 6 5 6 5 6 5 5 5 5 5 5 5 5 5 5 5 5 5 5 5 6 6 5 5 5 5 5 5 5 6 5 5 5 5 5 5 5 5 5 5 5 5 5 5 5 6 5 6 5 5 5 5 5 5 6 5 5 5 6 5 5 5 6 5 5 5 5 5 5 5 5 5 5 5 5 5 5 5 5 5 5 5 5 5 6 5 5 5 5 6 5 5 5 5 5 6 5 5 5 6 5 5 5 5 5 5 5 5 5 5 5 5 6 5 5 5 5 6 5 5 5 5 5 5 5 5 6 5 5 5 5 5 5 5 6 5 5 5 5 6 5 5 5 5 5 5 5 5 6 5 5 5 5 5 5 5 5 5 6 5 5 5 5 5 5 5 5 5 5 5 5 5 5 5 5 5 5 5 5 5 5 5 5 5 5 5 5 6 5 5 5 5 5 5 5 6 5 5 5 5 5 5 5 5 5 5 5 5 5 5 5 5 5 5 5 5 5 5 5 5 5 5 5 5 5 6 5 5 5 5 5 5 5 5 5 5 5 5 5 5 5 5 5 5 5 5 5 5 5 5 5 5 5 5 5 5 5 5 6 5 5 6 5 5 5 5 6 5 5 6 5 5 5 5 6 5 5 5 6 5 5 5 6 5 5 5 5 5 5 5 5 5 5 6 5 5 6 5 5 5 5 5 5 6 5 5 5 5 5 6 5 5 5 5 6 5 5 5 5 5 5 5 5 5 5 6 5 5 5 5 5 5 5 5 5 6 5 5 5 5 5 5 5 5 5 5 5 5 5 6 5 5 5 5 5 5 5 6 5 5 5 5 5 6 5 5 5 5 5 5 5 5 5 5 5 5 5 5 6 5 5 5 5 5 5 5 5 6 5 5 5 5 5 5 5 5 5 5 5 5 5 5 5 5 5 5 5 5 5 5 5 5 5 5 5 5 5 5 5 5 5 6 5 5 5 5 6 6 5 5 6 5 5 6 5 5 6 5 5 5 5 5 5 5 5 5 5 5 5 5 5 5 5 5 5 5 6 5 5 5 5 6 5 5 5 5 5 5 5 5 5 5 5 5 5 5 5 5 5 5 5 5 5 5 5 5 5 5 5 5 5 5 5 5 5 5 5 5 5 5 5 5 5 5 5 5 5 5 5 5 5 5 5 5 5 5 5 5 5 5 5 5 5 5 5 5 5 5 5 5 5 5 5 6 5 5 5 5 6 5 6 5 5 6 5 5 5 5 6 5 5 6 5 5 5 5 5 5 5 5 5 5 5 5 5 5 5 5 5 5 5 5 5 5 5 5 5 5 5 5 5 5 5 5 5 5 5 5 5 5 5 5 5 5 5 5 5 5 5 5 5 5 5 5 5 5 5 5 5 5 5 5 6 5 5 5 5 5 5 5 5 5 6 5 5 5 5 5 5 5 6 5 5 5 5 5 5 5 5 5 5 5 5 5 5 5 5 5 5 5 6 6 5 5 6 5 6 5 5 5 5 5 5 5 5 5 5 5 5 5 5 5 5 5 5 5 5 5 5 5 5 5 5 5 5 5 5 5 5 5 5 5 5 5 5 5 5 5 5 5 5 5 5 5 5 5 5 5 5 5 5 5 6 6 5 5 5 5 5 5 5 5 5 5 5 5 5 5 5 5 5 5 5 5 6 5 5 5 5 5 5 5 5 5 5 6 5 5 5 6 5 5 5 5 5 5 6 5 5 5 5 5 5 5 5 5 5 5 5 5 6 5 5 5 5 5 5 6 6 5 6 5 5 6 5 5 5 6 5 5 5 6 5 5 5 5 5 6 5 6 5 5 5 5 6 5 5 5 5 6 5 6 5 5 6 6 5 5 5 5 5 6 5 5 5 5 5 6 6 6 5 6 5 6 5 5 5 5 5 6 5 5 5 5 5 5 5 5 6 6 5 5 6 5 5 5 5 6 5 5 6 5 5 6 5 5 5 5 5 5 5 5 5 6 5 5 5 5 5 5 5 5 6 5 5 5 5 5 5 5 5 5 6 6 5 5 5 5 5 5 5 5 5 5 5 5 5 5 5 5 5 5 5 5 5 5 5 5 5 5 5 5 5 5 5 5 5 5 5 6 5 5 5 5 6 5 5 5 5 5 5 5 5 5 5 5 5 5 5 5 5 6 6 5 5 5 5 5 5 5 5 5 6 5 5 5 5 6 5 5 6 5 5 5 5 5 5 5 5 5 5 5 5 5 6 5 5 5 5 5 5 5 5 5 5 5 5 5 5 5 5 5 5 5 5 5 5 5 5 5 6 5 5 5 5 5 6 5 5 5 6 5 5 5 6 6 5 5 5 5 5 5 5 5 5 5 5 5 5 5 6 5 5 5 6 5 5 5 5 6 6 5 5 5 5 5 5 5 5 5 5 5 5 5 5 5 5 5 5 5 5 5 5 5 6 5 5 5 5 5 5 5 5 5 6 5 5 5 5 6 5 6 5 5 5 5 6 5 5 5 5 5 5 5 5 5 5 5 5 5 5 5 6 5 5 6 5 5 5 5 5 5 5 5 5 5 6 6 5 5 5 5 6 5 5 5 6 5 5 5 5 6 6 5 6 5 6 5 6 5 5 6 5 5 6 5 5 6 5 5 5 6 5 5 6 5 6 5 6 5 5 6 5 5 5 5 5 5 5 5 5 5 5 5 5 6 5 5 5 5 5 5 5 5 5 5 5 5 5 5 5 5 6 6 5 5 5 5 5 6 5 5 5 5 6 5 5 6 5 5 5 5 6 5 5 5 5 5 5 5 5 5 5 5 5 5 5 5 5 5 5 5 5 5 5 5 5 5 5 5 5 5 5 5 5 5 5 5 5 5 5 6 5 5 5 5 5 5 5 5 5 5 5 5 5 6 5 6 5 5 5 5 6 5 5 5 5 5 5 5 5 5 5 5 5 5 5 5 5 5 5 6 5 6 5 5 6 5 5 5 6 5 5 5 5 5 5 5 5 5 5 5 5 5 5 5 5 5 5 5 5 5 5 5 5 5 5 5 6 5 5 6 5 5 5 5 5 5 5 5 5 5 5 5 5 5 5 5 5 5 5 5 5 5 5 5 5 5 5 5 5 5 5 5 5 5 5 6 5 6 5 5 5 5 5 5 5 5 5 5 5 5 5 5 5 5 5 6 6 5 5 5 5 5 6 5 5 5 5 6 5 5 5 5 6 5 5 5 5 5 5 5 5 5 5 5 5 5 5 5 5 5 5 6 5 5 5 5 5 5 6 5 5 6 5 5 5 5 5 5 5 5 5 5 5 5 6 5 5 6 5 5 5 5 5 5 5 5 6 5 5 5 5 5 5 6 5 5 6 5 5 5 5 5 5 5 5 5 5 5 5 5 5 5 5 5 5 5 5 5 5 5 5 5 5 5 5 5 5 5 5 5 5 5 5 6 5 5 5 6 5 5 6 5 5 5 5 5 5 6 5 5 5 5 5 6 5 5 5 5 5 5 6 5 5 5 5 6 5 6 5 5 6 5 5 5 6 5 5 5 5 5 5 5 5 5 5 5 5 5 6 5 5 5 5 5 5 5 5 5 5 5 5 5 5 5 5 5 5 5 5 5 5 5 5 6 5 6 5 6 5 6 5 5 5 5 6 5 5 5 5 6 5 5 5 5 5 5 5 5 5 5 5 5 5 5 6 5 5 5 6 5 5 5 6 5 5 6 5 5 5 6 5 5 5 5 6 5 5 5 5 6 5 5 5 5 5 5 5 5 5 5 6 5 5 5 5 5 6 5 6 5 5 5 5 5 6 6 5 5 6 5 6 5 5 6 5 5 5 5 5 5 5 5 5 5 5 5 5 6 5 5 5 5 5 6 5 5 5 5 5 5 5 5 5 5 6 5 6 5 5 6 5 5 6 5 6 5 6 5 5 5 5 5 6 6 5 5 5 5 5 5 5 5 5 5 5 6 5 5 5 5 5 6 5 5 5 6 5 6 5 5 5 5 5 5 5 5 5 5 5 5 5 5 5 6 5 5 5 5 6 5 5 5 5 5 5 5 5 5 5 5 5 5 5 5 5 5 5 5 5 5 5 5 6 5 5 6 5 5 5 5 5 5 5 6 5 5 6 5 6 5 5 5 5 5 5 5 5 5 6 5 5 6 5 5 5 6 5 5 5 5 5 5 5 6 5 5 5 5 6 6 5 5 5 5 5 5 5 5 5 6 5 5 5 5 5 5 5 5 5 5 5 5 5 5 5 5 6 5 6 5 5 5 6 5 5 5 5 5 5 5 5 5 5 5 5 5 6 5 5 5 5 5 6 5 5 5 6 6 5 5 5 6 5 5 6 5 5 5 5 6 6 5 5 5 6 5 5 6 5 5 5 5 6 5 6 5 5 5 6 5 5 5 5 5 5 5 5 5 5 5 5 5 5 5 5 5 5 5 5 5 6 5 5 5 5 5 5 5 5 5 6 5 5 5 6 5 6 5 5 5 5 5 5 5 5 5 5 5 6 5 5 5 5 5 6 5 5 5 5 5 6 5 5 5 5 5 5 5 5 5 5 5 5 5 5 5 5 6 5 5 5 5 5 5 5 5 5 6 5 5 5 5 5 5 5 5 5 5 5 5 5 5 5 6 5 5 5 5 5 5 5 5 5 5 5 5 5 5 5 5 5 5 5 5 5 5 5 5 5 5 5 5 5 6 5 5 5 5 6 5 6 6 5 5 5 5 5 5 6 5 6 5 5 5 6 5 5 6 5 5 5 5 5 5 6 5 5 5 5 5 5 5 6 5 5 5 5 6 5 5 5 5 5 5 6 5 5 5 5 5 5 5 5 5 5 5 5 6 5 6 5 5 5 5 5 5 5 6 6 5 5 5 5 5 5 5 5 6 5 5 5 6 5 5 6 5 5 5 5 5 5 5 5 5 5 5 5 5 5 5 5 5 5 5 5 5 5 5 5 5 6 5 5 6 5 5 5 5 5 6 5 5 6 5 6 5 5 5 6 5 5 5 5 6 5 5 6 6 5 5 5 5 5 6 5 5 6 5 5 5 5 5 6 5 5 5 5 5 5 5 5 5 6 5 5 5 5 6 5 5 5 5 5 5 6 5 6 5 5 5 6 5 6 5 5 6 5 6 5 5 5 6 5 5 5 5 5 5 5 5 5 5 5 5 5 6 5 5 5 5 6 5 5 5 5 5 5 6 5 5 5 5 5 5 5 6 5 5 5 5 5 5 6 5 5 5 5 5 5 5 6 5 5 6 5 5 5 5 5 5 5 5 5 6 6 5 5 5 5 5 5 5 5 5 5 5 5 6 5 5 5 5 5 5 5 6 5 5 5 6 5 6 5 5 6 5 5 5 5 5 6 5 5 5 6 5 5 5 5 6 5 5 5 6 5 5 5 5 5 5 5 6 5 5 6 5 5 5 6 5 5 5 6 5 5 5 5 6 5 5 5 6 5 5 5 5 5 5 5 5 5 6 5 5 5 5 5 5 5 5 5 6 5 5 5 5 6 5 5 6 5 5 5 5 5 5 5 5 5 5 5 5 5 5 5 5 5 5 5 5 5 5 5 5 5 5 6 5 5 5 5 5 5 5 5 5 5 5 6 5 5 5 6 5 5 5 5 5 5 6 5 5 5 5 5 5 5 5 5 5 5 5 5 5 5 5 5 5 5 5 5 5 5 5 5 5 6 5 6 5 5 6 6 5 5 5 5 5 5 5 5 5 5 5 5 5 5 5 5 5 6 5 5 5 5 5 5 5 5 5 5 5 5 5 5 5 5 5 5 5 5 5 5 5 5 5 5 5 5 5 5 5 5 5 5 5 5 5 5 5 5 5 5 5 5 5 5 5 5 5 5 5 5 5 5 5 5 5 5 5 5 5 6 5 5 6 5 5 5 5 6 5 5 5 5 5 5 5 5 5 5 6 5 6 5 5 5 6 5 5 5 6 5 6 5 5 5 6 5 6 5 6 5 5 5 6 5 5 5 5 6 5 6 5 5 5 5 5 6 5 6 6 5 5 5 5 5 5 6 5 5 5 6 5 5 5 5 5 5 5 5 5 5 5 5 5 5 5 5 5 5 5 6 5 5 5 6 6 5 5 5 5 5 6 5 5 5 5 5 5 5 5 5 5 5 5 5 5 6 5 5 6 5 6 5 5 5 6 5 6 5 5 6 5 5 5 5 5 5 5 5 5 5 5 6 5 5 5 5 5 5 5 5 5 5 6 6 5 5 5 5 5 5 5 6 5 5 5 5 5 5 5 5 5 5 5 5 5 5 6 5 5 5 5 5 5 5 5 5 5 6 5 5 5 6 5 6 6 5 5 5 5 5 5 5 5 6 5 5 5 5 5 5 5 5 5 6 5 6 5 6 5 5 5 5 5 5 5 5 6 5 6 5 5 5 5 5 5 6 5 5 6 5 6 5 5 5 5 5 5 5 5 5 5 5 5 5 5 6 5 5 5 5 5 5 5 5 5 5 6 5 5 5 5 5 5 6 5 5 5 5 5 5 5 5 5 5 5 5 5 5 5 5 5 5 5 5 5 5 5 5 5 6 5 5 5 5 5 6 5 5 5 5 5 5 5 5 5 5 5 6 5 5 5 5 6 5 5 5 5 5 6 5 5 5 5 5 6 5 5 6 5 5 5 5 5 5 5 5 5 5 5 5 5 5 5 5 5 5 5 5 5 5 5 5 5 5 6 5 5 6 5 5 5 5 5 5 5 5 5 5 5 5 5 5 5 6 5 5 5 5 5 5 5 5 5 6 5 5 5 5 5 5 5 6 5 5 5 5 5 6 5 5 5 5 5 5 6 5 5 5 5 6 5 5 5 5 5 5 5 6 5 5 6 5 5 6 5 5 5 5 6 5 5 5 5 5 5 5 5 6 5 5 6 5 5 5 5 5 5 5 5 5 6 5 5 5 5 5 6 5 5 5 5 6 5 5 5 6 5 5 5 5 5 5 5 5 5 5 5 6 6 5 5 5 5 5 5 5 5 5 5 5 6 5 5 5 5 5 6 5 6 6 5 6 6 5 5 6 5 5 5 5 5 5 6 5 6 6 5 5 5 5 5 6 5 5 5 5 5 5 5 5 6 5 5 5 5 6 5 5 5 5 5 6 5 5 6 5 5 5 5 5 5 5 6 5 6 5 5 5 5 5 5 5 6 6 5 5 5 5 5 5 5 6 5 5 5 5 5 5 6 5 5 5 5 5 5 5 5 5 5 5 5 5 5 6 5 5 6 5 5 5 5 6 5 5 5 5 6 5 5 5 5 5 5 6 5 5 5 5 5 5 5 6 5 5 5 6 5 5 5 5 6 5 5 6 5 5 5 5 5 5 5 6 5 5 5 5 6 5 6 5 5 5 5 5 5 5 5 5 5 5 5 5 5 6 5 5 5 5 5 5 5 6 5 5 6 5 5 6 5 5 5 5 5 5 5 5 5 6 5 5 5 6 5 5 5 5 5 5 5 5 5 6 5 5 5 5 5 5 5 5 5 5 5 6 5 5 5 6 5 5 5 5 5 5 5 5 5 5 5 6 5 5 5 5 5 5 5 5 5 5 6 5 5 5 5 5 6 5 5 5 5 5 5 5 5 6 5 5 6 5 5 6 5 5 5 5 6 6 5 5 5 5 6 5 5 5 5 6 5 5 6 5 5 5 5 6 5 5 6 5 5 5 5 5 6 5 5 5 5 5 5 5 5 6 5 6 5 5 5 5 5 5 5 5 5 6 6 5 5 5 5 5 5 6 5 5 6 5 5 6 5 6 5 5 5 6 5 5 6 5 5 5 5 5 5 5 5 6 6 5 5 6 6 5 5 5 5 6 5 5 5 6 5 6 5 6 6 6 5 6 5 5 5 6 5 5 5 5 5 5 5 5 5 6 5 5 6 5 5 5 5 5 5 6 5 5 5 5 5 5 6 6 6 5 5 5 5 5 5 5 5 5 5 5 6 5 5 5 5 6 5 5 5 5 5 5 5 5 6 5 5 6 5 5 5 6 5 5 5 5 5 5 5 5 5 6 5 5 5 5 5 5 5 5 6 5 5 5 6 5 5 6 5 5 5 6 5 6 5 5 6 5 6 5 5 6 5 5 5 5 5 5 6 5 5 6 5 5 5 5 5 5 5 5 5 5 5 5 5 5 5 5 5 5 5 5 5 5 5 5 5 5 5 5 5 5 5 5 5 5 5 5 5 5 5 5 5 5 5 5 5 5 5 5 5 5 5 5 5 5 5 5 5 5 5 5 5 5 5 5 5 5 5 5 5 5 5 5 5 5 5 5 5 5 5 5 5 5 5 5 5 5 5 5 5 5 5 5 5 5 5 5 6 5 5 5 5 6 5 5 5 5 5 5 5 5 5 5 5 5 6 6 5 5 5 5 5 5 5 5 5 5 5 5 5 5 5 6 5 5 5 6 5 5 5 5 5 5 5 5 5 5 6 5 6 5 5 5 5 5 5 5 5 5 5 5 5 5 5 5 5 5 5 5 5 5 5 5 5 6 5 5 5 5 6 5 5 5 5 5 5 5 5 6 5 5 5 5 5 5 5 5 5 5 5 5 5 5 5 5 5 5 5 5 5 5 5 5 5 5 5 5 5 5 5 5 5 5 5 5 5 5 5 5 5 5 5 5 5 5 5 5 5 6 5 5 5 5 5 5 5 5 5 5 5 5 5 5 5 5 5 5 5 5 5 5 5 5 5 5 5 5 5 5 5 5 6 5 5 5 5 5 5 6 5 5 5 5 5 5 6 5 5 6 5 6 5 6 5 5 5 5 6 5 5 5 5 5 6 5 5 5 6 6 5 5 5 6 5 5 5 5 6 6 5 5 5 5 5 5 5 5 5 5 5 5 5 5 6 5 5 6 5 5 6 6 5 5 5 5 5 5 5 5 5 5 6 5 6 5 5 5 5 5 5 5 5 5 5 5 6 5 5 5 5 5 5 5 6 5 5 5 5 5 5 5 5 5 5 5 5 5 5 5 5 5 5 6 6 5 5 5 5 5 5 5 5 5 5 5 5 5 5 5 5 5 6 5 5 5 5 5 5 5 5 5 6 5 5 5 5 5 5 5 5 5 5 5 5 6 5 5 5 5 6 5 6 5 5 5 5 5 5 5 5 5 6 5 5 5 5 6 5 5 5 5 6 5 6 5 5 5 5 5 5 5 5 5 5 5 5 6 5 5 5 5 5 5 5 5 5 5 5 5 5 5 5 6 5 6 5 5 6 5 5 5 6 5 6 5 5 6 5 5 6 5 6 5 5 5 5 5 5 5 6 6 5 5 5 5 6 6 5 5 6 6 5 6 5 5 6 6 5 5 6 5 5 6 5 5 5 5 5 5 5 5 6 5 5 6 5 6 5 5 5 6 5 5 5 5 5 5 5 5 6 5 5 5 5 5 5 5 5 5 5 5 5 5 5 5 5 5 5 5 5 5 5 6 5 5 5 5 5 5 5 5 5 5 5 5 5 5 5 5 5 5 
</DataArray>
<DataArray type="Float64" Name="stress" NumberOfComponents="9" format="ascii">
-173.9549244397881 394.82084336854496 0 394.82084336854496 -0.031245587074408832 0 0 0 0 0.027463546797207528 383.37801543111732 0 383.37801543111732 -276.67736006059386 0 0 0 0 -36.15061201613571 318.33812237264465 0 318.33812237264465 -392.88377226825287 0 0 0 0 -57.863383131938917 355.05241964822289 0 355.05241964822289 -158.91451927437629 0 0 0 0 -28.11492188590546 192.01971626484328 0 192.01971626484328 -242.14057691806556 0 0 0 0 15.431230547354062 234.1517676423241 0 234.1517676423241 -560.8840139463573 0 0 0 0 -1.4065101506785638 0.6901054897790857 0 0.6901054897790857 -0.24393171894825727 0 0 0 0 -54.615595718323675 59.434467287659118 0 59.434467287659118 -102.35700025008191 0 0 0 0 -210.99764382314243 162.15459379072672 0 162.15459379072672 14.668838410055287 0 0 0 0 -15.72916366931895 89.619968836059343 0 89.619968836059343 -102.8571914934987 0 0 0 0 -2.8509777561700318 1.1870545798135694 0 1.1870545798135694 0.4724951806234241 0 0 0 0 -548.84654478828998 178.17485544113606 0 178.17485544113606 79.218080970418669 0 0 0 0 64.793158325297554 96.700558790977084 0 96.700558790977084 6.0634757355619513 0 0 0 0 -35.851093826524448 -26.927750137656403 0 -26.927750137656403 74.510259099124596 0 0 0 0 -2.8044317677188104 -0.032248370813235283 0 -0.032248370813235283 -0.1148956774491543 0 0 0 0 -347.94054465714544 216.52565205806513 0 216.52565205806513 -171.82222990096145 0 0 0 0 -136.34993985710753 386.42624136667837 0 386.42624136667837 -164.91011165887448 0 0 0 0 -334.50311849319559 377.52312841052571 0 377.52312841052571 -258.18142603644264 0 0 0 0 -160.35313924741058 176.44351022250248 0 176.44351022250248 -26.609400592129077 0 0 0 0 -172.24601355034247 77.091440791824425 0 77.091440791824425 -0.29306912966967502 0 0 0 0 -233.33077109918304 70.253472797884569 0 70.253472797884569 -21.479056107373253 0 0 0 0 -1.8567923649890297 -0.057522096610778561 0 -0.057522096610778561 -0.057711857665047717 0 0 0 0 -7.6939500755605295 0.27452617049103978 0 0.27452617049103978 0.1788741507013869 0 0 0 0 -23.502173388729716 26.746473285948923 0 26.746473285948923 77.762600842743723 0 0 0 0 -4.7346282425774007 1.8959255837626188 0 1.8959255837626188 -13.556835301205865 0 0 0 0 20.084727180842492 18.796709345643649 0 18.796709345643649 13.646560229044553 0 0 0 0 -7.9903418091344065 6.3104340216759738 0 6.3104340216759738 -6.1730103585214238 0 0 0 0 -0.12020387184307424 0.85878680916179917 0 0.85878680916179917 -0.21075677831870276 0 0 0 0 -0.82713158294374978 -0.032881855592869158 0 -0.032881855592869158 0.1982901861987969 0 0 0 0 -6.0008716307911527 3.058251524019397 0 3.058251524019397 0.15403420081838703 0 0 0 0 -4.7167333837238559 2.0313404312357122 0 2.0313404312357122 0.013884307155732856 0 0 0 0 -6.4824560587502447 3.3123215002134234 0 3.3123215002134234 -0.61471355450009924 0 0 0 0 -4.6100387450533162 11.438790756981234 0 11.438790756981234 -4.5204130291349429 0 0 0 0 -1.9015431404298457 3.1194267520435943 0 3.1194267520435943 -2.319514060624762 0 0 0 0 4.7553086972247911 1.4122883590093807 0 1.4122883590093807 -10.5735297286883 0 0 0 0 -13.223141926094513 35.937712042633621 0 35.937712042633621 16.332782968420361 0 0 0 0 1.7993173394352198 10.311765655823365 0 10.311765655823365 -7.1344900455333118 0 0 0 0 -7.9517233466879489 8.2985124358551019 0 8.2985124358551019 -6.7903445642121234 0 0 0 0 -1.514855153287499 57.383108580845146 0 57.383108580845146 9.8906753806741108 0 0 0 0 77.955784045023393 -3.8172716167032377 0 -3.8172716167032377 -51.448428347215668 0 0 0 0 -1.92299174589035 1.9300364076680125 0 1.9300364076680125 1.0261059313895018 0 0 0 0 -1.4879280144723452 -23.139178029650793 0 -23.139178029650793 12.867083694265602 0 0 0 0 -208.98134770948309 -50.324985828436184 0 -50.324985828436184 52.420539651144281 0 0 0 0 20.941211145286616 24.40627509775868 0 24.40627509775868 -22.261761227880925 0 0 0 0 -4.8558091838494875 14.115333346238003 0 14.115333346238003 7.5185468757990748 0 0 0 0 1.6432693090391695 -2.5069356193253043 0 -2.5069356193253043 -62.750375772815914 0 0 0 0 -37.782000437178795 56.95172521666791 0 56.95172521666791 -45.608284520916641 0 0 0 0 -22.265486444817725 4.8014021185954334 0 4.8014021185954334 138.95475163714764 0 0 0 0 -1.3040570657203574 0.26372657572635916 0 0.26372657572635916 0.14814446546248661 0 0 0 0 -135.24708773281827 -110.38052490212135 0 -110.38052490212135 229.69583711122323 0 0 0 0 -131.76391800925921 97.825471441488844 0 97.825471441488844 -6.6344431162651745 0 0 0 0 -25.512429844184226 145.67193294106801 0 145.67193294106801 -249.10830207566096 0 0 0 0 -10.497674051595823 18.151612256047883 0 18.151612256047883 -143.50051288247414 0 0 0 0 -32.927142767583064 -0.66300329888781562 0 -0.66300329888781562 -11.103140521891874 0 0 0 0 -61.222132878354387 67.116516547922402 0 67.116516547922402 -72.589745392569057 0 0 0 0 2.4696407961819205 -28.978266192822957 0 -28.978266192822957 -20.880184322426658 0 0 0 0 -4.5672401382526004 5.7949179779870974 0 5.7949179779870974 -3.1477769918265039 0 0 0 0 -3.1019708785126596 2.8422668459063338 0 2.8422668459063338 1.7487436108382823 0 0 0 0 -4.2932569936049276 7.1903866757443211 0 7.1903866757443211 1.1859354246935254 0 0 0 0 3.7270701873876533 9.5799709954019363 0 9.5799709954019363 -12.704361074438566 0 0 0 0 2.8420866712872694 4.7721295970052431 0 4.7721295970052431 -1.8213739775956768 0 0 0 0 -15.140438437350895 15.015114754609385 0 15.015114754609385 -9.7605025771154033 0 0 0 0 -3.4266314037526229 3.1149893072377992 0 3.1149893072377992 1.2500883990685807 0 0 0 0 139.27130757653322 45.826766849018895 0 45.826766849018895 -77.931999081947652 0 0 0 0 -1.206068909787561 1.130077380236016 0 1.130077380236016 1.0538958844635431 0 0 0 0 -3.4192141342009563 7.3560694391608195 0 7.3560694391608195 -5.9561932478009112 0 0 0 0 -4.6731725772175992 6.0191918250166214 0 6.0191918250166214 -5.9588904649364771 0 0 0 0 -4.9316439797021303 5.708584449747832 0 5.708584449747832 -5.0499120042668437 0 0 0 0 -6.4647473936402093 8.7961457015812812 0 8.7961457015812812 -5.6984907768510311 0 0 0 0 -3.8184219536542514 6.5485271043871762 0 6.5485271043871762 -3.9934277246247802 0 0 0 0 -3.2942744721265171 10.678442417070983 0 10.678442417070983 1.2384255837077944 0 0 0 0 0.21457229287625523 28.997601714982011 0 28.997601714982011 20.384787253378818 0 0 0 0 0.80639572521431546 13.602117757556925 0 13.602117757556925 -27.851831127052719 0 0 0 0 5.0437403839441686 23.067294508631676 0 23.067294508631676 -7.1007181175222058 0 0 0 0 -4.3241122244762664 5.4056314328863664 0 5.4056314328863664 3.6499987766546838 0 0 0 0 -9.9751445797110136 7.1813439794041187 0 7.1813439794041187 5.0482899914695736 0 0 0 0 -7.4178464919677936 15.124152016263906 0 15.124152016263906 -1.3591499030753766 0 0 0 0 -8.6722428100201796 11.570787798093534 0 11.570787798093534 19.722621850738506 0 0 0 0 -25.512693411903456 11.790904097988459 0 11.790904097988459 19.797939149911031 0 0 0 0 -6.2810561262613192 -0.98399139852972439 0 -0.98399139852972439 17.007055129409309 0 0 0 0 -6.1393163564425777 0.67678280312156858 0 0.67678280312156858 -0.76313394263161172 0 0 0 0 -7.6037137682851608 4.4212267253587925 0 4.4212267253587925 4.5130463262485137 0 0 0 0 -4.0325749145304144 3.461262214481394 0 3.461262214481394 4.5293545589420319 0 0 0 0 -0.46318248436427467 0.08141765378119814 0 0.08141765378119814 3.0721796845459934 0 0 0 0 15.08779856133151 19.926763888433925 0 19.926763888433925 24.760936657153252 0 0 0 0 -9.1902757328853113 2.5327227914515333 0 2.5327227914515333 6.0046833499927743 0 0 0 0 12.493264163600543 19.564508048120842 0 19.564508048120842 26.667706944510044 0 0 0 0 -9.405351019666341 39.69741861156399 0 39.69741861156399 32.232834064115195 0 0 0 0 10.6443548822499 28.277023410633774 0 28.277023410633774 38.337574015200516 0 0 0 0 -0.0029399195445876103 34.198560763873502 0 34.198560763873502 42.276615003668667 0 0 0 0 -6.8585338419416075 19.927472651472726 0 19.927472651472726 20.875420019040575 0 0 0 0 -8.0096283337097702 17.044971729281315 0 17.044971729281315 80.834014521147765 0 0 0 0 0.090116735716136986 -0.19032082456641319 0 -0.19032082456641319 -0.18423773284092881 0 0 0 0 11.935269654961303 14.600502295576007 0 14.600502295576007 18.253119988256003 0 0 0 0 -6.5143647334848538 18.770020471710041 0 18.770020471710041 33.374711899949034 0 0 0 0 -0.12907394397777239 0.11391421234230137 0 0.11391421234230137 0.27304439914694001 0 0 0 0 -0.50539340445389058 1.3682516114957082 0 1.3682516114957082 -0.74669086029695109 0 0 0 0 -112.99894554832645 103.7153166417138 0 103.7153166417138 -82.808146917765043 0 0 0 0 -25.432862352866778 34.901622528830785 0 34.901622528830785 -33.313970432298447 0 0 0 0 -38.737471069146522 92.421163466524717 0 92.421163466524717 -128.81451421669954 0 0 0 0 -0.15592808622022858 73.330019837971122 0 73.330019837971122 -123.75358878281986 0 0 0 0 0.2585329513058241 90.204129026394185 0 90.204129026394185 -129.16840318126526 0 0 0 0 -10.787323979277062 99.320347878552639 0 99.320347878552639 -135.32065433206299 0 0 0 0 -83.276955741468555 -50.728049012521296 0 -50.728049012521296 -25.837579429697598 0 0 0 0 24.366268245321407 46.754535327332633 0 46.754535327332633 -206.91400216443708 0 0 0 0 -22.918390942293399 137.67765706839873 0 137.67765706839873 -158.62352533940975 0 0 0 0 18.017241712375835 56.74854654677074 0 56.74854654677074 -102.74031680562985 0 0 0 0 0.25721174924092338 54.839161240175599 0 54.839161240175599 -67.524735135173614 0 0 0 0 -26.634996392222092 -17.025517708862935 0 -17.025517708862935 -23.188025156741787 0 0 0 0 -2.2128553269436679 3.1692594014251121 0 3.1692594014251121 1.6818158648994075 0 0 0 0 -6.6090310278523248 1.9550115311885747 0 1.9550115311885747 5.8408433622971643 0 0 0 0 8.1763673286222911 -32.663840234999952 0 -32.663840234999952 -137.53735197146671 0 0 0 0 -2.4563435376630878 10.106869681603712 0 10.106869681603712 -4.9530397499656829 0 0 0 0 0.36433055493625943 4.6804632905386825 0 4.6804632905386825 -2.7642719401155773 0 0 0 0 -75.280133931280716 83.187044909961514 0 83.187044909961514 -27.324553587333867 0 0 0 0 1.3838340128570898 1.3982263233065382 0 1.3982263233065382 1.2458065931565656 0 0 0 0 -64.545621951641806 40.563357592754073 0 40.563357592754073 8.6003951254424464 0 0 0 0 -59.688767008368814 35.858014970116528 0 35.858014970116528 -37.128760005306958 0 0 0 0 0.45570373736103953 0.79305210727458331 0 0.79305210727458331 0.97314175060645169 0 0 0 0 -78.606308067661303 55.872963064179658 0 55.872963064179658 -17.944835174264881 0 0 0 0 -56.116046362106317 27.198328160131496 0 27.198328160131496 -16.072274598092918 0 0 0 0 -61.223605622140894 29.615590623621301 0 29.615590623621301 0.035669792127009714 0 0 0 0 -59.005198148461204 31.348451102323452 0 31.348451102323452 -2.8017998780924245 0 0 0 0 -57.905112302010821 33.581124522724167 0 33.581124522724167 -6.435084067443313 0 0 0 0 -47.665107773192631 16.776011344568815 0 16.776011344568815 6.1579761037592107 0 0 0 0 -21.159021719902739 26.848965022540142 0 26.848965022540142 -7.413172051606125 0 0 0 0 -21.130140636713463 27.827622775557074 0 27.827622775557074 12.982516843991107 0 0 0 0 -17.473588734646 29.424097966770205 0 29.424097966770205 -0.0078540178183175158 0 0 0 0 14.3182995483985 14.438274459600507 0 14.438274459600507 -0.24067755292344373 0 0 0 0 19.259991683122962 29.587066629105038 0 29.587066629105038 -0.011334078024447081 0 0 0 0 26.587727962159988 25.827922408117047 0 25.827922408117047 -7.9177965646504163 0 0 0 0 24.276928698116592 50.578694507602563 0 50.578694507602563 26.723889926657648 0 0 0 0 -20.143765399434415 13.322558820299491 0 13.322558820299491 4.9528341268633085 0 0 0 0 -36.233474625618328 70.178074025334354 0 70.178074025334354 -5.3940823150096548 0 0 0 0 -59.644347378389512 39.852751247891092 0 39.852751247891092 -43.109575694637897 0 0 0 0 12.811458710367333 14.962091563717877 0 14.962091563717877 -11.336054594918096 0 0 0 0 176.52905766111598 -7.229812381832744 0 -7.229812381832744 -41.970277098915176 0 0 0 0 23.293346808181468 35.99506021332536 0 35.99506021332536 29.048360987077103 0 0 0 0 0.15978393815414638 0.57047862192010612 0 0.57047862192010612 1.1186226355265489 0 0 0 0 -21.2824442342353 13.053580924452945 0 13.053580924452945 -11.95502558845692 0 0 0 0 -21.052131361354014 20.771177651040148 0 20.771177651040148 -3.4135133246163605 0 0 0 0 -45.083850591590817 16.124178298193328 0 16.124178298193328 4.2329238565307605 0 0 0 0 164.51549538956169 3.8187428979108518 0 3.8187428979108518 -7.6984826157854513 0 0 0 0 -89.527296646830109 18.547021864217641 0 18.547021864217641 9.6797973987168007 0 0 0 0 0.062632428137252116 -0.019737501412244285 0 -0.019737501412244285 0.28812809610875689 0 0 0 0 43.254850865079788 16.650001174121826 0 16.650001174121826 5.2500259630974142 0 0 0 0 32.06201050383811 44.041752265186688 0 44.041752265186688 0.19997285866156744 0 0 0 0 7.0075254565472278 26.817865919719679 0 26.817865919719679 0.020023645940455026 0 0 0 0 -10.117354862586126 13.177085533633772 0 13.177085533633772 -9.0840905422446667 0 0 0 0 -23.63195522449314 47.536568493585037 0 47.536568493585037 1.8914924375058035 0 0 0 0 1.0190566204819334 25.743639682837966 0 25.743639682837966 3.395361147693734 0 0 0 0 9.046808145738396 15.284725514148704 0 15.284725514148704 -11.395304221070546 0 0 0 0 8.8204815389271971 18.576878704046067 0 18.576878704046067 9.8113552745817287 0 0 0 0 10.334744876327022 23.207779303140342 0 23.207779303140342 3.1022396776666028 0 0 0 0 26.840233130265915 20.548365613594797 0 20.548365613594797 -0.015102199616960233 0 0 0 0 20.209951624810856 11.53994992310254 0 11.53994992310254 -11.179513996003152 0 0 0 0 17.764356046223838 25.051335299567654 0 25.051335299567654 -0.54801726062487433 0 0 0 0 8.3449456342750636 17.290603599015412 0 17.290603599015412 -4.2995982612083026 0 0 0 0 1.6985793544786247 10.990834600768721 0 10.990834600768721 -8.7328645219822647 0 0 0 0 7.8692689228919335 19.279019779451119 0 19.279019779451119 -12.483679474810288 0 0 0 0 1.3451368021178496 24.019418626623519 0 24.019418626623519 -16.40988265694341 0 0 0 0 3.4682468805281133 17.987271211673942 0 17.987271211673942 -8.9535263364450657 0 0 0 0 12.072762783644066 23.160894832282793 0 23.160894832282793 -9.7461718624144851 0 0 0 0 -3.2357461882638745 21.09943068710345 0 21.09943068710345 -4.1671316277825099 0 0 0 0 -2.1653038785370882 23.608293766217685 0 23.608293766217685 -6.1152870486706661 0 0 0 0 -2.7195010942305089 21.915701387948502 0 21.915701387948502 7.3020215176584315 0 0 0 0 -3.0306245052415761 14.575192249209067 0 14.575192249209067 -5.7575156815655646 0 0 0 0 8.7604098444753618 15.179005363072065 0 15.179005363072065 -1.2588530032699055 0 0 0 0 13.868984442222882 34.296917382515858 0 34.296917382515858 16.816107333106629 0 0 0 0 -1.5511155886746266 3.3901827932986563 0 3.3901827932986563 -2.3299440525868391 0 0 0 0 4.3170205493315734 21.406284055634387 0 21.406284055634387 -0.083431000126438448 0 0 0 0 -8.6388147983869175 8.5361252940103576 0 8.5361252940103576 -6.7981578544397721 0 0 0 0 4.0259819016355323 19.718378288611348 0 19.718378288611348 -4.0239865964196042 0 0 0 0 -0.98623620893522457 10.525673652340629 0 10.525673652340629 -4.5139063757578697 0 0 0 0 16.991728371624959 23.651620666683812 0 23.651620666683812 -3.9368811136769182 0 0 0 0 -4.0106476678100442 7.4687900600191179 0 7.4687900600191179 -9.5639137761877819 0 0 0 0 10.71124772773328 29.16399255226861 0 29.16399255226861 -1.0677426909169299 0 0 0 0 -1.6538743084638554 9.3135394405016996 0 9.3135394405016996 -5.3845717366166355 0 0 0 0 -0.98759969154252758 10.532117609591751 0 10.532117609591751 -4.454091258338849 0 0 0 0 -5.8649133925222046 8.8740947001454824 0 8.8740947001454824 -10.443045177329509 0 0 0 0 -2.4959478836553899 11.752250098746117 0 11.752250098746117 -7.0955910065495118 0 0 0 0 -4.1693145276385621 10.492979858780927 0 10.492979858780927 -8.7705764802549311 0 0 0 0 -7.2091059066178786 21.032504909506997 0 21.032504909506997 -14.305678953831375 0 0 0 0 -1.6956233267889829 3.7485157528475526 0 3.7485157528475526 -2.8934294836455372 0 0 0 0 -13.335727319891994 15.630336555522755 0 15.630336555522755 -12.965290309839673 0 0 0 0 6.630333371256711 22.101509658831674 0 22.101509658831674 -19.379065307319252 0 0 0 0 15.981368106142327 34.864501000228302 0 34.864501000228302 -25.710436448321616 0 0 0 0 6.0198222395317273 7.2360258798172978 0 7.2360258798172978 -4.1486393018660337 0 0 0 0 0.68492829606839223 10.874997020647243 0 10.874997020647243 -8.7504843573588005 0 0 0 0 -2.0844884928640113 14.722526562991789 0 14.722526562991789 -12.650090962630202 0 0 0 0 0.045900303217422334 12.99205386399899 0 12.99205386399899 -7.8418017911335482 0 0 0 0 3.7154234172407099 -8.3057691386806276 0 -8.3057691386806276 -24.073311420343089 0 0 0 0 7.0474353395244904 2.2246003813557493 0 2.2246003813557493 -2.5011155117191279 0 0 0 0 4.9797278190144425 31.596210482655806 0 31.596210482655806 -40.735637020528884 0 0 0 0 -38.9930250788384 56.371918000418191 0 56.371918000418191 -31.385297732660547 0 0 0 0 -65.466974790344466 -7.4561560179545268 0 -7.4561560179545268 -23.78283901827308 0 0 0 0 8.2502721777104853 32.392019788750531 0 32.392019788750531 -82.630693924293155 0 0 0 0 -82.449829515606979 78.702619267548755 0 78.702619267548755 -5.3317052881902782 0 0 0 0 0.76642213199534126 0.96026517752706475 0 0.96026517752706475 -0.3914572145186952 0 0 0 0 -39.909830541721021 -19.062284363171784 0 -19.062284363171784 -5.5671608440316049 0 0 0 0 -82.02810415640306 5.4301242582150735 0 5.4301242582150735 9.764266401547502 0 0 0 0 3.7070137040517857 -1.9022724576140631 0 -1.9022724576140631 -74.900607919749746 0 0 0 0 3.8389950756172766 -4.7935223836830119 0 -4.7935223836830119 -23.543330445492757 0 0 0 0 0.68930459813390454 0.87879945605722654 0 0.87879945605722654 -0.035285423458525145 0 0 0 0 -23.400228263364625 6.6130353448884307 0 6.6130353448884307 6.3215930143851438 0 0 0 0 1.8201384225219108 5.2648668456532697 0 5.2648668456532697 -0.73799025997546863 0 0 0 0 -9.1710887476060634 90.935253638305767 0 90.935253638305767 49.937477067662257 0 0 0 0 -28.408344874882459 29.887450051628548 0 29.887450051628548 -9.1245515438076836 0 0 0 0 0.20650338936541557 1.7051596743786259 0 1.7051596743786259 3.2070094468330126 0 0 0 0 64.042903920234494 82.021293995079759 0 82.021293995079759 -32.870680435655231 0 0 0 0 90.456412695521067 37.988781601214214 0 37.988781601214214 17.437560777771978 0 0 0 0 -12.929934815455454 13.92848243530625 0 13.92848243530625 6.4476351678968058 0 0 0 0 -0.5627053901362622 0.43044809603737022 0 0.43044809603737022 0.82445785459626109 0 0 0 0 5.176863296834199 1.3651908645497315 0 1.3651908645497315 -1.5019846034228976 0 0 0 0 -2.2062041299777775 19.437622706283946 0 19.437622706283946 5.817838679849956 0 0 0 0 -2.3685469993670765 6.3875943538014388 0 6.3875943538014388 -8.1161937232786272 0 0 0 0 -6.4861763806657109 12.898955535865753 0 12.898955535865753 8.6895240902576916 0 0 0 0 -6.7079099095944912 15.495347170602145 0 15.495347170602145 -2.1366656544560101 0 0 0 0 8.1685959067899603 14.278140916634356 0 14.278140916634356 -2.1933324889396317 0 0 0 0 -15.983880778307139 20.512190892110084 0 20.512190892110084 2.9759383997152327 0 0 0 0 -15.507365019495808 4.1483964014302614 0 4.1483964014302614 -2.6743429156085767 0 0 0 0 -37.614583998099988 -62.102101694518751 0 -62.102101694518751 37.817587156034278 0 0 0 0 -34.03169500675358 172.79551569439718 0 172.79551569439718 -116.51458734503285 0 0 0 0 -21.423351388813899 62.011666297570628 0 62.011666297570628 -149.38874136315098 0 0 0 0 -59.265290634895791 105.54233009059317 0 105.54233009059317 -21.282708767694771 0 0 0 0 -32.841752691435431 71.637790478071111 0 71.637790478071111 -44.429174815968508 0 0 0 0 0.60675033514160148 2.2929258214048041 0 2.2929258214048041 1.3560134392441725 0 0 0 0 28.510922039204161 59.355023815227469 0 59.355023815227469 84.989828475183458 0 0 0 0 -22.721660299401265 17.121433802934916 0 17.121433802934916 155.35790499627183 0 0 0 0 -0.44605190120348581 0.19939170387707605 0 0.19939170387707605 0.085579651194464645 0 0 0 0 -17.558626321988413 2.1348348563469699 0 2.1348348563469699 83.441795164893847 0 0 0 0 1.839020249427449 28.172739107713824 0 28.172739107713824 23.046850123235345 0 0 0 0 17.32819017383008 38.726107385566138 0 38.726107385566138 47.290927170124633 0 0 0 0 5.7213508334880316 38.01514420712374 0 38.01514420712374 47.648848381766584 0 0 0 0 43.015640747706129 8.0597813276654051 0 8.0597813276654051 56.373102913312323 0 0 0 0 21.913266565759841 38.013768296172202 0 38.013768296172202 20.200642861476808 0 0 0 0 0.58364018658176064 18.576858022803208 0 18.576858022803208 54.006204875505318 0 0 0 0 -1.4043338222207069 0.52145230950913302 0 0.52145230950913302 -0.0017433135906639308 0 0 0 0 -38.482052257437317 17.723296116368147 0 17.723296116368147 88.875700602757206 0 0 0 0 8.2396548699398409 28.661147411221464 0 28.661147411221464 73.78352813894162 0 0 0 0 -8.8180158929972094 30.582968662721214 0 30.582968662721214 39.07347620746441 0 0 0 0 -22.5408421636821 16.916822950321148 0 16.916822950321148 80.441974149020098 0 0 0 0 -61.23809137554781 32.164171713891847 0 32.164171713891847 81.753745972077013 0 0 0 0 -62.095545365514226 32.076274155921965 0 32.076274155921965 86.69990081126889 0 0 0 0 -80.007564673067463 61.883851982522174 0 61.883851982522174 86.599696765926637 0 0 0 0 -67.537978410484357 38.288529490961082 0 38.288529490961082 82.247876703107977 0 0 0 0 -53.622889649910576 47.954888237783962 0 47.954888237783962 50.152661976786476 0 0 0 0 -39.357511809068455 46.257298419208382 0 46.257298419208382 18.899098107927784 0 0 0 0 -34.809919037077634 70.946498926094137 0 70.946498926094137 2.374084137063619 0 0 0 0 -15.895045355609909 38.425510923598267 0 38.425510923598267 43.998256167688851 0 0 0 0 -15.781090941730781 38.242690870717979 0 38.242690870717979 35.504046828355058 0 0 0 0 2.3147161764245539 27.550055246338161 0 27.550055246338161 -22.299207855910936 0 0 0 0 -9.8181619349816174 54.020676002081927 0 54.020676002081927 -77.592366306564145 0 0 0 0 15.215290040798209 28.178183124969109 0 28.178183124969109 -15.673314495431441 0 0 0 0 3.4309133077695151 32.552990831484067 0 32.552990831484067 -1.2175628038457944 0 0 0 0 10.692818729483406 37.134442798671444 0 37.134442798671444 -3.9131397703586117 0 0 0 0 8.7320846765255737 32.466827894756534 0 32.466827894756534 18.761638045711152 0 0 0 0 9.4702866918055406 37.635716729542537 0 37.635716729542537 18.144524167331838 0 0 0 0 -9.0827615484176931 27.628043660180083 0 27.628043660180083 26.005562784252106 0 0 0 0 10.519874183775217 15.045368109363434 0 15.045368109363434 12.264898147242576 0 0 0 0 3.3252154682068067 25.376282496039494 0 25.376282496039494 -0.4233781987495604 0 0 0 0 8.7747513093639924 15.25004463715776 0 15.25004463715776 10.44245803443448 0 0 0 0 16.739273922267785 23.314976330019817 0 23.314976330019817 -0.1697752081638555 0 0 0 0 -28.961629346342761 37.422526067808576 0 37.422526067808576 1.046422835876001 0 0 0 0 -12.605487007146849 40.67164324387295 0 40.67164324387295 -2.9877323595937924 0 0 0 0 -19.346159956947986 53.149794486886094 0 53.149794486886094 -7.5007857667333155 0 0 0 0 -19.82605331779996 41.608119710192113 0 41.608119710192113 -6.3234126479128463 0 0 0 0 -7.1637827436861121 5.232738202833751 0 5.232738202833751 4.5485930464877917 0 0 0 0 20.91462406846631 42.172436591580663 0 42.172436591580663 -13.192432790619932 0 0 0 0 9.5423551470344137 50.615018544605846 0 50.615018544605846 -9.8338826575636631 0 0 0 0 13.090936960460112 44.791562447340539 0 44.791562447340539 -13.613738858377474 0 0 0 0 26.461134332827896 37.779487802748918 0 37.779487802748918 -20.066102686949307 0 0 0 0 13.765542000645837 26.380709331178878 0 26.380709331178878 -6.1171583503677311 0 0 0 0 13.78386513812336 26.657584177215995 0 26.657584177215995 -8.2319014299719129 0 0 0 0 7.2051943501369351 33.370334167977489 0 33.370334167977489 -5.2678723049593827 0 0 0 0 50.037054271003854 12.897770132366531 0 12.897770132366531 -16.361292549265272 0 0 0 0 13.24288863635325 7.7320602131811036 0 7.7320602131811036 -1.5253793115117951 0 0 0 0 -4.5596857337950496 17.941961926559998 0 17.941961926559998 30.735891373720733 0 0 0 0 -7.2758877938003934 32.299659064796288 0 32.299659064796288 30.817016077466178 0 0 0 0 -1.5751647395336477 8.6565342313951987 0 8.6565342313951987 3.4104785456938771 0 0 0 0 -6.7473803967612902 3.0048824011339867 0 3.0048824011339867 1.7705165388062944 0 0 0 0 -0.76068102793124126 3.2087833788380067 0 3.2087833788380067 -2.2081520681185793 0 0 0 0 -3.2361816922857543 7.7187256334063932 0 7.7187256334063932 2.9495232355511689 0 0 0 0 2.1467393423164065 2.5036404064996738 0 2.5036404064996738 0.43217963070500076 0 0 0 0 4.0524175635086976 5.8610687448517638 0 5.8610687448517638 -0.75282140562012501 0 0 0 0 -0.16050019030808471 8.3053091297206265 0 8.3053091297206265 45.349968995913514 0 0 0 0 -1.9956265803048154 6.7699106966683757 0 6.7699106966683757 -1.9148821388725992 0 0 0 0 -2.294763411274289 4.1826944124550209 0 4.1826944124550209 1.0821402923884307 0 0 0 0 -2.6791933912549277 4.9861679772446958 0 4.9861679772446958 -2.2738967606679239 0 0 0 0 -0.28208848964413846 3.7820087074624098 0 3.7820087074624098 -4.1929025090466894 0 0 0 0 -1.280901356160598 7.9853894904031222 0 7.9853894904031222 -5.2019923353655031 0 0 0 0 2.3439034123657239 4.339831818043896 0 4.339831818043896 -1.42479039437384 0 0 0 0 -11.213536139173357 12.593107089578552 0 12.593107089578552 -15.639807294813181 0 0 0 0 -5.5271932851023848 7.4053625290125638 0 7.4053625290125638 -1.6043756220151408 0 0 0 0 -6.2095875759528099 6.8300715004704671 0 6.8300715004704671 -0.91856248083968239 0 0 0 0 -1.7978877620239473 8.7644619108077677 0 8.7644619108077677 11.553046749828354 0 0 0 0 -5.2454799072224887 9.0780089819140812 0 9.0780089819140812 2.5227833937133255 0 0 0 0 -1.1287969843686452 0.98784401563351887 0 0.98784401563351887 0.69002263620935622 0 0 0 0 -24.479104829013068 -7.2892608416568692 0 -7.2892608416568692 2.725001197605927 0 0 0 0 -0.61719079510947772 3.2711020661408021 0 3.2711020661408021 0.22863183735466741 0 0 0 0 2.8524018237208111 5.8006448256637668 0 5.8006448256637668 -5.406211770252412 0 0 0 0 -2.7497006523962 14.242494013171836 0 14.242494013171836 29.584878121715519 0 0 0 0 -7.3264469298446784 -6.3459319237927048 0 -6.3459319237927048 18.298208277565209 0 0 0 0 -4.8058650441498685 11.515392287723444 0 11.515392287723444 33.609282213951701 0 0 0 0 -4.2423522573933496 19.927233716338378 0 19.927233716338378 19.867406525725528 0 0 0 0 -0.20661003306099701 29.916616085669375 0 29.916616085669375 44.365334689533483 0 0 0 0 15.437756027264186 40.108458322651131 0 40.108458322651131 25.608656701533619 0 0 0 0 7.618535459845134 32.037834835576177 0 32.037834835576177 17.639831707219855 0 0 0 0 2.9493041074688335 34.727258315073414 0 34.727258315073414 20.606765206539421 0 0 0 0 8.8048112039805346 37.745367180890753 0 37.745367180890753 -5.5699685187755676 0 0 0 0 16.54308063152871 49.393993817413502 0 49.393993817413502 11.73948433512669 0 0 0 0 -17.990490650651964 43.968256650689909 0 43.968256650689909 -23.536083771734411 0 0 0 0 -42.67540737501713 65.710487496446149 0 65.710487496446149 -31.68973557305435 0 0 0 0 -12.918372087506214 34.348869727191413 0 34.348869727191413 -14.992794951247561 0 0 0 0 -3.3310805516289292 47.056788576617691 0 47.056788576617691 -2.596127116245043 0 0 0 0 3.5072582617649459 27.580696036451627 0 27.580696036451627 0.70923346330255299 0 0 0 0 -15.680898639288216 48.318039128683722 0 48.318039128683722 -3.3438298810888227 0 0 0 0 -43.976109914114659 41.06710784302777 0 41.06710784302777 0.082625522285525221 0 0 0 0 0.19556493132904107 -0.19476236832790006 0 -0.19476236832790006 -0.31611708845603914 0 0 0 0 22.902198961671957 29.933022993946452 0 29.933022993946452 2.7605347017633903 0 0 0 0 -66.295060000069043 9.1887015126703773 0 9.1887015126703773 2.8114885584080938 0 0 0 0 0.49882334655376326 16.82893904026605 0 16.82893904026605 21.075675052723454 0 0 0 0 -5.7902546909065222 5.9688989674352797 0 5.9688989674352797 15.318643696526124 0 0 0 0 -55.048392619629794 34.163511722415024 0 34.163511722415024 -21.61304978174212 0 0 0 0 -1.6657374581515541 10.137150980575846 0 10.137150980575846 10.316246477042133 0 0 0 0 10.304995938306506 8.7815245043052919 0 8.7815245043052919 -7.7857089290287078 0 0 0 0 -43.956062869249308 42.650991933827754 0 42.650991933827754 -15.64458833259414 0 0 0 0 -10.332734642216565 -1.3541158125181028 0 -1.3541158125181028 14.683011240714222 0 0 0 0 -4.3467132605219376 25.465645487066695 0 25.465645487066695 -23.880969582798571 0 0 0 0 -3.3538896358006696 24.207315774249196 0 24.207315774249196 -8.4974640150921914 0 0 0 0 -15.470454627148456 30.665689226089512 0 30.665689226089512 -14.1907956875948 0 0 0 0 -13.572998204588657 20.812646110443893 0 20.812646110443893 -6.2723174361926795 0 0 0 0 -5.6876916605906445 10.265172937248281 0 10.265172937248281 -4.9169929320983101 0 0 0 0 2.1697328867448959 20.316004796023662 0 20.316004796023662 -24.265254659581842 0 0 0 0 12.860842813463023 6.6265047326269269 0 6.6265047326269269 -17.356372957266103 0 0 0 0 8.7396358372470786 17.164000199884413 0 17.164000199884413 -9.5339748048027104 0 0 0 0 7.9203825079568819 9.0549496474247917 0 9.0549496474247917 -4.3627468250746304 0 0 0 0 9.2612263364953833 14.062593239749731 0 14.062593239749731 -28.402815775145427 0 0 0 0 -34.930957606166373 24.101456126344715 0 24.101456126344715 -0.23018632751154655 0 0 0 0 -20.287326506049794 4.16901928396328 0 4.16901928396328 6.8208970978175785 0 0 0 0 -32.028794604711493 11.329555258455002 0 11.329555258455002 -3.7723009915280272 0 0 0 0 -33.214443894456508 13.242774961092437 0 13.242774961092437 2.7379652088893636 0 0 0 0 -15.570694202591767 3.9885374612458691 0 3.9885374612458691 4.6268147192622564 0 0 0 0 -24.688882099952025 6.4221168267431494 0 6.4221168267431494 6.5201649220507534 0 0 0 0 -19.17581025052732 27.441329512524135 0 27.441329512524135 -8.6290910735951911 0 0 0 0 -29.169368051950642 16.052759598554076 0 16.052759598554076 3.5015279648432625 0 0 0 0 -4.1708691090015462 5.9535942016032042 0 5.9535942016032042 0.6493079286002299 0 0 0 0 -6.5403033187576511 10.7753122156073 0 10.7753122156073 1.0511930337631838 0 0 0 0 -7.179586860737345 7.4051637081852277 0 7.4051637081852277 -1.2582300235944786 0 0 0 0 -5.8086310069715292 4.5514097986564988 0 4.5514097986564988 0.52638800748188608 0 0 0 0 -2.0130799966978321 2.2027971833178173 0 2.2027971833178173 1.077717704744181 0 0 0 0 22.36268188602844 25.806909197199275 0 25.806909197199275 -9.6918135488231201 0 0 0 0 7.4260799823023262 11.525554910649589 0 11.525554910649589 3.3546224617532516 0 0 0 0 0.70954790971882176 21.53120609954658 0 21.53120609954658 7.5779444784493535 0 0 0 0 -1.3592554891963005 4.4901502611982256 0 4.4901502611982256 0.41924581615183243 0 0 0 0 23.02806350469109 -2.6601938923049602 0 -2.6601938923049602 15.720219359034672 0 0 0 0 -25.162210805361383 17.305554905073222 0 17.305554905073222 -15.794409688529413 0 0 0 0 -14.93650445337299 7.566010869758296 0 7.566010869758296 4.4823116752181926 0 0 0 0 4.1910034241955145 6.909626081944225 0 6.909626081944225 5.2417225982408127 0 0 0 0 -10.130416925971076 18.261748784141673 0 18.261748784141673 -6.6683733677600685 0 0 0 0 -11.253269408030974 15.305878687616314 0 15.305878687616314 0.89352977183261828 0 0 0 0 -16.492533275282767 14.984664000654448 0 14.984664000654448 5.8311967404679308 0 0 0 0 -8.602955310834659 8.5391113691875944 0 8.5391113691875944 11.611065078667707 0 0 0 0 -4.7623286701273173 12.12630028131025 0 12.12630028131025 -7.6791735463884834 0 0 0 0 -4.8148219141876325 12.098806686723037 0 12.098806686723037 3.7088649371635256 0 0 0 0 -11.202869265178379 17.671523065217116 0 17.671523065217116 3.6890794201935933 0 0 0 0 -6.8450434032420162 12.657956351660687 0 12.657956351660687 5.8641893401181733 0 0 0 0 -9.4901414617161208 18.348725671563443 0 18.348725671563443 8.5858387003354437 0 0 0 0 -5.4226362981025886 15.316478827187893 0 15.316478827187893 0.29237473488046817 0 0 0 0 -6.0766919722464081 14.449774206691473 0 14.449774206691473 10.540450771854012 0 0 0 0 -13.715818617363766 23.93855326019002 0 23.93855326019002 -3.5831412426600764 0 0 0 0 -0.32360683044839789 23.007933460179501 0 23.007933460179501 -28.195064923113932 0 0 0 0 6.4765585195291351 21.70984046317426 0 21.70984046317426 -27.983838290793756 0 0 0 0 12.75947936879507 6.5424419030143746 0 6.5424419030143746 -0.52578307817759651 0 0 0 0 0.22027944720866799 30.634744207697622 0 30.634744207697622 -63.412364162215454 0 0 0 0 -25.55515240519253 5.3570990497728417 0 5.3570990497728417 -27.677857121070701 0 0 0 0 -35.32746541663073 19.495559757586307 0 19.495559757586307 -11.573091269303404 0 0 0 0 -25.440375082809624 24.85303703649879 0 24.85303703649879 -8.8848651691241685 0 0 0 0 -7.0303892702177109 14.740618272678148 0 14.740618272678148 -23.06585762947725 0 0 0 0 -8.0713221764890477 15.508413830946665 0 15.508413830946665 -6.3598404348858821 0 0 0 0 -4.3507967784935317 22.023370542321572 0 22.023370542321572 -22.281293165737225 0 0 0 0 -2.1758829346726998 23.977363143603725 0 23.977363143603725 -50.170172504771472 0 0 0 0 -4.7543499710413855 7.9728436256633302 0 7.9728436256633302 7.4710600989389242 0 0 0 0 -16.532565521787546 29.098689632065543 0 29.098689632065543 -16.465481909386654 0 0 0 0 -39.220312683701195 40.791886770298333 0 40.791886770298333 -19.093871725082863 0 0 0 0 0.34065400181497552 1.6906841879675563 0 1.6906841879675563 1.9900532539410953 0 0 0 0 -27.140578129492496 11.689743491800073 0 11.689743491800073 16.761430558980464 0 0 0 0 -12.161690069621727 26.667914509862385 0 26.667914509862385 -0.74945293998280249 0 0 0 0 -9.5724831007391913 36.484663510605969 0 36.484663510605969 3.5377279686535985 0 0 0 0 -7.3571694147103699 41.323691097178198 0 41.323691097178198 -21.621813548944601 0 0 0 0 -13.318055490444259 16.29785640651253 0 16.29785640651253 -10.997447013436044 0 0 0 0 1.9515169282931311 33.638123054334756 0 33.638123054334756 -18.656735360782477 0 0 0 0 -5.3453696332480831 22.665454763356365 0 22.665454763356365 -3.3916057068381633 0 0 0 0 -16.873252858575142 32.248912880430908 0 32.248912880430908 -9.6946936623862712 0 0 0 0 -11.275880050351589 25.677480888823993 0 25.677480888823993 0.5418193080695346 0 0 0 0 -12.973904529344509 22.340644295069524 0 22.340644295069524 11.760300642648872 0 0 0 0 -9.4936356208054349 22.000274409520898 0 22.000274409520898 5.2219045907904729 0 0 0 0 -16.585156903405732 36.76680654095162 0 36.76680654095162 13.184699745213948 0 0 0 0 -11.965425408138799 26.960105229037254 0 26.960105229037254 -29.053926054723888 0 0 0 0 6.1732594242457708 42.904364514022745 0 42.904364514022745 -55.681519418697462 0 0 0 0 -8.7100198876541981 51.256686901341709 0 51.256686901341709 -56.344453858253303 0 0 0 0 9.2564586099470034 12.665402730057394 0 12.665402730057394 -14.853116027796204 0 0 0 0 0.56073751812618866 24.46199389275489 0 24.46199389275489 0.25544584293311345 0 0 0 0 -3.2493289328376704 7.7155093978744844 0 7.7155093978744844 -6.7973425647014665 0 0 0 0 2.0606089221819275 22.731328746483541 0 22.731328746483541 -13.678087980957571 0 0 0 0 10.669748885993378 2.9355312588947342 0 2.9355312588947342 -0.47092750092021163 0 0 0 0 -2.6292740904202709 6.35079074472225 0 6.35079074472225 -4.3772493833285537 0 0 0 0 -3.6296301371985464 10.453981717018905 0 10.453981717018905 -16.262934622289322 0 0 0 0 -4.3843716689425491 9.5524940624777628 0 9.5524940624777628 9.5995296222008619 0 0 0 0 0.43795609170723182 9.3628744133919213 0 9.3628744133919213 -2.6011086831760615 0 0 0 0 3.3218381304625311 5.6154167559016948 0 5.6154167559016948 -1.7936630086217598 0 0 0 0 6.3491679420822038 15.365015867705551 0 15.365015867705551 -15.488057015900267 0 0 0 0 -1.2468282865346154 1.6156015481775228 0 1.6156015481775228 -0.8625652243997024 0 0 0 0 5.5490304427048613 11.788193969960503 0 11.788193969960503 2.463692200612968 0 0 0 0 0.6860697466845096 9.2325622740717499 0 9.2325622740717499 0.048212011487177797 0 0 0 0 -0.9514146568653814 9.2493299795301027 0 9.2493299795301027 7.4936869675575508 0 0 0 0 -6.4089404073960168 5.9053782830441541 0 5.9053782830441541 2.0208618761769337 0 0 0 0 -17.587473776733532 70.644841054807102 0 70.644841054807102 -28.790424621885904 0 0 0 0 1.9959441339105979 -20.174038087621739 0 -20.174038087621739 52.859586345384741 0 0 0 0 -3.9955147812251397 5.0607363302729222 0 5.0607363302729222 2.2917174430512151 0 0 0 0 -1.8413597246435529 6.9382545982939519 0 6.9382545982939519 0.16809644876229868 0 0 0 0 22.595770850066401 -22.200224951072414 0 -22.200224951072414 -3.5333386270976916 0 0 0 0 23.52718489633844 8.8225849022369403 0 8.8225849022369403 -42.91756585542953 0 0 0 0 -45.308584190906458 33.558307016463914 0 33.558307016463914 -16.516724559407521 0 0 0 0 -63.359557739658158 -3.7155454055974815 0 -3.7155454055974815 0.89252840343306161 0 0 0 0 -6.4064269512091414 18.414310193076744 0 18.414310193076744 -13.870505078408314 0 0 0 0 -39.65049233062382 14.064508727729844 0 14.064508727729844 0.43998636111336964 0 0 0 0 -25.290359596633607 -5.5776102594993517 0 -5.5776102594993517 -3.6607532389352855 0 0 0 0 -10.178154961922701 10.125865097126734 0 10.125865097126734 -0.34617723743940587 0 0 0 0 2.1003604647167293 1.7597556202286704 0 1.7597556202286704 -0.85340935582281574 0 0 0 0 -4.1527097383774105 7.1162109118549939 0 7.1162109118549939 -0.77158643376404612 0 0 0 0 46.568439030443187 42.78383709886316 0 42.78383709886316 -11.233018992794314 0 0 0 0 -15.177879436676449 -1.7590382290291018 0 -1.7590382290291018 -2.4270392244161485 0 0 0 0 -0.89990348204006665 0.52401194691479702 0 0.52401194691479702 0.137540596508682 0 0 0 0 58.058701969363028 -10.187915281710957 0 -10.187915281710957 57.335369375323353 0 0 0 0 -10.382820861263099 15.606704300467072 0 15.606704300467072 1.5957180805053213 0 0 0 0 -4.3013568260485044 8.4884674219524641 0 8.4884674219524641 4.1440662552795402 0 0 0 0 -0.35020714653668961 1.2626528770346255 0 1.2626528770346255 0.41852274172015314 0 0 0 0 -0.29567512383800931 7.0220917723986531 0 7.0220917723986531 2.1140989518899005 0 0 0 0 0.77150128288346842 6.2191844828617597 0 6.2191844828617597 3.8516591320820623 0 0 0 0 -1.749100079652635 12.845762708967413 0 12.845762708967413 0.98480054183551147 0 0 0 0 -17.418840701924637 15.546654472243063 0 15.546654472243063 0.95012021213005937 0 0 0 0 4.1466671519490976 5.3884007925954407 0 5.3884007925954407 5.2310880272341862 0 0 0 0 -16.325099152828443 13.224748790431249 0 13.224748790431249 9.3623052796683623 0 0 0 0 -7.460147469727417 4.0932306864806378 0 4.0932306864806378 4.4744926071550708 0 0 0 0 -3.615934855888554 16.391018456336724 0 16.391018456336724 6.9885543474638325 0 0 0 0 -9.2548900241636147 13.355194080518686 0 13.355194080518686 2.0750455102079286 0 0 0 0 3.9874961457055882 8.0234038745382001 0 8.0234038745382001 4.175896142138491 0 0 0 0 -0.95605205338324595 9.8185309873192637 0 9.8185309873192637 1.193181247636403 0 0 0 0 -3.827906180377795 20.51604252281777 0 20.51604252281777 10.2633879704008 0 0 0 0 -5.8867470383302134 17.1492823297217 0 17.1492823297217 8.9717463672059239 0 0 0 0 -2.2457309762030206 9.1945838736870744 0 9.1945838736870744 3.2795280013987167 0 0 0 0 -5.3612116194326518 17.390105065118405 0 17.390105065118405 9.0219284356426215 0 0 0 0 0.23946727424117853 16.407509622432372 0 16.407509622432372 6.6501690116219834 0 0 0 0 -8.4973535620415532 11.752823138583608 0 11.752823138583608 2.070995364872033 0 0 0 0 -2.4657529530448983 9.3703584423302182 0 9.3703584423302182 2.0524495525570248 0 0 0 0 2.1541774148190598 17.806674618201214 0 17.806674618201214 1.017190372354662 0 0 0 0 1.3670960691729448 8.2437940647570045 0 8.2437940647570045 4.2983485359639673 0 0 0 0 2.0300424620068043 18.80883738524949 0 18.80883738524949 2.7319906992870528 0 0 0 0 1.2360411316230966 17.208251962538043 0 17.208251962538043 3.7116507316786738 0 0 0 0 -2.33306477134043 5.1382161653802507 0 5.1382161653802507 -4.9491652255099297 0 0 0 0 3.1991222269898572 16.784374850155473 0 16.784374850155473 3.7146648706852829 0 0 0 0 5.2095867999823895 18.261060846361488 0 18.261060846361488 2.807738228708331 0 0 0 0 1.5425482672908402 21.33419782332453 0 21.33419782332453 9.3888362309917284 0 0 0 0 -3.0909552964421891 16.399453083519802 0 16.399453083519802 4.1390508747444983 0 0 0 0 -4.4928454419878108 14.012197358096728 0 14.012197358096728 5.9533672472405215 0 0 0 0 -7.3096468350886425 15.644005335419934 0 15.644005335419934 12.852527750036643 0 0 0 0 -48.079814102820819 42.610796614372703 0 42.610796614372703 -12.037589946411003 0 0 0 0 -1.9492216144408303 12.971716608384668 0 12.971716608384668 -5.6301515051663955 0 0 0 0 38.472303761582225 3.9588505423716924 0 3.9588505423716924 -20.085769543903552 0 0 0 0 85.717109930935294 43.953023120552416 0 43.953023120552416 -55.951161108061569 0 0 0 0 -8.703551268191859 18.300208467636594 0 18.300208467636594 19.684408251880996 0 0 0 0 -0.8053292370351457 0.34917634096316341 0 0.34917634096316341 -0.69049488725318753 0 0 0 0 8.8002852532708857 31.639017954384371 0 31.639017954384371 15.452076764218873 0 0 0 0 38.682861847062668 25.438138272254491 0 25.438138272254491 2.964696914351407 0 0 0 0 -35.581306210595358 18.941264113261013 0 18.941264113261013 2.6943481664502542 0 0 0 0 -45.258140686435127 9.679036135503793 0 9.679036135503793 4.1463435107161786 0 0 0 0 -45.186472994430915 8.5770706524963316 0 8.5770706524963316 -4.5840862841528178 0 0 0 0 -15.537477929427041 20.976261341284953 0 20.976261341284953 -3.1472493379660591 0 0 0 0 0.1209742717963973 -0.1754278183732918 0 -0.1754278183732918 -0.45993961119491189 0 0 0 0 -133.46833004331165 14.01032673183272 0 14.01032673183272 10.718702048350224 0 0 0 0 -60.785385222013247 57.564754701977108 0 57.564754701977108 -28.529058252284813 0 0 0 0 63.607583952515597 19.022407951173136 0 19.022407951173136 -25.453648474667716 0 0 0 0 -5.0708820413431015 1.7309538759279857 0 1.7309538759279857 -0.16872914395066729 0 0 0 0 10.522665327875075 -7.5278749115032042 0 -7.5278749115032042 -23.727955708193804 0 0 0 0 7.5483328626178263 49.703693371156078 0 49.703693371156078 18.525893989314682 0 0 0 0 -10.476230868690436 16.130304654366682 0 16.130304654366682 -19.979922361661011 0 0 0 0 5.4655075107484663 26.111153322155133 0 26.111153322155133 -5.0701750264624934 0 0 0 0 14.50425672198071 15.114906467623541 0 15.114906467623541 -3.5927180314220095 0 0 0 0 -27.824317872333268 45.285667208984705 0 45.285667208984705 3.8529545538744969 0 0 0 0 -13.079695354272189 19.771775136844099 0 19.771775136844099 -2.811740710909362 0 0 0 0 -5.8495451604853095 10.245562794050374 0 10.245562794050374 -8.9175268643557004 0 0 0 0 -12.141331494167389 15.944872447248599 0 15.944872447248599 -3.3937195970856919 0 0 0 0 -6.4784083012891642 20.544423794952763 0 20.544423794952763 -6.6809452438074004 0 0 0 0 -17.025199761706972 17.311336638711509 0 17.311336638711509 -3.2730178220826929 0 0 0 0 -30.332482021063697 9.7082528157766319 0 9.7082528157766319 -4.5000998543819151 0 0 0 0 -17.610743634898427 14.1488229137085 0 14.1488229137085 -4.0929463270051087 0 0 0 0 -3.4639659223252899 2.8621414851020823 0 2.8621414851020823 1.6347501934835229 0 0 0 0 -5.829591271440222 7.3712760356611398 0 7.3712760356611398 -2.4867850832179101 0 0 0 0 -4.8822752605880684 4.2958434195979098 0 4.2958434195979098 0.63431192070482956 0 0 0 0 -4.1173255161595534 6.5242300907937079 0 6.5242300907937079 -2.4954154370825563 0 0 0 0 -5.6196615293956711 6.7569299241449698 0 6.7569299241449698 -1.1747064216087892 0 0 0 0 -4.0335170613216178 6.8617951845171774 0 6.8617951845171774 -2.2855012065519986 0 0 0 0 9.1165636006261366 25.907092100346063 0 25.907092100346063 -21.130769970201072 0 0 0 0 10.520511899754979 20.111649832064359 0 20.111649832064359 -12.206897740543354 0 0 0 0 -3.1932024456686854 6.5744213000060387 0 6.5744213000060387 -1.510696160156602 0 0 0 0 -5.2458201071767627 9.3202030331509569 0 9.3202030331509569 -3.2339719810382341 0 0 0 0 -11.143767795562894 18.797590140036846 0 18.797590140036846 1.9006186294791405 0 0 0 0 5.0952806869443066 21.144247441599873 0 21.144247441599873 -12.674683593555528 0 0 0 0 -10.637431550526344 12.756390532858859 0 12.756390532858859 -6.0269054597811191 0 0 0 0 -0.92317931221856364 5.2906216229778593 0 5.2906216229778593 -1.5133358002576176 0 0 0 0 -6.913127841245708 12.084282165767736 0 12.084282165767736 -12.051567026757009 0 0 0 0 -18.147066209091918 25.223340614094923 0 25.223340614094923 -2.5643061101800413 0 0 0 0 -8.7822042071402784 7.9504063079022984 0 7.9504063079022984 -0.31972729755095575 0 0 0 0 -10.554959889332167 14.125815725005396 0 14.125815725005396 -11.18722117435027 0 0 0 0 41.715768822377868 -10.172812016418902 0 -10.172812016418902 -5.0926048717586525 0 0 0 0 9.2463542244859127 26.821299937928416 0 26.821299937928416 -9.7900739353026438 0 0 0 0 28.464638752529936 -2.5747305345807945 0 -2.5747305345807945 -20.130922704915065 0 0 0 0 32.933316186176853 5.3625164601075994 0 5.3625164601075994 -7.9771691640289646 0 0 0 0 33.46383728535875 19.378190439550963 0 19.378190439550963 -43.01308084509219 0 0 0 0 10.717267265681585 24.473959084751186 0 24.473959084751186 -36.614585460964918 0 0 0 0 0.021253959920812804 0.48863416239830926 0 0.48863416239830926 -0.17061361044665802 0 0 0 0 38.026882662705248 21.092951683348019 0 21.092951683348019 -36.014346271786962 0 0 0 0 132.04981250611945 71.81418971338644 0 71.81418971338644 -73.291349230003107 0 0 0 0 31.141803253532998 9.953288377937497 0 9.953288377937497 -5.3868178550339962 0 0 0 0 82.232686025623934 -39.89037046185183 0 -39.89037046185183 3.7853234976573731 0 0 0 0 5.9442616549458762 46.769794392027507 0 46.769794392027507 -71.06256407552155 0 0 0 0 0.038639359370790771 9.5466811446331121 0 9.5466811446331121 -21.238218728849461 0 0 0 0 -0.0094774316294206074 27.280217138647913 0 27.280217138647913 -5.1173154313760278 0 0 0 0 -0.84934673484667655 21.723063705209256 0 21.723063705209256 8.8283514981103508 0 0 0 0 3.4729962781111681 35.056050426743241 0 35.056050426743241 20.819347171071513 0 0 0 0 28.448434702578652 29.508544257158178 0 29.508544257158178 2.9621450249269401 0 0 0 0 3.5285531006902602 15.849340362256953 0 15.849340362256953 -1.3942258245824632 0 0 0 0 -1.9928908766742097 27.542044852421895 0 27.542044852421895 7.9184322772811129 0 0 0 0 0.002014391113339824 29.019471631803949 0 29.019471631803949 8.6368381835000037 0 0 0 0 -42.555078416904962 12.990401161771047 0 12.990401161771047 19.356327182464156 0 0 0 0 -0.1093465895593555 0.57544712159082323 0 0.57544712159082323 0.23279026016246718 0 0 0 0 67.396643380554451 45.5872833554713 0 45.5872833554713 26.420462145546459 0 0 0 0 81.528826160210883 62.22616633520488 0 62.22616633520488 29.190265100740362 0 0 0 0 -0.054214230464133095 0.039891735427541875 0 0.039891735427541875 1.0807887991331953 0 0 0 0 34.139249046182158 -27.007694299590185 0 -27.007694299590185 44.118178628677924 0 0 0 0 -0.09759231234178678 0.73080818108598322 0 0.73080818108598322 -0.017099102169595426 0 0 0 0 25.658363395925335 -11.069338383596005 0 -11.069338383596005 18.404092766769281 0 0 0 0 41.2869581639834 44.770477179702993 0 44.770477179702993 43.210308497675214 0 0 0 0 69.997337638611498 -15.608031840127296 0 -15.608031840127296 -1.215307355999812 0 0 0 0 -17.076436001583716 -11.877383817720329 0 -11.877383817720329 58.521283979573127 0 0 0 0 -7.2527811410145659 -13.646593686530196 0 -13.646593686530196 15.913955463116508 0 0 0 0 -21.972242274914606 -0.40856275976693723 0 -0.40856275976693723 21.359534734281624 0 0 0 0 -18.135465055402165 -5.7034627255725354 0 -5.7034627255725354 26.321815054443505 0 0 0 0 -20.692838452096112 4.367485884755979 0 4.367485884755979 30.909324796184592 0 0 0 0 -40.558231167968188 4.7402791065796919 0 4.7402791065796919 31.289265986557439 0 0 0 0 -29.636599962055698 12.696439808135437 0 12.696439808135437 22.475297660621436 0 0 0 0 -66.308903988985548 20.162389950361103 0 20.162389950361103 22.813897476145542 0 0 0 0 -27.680540451983688 22.267041134514329 0 22.267041134514329 28.842888105905104 0 0 0 0 -8.9069617401037249 -3.5896334579906579 0 -3.5896334579906579 1.0227383598157758 0 0 0 0 -29.987173346098643 -7.8652034801543778 0 -7.8652034801543778 37.937992095858135 0 0 0 0 0.66495196288256153 -0.059334763943475366 0 -0.059334763943475366 0.028172977362800111 0 0 0 0 -17.285121537572195 27.796601613637904 0 27.796601613637904 85.755185379321119 0 0 0 0 -37.408629782272328 12.885478924454219 0 12.885478924454219 39.924937988028432 0 0 0 0 -18.797739257657668 26.325783342181012 0 26.325783342181012 39.372048041418566 0 0 0 0 -21.636842396659631 35.130820660382597 0 35.130820660382597 -1.8252948049632778 0 0 0 0 25.626767405497958 24.490201236288158 0 24.490201236288158 -3.147615091100306 0 0 0 0 -1.8438025803588971 55.829496820679196 0 55.829496820679196 -24.937203435462834 0 0 0 0 3.5121026835147404 30.59369174744154 0 30.59369174744154 -31.891615490874756 0 0 0 0 4.2751347867451841 32.03350960885291 0 32.03350960885291 -73.835894932273732 0 0 0 0 -18.141102970523207 50.951212150775063 0 50.951212150775063 -44.123369103874211 0 0 0 0 -13.105916838556368 38.445467635897103 0 38.445467635897103 -33.522947589715841 0 0 0 0 -88.886331112342305 80.522743077700397 0 80.522743077700397 -56.270855781932369 0 0 0 0 -25.781757890437802 47.664522736070921 0 47.664522736070921 -27.945181337252507 0 0 0 0 16.572882835641849 60.50951760152418 0 60.50951760152418 -91.414800245809602 0 0 0 0 25.170327859239478 32.605150596344174 0 32.605150596344174 -79.505986003086036 0 0 0 0 -0.39273019555548672 13.254449838272194 0 13.254449838272194 14.099469687741475 0 0 0 0 15.879845740337259 22.551754455387709 0 22.551754455387709 -77.989243297361099 0 0 0 0 -1.2400208054841357 1.3600634134196667 0 1.3600634134196667 -0.029736913439894153 0 0 0 0 -4.7041436975050601 24.023007824331216 0 24.023007824331216 -70.940056654977525 0 0 0 0 -8.3235647356814297 -0.53223420252470532 0 -0.53223420252470532 -51.031387414597702 0 0 0 0 -34.221894867876472 4.2673851229355932 0 4.2673851229355932 -7.2764605717457016 0 0 0 0 -59.746545446192613 25.729429841138881 0 25.729429841138881 -10.166963722486798 0 0 0 0 -79.018823187442649 -11.503886815450471 0 -11.503886815450471 -59.030236340680858 0 0 0 0 -33.467132572201081 46.254148943735345 0 46.254148943735345 -123.61270471201988 0 0 0 0 12.123809218337556 22.454847287814118 0 22.454847287814118 -63.492789943445132 0 0 0 0 -41.845331716311193 31.243738139911329 0 31.243738139911329 -44.304295181389534 0 0 0 0 -79.883966547336968 28.530722670744353 0 28.530722670744353 -18.275422725648241 0 0 0 0 -35.883827433590341 56.390991485157429 0 56.390991485157429 -52.492232715980208 0 0 0 0 -178.56864379465333 90.903662582352808 0 90.903662582352808 -44.61091367725885 0 0 0 0 -0.16735689479254168 0.22778045920922096 0 0.22778045920922096 -1.1832382548401625 0 0 0 0 0.92907178925118239 1.3591191144582488 0 1.3591191144582488 -3.4845103765189265 0 0 0 0 13.979092147808842 8.8201964904310444 0 8.8201964904310444 -10.263607397445412 0 0 0 0 -76.051017601859712 35.194026588717861 0 35.194026588717861 -9.0448154541854819 0 0 0 0 -59.405811046424787 37.484404689791518 0 37.484404689791518 -18.724485097100342 0 0 0 0 -32.588342116476269 34.794014585791956 0 34.794014585791956 -15.262902855216453 0 0 0 0 -50.388540432028094 27.681971534093918 0 27.681971534093918 -10.722595079239909 0 0 0 0 -0.9328883088328439 10.384537399045257 0 10.384537399045257 -1.1327395122207236 0 0 0 0 3.8758991649010568 17.10280051659538 0 17.10280051659538 -7.9998817946534473 0 0 0 0 1.1969143620954128 15.851217939776689 0 15.851217939776689 -8.3830112804589589 0 0 0 0 20.238061042466143 13.247123667403685 0 13.247123667403685 -6.9890629889487172 0 0 0 0 7.1638659111940797 10.514091059899329 0 10.514091059899329 -11.422384865254571 0 0 0 0 3.2054908729405724 8.4017839443295088 0 8.4017839443295088 -8.3551889943337301 0 0 0 0 17.613426053496369 -0.083552835439149931 0 -0.083552835439149931 -53.462975968836417 0 0 0 0 14.57050443848982 -13.044812331848192 0 -13.044812331848192 -16.102656695091355 0 0 0 0 2.0743830038057922 11.117516740442568 0 11.117516740442568 -11.562835850672855 0 0 0 0 2.0350583629933681 10.446849211558401 0 10.446849211558401 -3.6861677013312146 0 0 0 0 8.2972734227696492 -10.994518450919713 0 -10.994518450919713 12.157585306017268 0 0 0 0 4.3114062010305858 4.4207020732820155 0 4.4207020732820155 2.4641984941636093 0 0 0 0 4.006297138199443 11.284059983192492 0 11.284059983192492 -14.770617178251996 0 0 0 0 3.6725890092930058 -6.5375724749310393 0 -6.5375724749310393 11.930436077605123 0 0 0 0 -0.36893715654150583 1.4668292608084812 0 1.4668292608084812 7.5663210397556213 0 0 0 0 11.376512656992418 -3.427185255322911 0 -3.427185255322911 6.339051984095704 0 0 0 0 0.14052108580654021 8.3539593486457306 0 8.3539593486457306 -11.974341316939899 0 0 0 0 11.094989202365468 5.3508531011225386 0 5.3508531011225386 -6.6067737917146587 0 0 0 0 0.28586014796746895 10.074271147757827 0 10.074271147757827 -1.0566952159588254 0 0 0 0 5.1260536992992058 5.3938855215649362 0 5.3938855215649362 3.1694456936260718 0 0 0 0 11.240220533348804 -0.66291322839267508 0 -0.66291322839267508 7.5418345005464289 0 0 0 0 7.9214276988464007 6.3719451723836755 0 6.3719451723836755 1.9522794856247856 0 0 0 0 4.501232389319739 13.367592133897006 0 13.367592133897006 -4.8286393663256604 0 0 0 0 3.4491553803673014 11.528348963800454 0 11.528348963800454 -7.8643322716770854 0 0 0 0 -12.294764734051569 14.216188835835055 0 14.216188835835055 -0.3503993000194896 0 0 0 0 -1.0499637508864907 7.8546781975160229 0 7.8546781975160229 -4.6654252108655783 0 0 0 0 -31.878397359861992 25.335716843997943 0 25.335716843997943 -15.224227912763126 0 0 0 0 -66.146743290795598 32.572559869769236 0 32.572559869769236 -5.4975622123365611 0 0 0 0 1.0314709340266695 5.3554267451772901 0 5.3554267451772901 3.2152446552036942 0 0 0 0 -66.832823788049609 41.982931512194142 0 41.982931512194142 -22.131470070780779 0 0 0 0 -11.166332634833452 0.71402658937813612 0 0.71402658937813612 3.3784749197516248 0 0 0 0 14.23115561925988 6.5714332918410037 0 6.5714332918410037 -1.3781063943106346 0 0 0 0 -0.91345656117837848 0.57999143535819186 0 0.57999143535819186 0.01405384902898632 0 0 0 0 -27.258333568108355 42.059732006944159 0 42.059732006944159 -11.108239661682092 0 0 0 0 -26.250167010286532 15.928402467845444 0 15.928402467845444 8.3336556245444626 0 0 0 0 -53.747152603385985 24.546291652788568 0 24.546291652788568 5.8099347899242275 0 0 0 0 -27.935546027474629 36.895185953251712 0 36.895185953251712 -5.5110440110993295 0 0 0 0 -17.206430019556137 38.052026368604857 0 38.052026368604857 -5.9687965935985687 0 0 0 0 -17.841651547369111 34.633071659510279 0 34.633071659510279 -6.0631873432204202 0 0 0 0 -3.0552724536596543 41.075232551731574 0 41.075232551731574 -9.4798262676176819 0 0 0 0 -18.397554097653483 36.514833564676337 0 36.514833564676337 -7.6507133626073482 0 0 0 0 4.0398882516055892 29.89165180195323 0 29.89165180195323 -8.6676390820034612 0 0 0 0 3.677580508844585 23.743044863871319 0 23.743044863871319 -3.7348808766964794 0 0 0 0 35.330989477766707 26.148267676163869 0 26.148267676163869 -11.938248711110646 0 0 0 0 7.0674101998938568 34.69524492939172 0 34.69524492939172 -3.4227135524770347 0 0 0 0 1.3757329304535233 27.940034702610319 0 27.940034702610319 -6.765861779743318 0 0 0 0 -14.086760980839244 44.03821918784115 0 44.03821918784115 -12.36743582548479 0 0 0 0 -24.264839954399577 43.995883510677231 0 43.995883510677231 -23.616417493123663 0 0 0 0 -30.067082560367453 29.223092604961948 0 29.223092604961948 -4.6710324863797723 0 0 0 0 6.4707562540206709 30.508102366671665 0 30.508102366671665 -22.700874703386944 0 0 0 0 46.829542124671207 23.851447270674271 0 23.851447270674271 8.9433546124037093 0 0 0 0 46.136314846189634 18.646021427454798 0 18.646021427454798 -12.220177927040822 0 0 0 0 6.3479970121188671 28.861524092436412 0 28.861524092436412 1.2247284267159557 0 0 0 0 59.734521664641306 9.2063091982143987 0 9.2063091982143987 -30.127666701126145 0 0 0 0 36.002436831109662 16.462795160189671 0 16.462795160189671 -45.935859369594255 0 0 0 0 68.648918450727251 -27.263423018986487 0 -27.263423018986487 30.974343040064923 0 0 0 0 12.052316743787742 21.671125950218993 0 21.671125950218993 -29.738173047708187 0 0 0 0 18.104536219110742 29.413764748754147 0 29.413764748754147 -38.778498622796178 0 0 0 0 -26.447181772357908 23.292459630545181 0 23.292459630545181 -22.979243652160221 0 0 0 0 0.0086777333308418747 27.320180215811888 0 27.320180215811888 -45.079037789962058 0 0 0 0 197.01558192156881 -24.357660008774474 0 -24.357660008774474 -54.659939320225021 0 0 0 0 0.47558424874191196 0.5513483800519694 0 0.5513483800519694 -0.75087450981713033 0 0 0 0 -61.383755564789681 61.54221059986412 0 61.54221059986412 -35.405824549244244 0 0 0 0 0.81651853017130449 0.99829466374827547 0 0.99829466374827547 -1.3266318547679603 0 0 0 0 -14.176629371248055 15.615566565262725 0 15.615566565262725 -14.29214254600447 0 0 0 0 -5.4533861603649711 14.675673786165135 0 14.675673786165135 -22.357958506701834 0 0 0 0 -0.024213205382693559 9.9596667871492173 0 9.9596667871492173 -18.356069014047534 0 0 0 0 -10.771048684293419 8.1830520543771854 0 8.1830520543771854 -4.4106890027287591 0 0 0 0 81.056497101472814 -1.2009421286786619 0 -1.2009421286786619 -10.218846506098998 0 0 0 0 27.737346874349896 1.3329459812575806 0 1.3329459812575806 7.0514779783034101 0 0 0 0 31.120082446323067 10.892268905913625 0 10.892268905913625 -4.3742395236358789 0 0 0 0 9.1965562116820365 7.2643758112590149 0 7.2643758112590149 -1.7030779187080043 0 0 0 0 18.681922803210909 16.222787705668907 0 16.222787705668907 -7.7045559074340417 0 0 0 0 -0.3964386928746535 2.9135129884807611 0 2.9135129884807611 -4.0773983436581034 0 0 0 0 -0.0013042951341049047 2.1941695505202006 0 2.1941695505202006 -2.9833867611123424 0 0 0 0 -1.4299224402348045 2.6860782187404766 0 2.6860782187404766 -2.529688924221773 0 0 0 0 35.745834102921435 -5.0239364864278286 0 -5.0239364864278286 -6.5247671573142725 0 0 0 0 0.69194824521215992 1.3387027024801021 0 1.3387027024801021 -1.1700617334387324 0 0 0 0 -1.1000139763564221 1.717338979618944 0 1.717338979618944 -0.69010166417137953 0 0 0 0 -1.1063632995919761 1.6243945629347536 0 1.6243945629347536 -0.80008433908369625 0 0 0 0 -1.4166542944731191 1.6564454333274625 0 1.6564454333274625 -0.56313421236154682 0 0 0 0 0.16259666370018167 0.072168794663799218 0 0.072168794663799218 0.031750532271377807 0 0 0 0 9.2272873184119817 5.0026841492854146 0 5.0026841492854146 9.5560993360002158 0 0 0 0 19.960665349124611 -8.0258284561687105 0 -8.0258284561687105 5.6424905223902897 0 0 0 0 20.297559997467033 8.5489331835797202 0 8.5489331835797202 -4.0504148984546191 0 0 0 0 -3.8843521621674881 15.116638753781444 0 15.116638753781444 0.62958211093538807 0 0 0 0 -4.6032479681889527 24.610280969543965 0 24.610280969543965 -7.315309833073627 0 0 0 0 6.1782895479227591 5.7256428612417949 0 5.7256428612417949 0.44879081768158358 0 0 0 0 -8.4011141482333187 10.897718714893927 0 10.897718714893927 -3.0499046940476546 0 0 0 0 -0.57503056101631955 11.413235324367633 0 11.413235324367633 -10.720616182989033 0 0 0 0 3.4642782067749067 16.33100579465281 0 16.33100579465281 -5.6667074741162651 0 0 0 0 5.6846021290748467 5.5733495510125977 0 5.5733495510125977 -18.889520357726724 0 0 0 0 10.912398791777377 19.990081488002033 0 19.990081488002033 -10.154906323497016 0 0 0 0 -29.521936809589533 20.022417039372158 0 20.022417039372158 -9.7140334181930257 0 0 0 0 -0.001258123626030283 0.97896366302165916 0 0.97896366302165916 -0.53995694873711386 0 0 0 0 0.095308181397674829 0.50660589013725144 0 0.50660589013725144 -0.1741996367343539 0 0 0 0 -0.98884660431623317 1.4080407762939515 0 1.4080407762939515 -0.10127076203576735 0 0 0 0 -1.1512503833409937 -1.4782706588007386 0 -1.4782706588007386 13.166765426623897 0 0 0 0 -8.9594042793814879 30.850741921226472 0 30.850741921226472 -26.727397199043025 0 0 0 0 -11.297340276032628 39.498883750516143 0 39.498883750516143 -14.678073127389325 0 0 0 0 -19.779241340019325 34.486241311781896 0 34.486241311781896 -6.6036956860534701 0 0 0 0 -14.069497730230069 31.23149197471048 0 31.23149197471048 -5.6486905388828745 0 0 0 0 -3.1746237851821206 22.826125648485231 0 22.826125648485231 -11.387083440574315 0 0 0 0 -12.450123707184048 34.838605296553965 0 34.838605296553965 -20.578146393083443 0 0 0 0 -0.46744645040958943 -0.29085878187203829 0 -0.29085878187203829 0.10252504151659281 0 0 0 0 1.6593484622171673 29.340351736056391 0 29.340351736056391 -76.302418737373046 0 0 0 0 -35.151295245739448 46.300520936918531 0 46.300520936918531 -16.694516956519692 0 0 0 0 -1.4941577524496097 9.2482938265420671 0 9.2482938265420671 -18.67162902327982 0 0 0 0 0.76451150410139235 3.5372524153785889 0 3.5372524153785889 49.662321261139596 0 0 0 0 -48.349083658013114 49.161577560042133 0 49.161577560042133 94.75792688212141 0 0 0 0 -14.343211813329617 32.243821996331008 0 32.243821996331008 6.5483221468284682 0 0 0 0 -117.36887720792038 -17.268189005529621 0 -17.268189005529621 36.991844779976645 0 0 0 0 0.0051056794054602506 29.360238438472152 0 29.360238438472152 40.543141782032762 0 0 0 0 14.732608347846508 28.970074167175198 0 28.970074167175198 25.130785332516098 0 0 0 0 -6.3488668174868508 38.636758828322854 0 38.636758828322854 9.1108873060106816 0 0 0 0 15.66814887594046 32.337217595571019 0 32.337217595571019 36.45651584411462 0 0 0 0 -1.0995932320905446 1.0469710732958646 0 1.0469710732958646 0.54770675071211272 0 0 0 0 -72.56180717609459 12.246200027549094 0 12.246200027549094 50.753331402620915 0 0 0 0 19.685807208079495 32.479036285491929 0 32.479036285491929 35.835627184921123 0 0 0 0 13.249440980127474 44.21012256190329 0 44.21012256190329 57.125682244142354 0 0 0 0 -0.0033239771028135902 39.989626891812193 0 39.989626891812193 65.829903560631465 0 0 0 0 6.1524041785523877 29.161583761314205 0 29.161583761314205 40.371402598008899 0 0 0 0 -9.3755160301698197 57.517257755044284 0 57.517257755044284 80.847165964092028 0 0 0 0 78.112732273033544 82.282081262093698 0 82.282081262093698 59.742151616360388 0 0 0 0 -0.57935844917695789 0.5390859686092675 0 0.5390859686092675 0.52616967567290374 0 0 0 0 14.562978720785395 45.100086083894212 0 45.100086083894212 49.784736730609893 0 0 0 0 -17.823844311580615 25.07992554369207 0 25.07992554369207 73.484319719779251 0 0 0 0 -23.675934101564053 36.688459678741992 0 36.688459678741992 51.187703892269838 0 0 0 0 -14.821738908273801 18.231570341571455 0 18.231570341571455 46.67441298422591 0 0 0 0 5.2859710919155987 32.592983306380916 0 32.592983306380916 13.467580963982982 0 0 0 0 45.489631647376882 -2.8798150546870147 0 -2.8798150546870147 44.765651132893709 0 0 0 0 -10.188394821296242 25.38229683004397 0 25.38229683004397 12.867320223824208 0 0 0 0 18.052993044831965 21.66615834028903 0 21.66615834028903 -24.110534290135547 0 0 0 0 1.788944794318013 34.748600483177597 0 34.748600483177597 -19.959317879316586 0 0 0 0 -2.9909802766142093 12.694743593660235 0 12.694743593660235 -25.892523829868878 0 0 0 0 0.00039301481774600688 40.626333953256335 0 40.626333953256335 -31.631309497141274 0 0 0 0 -0.0087445989429397741 44.107094984627793 0 44.107094984627793 28.831411225444754 0 0 0 0 -5.9685262055500061 16.569486196508478 0 16.569486196508478 -5.540400691939567 0 0 0 0 -1.0552223751637939 37.012864690351307 0 37.012864690351307 5.8055498194321444 0 0 0 0 3.6604221965462784 32.385104002257776 0 32.385104002257776 -56.506934974070674 0 0 0 0 3.3947346865734289 39.479135650514309 0 39.479135650514309 -4.538462459745233 0 0 0 0 -44.115177479185149 27.903549134722425 0 27.903549134722425 -1.271156273874567 0 0 0 0 0.37247097957576614 0.33428354859157849 0 0.33428354859157849 0.079520677752114466 0 0 0 0 14.161668183411166 69.078511523768384 0 69.078511523768384 -55.411666010918509 0 0 0 0 22.577006149404042 67.867227341103444 0 67.867227341103444 -35.39042806029056 0 0 0 0 14.337528105903402 71.684973317428103 0 71.684973317428103 -28.229342402819839 0 0 0 0 19.203176685210565 63.818052112360647 0 63.818052112360647 -33.311601916652307 0 0 0 0 15.451428239874076 51.64016780988436 0 51.64016780988436 -4.5951937016411648 0 0 0 0 48.381856002778136 78.865219645123219 0 78.865219645123219 58.266271413933282 0 0 0 0 37.063774207461393 40.259804105981857 0 40.259804105981857 -5.0734668872556199 0 0 0 0 12.644177617976311 60.849092780972455 0 60.849092780972455 23.297672894598691 0 0 0 0 3.924726022408322 1.138230606245429 0 1.138230606245429 32.747130080260376 0 0 0 0 -5.6671715272022993 18.174897775056706 0 18.174897775056706 129.33688153365392 0 0 0 0 0.7735990830954691 0.17615620271848087 0 0.17615620271848087 0.045409069062692708 0 0 0 0 34.916949615516387 2.1943426221001801 0 2.1943426221001801 20.826519968620232 0 0 0 0 58.536435107966099 -7.934408600486222 0 -7.934408600486222 -94.629102070735371 0 0 0 0 31.625521964087852 111.86829071261874 0 111.86829071261874 -17.175760500005254 0 0 0 0 35.019615334054834 -88.268335068681154 0 -88.268335068681154 21.459779677063125 0 0 0 0 -19.183705253602966 -19.038274013444607 0 -19.038274013444607 87.4754473029152 0 0 0 0 1.0961978689228005 0.77222348616131953 0 0.77222348616131953 0.33638782311263782 0 0 0 0 -9.4892274240519328 11.133393570551561 0 11.133393570551561 27.05018719497275 0 0 0 0 0.34581309400891769 17.265829852446814 0 17.265829852446814 -18.418490762984675 0 0 0 0 -30.628056029801883 18.38614498189213 0 18.38614498189213 -1.5882108951723239 0 0 0 0 0.55992359967242322 0.73373569173088882 0 0.73373569173088882 0.41966913491881286 0 0 0 0 -19.57860863577298 20.226073196641323 0 20.226073196641323 57.187079852062197 0 0 0 0 -30.972072978248434 -1.3372477166576573 0 -1.3372477166576573 63.369351028823985 0 0 0 0 -2.018613769507283 12.115928318026818 0 12.115928318026818 10.818884900693092 0 0 0 0 3.9624488311965251 -16.460823844306333 0 -16.460823844306333 36.440545794551326 0 0 0 0 -7.0123576234162712 1.969521064313521 0 1.969521064313521 0.53528734602327033 0 0 0 0 -5.7218458169918449 10.831158732802578 0 10.831158732802578 27.756500171034531 0 0 0 0 0.13237328674404125 9.10262088308491 0 9.10262088308491 10.703879441395657 0 0 0 0 11.805762425385183 27.782974783038753 0 27.782974783038753 138.41404238325094 0 0 0 0 9.9267865784204332 9.4638389072842983 0 9.4638389072842983 23.447136995869187 0 0 0 0 1.7027448134853955 39.452840041161373 0 39.452840041161373 57.129422121126481 0 0 0 0 15.946009568517184 -29.723590343571914 0 -29.723590343571914 50.744083481225061 0 0 0 0 55.485589710531713 51.71060288565468 0 51.71060288565468 44.152129544615036 0 0 0 0 -0.97214974023680512 0.69281293259000165 0 0.69281293259000165 1.6214549566281597 0 0 0 0 30.051443539896354 31.844254438946109 0 31.844254438946109 29.857724963937471 0 0 0 0 -0.35028219118295567 0.66471709355845299 0 0.66471709355845299 0.41876774850173959 0 0 0 0 -6.5401580285324599 9.2206361713870137 0 9.2206361713870137 -3.2802653371429642 0 0 0 0 -5.2012254052182811 8.0434015020586429 0 8.0434015020586429 6.2566705728313536 0 0 0 0 -0.81772050876484093 5.0987875406601155 0 5.0987875406601155 2.8055964515373404 0 0 0 0 2.4437665704554092 3.5639522048645631 0 3.5639522048645631 -1.3836642070746166 0 0 0 0 0.38131548280215144 4.8733622074707803 0 4.8733622074707803 2.9658065643064973 0 0 0 0 6.8756733140196502 10.563866268827923 0 10.563866268827923 0.74685392790524929 0 0 0 0 -4.0612493412263575 11.067519782252447 0 11.067519782252447 -0.68835902961927786 0 0 0 0 -13.187044850685197 14.781473840957915 0 14.781473840957915 -0.7719075702389091 0 0 0 0 -8.1056567870582512 23.202347411299797 0 23.202347411299797 -9.7057554260773031 0 0 0 0 -2.7471954715365428 16.189020146447547 0 16.189020146447547 6.5208557964942884 0 0 0 0 0.98311842261591664 12.890921461156267 0 12.890921461156267 2.6557797830373602 0 0 0 0 4.9835912671405822 12.263848503139343 0 12.263848503139343 -0.39207281191283982 0 0 0 0 2.7799309552356135 11.021437966840494 0 11.021437966840494 4.0353484045522237 0 0 0 0 -3.0381150933699246 15.409002333793524 0 15.409002333793524 -0.90813583349336113 0 0 0 0 0.72568139849727231 12.012464009845303 0 12.012464009845303 2.0946795112567997 0 0 0 0 -21.112629350569478 6.108515585375244 0 6.108515585375244 0.48002746524980466 0 0 0 0 -9.0047409826074727 7.6059401641759905 0 7.6059401641759905 -0.49502747186579654 0 0 0 0 -6.0749149942666918 7.2396583496094991 0 7.2396583496094991 -1.5422065001675946 0 0 0 0 -13.848673207085085 5.4678952507856593 0 5.4678952507856593 -0.15489943158536335 0 0 0 0 -7.8761388516686566 11.361817335323394 0 11.361817335323394 3.3219199693180599 0 0 0 0 -10.404835604287655 7.8048242399395349 0 7.8048242399395349 1.3966538265540294 0 0 0 0 -0.51595193777029635 9.8479126590973465 0 9.8479126590973465 3.2564537573439338 0 0 0 0 -4.5346645415847888 9.8539072155354006 0 9.8539072155354006 1.4824725549733557 0 0 0 0 -7.3017530655106384 11.577690364673344 0 11.577690364673344 9.8832211813887625 0 0 0 0 -13.388377486673562 4.2082631987550485 0 4.2082631987550485 7.3923768975821531 0 0 0 0 -10.808066150413651 4.7317018308194747 0 4.7317018308194747 0.62605927683853224 0 0 0 0 -19.730916223239547 10.867529071385434 0 10.867529071385434 -2.9725350336648262 0 0 0 0 -19.30235433101916 9.1445032147667007 0 9.1445032147667007 3.2736527845554519 0 0 0 0 -15.101673691384121 -1.3337694161083959 0 -1.3337694161083959 -3.7089719912237342 0 0 0 0 -12.292272434548067 2.3789039171715558 0 2.3789039171715558 -5.0611155455053449 0 0 0 0 51.396127166575752 28.677997047365352 0 28.677997047365352 19.231398315227125 0 0 0 0 -22.039344651580905 -3.8854701076725178 0 -3.8854701076725178 -6.0902758927386458 0 0 0 0 -12.999713788358349 4.8243691922075413 0 4.8243691922075413 -13.170803153505403 0 0 0 0 -10.388187841825129 5.4037960990749525 0 5.4037960990749525 -2.579075794590608 0 0 0 0 -12.54138067724125 0.88032428680708108 0 0.88032428680708108 -4.9796572351588111 0 0 0 0 -14.844496951671317 -0.36462677890085615 0 -0.36462677890085615 -2.3076713858972653 0 0 0 0 -15.92775748850363 -1.1908240913317059 0 -1.1908240913317059 -2.8575958667279338 0 0 0 0 -14.729867433818072 -0.090795944528281325 0 -0.090795944528281325 -5.5304521604230104 0 0 0 0 13.730480895479559 9.9784876767298556 0 9.9784876767298556 2.7331554133133977 0 0 0 0 4.3438500260408546 9.0246351466321357 0 9.0246351466321357 7.7181659840425709 0 0 0 0 -2.9073144163970497 0.25063897939431357 0 0.25063897939431357 0.35149766742291177 0 0 0 0 36.175256581631402 13.151214964143037 0 13.151214964143037 24.104531156022858 0 0 0 0 -8.2407415196227216 15.430791853641871 0 15.430791853641871 0.94390229976855977 0 0 0 0 5.3317305983990853 -0.0012155674837703856 0 -0.0012155674837703856 -1.31469711447237 0 0 0 0 -27.513795341053083 6.8450769510895952 0 6.8450769510895952 15.749839521079593 0 0 0 0 7.135291126037373 6.5200846385077966 0 6.5200846385077966 -1.783901683294971 0 0 0 0 -23.272117718546724 -6.1243044674847624 0 -6.1243044674847624 0.81631240351634915 0 0 0 0 -23.730553835273042 -13.091144376233387 0 -13.091144376233387 -3.4496632780392247 0 0 0 0 -69.080680536408181 7.0153954547131434 0 7.0153954547131434 17.366421558727325 0 0 0 0 -157.80992803804656 -60.24071959270259 0 -60.24071959270259 -17.972905380728662 0 0 0 0 46.525884269738526 -4.6678906575984911 0 -4.6678906575984911 -47.701077794643425 0 0 0 0 -3.7260763312824565 12.364752624619541 0 12.364752624619541 17.065745636977226 0 0 0 0 29.145117577671044 33.738563878689547 0 33.738563878689547 -229.94946065162003 0 0 0 0 -22.575893494112734 -0.63260806273189019 0 -0.63260806273189019 6.7170259066269864 0 0 0 0 58.788539581961231 33.298705658593008 0 33.298705658593008 -20.50894187003405 0 0 0 0 -10.450239489031308 13.179785612513449 0 13.179785612513449 -1.8761653686227611 0 0 0 0 45.613927529127977 44.764635896079199 0 44.764635896079199 6.6703807352812419 0 0 0 0 -21.299658593492495 3.5188537611286392 0 3.5188537611286392 -6.9349010528067083 0 0 0 0 -18.160341772647371 8.3641930829448938 0 8.3641930829448938 3.1866311718013094 0 0 0 0 -20.761786218582017 17.562645465526039 0 17.562645465526039 33.644217876562834 0 0 0 0 -109.92985777429976 -57.872592638290371 0 -57.872592638290371 48.488747091298137 0 0 0 0 -12.935761343061131 98.809589059063001 0 98.809589059063001 -13.270000806434382 0 0 0 0 -21.133790525590143 57.267922810707937 0 57.267922810707937 44.4419797726041 0 0 0 0 -14.198434180517168 14.162064917759022 0 14.162064917759022 -4.6288059974278077 0 0 0 0 99.248162718076401 57.822539074295719 0 57.822539074295719 -31.620377844039467 0 0 0 0 0.062692642900413986 0.0059445621869418375 0 0.0059445621869418375 1.0226987210256269 0 0 0 0 -41.750779002780291 54.425812024644983 0 54.425812024644983 6.5656890568179733 0 0 0 0 -11.15556361551694 15.936529165917527 0 15.936529165917527 -6.3009888913947805 0 0 0 0 64.268808679364156 51.331477549943656 0 51.331477549943656 -75.434107759351718 0 0 0 0 -79.890443312131538 48.796647851695525 0 48.796647851695525 51.366419990581335 0 0 0 0 -73.72097270973245 14.823208568713653 0 14.823208568713653 47.595059561299877 0 0 0 0 -45.791702647711645 -2.9129219759606713 0 -2.9129219759606713 37.672062835326869 0 0 0 0 -1.0214487329139956 84.927189681236996 0 84.927189681236996 -21.577286519248815 0 0 0 0 47.428862117150857 64.052981926973189 0 64.052981926973189 -21.079594536887413 0 0 0 0 -1.534154296384294 0.11449107824458826 0 0.11449107824458826 0.09756019551102435 0 0 0 0 -32.593114196744864 -4.3582005533889969 0 -4.3582005533889969 33.801743514311966 0 0 0 0 0.14935050765177493 0.27077965855036012 0 0.27077965855036012 0.17057249560210419 0 0 0 0 -4.4287428165877216 0.67974998075808957 0 0.67974998075808957 -0.096966429472261417 0 0 0 0 -1.6250265680464508 -4.5067461168073351 0 -4.5067461168073351 91.190173119239716 0 0 0 0 -48.083718038556981 -9.6572470342036922 0 -9.6572470342036922 129.94192481072696 0 0 0 0 -3.3041967123608629 20.281772447768162 0 20.281772447768162 33.728606167168437 0 0 0 0 14.227293539117454 11.665178252031183 0 11.665178252031183 18.640279282329175 0 0 0 0 1.491085636887874 12.945542558903071 0 12.945542558903071 9.7538715562999414 0 0 0 0 -8.6597856912394491 8.7590540816981957 0 8.7590540816981957 19.27176322698233 0 0 0 0 -5.4573369117970287 9.2432338553130649 0 9.2432338553130649 8.5772527821684434 0 0 0 0 -18.346635710614464 5.534080720054817 0 5.534080720054817 25.959918196877879 0 0 0 0 -24.963338638917776 3.8739590496170422 0 3.8739590496170422 26.982450258387871 0 0 0 0 -2.8142081667210732 -8.6241034036838755 0 -8.6241034036838755 28.805481948923443 0 0 0 0 4.7311962123981175 20.735559815124361 0 20.735559815124361 -10.319783669710887 0 0 0 0 2.0035941026126238 17.460581800780346 0 17.460581800780346 10.201726919920475 0 0 0 0 -12.395516030635008 11.810926976175324 0 11.810926976175324 9.755113923432873 0 0 0 0 3.00323564111509 13.206097838011679 0 13.206097838011679 7.8311043176618114 0 0 0 0 35.124268828605636 21.978330698930677 0 21.978330698930677 -17.752911669191235 0 0 0 0 3.2026151258387046 1.6607063447256323 0 1.6607063447256323 30.506770845013307 0 0 0 0 1.5689242387070408 15.568822300102966 0 15.568822300102966 53.162238876201627 0 0 0 0 0.8615635598897029 1.1652233883445859 0 1.1652233883445859 0.11323382652305625 0 0 0 0 -45.556712639312536 8.504568403797748 0 8.504568403797748 -48.09846964335884 0 0 0 0 -2.0374608180836731 18.666739912731146 0 18.666739912731146 -60.501949183135366 0 0 0 0 24.123125193307715 25.609255890040004 0 25.609255890040004 31.458032027659101 0 0 0 0 11.238589676336176 14.291102300540757 0 14.291102300540757 25.656015508662676 0 0 0 0 11.618620968605683 22.198780218489446 0 22.198780218489446 12.445147018702301 0 0 0 0 23.05116871764767 26.467291512391057 0 26.467291512391057 7.5439220089256196 0 0 0 0 23.136270360397248 14.120448636303081 0 14.120448636303081 3.6763861109830032 0 0 0 0 26.288076308384916 20.738580226715385 0 20.738580226715385 -7.1258100259192361 0 0 0 0 19.685573193042728 5.3138292853400344 0 5.3138292853400344 -14.801629954061127 0 0 0 0 18.487865644659678 7.4571909506747716 0 7.4571909506747716 50.808290018463595 0 0 0 0 -5.7665611949341837 52.054072481156254 0 52.054072481156254 -0.29524375745313591 0 0 0 0 24.218775570658408 32.288857102503925 0 32.288857102503925 21.291104039108177 0 0 0 0 37.335491721721155 25.978284127370898 0 25.978284127370898 -131.53062686406702 0 0 0 0 -34.613815659789907 11.10564292230606 0 11.10564292230606 161.59514709343966 0 0 0 0 0.15106140176370886 1.0507654158806332 0 1.0507654158806332 0.096879548590389275 0 0 0 0 30.953794054810714 4.9443383417465157 0 4.9443383417465157 47.479673787919637 0 0 0 0 -0.39311944797555043 32.490586031139173 0 32.490586031139173 -47.219709741720635 0 0 0 0 -1.2045818993647117 58.946078047542414 0 58.946078047542414 -80.746039900252981 0 0 0 0 -51.201372311694286 81.967983466309306 0 81.967983466309306 114.27381462829908 0 0 0 0 -9.4979593917623788 73.775848200793462 0 73.775848200793462 5.604855806373962 0 0 0 0 -79.485700880948571 34.587460347356682 0 34.587460347356682 19.294011731339651 0 0 0 0 -46.86272690844271 113.3164098741654 0 113.3164098741654 50.049950673266721 0 0 0 0 -7.3963654301624047 31.453061453161354 0 31.453061453161354 31.642237727145584 0 0 0 0 -47.550594584139617 91.864293229844407 0 91.864293229844407 -50.424416664369346 0 0 0 0 2.6966970616158505 10.875081429445345 0 10.875081429445345 -39.910349834360204 0 0 0 0 12.40555149408101 19.854925765128428 0 19.854925765128428 -42.333244022593135 0 0 0 0 -23.656188910350465 52.943061452152506 0 52.943061452152506 -107.0269153853842 0 0 0 0 -179.36517931594972 109.71648127506285 0 109.71648127506285 -29.732317966634582 0 0 0 0 -0.83697551294121553 1.0245265509918879 0 1.0245265509918879 -1.586862855723183 0 0 0 0 -53.120195773451997 117.05616013846338 0 117.05616013846338 76.584836000924042 0 0 0 0 -194.57033877719914 -85.740261961952683 0 -85.740261961952683 52.199912309230058 0 0 0 0 -294.57877478967202 102.65613520265651 0 102.65613520265651 155.21021957459197 0 0 0 0 -3.4484507215361191 -13.676290298324943 0 -13.676290298324943 -18.807430096005191 0 0 0 0 -4.5807831632428133 -6.2123939479333785 0 -6.2123939479333785 -64.598486728055832 0 0 0 0 -45.266732279276766 -5.8474342628751401 0 -5.8474342628751401 -0.80141378371263272 0 0 0 0 10.150308334257716 -39.233369175442022 0 -39.233369175442022 -7.3883279547881102 0 0 0 0 -63.62925771123264 -68.407789834014693 0 -68.407789834014693 -32.742763287315029 0 0 0 0 -3.0370559336915903 -15.939872890288825 0 -15.939872890288825 -42.837594399966292 0 0 0 0 -4.7853516209751703 0.90642566245254486 0 0.90642566245254486 3.439687080689307 0 0 0 0 -26.959388861112529 12.52532762984174 0 12.52532762984174 50.522310552310955 0 0 0 0 -2.0469782448672049 30.113794295384196 0 30.113794295384196 4.6926644877776198 0 0 0 0 -27.517785838223062 19.099030894560201 0 19.099030894560201 15.309748657598902 0 0 0 0 -54.690064123456978 18.504393129899654 0 18.504393129899654 21.117540091181581 0 0 0 0 -28.392054916595043 23.205781431047171 0 23.205781431047171 -27.978658897889545 0 0 0 0 -2.764625537150879 4.0161133117142294 0 4.0161133117142294 -3.3225221330349264 0 0 0 0 0.99018594486516776 0.91971359607044523 0 0.91971359607044523 -0.81651841357170696 0 0 0 0 -40.905357478686369 22.215956331644747 0 22.215956331644747 -10.440767369802415 0 0 0 0 7.8508130879563396 9.1018872949862271 0 9.1018872949862271 -2.0359477940619399 0 0 0 0 -15.202723252970827 1.5723879013294209 0 1.5723879013294209 8.3197737717905511 0 0 0 0 -43.223144853457597 -4.8751768308111423 0 -4.8751768308111423 7.8234191999054019 0 0 0 0 2.9666502521873568 7.1822845674520988 0 7.1822845674520988 -2.9933873568820246 0 0 0 0 -3.3638875520200333 5.2706404705941914 0 5.2706404705941914 2.3443887785297086 0 0 0 0 7.4866713878442397 12.712323111826379 0 12.712323111826379 -5.1706636937124131 0 0 0 0 14.21501158904357 10.321629290024248 0 10.321629290024248 -4.3483868871990126 0 0 0 0 9.2670327393789194 5.4412289612328095 0 5.4412289612328095 -8.9564699529855716 0 0 0 0 9.8182202110165235 2.9413847404057378 0 2.9413847404057378 1.5652093365920337 0 0 0 0 18.537188024102079 7.3130869059674524 0 7.3130869059674524 -14.862438217340241 0 0 0 0 10.168783577494651 15.643558841846698 0 15.643558841846698 -8.3478064695773355 0 0 0 0 13.283411021167922 15.359825591028311 0 15.359825591028311 -0.24572164297114796 0 0 0 0 21.380255763223431 17.367337866776097 0 17.367337866776097 -7.827062605336323 0 0 0 0 13.444650845810784 23.080080691427995 0 23.080080691427995 -3.1144458313319774 0 0 0 0 9.624145540938116 15.285289970043777 0 15.285289970043777 -8.1898253143835973 0 0 0 0 5.6974662144357353 19.884438770033739 0 19.884438770033739 -7.4424239022420124 0 0 0 0 9.7949133411026246 11.102099361098723 0 11.102099361098723 5.7327199536746143 0 0 0 0 -0.57056881829927164 26.413605204825927 0 26.413605204825927 7.9677545198301232 0 0 0 0 6.8900348156330438 15.990753783851687 0 15.990753783851687 -0.17439003288109234 0 0 0 0 0.14900454997939505 16.962578811339881 0 16.962578811339881 -4.6320058000892459 0 0 0 0 -5.7435980495317267 32.317382569148918 0 32.317382569148918 -5.8942351226114624 0 0 0 0 10.090750834277056 7.9215729945154489 0 7.9215729945154489 5.11688320626806 0 0 0 0 8.1508257554597776 17.854621803341161 0 17.854621803341161 -7.4355583021592793 0 0 0 0 -3.9672980496143282 17.986270616219372 0 17.986270616219372 -2.6496471599066354 0 0 0 0 -0.83170787943254254 12.927573763577868 0 12.927573763577868 9.9479245851634914 0 0 0 0 -0.84387456358399504 11.553989278761492 0 11.553989278761492 2.2603808127332741 0 0 0 0 9.0583382175145744 25.503261307426101 0 25.503261307426101 2.7034137577593356 0 0 0 0 3.2929659601721255 31.260193092789905 0 31.260193092789905 9.6735108343928005 0 0 0 0 -7.1708496769761885 7.7844893760365075 0 7.7844893760365075 -1.6128149006543149 0 0 0 0 2.5365228951250174 14.828246954137285 0 14.828246954137285 8.7489284151752145 0 0 0 0 2.2149419688903436 10.595295692644868 0 10.595295692644868 5.1818582143660024 0 0 0 0 -4.4384772224100004 12.20769755138925 0 12.20769755138925 2.0611072587505674 0 0 0 0 -3.3757586543697471 11.476398590286408 0 11.476398590286408 0.40201723818063329 0 0 0 0 -5.0937765096759673 6.0048466566966106 0 6.0048466566966106 -1.5741745174367612 0 0 0 0 -4.4385620567336446 7.0678052636926623 0 7.0678052636926623 -0.6345848392006701 0 0 0 0 -3.6354874489852591 12.980954229557369 0 12.980954229557369 -5.6219491406427551 0 0 0 0 -13.906321555366958 14.964301230044271 0 14.964301230044271 -2.8584465753756376 0 0 0 0 0.11471751918639939 4.6527734147525575 0 4.6527734147525575 4.9786636498884498 0 0 0 0 -11.641889765947781 7.6038709314575499 0 7.6038709314575499 3.1063977196790802 0 0 0 0 -3.8125202450310098 15.113747889423848 0 15.113747889423848 4.0207543967699166 0 0 0 0 -22.488852855543882 9.1436727964996862 0 9.1436727964996862 4.5770855191340161 0 0 0 0 -23.943510279808834 16.893656321179606 0 16.893656321179606 -13.363065416686368 0 0 0 0 -27.101093389273956 16.269896874644019 0 16.269896874644019 2.7589646685919433 0 0 0 0 -22.260010297401095 9.1481422871581799 0 9.1481422871581799 9.8069512711317657 0 0 0 0 -51.477302599549148 7.5817825778221959 0 7.5817825778221959 9.7287066880202246 0 0 0 0 4.8393349844474862 0.2983774421559815 0 0.2983774421559815 -1.1055603175321593 0 0 0 0 -25.019977026945526 18.174115024904495 0 18.174115024904495 -4.0523403503730151 0 0 0 0 -23.588927560491356 12.023263479305115 0 12.023263479305115 -1.6898316399808664 0 0 0 0 -24.292512481621088 10.993175441070434 0 10.993175441070434 0.72071116208462627 0 0 0 0 -24.160445329012873 10.260151200322071 0 10.260151200322071 -5.0932249083562056 0 0 0 0 -7.5383606237530127 15.673666178529761 0 15.673666178529761 -2.3760541260284853 0 0 0 0 -3.8050722922723228 2.7631618436743253 0 2.7631618436743253 1.1382650423900103 0 0 0 0 7.4953359640767303 22.250181110498033 0 22.250181110498033 11.004741256264879 0 0 0 0 -2.6602548409118754 14.162616957579729 0 14.162616957579729 13.335015449814364 0 0 0 0 3.1981115952970569 5.508141289183806 0 5.508141289183806 -0.62753390882856852 0 0 0 0 11.395866871516773 25.061534046843917 0 25.061534046843917 16.404496267805371 0 0 0 0 5.4563590929574275 14.500016915807009 0 14.500016915807009 2.3180564562571817 0 0 0 0 -3.3147900013427716 9.0480503230505747 0 9.0480503230505747 1.0138716870933422 0 0 0 0 1.0583156225733834 9.2797714335823969 0 9.2797714335823969 0.66821636361903103 0 0 0 0 -7.2560233862540784 19.957167026495092 0 19.957167026495092 4.6030790569096869 0 0 0 0 -13.988870201339253 15.734836183908305 0 15.734836183908305 6.9123115434880447 0 0 0 0 -6.5652127971502381 0.52038833561963926 0 0.52038833561963926 3.7042490029878952 0 0 0 0 6.6902935232337768 11.248401351789539 0 11.248401351789539 12.005049002818168 0 0 0 0 16.910536985424187 31.894564797707062 0 31.894564797707062 14.63982470254814 0 0 0 0 -4.4970100995200877 10.564019522046234 0 10.564019522046234 7.8824505992642564 0 0 0 0 9.8701527426310349 19.991742634519596 0 19.991742634519596 1.3017160029476145 0 0 0 0 -2.4323588737124737 10.960502296023719 0 10.960502296023719 3.3706316171178514 0 0 0 0 16.369129538616107 13.148047154360484 0 13.148047154360484 7.2031144197185313 0 0 0 0 0.069059943971296889 11.225753761956867 0 11.225753761956867 12.293356248648138 0 0 0 0 -4.1093620306801313 14.637087780941101 0 14.637087780941101 9.7931095803157859 0 0 0 0 -1.1397939915302686 13.474451227055539 0 13.474451227055539 6.0865972355268241 0 0 0 0 -9.5029538777926064 13.638987488526027 0 13.638987488526027 -0.80455118148529436 0 0 0 0 -4.2583769485572702 15.841888010358844 0 15.841888010358844 15.970306072705625 0 0 0 0 -3.5994025706497048 8.6768498054290113 0 8.6768498054290113 -2.096435388579494 0 0 0 0 -3.4590750193368045 6.4090365926318205 0 6.4090365926318205 -3.2932512176618287 0 0 0 0 -3.6135883749298046 8.8688068780720641 0 8.8688068780720641 3.2928586626358083 0 0 0 0 -0.32574257114174543 6.997259516372651 0 6.997259516372651 1.646644515233902 0 0 0 0 0.24776980316528352 14.576429161107853 0 14.576429161107853 8.6254944227898704 0 0 0 0 -1.5762706867690213 14.563842819357745 0 14.563842819357745 8.9565656808397307 0 0 0 0 -1.5297560110702761 14.673122317923116 0 14.673122317923116 9.0565771097708421 0 0 0 0 3.3138936039695182 11.012620277318547 0 11.012620277318547 0.61051071799238343 0 0 0 0 -1.4228457252448834 7.4606563373092492 0 7.4606563373092492 -5.2434528575797161 0 0 0 0 -1.5129401640369906 10.737114168882044 0 10.737114168882044 6.1972035136423074 0 0 0 0 -6.6952223129544377 4.6508277085805005 0 4.6508277085805005 -1.6603743201880565 0 0 0 0 0.63761861532452713 10.944159232541551 0 10.944159232541551 4.2469610520001879 0 0 0 0 -39.095105496247925 34.985521040812955 0 34.985521040812955 16.265309536292193 0 0 0 0 -7.0131076823164449 62.670603351897412 0 62.670603351897412 -45.52466977569884 0 0 0 0 0.31981029915535686 0.30308141355380869 0 0.30308141355380869 0.086313945302599393 0 0 0 0 -40.411616174231312 28.621121255122944 0 28.621121255122944 -14.170132318081414 0 0 0 0 -23.714256532281979 26.54936779069476 0 26.54936779069476 -20.443172958345713 0 0 0 0 -14.869148858706467 68.531349881382994 0 68.531349881382994 -70.146220638662044 0 0 0 0 -9.2024981226750242 93.05839559413198 0 93.05839559413198 4.3839894041969956 0 0 0 0 -16.388795203838527 79.959575647898419 0 79.959575647898419 -8.4016327821054801 0 0 0 0 -6.1981646468120744 86.223846669087379 0 86.223846669087379 -17.948832786563798 0 0 0 0 -53.268884623033046 43.118710306059597 0 43.118710306059597 23.784011937117612 0 0 0 0 -19.601995319477282 1.2176482033564753 0 1.2176482033564753 2.6736418085060905 0 0 0 0 26.129002311283784 18.300270899419218 0 18.300270899419218 -3.1663297929608234 0 0 0 0 25.886340331093379 20.877951744495022 0 20.877951744495022 -8.687083143468044 0 0 0 0 10.83689866417626 42.026354424674878 0 42.026354424674878 14.695049076590294 0 0 0 0 -7.7711705387810071 49.001858666145836 0 49.001858666145836 16.656193937786384 0 0 0 0 13.217383916609833 43.793776123499356 0 43.793776123499356 -19.691043523703229 0 0 0 0 6.478747622895753 12.398760275750192 0 12.398760275750192 -3.9346528557671263 0 0 0 0 10.582059875889172 21.207591873734373 0 21.207591873734373 -2.9214497350967576 0 0 0 0 40.855857986331102 30.455926831631587 0 30.455926831631587 -6.7979647175307036 0 0 0 0 23.221221583276929 49.836142410853427 0 49.836142410853427 35.295084577382113 0 0 0 0 16.078397660290648 15.939787267635893 0 15.939787267635893 -0.18546758179309109 0 0 0 0 25.66343576203144 21.310477210259705 0 21.310477210259705 -6.0305687921481876 0 0 0 0 17.172046664119989 16.868818824509162 0 16.868818824509162 -1.1198093417451673 0 0 0 0 17.470218946175692 14.780797104002687 0 14.780797104002687 -13.39917080484156 0 0 0 0 10.693093811831204 10.965490556452096 0 10.965490556452096 -7.6298900192136898 0 0 0 0 16.714759366586804 13.407973435236499 0 13.407973435236499 -7.8033712502210619 0 0 0 0 6.7078171421781008 10.609463913868012 0 10.609463913868012 -17.008293700458978 0 0 0 0 -4.2788243954373684 27.986965532218392 0 27.986965532218392 -15.15844373757227 0 0 0 0 -18.400638673545473 12.192459604759506 0 12.192459604759506 -31.166465546528343 0 0 0 0 -38.876073531577276 45.567259630074886 0 45.567259630074886 -32.656345837163997 0 0 0 0 -35.938294639917785 51.837825571968381 0 51.837825571968381 -42.837375078601781 0 0 0 0 0.55960570417926903 0.62706551289404899 0 0.62706551289404899 0.36311532202428864 0 0 0 0 -17.393119938700693 19.540829414924929 0 19.540829414924929 -25.320964137734336 0 0 0 0 -14.04954783526415 30.586046882869852 0 30.586046882869852 -9.4721712843793284 0 0 0 0 -14.52819099369583 17.33420699762388 0 17.33420699762388 -5.0609919110684132 0 0 0 0 -3.3094492071431887 18.249267017599323 0 18.249267017599323 -12.210673888834208 0 0 0 0 0.22594475313962903 12.24503911982174 0 12.24503911982174 -6.9566823777167883 0 0 0 0 0.65459721785555303 23.325056423213596 0 23.325056423213596 -26.798230490975584 0 0 0 0 -6.4958980694432285 10.949115912113712 0 10.949115912113712 4.477907644924926 0 0 0 0 -5.5260380224171968 16.118696209625114 0 16.118696209625114 -9.484176701233082 0 0 0 0 -14.522693852224712 13.9893636090166 0 13.9893636090166 -2.5452433735481463 0 0 0 0 -14.598416462113164 25.682143547745909 0 25.682143547745909 -16.03003962500452 0 0 0 0 8.1894362050570635 14.422764035143473 0 14.422764035143473 -7.7870742542982043 0 0 0 0 26.717702752695914 9.5405397192389501 0 9.5405397192389501 -10.005411067478235 0 0 0 0 13.333873915609729 14.117139442842927 0 14.117139442842927 -10.65669043396565 0 0 0 0 18.064036801479801 8.8873671613011425 0 8.8873671613011425 -2.8505443058202218 0 0 0 0 17.905349687440321 11.689424316554778 0 11.689424316554778 -10.714962270251817 0 0 0 0 13.313272297251387 4.0067898178367614 0 4.0067898178367614 -3.8706465790028233 0 0 0 0 16.516298343645758 7.0323006596672712 0 7.0323006596672712 -4.6271943271713099 0 0 0 0 20.46168442085218 2.6307535993669262 0 2.6307535993669262 -6.0659775599924615 0 0 0 0 5.3535551731947635 21.556656158917122 0 21.556656158917122 14.081225679774889 0 0 0 0 2.6709696648631507 11.506649765907014 0 11.506649765907014 -7.4850623387483211 0 0 0 0 -6.5214627153909532 -7.4994056693870164 0 -7.4994056693870164 5.2233041086270191 0 0 0 0 6.2065801080875289 6.4744332768251738 0 6.4744332768251738 -0.58621249489058602 0 0 0 0 13.276188192596237 6.2827295206584495 0 6.2827295206584495 -19.24059480836786 0 0 0 0 33.181153758388973 -12.779203197441348 0 -12.779203197441348 -1.8104372579450683 0 0 0 0 2.1415006365650697 29.418065839107385 0 29.418065839107385 8.9331292757183292 0 0 0 0 3.1791271336342106 -2.061459975712721 0 -2.061459975712721 8.2069276274886533 0 0 0 0 2.2412079653635146 44.765968595668561 0 44.765968595668561 -30.864774930177418 0 0 0 0 -2.9651018521071819 3.3268743256859921 0 3.3268743256859921 3.8439491489857573 0 0 0 0 -41.322558737891086 -3.4446671214371918 0 -3.4446671214371918 27.401952941071173 0 0 0 0 8.764310809694507 21.285382872239126 0 21.285382872239126 28.778173984775549 0 0 0 0 32.663193761607545 12.715602718124671 0 12.715602718124671 8.9735730671129659 0 0 0 0 0.075287662944569789 0.11322804075693327 0 0.11322804075693327 0.82803298096028999 0 0 0 0 -4.60880811503921 -23.657343494451297 0 -23.657343494451297 17.668070496657148 0 0 0 0 104.8305303461002 48.523321376827084 0 48.523321376827084 -5.5327508018392564 0 0 0 0 -9.1850017565611779 -16.595252219191337 0 -16.595252219191337 9.9126161782944759 0 0 0 0 -28.769399950782827 -10.313628040847647 0 -10.313628040847647 24.939926046447681 0 0 0 0 -21.478300680835673 -21.189223084388686 0 -21.189223084388686 38.479808333594065 0 0 0 0 6.9237697389689856 7.0711339836384468 0 7.0711339836384468 -10.783469420021902 0 0 0 0 1.4691325729907305 -0.92144676035182371 0 -0.92144676035182371 -2.9922775859533584 0 0 0 0 0.88434806136837807 10.251689758142614 0 10.251689758142614 -22.048010588723628 0 0 0 0 0.88797142733528744 11.126382745493174 0 11.126382745493174 2.2897088647464443 0 0 0 0 5.9070454324828461 5.4522068376845709 0 5.4522068376845709 -8.3828852985561753 0 0 0 0 8.764255095844419 10.954350017969318 0 10.954350017969318 -17.148631504527657 0 0 0 0 0.27385638327359629 2.7016425742592673 0 2.7016425742592673 -9.3759090195808312 0 0 0 0 5.2877290778551043 6.7826258474270826 0 6.7826258474270826 -0.034417466933597707 0 0 0 0 135.67771925561829 6.5298458967718034 0 6.5298458967718034 26.262626937308482 0 0 0 0 3.008650667132315 -3.0420517527172706 0 -3.0420517527172706 1.0354499079014658 0 0 0 0 -23.421561727308926 92.121993106718364 0 92.121993106718364 45.969323728121822 0 0 0 0 -10.327706844613203 22.474598798918578 0 22.474598798918578 -57.454593311876124 0 0 0 0 -1.7508170211758625 14.011076506996687 0 14.011076506996687 37.779040685011296 0 0 0 0 -1.5711059359171955 1.6265154752050002 0 1.6265154752050002 0.13294699814634525 0 0 0 0 -4.3901941747872115 15.607193123379602 0 15.607193123379602 -51.997284059743833 0 0 0 0 -1.5226768649827136 5.1060438193712798 0 5.1060438193712798 24.374715161571658 0 0 0 0 3.1296814965253361 12.340627451642774 0 12.340627451642774 21.181590149118165 0 0 0 0 1.0565980447909169 9.4896688940233389 0 9.4896688940233389 8.6992126641475807 0 0 0 0 -0.034288918934180401 13.096542064963614 0 13.096542064963614 13.421076901707238 0 0 0 0 6.7793926411613938 14.93187524052837 0 14.93187524052837 7.2986841247054599 0 0 0 0 3.7657999703400264 16.029660785478569 0 16.029660785478569 15.021201425910476 0 0 0 0 0.28344772274795105 14.10550984766769 0 14.10550984766769 8.2751911303412271 0 0 0 0 -2.6243233599761879 13.583342439713761 0 13.583342439713761 10.417708632691301 0 0 0 0 -1.9569811444125662 11.589178797111344 0 11.589178797111344 -8.8816550757537129 0 0 0 0 -2.5187525987173203 2.9867943141379669 0 2.9867943141379669 0.17377040797403764 0 0 0 0 -1.5423065305295438 5.9127095052630132 0 5.9127095052630132 8.4713472557923524 0 0 0 0 -2.2460378681989823 8.1416348897862463 0 8.1416348897862463 -31.078201370164606 0 0 0 0 -8.8408298062267932 4.3587321803543091 0 4.3587321803543091 3.2875249442895438 0 0 0 0 -3.8461924294788332 8.5950033987464849 0 8.5950033987464849 5.8143649762187124 0 0 0 0 -0.15810377056632774 11.233320113425156 0 11.233320113425156 -2.0000933614588732 0 0 0 0 -1.8722353247118413 6.0507333174210665 0 6.0507333174210665 -1.173475519458286 0 0 0 0 -5.2741119597085344 12.108941345729136 0 12.108941345729136 2.7151911265395938 0 0 0 0 -5.2849832016399887 10.293353234896472 0 10.293353234896472 7.2979517636717901 0 0 0 0 -3.0246048489880071 9.9126814957163525 0 9.9126814957163525 2.8083220543348357 0 0 0 0 16.51924738076832 9.8137983701784606 0 9.8137983701784606 -2.8576122592130559 0 0 0 0 -9.8796542650452466 10.810185846390141 0 10.810185846390141 7.576688484560691 0 0 0 0 14.957529831030115 6.8738627253214872 0 6.8738627253214872 -0.32698609245949228 0 0 0 0 15.940823200071463 9.13550095669234 0 9.13550095669234 -0.93984725735754182 0 0 0 0 0.3167283972726409 1.3877933067013117 0 1.3877933067013117 -0.22933414250635809 0 0 0 0 -4.4752812244441884 13.507105020694326 0 13.507105020694326 28.328995057823505 0 0 0 0 14.342195879020437 1.8537508065721795 0 1.8537508065721795 -4.8242223515271689 0 0 0 0 -5.8855883437748933 5.5237179539006114 0 5.5237179539006114 0.011697816358715585 0 0 0 0 2.1235401188132528 7.7732407763260198 0 7.7732407763260198 0.21599097968646674 0 0 0 0 2.3141087218209577 3.0683634573679228 0 3.0683634573679228 -1.1916528821632255 0 0 0 0 -26.78484230171307 2.6202516927218085 0 2.6202516927218085 27.418509449692692 0 0 0 0 10.819715618719783 13.957288618334587 0 13.957288618334587 -11.251826353905471 0 0 0 0 1.5390637655127648 7.4698730125187467 0 7.4698730125187467 2.5025579324328646 0 0 0 0 6.6573552206058295 7.1664272281932995 0 7.1664272281932995 -2.2358653204118362 0 0 0 0 -0.14439957346736776 -0.20071971887452911 0 -0.20071971887452911 0.013793579245661991 0 0 0 0 8.1178513601771556 -23.801260021110522 0 -23.801260021110522 70.300054154096074 0 0 0 0 -15.110312448054174 31.393624266776385 0 31.393624266776385 8.3103433666839237 0 0 0 0 15.528234296270966 24.065958500481599 0 24.065958500481599 -74.666246613036378 0 0 0 0 -29.708901442412753 -13.881284656622995 0 -13.881284656622995 -9.714056703596043 0 0 0 0 -9.2165265086950967 -19.006456311734382 0 -19.006456311734382 -44.81824874694513 0 0 0 0 13.73703495132213 -16.069856919253652 0 -16.069856919253652 -10.184905163721908 0 0 0 0 -1.3559462192504199 2.1165989215624856 0 2.1165989215624856 0.099677558771982699 0 0 0 0 41.568780645699007 32.710581793669689 0 32.710581793669689 -15.035420972463953 0 0 0 0 -68.119139845253812 -40.449615704711675 0 -40.449615704711675 118.16953338050331 0 0 0 0 9.4841510470032517 32.067733242421298 0 32.067733242421298 -35.421560771205463 0 0 0 0 24.731112649446004 44.192760835318722 0 44.192760835318722 -17.730103196324478 0 0 0 0 4.7748101558827329 43.393943021729683 0 43.393943021729683 -16.838003676809649 0 0 0 0 -22.282163460996344 23.678170389528489 0 23.678170389528489 -15.548235248482342 0 0 0 0 11.239001212259609 31.992796610381049 0 31.992796610381049 45.435814806983046 0 0 0 0 -6.313259592982746 6.3542569325007978 0 6.3542569325007978 -2.8839328972420279 0 0 0 0 -1.6221857583541324 6.7851913320680595 0 6.7851913320680595 0.99936490849464121 0 0 0 0 -1.470934855798987 32.732383125269337 0 32.732383125269337 5.9290282539084274 0 0 0 0 -1.7408231312210773 10.197649054301877 0 10.197649054301877 1.5132614946601279 0 0 0 0 -1.9675123532379075 9.3692868755358631 0 9.3692868755358631 1.3407777590586534 0 0 0 0 -3.9646700418807299 9.7826048465263504 0 9.7826048465263504 -1.0505912344589001 0 0 0 0 -3.3032476974185556 14.583562499967229 0 14.583562499967229 -11.545713559028627 0 0 0 0 -14.860851672096032 31.786148441058685 0 31.786148441058685 -12.977302968882213 0 0 0 0 -3.5536078671939322 17.004985706202206 0 17.004985706202206 -0.69611622308912047 0 0 0 0 -7.1614380458789491 10.227363678226897 0 10.227363678226897 -2.2390323384767457 0 0 0 0 -7.6964731636126089 17.986084234014015 0 17.986084234014015 5.5322976233519512 0 0 0 0 -10.567975369551277 3.213071792013352 0 3.213071792013352 -21.338998700134766 0 0 0 0 -6.1788218922454092 5.5087555646277782 0 5.5087555646277782 -0.51351446464135697 0 0 0 0 58.836713838501964 89.536065636433221 0 89.536065636433221 -95.675557073666766 0 0 0 0 -6.9699418525028456 10.309942715029838 0 10.309942715029838 0.24221034302331201 0 0 0 0 100.94912471226235 12.072978534905531 0 12.072978534905531 -157.28015928014111 0 0 0 0 -17.836346152085753 -64.996988039448524 0 -64.996988039448524 51.52968941283666 0 0 0 0 -6.8329313219410324 10.888706259416495 0 10.888706259416495 5.5056431013656493 0 0 0 0 -1.3147150228405522 9.2492821448220521 0 9.2492821448220521 -0.20556243716651545 0 0 0 0 -4.0405461217305856 8.1005351470564619 0 8.1005351470564619 1.6917742845364501 0 0 0 0 0.6442152475678995 13.057096383598207 0 13.057096383598207 2.6055163737401017 0 0 0 0 -3.8866063404315803 8.3610331412046861 0 8.3610331412046861 3.1993388794163851 0 0 0 0 -0.37431053061307296 1.3045773054016188 0 1.3045773054016188 0.41876690768136271 0 0 0 0 -9.4906476594860578 31.578743237975686 0 31.578743237975686 -67.276476822720724 0 0 0 0 -20.816942682127774 -4.3054070612570285 0 -4.3054070612570285 81.781415460658081 0 0 0 0 -3.2252716172226883 23.605007547815717 0 23.605007547815717 47.390822742764612 0 0 0 0 -16.421734128386106 39.033352882574604 0 39.033352882574604 -46.626183606002996 0 0 0 0 -2.7295572612547403 11.405464504798061 0 11.405464504798061 1.6659818099658423 0 0 0 0 22.350529584102333 25.828618528628851 0 25.828618528628851 4.3089373843638441 0 0 0 0 -4.9591118150907008 8.1000200558267874 0 8.1000200558267874 -3.3151969091517786 0 0 0 0 38.539618229204279 -4.0303378233213039 0 -4.0303378233213039 0.28935656972434742 0 0 0 0 10.512896905919362 9.7769278280750278 0 9.7769278280750278 -4.3941234578484778 0 0 0 0 -2.5380126669369929 10.106884196908481 0 10.106884196908481 1.9018941323349736 0 0 0 0 0.40613017811783791 -0.024458547343119363 0 -0.024458547343119363 -0.59013066705489337 0 0 0 0 41.193661672277813 49.034793606417871 0 49.034793606417871 28.846498852457785 0 0 0 0 -80.169343456225761 71.269024091917288 0 71.269024091917288 -25.822857411854784 0 0 0 0 -75.965601200223318 69.898140692120563 0 69.898140692120563 -79.271136764143648 0 0 0 0 0.60723727684413831 0.49952782909797122 0 0.49952782909797122 -0.42300624551951627 0 0 0 0 5.2316950596581151 1.6669257304222622 0 1.6669257304222622 -2.5659371654769898 0 0 0 0 4.1239370437165235 4.8934172042052282 0 4.8934172042052282 -0.51159820522480004 0 0 0 0 2.0722429330014336 3.0029456635036489 0 3.0029456635036489 0.74687330346693903 0 0 0 0 -57.594007316816715 27.173015939760433 0 27.173015939760433 8.7488564915661868 0 0 0 0 -43.257834010819352 37.212332162234361 0 37.212332162234361 12.674704636816784 0 0 0 0 -47.951149458450232 45.41688892474955 0 45.41688892474955 -7.8947416594032802 0 0 0 0 -50.244289237991325 16.17563681031163 0 16.17563681031163 -7.4729354854797521 0 0 0 0 -174.1455175026058 26.68043943109069 0 26.68043943109069 -8.3496501603585642 0 0 0 0 -21.447967918775248 49.306692206383104 0 49.306692206383104 -62.970635079331032 0 0 0 0 -54.813809320921791 -35.618449616245584 0 -35.618449616245584 -20.957622163131077 0 0 0 0 -117.31316984883233 35.367557972246004 0 35.367557972246004 3.8859008280778653 0 0 0 0 17.648750512969855 8.3742961771382056 0 8.3742961771382056 -24.882655227057739 0 0 0 0 11.583755427964206 16.226664486120399 0 16.226664486120399 6.273283135442739 0 0 0 0 47.093567875843291 -24.403931861957403 0 -24.403931861957403 5.8143666629562176 0 0 0 0 25.488565587070298 -1.3768477081584933 0 -1.3768477081584933 10.64393060997304 0 0 0 0 15.510308699042071 17.03818374136813 0 17.03818374136813 4.8078549840087135 0 0 0 0 5.5102786128531989 19.604549931154949 0 19.604549931154949 17.178205127931733 0 0 0 0 3.0638962065168016 27.139401577261651 0 27.139401577261651 -2.2778111327936585 0 0 0 0 14.381268517152421 43.658105754830878 0 43.658105754830878 19.17006755780892 0 0 0 0 0.30736424346154934 0.15293628726544917 0 0.15293628726544917 0.04414707341518076 0 0 0 0 -0.71327908213970659 17.448413930317116 0 17.448413930317116 65.890292867399921 0 0 0 0 2.3650075802952415 39.637745281075738 0 39.637745281075738 -59.890534353717271 0 0 0 0 6.736987480663629 11.75416862650232 0 11.75416862650232 8.6423093668254296 0 0 0 0 4.6044666211173535 48.981806969274373 0 48.981806969274373 -22.18203275382939 0 0 0 0 -4.7428304380919144 14.416113724638024 0 14.416113724638024 -19.752737472223188 0 0 0 0 -3.9027610302746325 19.318717940696502 0 19.318717940696502 -48.294601908503637 0 0 0 0 -7.3294320266741124 27.46839347810328 0 27.46839347810328 -17.942641496577153 0 0 0 0 1.2953524697556205 5.1348008481080392 0 5.1348008481080392 2.9469854740915835 0 0 0 0 -0.98863314623235965 10.310901030090264 0 10.310901030090264 -11.255682728341071 0 0 0 0 -5.6002011321143073 13.966440741360032 0 13.966440741360032 -10.609090799325941 0 0 0 0 -13.807321128038893 35.686133827198432 0 35.686133827198432 -27.729203334536692 0 0 0 0 -10.183609359910406 3.6364666516897159 0 3.6364666516897159 9.904258141507853 0 0 0 0 -52.294522197467813 20.199555018394733 0 20.199555018394733 9.8186347028224645 0 0 0 0 -1.747369861786126 2.1992426598073562 0 2.1992426598073562 1.6882682845255923 0 0 0 0 -33.048937839659629 12.01150017402324 0 12.01150017402324 24.013936627494559 0 0 0 0 -42.533034568579751 32.405243789678138 0 32.405243789678138 27.29550493191482 0 0 0 0 -48.102518298699579 55.005900140732933 0 55.005900140732933 -38.632365820593009 0 0 0 0 4.3148905444965493 5.3036077582253425 0 5.3036077582253425 1.7716352630843835 0 0 0 0 -0.30408923906452401 11.312530455029787 0 11.312530455029787 5.822720921358723 0 0 0 0 -1.7000047686854032 19.4331627711897 0 19.4331627711897 -5.039317463835232 0 0 0 0 1.3268519367138651 12.944377637398702 0 12.944377637398702 4.5358758076517915 0 0 0 0 4.5150744601987753 13.323154242576834 0 13.323154242576834 -8.2503280801975052 0 0 0 0 5.6407173340990155 7.9226340018044805 0 7.9226340018044805 5.0890916197121889 0 0 0 0 3.2662986628156432 10.618757378477198 0 10.618757378477198 -14.10694677045467 0 0 0 0 -0.24516183893512355 2.0543556115161685 0 2.0543556115161685 1.6227018213190081 0 0 0 0 1.4243775182296758 13.460750098440229 0 13.460750098440229 3.8770650895776271 0 0 0 0 6.2330649153642739 8.4720492976137294 0 8.4720492976137294 1.9228147373108495 0 0 0 0 2.7236680414171133 16.008098360922986 0 16.008098360922986 -3.6301542762669214 0 0 0 0 7.4991962554827296 14.9384911247015 0 14.9384911247015 -6.3521741273461885 0 0 0 0 5.1815949508672929 9.1090885002042796 0 9.1090885002042796 -4.6129890308947097 0 0 0 0 8.2932543423958123 7.8542775311609034 0 7.8542775311609034 2.0751928646086242 0 0 0 0 1.4927616545054505 8.2199012810542644 0 8.2199012810542644 -4.9170445778995502 0 0 0 0 11.207670815089386 11.907193851683033 0 11.907193851683033 11.106475890127001 0 0 0 0 3.7979702040247503 3.9185335378919603 0 3.9185335378919603 5.9920701306031106 0 0 0 0 0.026708283659919729 0.41889317845323149 0 0.41889317845323149 2.3295645660920608 0 0 0 0 1.2746237500869029 7.8194044621597953 0 7.8194044621597953 -1.984572878058124 0 0 0 0 -36.354498173330512 2.4399830313352027 0 2.4399830313352027 24.693236161279032 0 0 0 0 -1.074232863904399 -10.457788767088132 0 -10.457788767088132 1.4481468744745811 0 0 0 0 11.90014051324215 12.54655741467127 0 12.54655741467127 10.175231418268936 0 0 0 0 8.5221563445775246 20.224059032986617 0 20.224059032986617 5.4389314896885388 0 0 0 0 1.1854654355538514 21.152206306598906 0 21.152206306598906 20.037977864976995 0 0 0 0 5.2784328548696067 10.916246388177171 0 10.916246388177171 39.076307593662989 0 0 0 0 15.009661246003816 17.449582505202848 0 17.449582505202848 16.96170187435024 0 0 0 0 2.1452129663612141 9.2854193084031635 0 9.2854193084031635 25.368150682111349 0 0 0 0 7.5864910943128052 8.2501258711680521 0 8.2501258711680521 10.240569853752959 0 0 0 0 1.075410439971165 3.0292571979040872 0 3.0292571979040872 15.132334213802267 0 0 0 0 0.82709783715731788 0.43389640876266622 0 0.43389640876266622 0.098517152819042053 0 0 0 0 -11.45274906130544 16.075979257832728 0 16.075979257832728 -26.669423934992324 0 0 0 0 -3.9468356175621011 13.47538560229566 0 13.47538560229566 -18.620697481452112 0 0 0 0 -8.9077155897084594 20.513882687690796 0 20.513882687690796 -27.850598782362908 0 0 0 0 -10.082058481369131 9.8568530641383347 0 9.8568530641383347 -6.08140374853906 0 0 0 0 1.1946613509686728 0.70621127283494634 0 0.70621127283494634 0.9001363865391272 0 0 0 0 1.3879210922823404 -0.22386261914863326 0 -0.22386261914863326 5.1283377983478999 0 0 0 0 2.0385427080218506 1.1834747601814684 0 1.1834747601814684 2.9077091122777006 0 0 0 0 0.50673113712218765 1.1744731224773943 0 1.1744731224773943 7.6072521884602793 0 0 0 0 -27.507432545022311 16.739117351574947 0 16.739117351574947 5.0907317357291504 0 0 0 0 0.53595066043833661 1.0495746130097423 0 1.0495746130097423 3.3776004003972551 0 0 0 0 1.0969303747024242 1.6365599845352676 0 1.6365599845352676 5.0603807694602665 0 0 0 0 -20.964575665222583 19.682162790741558 0 19.682162790741558 2.3291921198768932 0 0 0 0 -21.166946862307668 16.025841789425613 0 16.025841789425613 -2.280130000707004 0 0 0 0 -13.901834269698156 16.793035533100237 0 16.793035533100237 -11.844068262201745 0 0 0 0 2.3099804669545847 5.4925866409791979 0 5.4925866409791979 -9.4139611169166528 0 0 0 0 -21.241991618025054 13.916010752874907 0 13.916010752874907 -6.2976773303489608 0 0 0 0 0.76972573689533963 0.99788335163064801 0 0.99788335163064801 0.67222963651963719 0 0 0 0 -21.963646554744628 20.586726488262002 0 20.586726488262002 -10.30553290005696 0 0 0 0 -3.9296479442782584 10.585777901180677 0 10.585777901180677 -10.437176583406881 0 0 0 0 6.6144568405907194 1.8787302055299051 0 1.8787302055299051 -1.8987203353767086 0 0 0 0 2.5399287031881386 2.7437919853661548 0 2.7437919853661548 2.546621525170977 0 0 0 0 -18.266333448926162 14.016588216047637 0 14.016588216047637 -7.3795024072201159 0 0 0 0 0.51383497037205927 0.29903438151479733 0 0.29903438151479733 -0.54951823193481708 0 0 0 0 -0.83941605748810844 0.28537187139664333 0 0.28537187139664333 0.81525768648700714 0 0 0 0 6.8621217400141177 37.407173754271298 0 37.407173754271298 -71.851608402975501 0 0 0 0 -1.5486848319378623 55.691047423626969 0 55.691047423626969 -46.398339425464314 0 0 0 0 -22.107210961343299 28.490942225960652 0 28.490942225960652 15.428855312951782 0 0 0 0 -19.143794276125845 26.793044919669683 0 26.793044919669683 -18.50411013147118 0 0 0 0 -29.821932624643523 17.679767497875957 0 17.679767497875957 2.043267217235325 0 0 0 0 -26.28153802181987 7.353585490662951 0 7.353585490662951 -32.033484908049331 0 0 0 0 -33.973698500441969 4.1476054177798005 0 4.1476054177798005 -30.932495015513723 0 0 0 0 -21.153781943576178 26.254025012355896 0 26.254025012355896 -23.796875270739292 0 0 0 0 -72.467060702350864 25.801000709611003 0 25.801000709611003 -17.499624803465849 0 0 0 0 -16.793730732240874 69.989844327130001 0 69.989844327130001 32.455774926138133 0 0 0 0 2.6330363615222723 -36.078271035546592 0 -36.078271035546592 3.7422487897870269 0 0 0 0 24.647155543858389 -22.273602202001655 0 -22.273602202001655 16.098134422598605 0 0 0 0 -6.9430366807428072 -20.080900259886278 0 -20.080900259886278 49.716167059117765 0 0 0 0 6.149800305149256 -10.074631441877841 0 -10.074631441877841 8.1171165496184017 0 0 0 0 -24.614466285393064 15.402715676148745 0 15.402715676148745 6.674538597847345 0 0 0 0 -19.723679850234475 15.431732987692499 0 15.431732987692499 1.4010069938747023 0 0 0 0 -18.147851168891066 5.9858752880340376 0 5.9858752880340376 14.002217131964088 0 0 0 0 -23.267253729480217 4.9736830058361647 0 4.9736830058361647 18.564772825477576 0 0 0 0 5.18048107102004 -11.752107978830168 0 -11.752107978830168 18.095026455706677 0 0 0 0 -12.054805795181892 1.5693501312641445 0 1.5693501312641445 8.9815108505637227 0 0 0 0 -7.7654520689138735 5.6645704909219035 0 5.6645704909219035 9.1367855960592692 0 0 0 0 8.529188661347689 -11.71117992019478 0 -11.71117992019478 9.9070615242723079 0 0 0 0 5.7916310333494039 -9.1999485101541438 0 -9.1999485101541438 23.47819934051347 0 0 0 0 5.9155532896547811 -8.2179328016937063 0 -8.2179328016937063 10.008488973984242 0 0 0 0 14.696018746715708 -9.0516917810826385 0 -9.0516917810826385 8.091921459611811 0 0 0 0 3.1349662322281802 4.2633587118718204 0 4.2633587118718204 7.767816855090798 0 0 0 0 5.6781287392113882 2.6877797651929782 0 2.6877797651929782 6.7865057175544905 0 0 0 0 2.4681861913886678 3.4033863966594993 0 3.4033863966594993 15.391492755216237 0 0 0 0 0.97283934877206946 0.63886514316866361 0 0.63886514316866361 1.7801067686070917 0 0 0 0 4.981173736837718 2.100680436613477 0 2.100680436613477 5.8488936134169567 0 0 0 0 2.2868633365942515 2.127683678442132 0 2.127683678442132 28.16591325128493 0 0 0 0 0.37209225821409575 0.0042466082776133618 0 0.0042466082776133618 -0.15744123128443541 0 0 0 0 1.9174939986569868 2.2656530647570232 0 2.2656530647570232 2.1409871084920922 0 0 0 0 2.9167186178201518 3.6146357598041656 0 3.6146357598041656 6.2802472849710398 0 0 0 0 3.6745072862711083 3.9460853176714039 0 3.9460853176714039 2.5365057815959799 0 0 0 0 -1.1603914362531214 2.9102400091689731 0 2.9102400091689731 7.6123410592534384 0 0 0 0 8.1931355702181463 1.1230039706323041 0 1.1230039706323041 0.96360043070416168 0 0 0 0 1.3798981114123308 5.453974310968448 0 5.453974310968448 6.8314753693546209 0 0 0 0 4.3352102402732271 5.373663736466284 0 5.373663736466284 20.94914847581515 0 0 0 0 1.8577397488512162 -0.99511667299534778 0 -0.99511667299534778 1.497312228340788 0 0 0 0 0.89334253029164756 -0.97594884338256804 0 -0.97594884338256804 5.5073962094477906 0 0 0 0 9.4286958052962291 7.0118123798065994 0 7.0118123798065994 20.93018902978713 0 0 0 0 0.59147808097478816 -0.46129788581034248 0 -0.46129788581034248 0.25674819459657527 0 0 0 0 9.0040756328071438 5.2273398505935234 0 5.2273398505935234 13.68452422892733 0 0 0 0 17.444039448975218 -6.080779521193918 0 -6.080779521193918 3.35209287987783 0 0 0 0 0.80512621453272004 6.6601266361927003 0 6.6601266361927003 58.040870627391939 0 0 0 0 18.805543952606968 4.0762789034167781 0 4.0762789034167781 13.777376387057004 0 0 0 0 6.7052544288144418 11.3162538616522 0 11.3162538616522 14.149393208608274 0 0 0 0 13.396848299820704 13.257211583600167 0 13.257211583600167 14.253246204363956 0 0 0 0 14.176122956689142 11.780452225779925 0 11.780452225779925 2.1766389057930837 0 0 0 0 7.3692079384345561 17.552194893741387 0 17.552194893741387 17.380517168164218 0 0 0 0 6.2374203960171144 18.23891210101425 0 18.23891210101425 17.323120516111011 0 0 0 0 14.956136506316398 10.83386273776847 0 10.83386273776847 -1.4023556309438163 0 0 0 0 2.8479689229734504 3.9437596227130598 0 3.9437596227130598 26.363599427164957 0 0 0 0 1.5966269626787835 1.5519833256194602 0 1.5519833256194602 48.605902266785002 0 0 0 0 8.3063968287706302 26.130478206600884 0 26.130478206600884 46.839162659890349 0 0 0 0 2.586057592607176 11.404702276031117 0 11.404702276031117 22.383010721312871 0 0 0 0 2.4900698987257783 10.219960384735998 0 10.219960384735998 34.911589462156371 0 0 0 0 0.059568662281890283 1.3056854869831227 0 1.3056854869831227 -0.98158915322503049 0 0 0 0 14.423177834662056 -2.6890389145968925 0 -2.6890389145968925 -23.098308950096687 0 0 0 0 16.879996785071853 13.835212812111024 0 13.835212812111024 -23.283691218175704 0 0 0 0 -11.690780774395535 15.770113394043562 0 15.770113394043562 -0.31555793376764996 0 0 0 0 31.855006592199061 24.244276061301662 0 24.244276061301662 -2.2584161681013768 0 0 0 0 16.542801973873793 8.673812827135464 0 8.673812827135464 -3.5150685463513582 0 0 0 0 16.311701601367531 16.393428490603469 0 16.393428490603469 9.8422814579084843 0 0 0 0 25.535658872686327 11.399408925995431 0 11.399408925995431 -12.27520954141113 0 0 0 0 28.922678468934464 28.18803434584953 0 28.18803434584953 9.9610820884842859 0 0 0 0 64.84361133125276 60.828290633511074 0 60.828290633511074 45.187365861089802 0 0 0 0 23.431679175852878 19.147463699294264 0 19.147463699294264 22.578914015314012 0 0 0 0 -0.022648205196674098 -0.16939831727160026 0 -0.16939831727160026 -27.404036908628768 0 0 0 0 -30.405489073738863 -36.296181314422043 0 -36.296181314422043 26.130225949100804 0 0 0 0 -0.22912335093766067 0.42176072234294892 0 0.42176072234294892 -0.42351336143939555 0 0 0 0 23.25556678326484 -12.34408412363014 0 -12.34408412363014 9.2086495657899832 0 0 0 0 8.8081020390236517 -4.0683026700631899 0 -4.0683026700631899 16.011699077507615 0 0 0 0 103.55582950928329 -17.106268725858996 0 -17.106268725858996 -12.052051675738767 0 0 0 0 -70.785239965072833 94.323778862433755 0 94.323778862433755 -85.010666528508409 0 0 0 0 18.930658090408542 -33.36235257826911 0 -33.36235257826911 43.581741815707574 0 0 0 0 40.328599215046779 -70.199862878476011 0 -70.199862878476011 14.913656400226955 0 0 0 0 -0.01117100518240477 28.841743950422938 0 28.841743950422938 -0.90524782852799035 0 0 0 0 50.264259429488447 75.033379724108386 0 75.033379724108386 41.511418770790065 0 0 0 0 0.98342502057577263 0.27913327428671053 0 0.27913327428671053 0.070080224026096705 0 0 0 0 24.276860382967243 9.8497979419877311 0 9.8497979419877311 -13.240359521004166 0 0 0 0 2.9026535137109022 17.708729010518482 0 17.708729010518482 118.58482474387813 0 0 0 0 -8.4264378140887857 19.072094325487114 0 19.072094325487114 -14.555436109435959 0 0 0 0 21.031096730077479 15.701809896852183 0 15.701809896852183 -34.45732272550822 0 0 0 0 19.380760029638623 25.235306197764885 0 25.235306197764885 -4.7202906088407417 0 0 0 0 3.851231059001293 4.7795460584443958 0 4.7795460584443958 26.800981994099146 0 0 0 0 3.9261668267499772 4.7518098109687799 0 4.7518098109687799 24.747915932647231 0 0 0 0 2.631157416807774 0.92818539073264716 0 0.92818539073264716 0.76374994714663069 0 0 0 0 -11.705818586513487 5.3284755971454842 0 5.3284755971454842 2.6602634491116532 0 0 0 0 -0.18559226045586286 0.43785437212824974 0 0.43785437212824974 1.1662680808524399 0 0 0 0 -8.0437844376829162 -10.722686446586181 0 -10.722686446586181 7.9416782430748754 0 0 0 0 -4.4864291526373563 30.339096207984539 0 30.339096207984539 -39.923994004592942 0 0 0 0 3.401752658355008 32.575490977943566 0 32.575490977943566 21.95156201372356 0 0 0 0 -0.56836502126547117 -0.10803154226982503 0 -0.10803154226982503 0.18409090574206877 0 0 0 0 -44.182912106007279 43.052361190706961 0 43.052361190706961 47.48772705052761 0 0 0 0 -3.0260169369157666 10.430636659858806 0 10.430636659858806 -52.493380167558826 0 0 0 0 19.757486641938158 -11.376591593367948 0 -11.376591593367948 -79.497969107042536 0 0 0 0 -83.80858947723209 59.015252628266126 0 59.015252628266126 51.427318953079975 0 0 0 0 -35.709933075631852 58.523085317165169 0 58.523085317165169 -236.1084779466164 0 0 0 0 -31.418133203969319 33.894940266277899 0 33.894940266277899 -116.3437438672936 0 0 0 0 3.011746551565011 15.728139937226388 0 15.728139937226388 40.589691424138437 0 0 0 0 -0.28489385095785735 -0.11563100027496276 0 -0.11563100027496276 0.4930636121128234 0 0 0 0 -72.25407660111523 107.2881519804564 0 107.2881519804564 -153.54562122484413 0 0 0 0 -0.59402160679847782 0.15106994634222382 0 0.15106994634222382 0.86178109999529884 0 0 0 0 -52.319783952954822 10.793641116908134 0 10.793641116908134 59.765453901784895 0 0 0 0 0.028573254170623841 18.054269308370408 0 18.054269308370408 -7.2873125299217918 0 0 0 0 3.6840564041885955 -4.1461020368951722 0 -4.1461020368951722 -21.655953898994653 0 0 0 0 39.829840872434943 18.017325449947521 0 18.017325449947521 -120.69650579046811 0 0 0 0 5.0240197367302244 10.188688637307678 0 10.188688637307678 4.7480731160185314 0 0 0 0 -0.52770568093787062 -0.079560243852473178 0 -0.079560243852473178 0.060369841436017424 0 0 0 0 31.833475209259632 28.606338618664722 0 28.606338618664722 -132.63241980043335 0 0 0 0 8.3309088229475492 26.647453197758949 0 26.647453197758949 -72.832285835809671 0 0 0 0 0.017369601731843431 47.240845149276083 0 47.240845149276083 -105.06586383423519 0 0 0 0 9.36817724154389 28.907014762358813 0 28.907014762358813 -103.85419646953414 0 0 0 0 18.282796128773043 19.879721149012994 0 19.879721149012994 -120.48023260399486 0 0 0 0 -9.0676423917575448 22.655178780343704 0 22.655178780343704 -29.23281016693295 0 0 0 0 8.0925689359319222 24.103807968950832 0 24.103807968950832 -67.866159097531636 0 0 0 0 5.472645084357282 13.433156540626442 0 13.433156540626442 -73.656636822890505 0 0 0 0 7.2980226491557687 17.816119622732899 0 17.816119622732899 -70.643608721878081 0 0 0 0 -26.2126735650927 48.069890285556085 0 48.069890285556085 -106.95821190517687 0 0 0 0 9.0430341643204883 3.1314431845014497 0 3.1314431845014497 -250.94934709620043 0 0 0 0 -75.681631443653259 51.684436889665562 0 51.684436889665562 -107.11266891749074 0 0 0 0 -41.051653333845024 22.698055131234469 0 22.698055131234469 -104.4517541745854 0 0 0 0 -67.124784286188515 -6.4729555094662601 0 -6.4729555094662601 -136.91761436683373 0 0 0 0 18.750559927872018 16.183700975459033 0 16.183700975459033 -107.64007625241811 0 0 0 0 -0.78453875335253542 -8.5396670974146218 0 -8.5396670974146218 -131.69756509417266 0 0 0 0 6.152138254642523 10.072544231260053 0 10.072544231260053 -106.93762951462031 0 0 0 0 -17.850479136519425 0.35540174544712499 0 0.35540174544712499 -96.800582696051492 0 0 0 0 -1.1887316216361796 17.797936746889718 0 17.797936746889718 -65.003322407697397 0 0 0 0 -17.709345718592886 13.491622238567743 0 13.491622238567743 -65.001517324399174 0 0 0 0 -20.593486685211246 14.627343929490053 0 14.627343929490053 -29.946247602400263 0 0 0 0 -6.1364132637891089 44.408338289492008 0 44.408338289492008 -42.665135177375305 0 0 0 0 -13.311633568997422 19.89816717723761 0 19.89816717723761 -65.016560358800234 0 0 0 0 -6.3550555636775243 59.004540413312782 0 59.004540413312782 -75.97080383937282 0 0 0 0 2.8428666123490984 34.810610016346118 0 34.810610016346118 -41.009867089433044 0 0 0 0 0.97554937168388278 -2.0357486907093971 0 -2.0357486907093971 -106.44289710747853 0 0 0 0 3.1129271521513147 31.392179602835768 0 31.392179602835768 -67.008054970724743 0 0 0 0 28.910340216143595 27.368163939891247 0 27.368163939891247 -67.513851471217095 0 0 0 0 0.74020221888144988 57.118434790993916 0 57.118434790993916 -11.345044850484101 0 0 0 0 12.415986752668687 64.533849950502145 0 64.533849950502145 -12.2017948444593 0 0 0 0 -34.065747396100051 23.859220195480475 0 23.859220195480475 -11.446402109897463 0 0 0 0 -33.055489741465863 43.908230520182542 0 43.908230520182542 3.4362823586998275 0 0 0 0 -7.9558597514235316 37.133378050583303 0 37.133378050583303 -39.615458176592256 0 0 0 0 -7.3487094523661654 31.934631722696395 0 31.934631722696395 -14.587190806064882 0 0 0 0 -1.4380815650838485 26.019409807080592 0 26.019409807080592 -32.579716147028194 0 0 0 0 2.6690019924808439 1.8069364271083828 0 1.8069364271083828 3.4296523177135896 0 0 0 0 15.781825849118832 12.441882451438858 0 12.441882451438858 -101.32678859174803 0 0 0 0 -1.3002575259470177 20.82564868585132 0 20.82564868585132 -39.325426792712733 0 0 0 0 0.66884174386359518 4.1882550149059625 0 4.1882550149059625 2.2075195935167642 0 0 0 0 1.4695084193388439 2.7973752009124269 0 2.7973752009124269 0.87749326658318583 0 0 0 0 2.2567355798194129 4.2702616759735683 0 4.2702616759735683 1.4788660551696102 0 0 0 0 -17.888471617498908 8.1430435968468515 0 8.1430435968468515 6.6776798169850622 0 0 0 0 2.0737818683501246 2.3681609270409467 0 2.3681609270409467 6.8215626188214742 0 0 0 0 0.65280810373089793 3.8557768641019194 0 3.8557768641019194 3.4915586141071495 0 0 0 0 1.9512435936699148 2.3187253182106886 0 2.3187253182106886 8.2994215734531451 0 0 0 0 0.35211506575797102 5.6150381837546774 0 5.6150381837546774 2.2731500616575886 0 0 0 0 13.752460171608618 11.021800758537211 0 11.021800758537211 7.3362762839029756 0 0 0 0 -2.6651156202071675 1.3048834382447243 0 1.3048834382447243 2.1614358834153027 0 0 0 0 -0.41476551685764207 2.7941864300572519 0 2.7941864300572519 4.5443806903056156 0 0 0 0 13.233303985836756 0.84000918408082725 0 0.84000918408082725 -12.984643459795961 0 0 0 0 6.1006555726576153 17.173398002266197 0 17.173398002266197 -140.91344632068649 0 0 0 0 -1.753896183701265 -0.57697793099823613 0 -0.57697793099823613 1.7383142922580195 0 0 0 0 0.21239066454762678 2.0477868281592517 0 2.0477868281592517 -0.18849910772824496 0 0 0 0 -1.7752879127328924 2.1445566343879818 0 2.1445566343879818 9.1789156103084224 0 0 0 0 3.2048585901975457 3.5809200857388532 0 3.5809200857388532 4.6209620159005169 0 0 0 0 0.95936471524255751 2.2473492668219128 0 2.2473492668219128 -0.4586508708489852 0 0 0 0 -1.1414023182878736 3.8089520975079267 0 3.8089520975079267 6.7543472260367707 0 0 0 0 -27.344015704448793 137.49625516779975 0 137.49625516779975 -74.769783236097737 0 0 0 0 -127.72193879772203 95.127698799374059 0 95.127698799374059 71.320135726075705 0 0 0 0 -213.63503093626827 50.306134599381252 0 50.306134599381252 143.68516208056508 0 0 0 0 -203.10110060752322 172.51105448493797 0 172.51105448493797 -8.0947656915989228 0 0 0 0 -188.3442148736749 67.731392855900651 0 67.731392855900651 101.94520071528416 0 0 0 0 -138.11792391234212 72.608287542284629 0 72.608287542284629 100.21209541845849 0 0 0 0 -180.66795521806307 43.326980835131735 0 43.326980835131735 151.5358503396053 0 0 0 0 -199.08851708455495 60.797300039403467 0 60.797300039403467 149.41595979882322 0 0 0 0 -131.44671215642484 29.857114907765322 0 29.857114907765322 48.871027404635015 0 0 0 0 20.060906572639851 269.40663192911836 0 269.40663192911836 -50.880983221079987 0 0 0 0 -112.42396553759136 -67.341912027426361 0 -67.341912027426361 207.87562015153867 0 0 0 0 -82.600879589135729 145.78707170463301 0 145.78707170463301 151.49454501250511 0 0 0 0 -155.56518952761417 101.65257022885788 0 101.65257022885788 285.67151107809423 0 0 0 0 -20.469354323008702 3.5715682126697743 0 3.5715682126697743 -46.074600478034426 0 0 0 0 53.530555081100829 35.748126393205666 0 35.748126393205666 -181.44653965431729 0 0 0 0 -28.531676197770139 1.8320205795926086 0 1.8320205795926086 105.54353561553887 0 0 0 0 -44.247777405937541 37.051004548062394 0 37.051004548062394 34.834837511577689 0 0 0 0 -20.940833966890921 19.911515045239177 0 19.911515045239177 -0.010828036544580755 0 0 0 0 -10.305070705671824 13.676527638477069 0 13.676527638477069 3.6242443826307635 0 0 0 0 -5.3584826755650283 15.364328974589398 0 15.364328974589398 -13.265973965846342 0 0 0 0 -3.4872140823126827 2.7303288585253429 0 2.7303288585253429 0.63991097366001859 0 0 0 0 45.53380268630724 35.681230163323711 0 35.681230163323711 18.484934190652439 0 0 0 0 -1.3736192536539953 0.50855938578647031 0 0.50855938578647031 -0.3468312834837044 0 0 0 0 -22.824373907526024 103.83452509882704 0 103.83452509882704 111.99480075883184 0 0 0 0 45.498296436011515 37.724449706809423 0 37.724449706809423 -47.199777653685487 0 0 0 0 44.759610092564799 -5.2955383026186382 0 -5.2955383026186382 -35.390606171683146 0 0 0 0 45.974078593212198 8.8144949144122506 0 8.8144949144122506 -8.2105097425808253 0 0 0 0 130.80541496057776 -43.348397956163012 0 -43.348397956163012 -10.324384540436625 0 0 0 0 45.255317934346294 7.0845039137867616 0 7.0845039137867616 0.47887668735984334 0 0 0 0 -7.7587330400406245 55.098575535469365 0 55.098575535469365 -6.0550946852001744 0 0 0 0 -64.577338715666428 -40.225269351204247 0 -40.225269351204247 -141.22433829306397 0 0 0 0 -81.687547366872423 187.26416600280777 0 187.26416600280777 -118.42551360205834 0 0 0 0 -211.43920177378322 72.910919945750379 0 72.910919945750379 12.74471473922722 0 0 0 0 -158.63659135503281 170.12583501367186 0 170.12583501367186 -87.703975178349992 0 0 0 0 -83.008205776066461 91.116915757122342 0 91.116915757122342 -17.647072598076193 0 0 0 0 -51.09839861465025 87.439605520454393 0 87.439605520454393 -21.285402999918688 0 0 0 0 -65.279346484827329 112.15745398991521 0 112.15745398991521 -60.840273089258289 0 0 0 0 -12.704013784544259 43.79791798419717 0 43.79791798419717 -40.473988797604306 0 0 0 0 -15.893703277789427 65.955390785151394 0 65.955390785151394 -106.88688228661476 0 0 0 0 -2.7746938623304231 22.93154038298826 0 22.93154038298826 -61.70912381136236 0 0 0 0 -20.027675366940002 19.709853689096462 0 19.709853689096462 -26.365757829703398 0 0 0 0 -16.306747489943518 75.712795124658896 0 75.712795124658896 -254.45710535130945 0 0 0 0 -10.739544542606382 40.406285871604041 0 40.406285871604041 3.2991058013039947 0 0 0 0 -20.461294368235031 50.99523980042386 0 50.99523980042386 -5.6718059455176899 0 0 0 0 -9.5454556509102986 30.680983176327118 0 30.680983176327118 -13.364438152587581 0 0 0 0 -19.02810691803279 51.282835508026665 0 51.282835508026665 -19.445409948440101 0 0 0 0 -21.312099206797939 63.998762618346063 0 63.998762618346063 -60.129142613304566 0 0 0 0 -24.213026149911457 56.336486886816601 0 56.336486886816601 -24.153262797556181 0 0 0 0 -17.947449581626643 40.620597938892388 0 40.620597938892388 -41.69734727964078 0 0 0 0 -13.456827625821461 17.775794685648179 0 17.775794685648179 -33.600899791327606 0 0 0 0 -14.058537671588965 21.255066102957471 0 21.255066102957471 -22.239968237426638 0 0 0 0 -14.339768142097 34.128810130007082 0 34.128810130007082 -13.80100132647658 0 0 0 0 -12.857593821374394 32.639972813089344 0 32.639972813089344 -29.543609955678107 0 0 0 0 -7.7363017183815828 13.73576125798877 0 13.73576125798877 -15.202676937294044 0 0 0 0 -8.5467828738414937 12.758062424821219 0 12.758062424821219 3.8900545052742928 0 0 0 0 -3.345932761018048 24.441478312019171 0 24.441478312019171 -3.6342309307833602 0 0 0 0 -10.025127844117833 32.402810094478923 0 32.402810094478923 6.4310467130926554 0 0 0 0 -8.9931534180732342 5.025442895618994 0 5.025442895618994 0.1184439717035275 0 0 0 0 -8.9437429431345663 3.0329935685672353 0 3.0329935685672353 -6.0583095802528817 0 0 0 0 -9.0383021855550396 15.27462364755911 0 15.27462364755911 -6.5656614838931091 0 0 0 0 -8.9574773676540644 1.4105065493397433 0 1.4105065493397433 -0.82102677922648581 0 0 0 0 -5.0475613204907859 4.4905154092259636 0 4.4905154092259636 -16.400859114880859 0 0 0 0 21.808910970779834 2.8090211579041124 0 2.8090211579041124 119.92664994906511 0 0 0 0 49.165750600082902 120.89138455419285 0 120.89138455419285 -40.628366728886206 0 0 0 0 51.649349435553631 -94.469908981832305 0 -94.469908981832305 -142.93829280256057 0 0 0 0 -10.790564341439676 1.2116780695048419 0 1.2116780695048419 -0.73640714786131412 0 0 0 0 -11.652652110431518 0.70384990765910516 0 0.70384990765910516 0.75223548543755214 0 0 0 0 -28.954571730938824 49.534947876233275 0 49.534947876233275 57.111216561531364 0 0 0 0 -1.0433667514913942 0.4312338545027643 0 0.4312338545027643 -0.1790160793096599 0 0 0 0 66.146085858638145 90.075771782726704 0 90.075771782726704 -150.27661150475944 0 0 0 0 -8.2984567001944178 5.150857262298068 0 5.150857262298068 -2.7591122361443956 0 0 0 0 -92.933444926307629 10.318221681736588 0 10.318221681736588 108.9581560892583 0 0 0 0 -2.756865420354254 1.3685527002885234 0 1.3685527002885234 -0.66935068272826337 0 0 0 0 -3.4955539587754174 79.824937778565186 0 79.824937778565186 153.30944776885872 0 0 0 0 -12.707608263483962 14.717805962867374 0 14.717805962867374 -28.89073475615487 0 0 0 0 -6.8132902521886436 3.8703141001673869 0 3.8703141001673869 -1.8508492150047449 0 0 0 0 31.442109142468325 60.803797749358097 0 60.803797749358097 23.060101058359038 0 0 0 0 28.392190665651015 87.169298324911225 0 87.169298324911225 60.608192013200892 0 0 0 0 40.023798209117103 72.748668104579323 0 72.748668104579323 -19.449056552269695 0 0 0 0 1.9972658451415555 35.57406048818234 0 35.57406048818234 56.029050311068204 0 0 0 0 -42.112010901535314 58.685004098414772 0 58.685004098414772 1.9681760602636018 0 0 0 0 -119.60713822351408 84.007524183088691 0 84.007524183088691 40.595050355225027 0 0 0 0 -78.622610963178431 48.113547651618909 0 48.113547651618909 10.185379027825348 0 0 0 0 -11.168753963636846 58.898200735317786 0 58.898200735317786 5.7433393210270935 0 0 0 0 -34.9828580670885 75.330739285114532 0 75.330739285114532 22.986779498582223 0 0 0 0 55.535163164551705 97.75670536560375 0 97.75670536560375 10.530781690620756 0 0 0 0 28.64756842946781 83.652046550683934 0 83.652046550683934 11.935382997680961 0 0 0 0 6.9453082907020871 87.147686003059306 0 87.147686003059306 43.079502150271708 0 0 0 0 -18.862279407008828 53.326269818617305 0 53.326269818617305 22.453744201499262 0 0 0 0 14.336830325649657 47.085414257944194 0 47.085414257944194 12.269144406953814 0 0 0 0 -74.219740141235434 45.416839911247337 0 45.416839911247337 -3.9147719999215838 0 0 0 0 -38.558942556533566 26.361745001123765 0 26.361745001123765 -10.401945917495937 0 0 0 0 -46.142460895857312 75.548661798123732 0 75.548661798123732 3.4806046339492411 0 0 0 0 21.367326248792779 13.344420197965036 0 13.344420197965036 14.127242487102279 0 0 0 0 -0.21757497940853909 5.6546255068893307 0 5.6546255068893307 12.08564222088313 0 0 0 0 68.87533377825639 -3.7782029356364433 0 -3.7782029356364433 -19.619788668356563 0 0 0 0 116.02380925878879 95.394289055804393 0 95.394289055804393 10.280795546401691 0 0 0 0 -24.014894033111432 71.913397304954515 0 71.913397304954515 6.7691247388615352 0 0 0 0 48.979169871730392 122.10627312305439 0 122.10627312305439 74.448706019882167 0 0 0 0 14.295435246400075 53.967763740643946 0 53.967763740643946 108.39096655129316 0 0 0 0 103.35111022346518 12.567889165596227 0 12.567889165596227 33.255192166537938 0 0 0 0 117.51159279571766 103.23413865129621 0 103.23413865129621 86.448222477939851 0 0 0 0 17.520884101527372 59.579550175521604 0 59.579550175521604 202.64451890613168 0 0 0 0 1.0495664232515107 0.013119770810674281 0 0.013119770810674281 0.020522271831340144 0 0 0 0 44.622617923174403 73.109869699112565 0 73.109869699112565 81.727590062611739 0 0 0 0 -1.0146521870965444 11.375161264985792 0 11.375161264985792 87.832771919831771 0 0 0 0 52.829964705166276 50.68075222521702 0 50.68075222521702 25.333621397938259 0 0 0 0 54.617909036634956 44.13656164278197 0 44.13656164278197 -5.4342795499703698 0 0 0 0 67.790420851897807 45.016479624032002 0 45.016479624032002 27.16211061374679 0 0 0 0 26.944666542552113 21.0211551899028 0 21.0211551899028 36.869256698353865 0 0 0 0 75.977509941645621 32.482254735445537 0 32.482254735445537 -14.159224061145096 0 0 0 0 32.665803028131904 30.0688630664431 0 30.0688630664431 -20.339350798647956 0 0 0 0 35.152539344645447 24.404909911744085 0 24.404909911744085 -7.906216057120389 0 0 0 0 51.427321777558973 37.802602465932068 0 37.802602465932068 -20.508276580246729 0 0 0 0 40.411320482420706 40.003531485855262 0 40.003531485855262 -4.1589063825266521 0 0 0 0 -43.57991136718465 33.646147604427512 0 33.646147604427512 -1.8230730494694853 0 0 0 0 -54.593356600817742 13.832866337331424 0 13.832866337331424 -24.074663876392265 0 0 0 0 25.883094213947743 29.951842249304491 0 29.951842249304491 -8.9159595749171103 0 0 0 0 -7.4191720972585244 8.4610305099694187 0 8.4610305099694187 6.6806140148023303 0 0 0 0 20.287898485690675 6.666377200496413 0 6.666377200496413 -16.810442259552531 0 0 0 0 -8.8889104722961747 23.754058508571347 0 23.754058508571347 -20.429439503938056 0 0 0 0 -8.457455746875894 19.753487771291248 0 19.753487771291248 2.6403219846367847 0 0 0 0 -40.119399699572568 9.2710511414832126 0 9.2710511414832126 -8.8552829186951953 0 0 0 0 -45.735400868383749 24.317368842801557 0 24.317368842801557 -23.568477583060826 0 0 0 0 -8.4530986115523774 15.757175118082614 0 15.757175118082614 -21.172809732289693 0 0 0 0 -77.846907194045343 29.707867091293224 0 29.707867091293224 -19.75786861256077 0 0 0 0 -87.741281846838831 30.272319593816334 0 30.272319593816334 -17.8689080132649 0 0 0 0 -116.11451003333241 43.741513609299886 0 43.741513609299886 -15.79230382767696 0 0 0 0 -88.624227106227409 18.060594607488497 0 18.060594607488497 -3.4322269104218321 0 0 0 0 -122.68601241171837 47.836039577863062 0 47.836039577863062 -16.591319825029387 0 0 0 0 -115.95710386819155 44.372820017337972 0 44.372820017337972 -13.76016557316234 0 0 0 0 -135.40761086721614 62.853514619162752 0 62.853514619162752 -21.652004905856074 0 0 0 0 -133.13544687290687 64.827282042910156 0 64.827282042910156 -21.555420925352337 0 0 0 0 -142.16649674436576 66.610079207854653 0 66.610079207854653 -15.866262172435313 0 0 0 0 -150.22840397728032 76.753640340663026 0 76.753640340663026 -22.063102803845368 0 0 0 0 -155.63671602793784 57.430918992319789 0 57.430918992319789 -12.846063452592489 0 0 0 0 -153.95644173792971 75.635109203942761 0 75.635109203942761 -18.697350592895759 0 0 0 0 -166.40445107125925 71.973617059066385 0 71.973617059066385 -18.255182672645219 0 0 0 0 -100.41381350972188 31.503465656660012 0 31.503465656660012 -5.6018402181013442 0 0 0 0 -101.42619884365831 43.28929720804706 0 43.28929720804706 -16.218387771132598 0 0 0 0 -116.13581928599569 34.044543556982518 0 34.044543556982518 -14.819501598047623 0 0 0 0 -173.15572868430354 32.799729014852289 0 32.799729014852289 -10.716318864905134 0 0 0 0 -105.24462017924088 10.997861234838254 0 10.997861234838254 -28.33483856295436 0 0 0 0 -109.74672518395892 81.328615071325174 0 81.328615071325174 -18.53356500719169 0 0 0 0 -111.14665940839222 71.98521802295619 0 71.98521802295619 -77.195561609486376 0 0 0 0 -120.18069841141619 51.234230547090363 0 51.234230547090363 -31.703903436029009 0 0 0 0 -193.69832454136849 16.816656006793124 0 16.816656006793124 -34.385976653087965 0 0 0 0 -184.58066543471523 72.277758178626556 0 72.277758178626556 -62.375587444788323 0 0 0 0 -240.80366935412167 85.395522721862221 0 85.395522721862221 -20.630250611594221 0 0 0 0 -146.33547456606721 104.49620221987232 0 104.49620221987232 -54.514454196325801 0 0 0 0 -308.7925423070601 138.50064064338676 0 138.50064064338676 -62.93589934533577 0 0 0 0 -119.65205928512114 166.7245040473162 0 166.7245040473162 -220.47462984000992 0 0 0 0 -326.47694857246097 154.72221301195435 0 154.72221301195435 -68.312686121458711 0 0 0 0 -0.31066776867657708 0.0082865070798637808 0 0.0082865070798637808 -0.16206685055108921 0 0 0 0 -244.94821942211001 37.771181378091285 0 37.771181378091285 -77.672566296369723 0 0 0 0 -304.24166964189135 139.12594636461642 0 139.12594636461642 -82.921969997884489 0 0 0 0 -212.73378690156642 31.675070782343866 0 31.675070782343866 -47.230430917737976 0 0 0 0 -55.336535207218844 -5.9261942013376974 0 -5.9261942013376974 -2.3974945613529144 0 0 0 0 -0.8693475130913022 -0.062649550059512116 0 -0.062649550059512116 -0.65821081198811582 0 0 0 0 -69.845953166977779 -42.118723762553998 0 -42.118723762553998 -6.6408169088320506 0 0 0 0 -91.578928894890851 126.00975608406208 0 126.00975608406208 108.04872298479941 0 0 0 0 -293.76725658787473 28.420708091653324 0 28.420708091653324 72.076317129165091 0 0 0 0 -162.47608334683127 142.05071772809097 0 142.05071772809097 -18.263387525059215 0 0 0 0 -21.741296557629539 7.8313428097446263 0 7.8313428097446263 23.851919604510613 0 0 0 0 -8.8091506448363361 14.137461540330946 0 14.137461540330946 3.7662706564192376 0 0 0 0 9.8082821967518612 -7.6580009397700906 0 -7.6580009397700906 17.401684631746775 0 0 0 0 -1.1455325164224632 2.9274629881332999 0 2.9274629881332999 11.934729120665679 0 0 0 0 -0.70522512666936343 2.0323369905350432 0 2.0323369905350432 2.2421405665708001 0 0 0 0 6.8905827723401671 -27.779345536264259 0 -27.779345536264259 49.284174621609168 0 0 0 0 -7.7178098823005712 -9.6073341837802673 0 -9.6073341837802673 38.326769025717866 0 0 0 0 -13.001568038729602 17.393253652055819 0 17.393253652055819 -3.0751416843550032 0 0 0 0 -4.1950924877917259 7.7869385998827738 0 7.7869385998827738 -1.7457338361252823 0 0 0 0 -18.552939148882615 24.596902638556628 0 24.596902638556628 -71.92795140137423 0 0 0 0 -3.5054830286677721 1.5006786341089633 0 1.5006786341089633 1.0668697389814716 0 0 0 0 -0.56637704823913815 1.4200037321802137 0 1.4200037321802137 -1.6251531194209416 0 0 0 0 -0.3955526552373545 2.3003170381716007 0 2.3003170381716007 -3.9203872116796057 0 0 0 0 -1.8033804296919698 3.0062137479098965 0 3.0062137479098965 -1.8491773526018278 0 0 0 0 -147.06940937244531 106.42809870170979 0 106.42809870170979 -50.578496348912495 0 0 0 0 -126.62416596323419 100.72361107106371 0 100.72361107106371 -49.692926928594375 0 0 0 0 -0.50498039331068867 16.584086728221678 0 16.584086728221678 -10.191280597305933 0 0 0 0 -5.2058984196534013 5.8808436585515995 0 5.8808436585515995 -0.72390707240851127 0 0 0 0 -0.77011556797590686 0.96676845487701257 0 0.96676845487701257 0.49785479540196942 0 0 0 0 1.7711784458556394 -5.0758443772681403 0 -5.0758443772681403 -18.844439321902087 0 0 0 0 -0.97437440285648336 5.7471921731213769 0 5.7471921731213769 -2.5251904973010824 0 0 0 0 0.99071088083128345 1.4602139599144666 0 1.4602139599144666 -0.422640697812799 0 0 0 0 -114.14568358401293 57.88322887743476 0 57.88322887743476 -31.519622433191671 0 0 0 0 -114.03034895384371 90.618988379425957 0 90.618988379425957 -49.002719058336424 0 0 0 0 -140.55688069920507 85.862532785391807 0 85.862532785391807 -24.987777798593356 0 0 0 0 -165.25439856921639 102.54737216286364 0 102.54737216286364 -32.560471399168819 0 0 0 0 -200.56189141013601 39.350546040752306 0 39.350546040752306 32.606555920191568 0 0 0 0 -130.15446213996347 72.577824592395132 0 72.577824592395132 -32.009621094250406 0 0 0 0 -142.84099323948976 81.547909355886077 0 81.547909355886077 -25.434868549206584 0 0 0 0 -158.61828580149722 66.794954483903098 0 66.794954483903098 -26.753664446970447 0 0 0 0 -143.19031588641974 75.323308954953461 0 75.323308954953461 -29.050252535266509 0 0 0 0 -159.04216868230833 61.694664083582666 0 61.694664083582666 -31.668147807470447 0 0 0 0 -193.84331148939054 102.18713530273624 0 102.18713530273624 -58.65224187804688 0 0 0 0 -124.80991401894426 60.26680126445342 0 60.26680126445342 -30.708738119883037 0 0 0 0 -3.9561172405524303 4.4701688883016004 0 4.4701688883016004 0.096572480034581076 0 0 0 0 1.8872233573970334 3.1017560709046847 0 3.1017560709046847 -0.17540808191063206 0 0 0 0 1.9836839037786653 2.4186346478686924 0 2.4186346478686924 2.0413808252216592 0 0 0 0 -1.30185387571556 0.731680505374249 0 0.731680505374249 1.0318896312616026 0 0 0 0 0.97580346857284894 9.3023476437875843 0 9.3023476437875843 17.844828689292228 0 0 0 0 -0.59910574728998611 0.1950381601137634 0 0.1950381601137634 0.91162517561037437 0 0 0 0 -8.1244288930242874 -1.06482095032014 0 -1.06482095032014 3.4417649406537407 0 0 0 0 -12.853436341086308 8.1484833923091742 0 8.1484833923091742 3.2186629583023887 0 0 0 0 -3.1290901786214818 -11.255754847241136 0 -11.255754847241136 4.5967677606804545 0 0 0 0 -2.8158068782854571 20.027204560261339 0 20.027204560261339 -27.623955368708039 0 0 0 0 11.233919898591921 6.1611822660941016 0 6.1611822660941016 -14.73702259605534 0 0 0 0 -18.559987764571815 14.70155331375372 0 14.70155331375372 -2.8022745682701498 0 0 0 0 -33.438612777804337 66.037933126705866 0 66.037933126705866 -70.206394322198776 0 0 0 0 6.1216793979519935 27.61448402983126 0 27.61448402983126 -35.228326792084772 0 0 0 0 11.64266808290904 11.280927333243312 0 11.280927333243312 -50.272297928117723 0 0 0 0 6.1122838822257108 27.531309201553995 0 27.531309201553995 -29.783409968887554 0 0 0 0 4.8296749665751122 -13.482142627910093 0 -13.482142627910093 -18.306242689263712 0 0 0 0 31.845666873477057 -17.082486351410807 0 -17.082486351410807 -20.838040426844145 0 0 0 0 -12.410199865501454 -49.826046464188963 0 -49.826046464188963 118.53210937662311 0 0 0 0 51.618125320735203 11.790787315472755 0 11.790787315472755 -163.21721105016877 0 0 0 0 66.854182124930048 -122.55444474253852 0 -122.55444474253852 -49.867736234782143 0 0 0 0 1.5036591673688235 12.49028945004952 0 12.49028945004952 29.587703447019749 0 0 0 0 29.414771144335646 54.600953210440196 0 54.600953210440196 77.669670778224187 0 0 0 0 44.014072788968861 26.896705975338875 0 26.896705975338875 1.4895067353489253 0 0 0 0 0.82536670114229338 1.301212041164947 0 1.301212041164947 1.0143347001173897 0 0 0 0 17.464042628141215 7.6843477266406595 0 7.6843477266406595 -18.257336357810516 0 0 0 0 -35.704109876171515 20.647123515226781 0 20.647123515226781 120.5750233829533 0 0 0 0 5.2494027630773417 -2.6131852824694306 0 -2.6131852824694306 -6.4100024192100591 0 0 0 0 20.390025883965563 0.97937142903522556 0 0.97937142903522556 20.058034523597485 0 0 0 0 32.95648407805345 30.923018107760036 0 30.923018107760036 11.963957079158035 0 0 0 0 3.4629946734903569 -4.2400098482548785 0 -4.2400098482548785 14.463350153943306 0 0 0 0 3.0665546443567324 3.6989707739469249 0 3.6989707739469249 -0.24993911329387331 0 0 0 0 4.7158960153315093 13.275991923807965 0 13.275991923807965 -10.72602949385913 0 0 0 0 15.86951664462299 13.490669551754248 0 13.490669551754248 -2.7914723851416809 0 0 0 0 5.9545478613854357 4.9403113796121261 0 4.9403113796121261 -9.3657642259418026 0 0 0 0 23.076808940839214 5.998585470062892 0 5.998585470062892 -4.6963641054001073 0 0 0 0 22.223253859537728 21.208770342522712 0 21.208770342522712 -6.1558292240254389 0 0 0 0 19.145705910584297 13.736366674505803 0 13.736366674505803 -20.733989208466483 0 0 0 0 23.490564921108955 11.822812245611431 0 11.822812245611431 -19.335571778065059 0 0 0 0 20.930783647018075 17.621842467008719 0 17.621842467008719 -24.458409087026212 0 0 0 0 4.2181205102488093 19.985656470516119 0 19.985656470516119 -20.704111934077218 0 0 0 0 17.184722946220518 18.621896729947025 0 18.621896729947025 -26.986202869934914 0 0 0 0 35.884869617823824 39.093255838526034 0 39.093255838526034 -109.41361163814324 0 0 0 0 -37.011620144098742 174.53880936887819 0 174.53880936887819 17.569714296360303 0 0 0 0 23.917507703919455 35.662212811753534 0 35.662212811753534 12.458315152815828 0 0 0 0 26.894625543971415 20.43437040905394 0 20.43437040905394 -29.877476808038409 0 0 0 0 37.332414733333621 48.372809535520162 0 48.372809535520162 -61.331096525394514 0 0 0 0 24.589491742429345 3.1084313700039274 0 3.1084313700039274 -40.326418208925929 0 0 0 0 26.464897624651485 11.353077929059737 0 11.353077929059737 -26.058181006167842 0 0 0 0 30.808803656431905 4.954253372530502 0 4.954253372530502 -41.700655689052383 0 0 0 0 0.76218110628397229 -0.20167538640923066 0 -0.20167538640923066 -2.1150321767805695 0 0 0 0 8.0154246483450606 -16.204009045485691 0 -16.204009045485691 -54.046773068931998 0 0 0 0 -44.295206435394448 22.651927188977197 0 22.651927188977197 -18.496557934389784 0 0 0 0 25.457852569504212 3.9013646072858137 0 3.9013646072858137 -96.720941140434775 0 0 0 0 -12.897854476063003 1.0496001746619186 0 1.0496001746619186 -3.7178837677333831 0 0 0 0 19.452567964572381 8.4877984550201973 0 8.4877984550201973 -2.2766284344515952 0 0 0 0 9.2353046707805788 10.144106226076474 0 10.144106226076474 7.4350105436055856 0 0 0 0 9.0669872076046829 -8.6487061121974591 0 -8.6487061121974591 -15.525308946910627 0 0 0 0 1.1956484890458796 16.878213464115561 0 16.878213464115561 2.3562673322485352 0 0 0 0 8.7257914864295572 -0.97785868037294676 0 -0.97785868037294676 18.295244346491927 0 0 0 0 1.7121223472448026 3.1098700601111684 0 3.1098700601111684 -2.5346357885351516 0 0 0 0 -15.354173553167584 14.919573242364095 0 14.919573242364095 26.595704075562935 0 0 0 0 4.2180540158019539 -3.7041703060789359 0 -3.7041703060789359 27.028327463733604 0 0 0 0 1.4611597097507927 1.4824636060357386 0 1.4824636060357386 -2.0143678798263669 0 0 0 0 11.253479779826193 22.163879118785644 0 22.163879118785644 -17.840312397879643 0 0 0 0 15.137599272327407 17.259186406964545 0 17.259186406964545 -22.988899627745468 0 0 0 0 8.7711602978426786 14.458014325328492 0 14.458014325328492 -9.5501735359002851 0 0 0 0 16.24052861123937 22.745499544848371 0 22.745499544848371 -11.687590592609922 0 0 0 0 16.866225244129311 17.07024871768499 0 17.07024871768499 -17.332735425992269 0 0 0 0 15.469190060680248 18.973779205974836 0 18.973779205974836 -19.404931788718386 0 0 0 0 15.795664839584873 14.37547911424781 0 14.37547911424781 -19.518406978613854 0 0 0 0 2.0865882156429052 23.21966808975003 0 23.21966808975003 6.4079921249849576 0 0 0 0 10.486784096755756 22.54317392369876 0 22.54317392369876 -0.64612610016956751 0 0 0 0 15.909095709352414 31.489936568837948 0 31.489936568837948 3.8100748961069257 0 0 0 0 10.488405612281968 22.776809341640558 0 22.776809341640558 -6.7960272378641093 0 0 0 0 19.970467115254678 26.156012808442938 0 26.156012808442938 -8.9577485677127697 0 0 0 0 15.543696173306898 18.721012157916221 0 18.721012157916221 -13.211076627374496 0 0 0 0 14.700025549437555 18.87570386290588 0 18.87570386290588 -14.742659753483167 0 0 0 0 4.9149260400899948 6.2940261992770132 0 6.2940261992770132 -0.029112103928298438 0 0 0 0 8.8791004071688349 12.21695353218071 0 12.21695353218071 1.8965821888083241 0 0 0 0 -1.7484547930430245 5.0132699441394681 0 5.0132699441394681 -1.2732173512067992 0 0 0 0 62.399231110958112 -2.3727001558295342 0 -2.3727001558295342 1.1574424649520552 0 0 0 0 5.8025674459778012 7.0418547139399497 0 7.0418547139399497 -2.7320732474056513 0 0 0 0 5.014736378775865 27.644218653319967 0 27.644218653319967 12.524688196812349 0 0 0 0 6.1455200184294299 10.489534840582451 0 10.489534840582451 -0.35216212535044633 0 0 0 0 6.3218772295321131 9.9679255609324855 0 9.9679255609324855 -3.15080184985041 0 0 0 0 14.958251794211151 9.4718145957577917 0 9.4718145957577917 -5.5879337715891779 0 0 0 0 5.0778228144605864 6.3526052888013123 0 6.3526052888013123 -1.7849869598110191 0 0 0 0 4.1963064355421338 10.464269470828867 0 10.464269470828867 0.095046640881946587 0 0 0 0 1.9096157931974125 6.7248901585350342 0 6.7248901585350342 -0.11944742357254423 0 0 0 0 -5.5753093948978858 9.3581356735619465 0 9.3581356735619465 12.387400535178017 0 0 0 0 1.6676281841469063 7.0617110772779412 0 7.0617110772779412 0.36955349341306487 0 0 0 0 0.10688020003049647 5.4937450869413187 0 5.4937450869413187 -0.84337882313649659 0 0 0 0 -3.029498856147633 7.2920636898105959 0 7.2920636898105959 -0.58632224570351354 0 0 0 0 -5.8593960248854273 13.843363878217815 0 13.843363878217815 1.1326517516017702 0 0 0 0 -8.3722244603968647 13.047518740514988 0 13.047518740514988 8.4992205103174285 0 0 0 0 -6.8363215919293125 6.5262314497145404 0 6.5262314497145404 -1.4488230796362571 0 0 0 0 -9.2696522466922033 15.617437598708023 0 15.617437598708023 4.3852689897969412 0 0 0 0 -25.017474798493367 5.0816234429241831 0 5.0816234429241831 13.50793736830714 0 0 0 0 5.0441247470607777 16.437656684283297 0 16.437656684283297 -28.928956765832481 0 0 0 0 -0.75769433645726014 0.66369771313443104 0 0.66369771313443104 1.0974398026821888 0 0 0 0 5.4558552752883998 14.264467352324431 0 14.264467352324431 -19.871466736595266 0 0 0 0 -4.0184440064149385 13.619804413345037 0 13.619804413345037 -2.8822903263949229 0 0 0 0 -24.617044321715184 36.892676260643611 0 36.892676260643611 -19.0071966702601 0 0 0 0 -4.7413370745696284 10.481769608856325 0 10.481769608856325 13.413833995135519 0 0 0 0 1.0768194218107965 19.071688102105668 0 19.071688102105668 -5.4348322227956487 0 0 0 0 -7.0847424236681036 14.282939761306949 0 14.282939761306949 -4.6573748780111828 0 0 0 0 1.3415923472267224 1.0192629700905833 0 1.0192629700905833 0.71740233796488206 0 0 0 0 7.3227017240988062 11.315951641390484 0 11.315951641390484 -9.1133426968416416 0 0 0 0 3.2275076506284677 17.951502810608645 0 17.951502810608645 3.7985402979475111 0 0 0 0 4.6043988499823172 16.5601594505506 0 16.5601594505506 -4.4513756795540758 0 0 0 0 -1.9039053605151341 9.331253137882932 0 9.331253137882932 -9.1698189251588911 0 0 0 0 10.036558484855959 25.608416360541526 0 25.608416360541526 3.0755301785037545 0 0 0 0 -0.10608716154911235 16.041728721573463 0 16.041728721573463 8.2738213876799875 0 0 0 0 -16.876868869045211 14.777465577079369 0 14.777465577079369 8.4359190702671754 0 0 0 0 -73.804758969323302 -114.08839769592487 0 -114.08839769592487 -109.16946887637278 0 0 0 0 4.7352955179693801 5.7258111233026447 0 5.7258111233026447 0.66707622994611215 0 0 0 0 -22.320269389478199 30.516653245323141 0 30.516653245323141 2.3382737696202867 0 0 0 0 1.9731060140675254 8.7520969842536545 0 8.7520969842536545 -2.8283973903733681 0 0 0 0 305.30978443737831 184.25584928683406 0 184.25584928683406 -313.88370642708333 0 0 0 0 3.6320973546730784 -6.2437060685863344 0 -6.2437060685863344 -18.520883429755941 0 0 0 0 30.816522443452413 45.458840351043364 0 45.458840351043364 9.5792411697841544 0 0 0 0 18.093976632144859 5.6433666481947853 0 5.6433666481947853 -59.535207353242868 0 0 0 0 10.339564250231888 1.9064316944999291 0 1.9064316944999291 -57.882538570956854 0 0 0 0 0.055323011809498723 1.0411378276714203 0 1.0411378276714203 -2.0333839132706668 0 0 0 0 -11.783653743680816 3.9854535993515725 0 3.9854535993515725 5.9996333226715706 0 0 0 0 56.450347184749262 -22.458448435802808 0 -22.458448435802808 -109.25980183668561 0 0 0 0 -3.5021609048503706 5.4664563932997225 0 5.4664563932997225 5.8346196397400263 0 0 0 0 4.71640708451514 9.8938287889439458 0 9.8938287889439458 1.3530838794719884 0 0 0 0 -0.75561224044304254 12.377378925047651 0 12.377378925047651 0.62414866972424932 0 0 0 0 -0.56722671343880915 3.9590244898531055 0 3.9590244898531055 -2.4719833989342295 0 0 0 0 -8.8594454181729816 35.760377514134689 0 35.760377514134689 18.515100150326361 0 0 0 0 13.748015312577422 5.0856804370560997 0 5.0856804370560997 -5.8743634843059311 0 0 0 0 0.89730695340732503 -1.0274557817607688 0 -1.0274557817607688 -0.53188085186385781 0 0 0 0 5.9832318761841634 12.438003201791389 0 12.438003201791389 -48.388783780215931 0 0 0 0 -44.766081972460142 24.548224648714381 0 24.548224648714381 -9.5964734841586505 0 0 0 0 -57.712330471019413 21.071707676937649 0 21.071707676937649 25.677678137532325 0 0 0 0 -19.783190182150975 -14.092359144296836 0 -14.092359144296836 -13.779556694841403 0 0 0 0 -18.780266210791751 34.181524027613477 0 34.181524027613477 -33.149515741356254 0 0 0 0 3.4515257423472576 17.605884227264141 0 17.605884227264141 -24.325613964709419 0 0 0 0 -3.2480431232143019 10.203580197924794 0 10.203580197924794 -8.036479696047536 0 0 0 0 -1.3078627603957438 1.426438748989038 0 1.426438748989038 1.5575382432781586 0 0 0 0 4.9272883904222908 13.721933923773008 0 13.721933923773008 -15.262306765678659 0 0 0 0 -13.64500133155434 24.261920333884518 0 24.261920333884518 -18.064335535948885 0 0 0 0 -23.757156615133908 10.129751186322665 0 10.129751186322665 -6.9007593823648676 0 0 0 0 3.7856374460389461 3.678398422287009 0 3.678398422287009 1.9342570099573155 0 0 0 0 0.56539763449388225 8.220050633576184 0 8.220050633576184 0.88407637764277114 0 0 0 0 -30.618958521494733 6.5819498301024169 0 6.5819498301024169 47.221795005575586 0 0 0 0 3.2255519344380446 9.3469137485448073 0 9.3469137485448073 -4.1905146794357933 0 0 0 0 3.2901825283124708 3.5526784205244439 0 3.5526784205244439 18.450027826789665 0 0 0 0 -5.423498467850643 5.7946856481330773 0 5.7946856481330773 12.837132482865067 0 0 0 0 2.3264996986199549 11.213546812967252 0 11.213546812967252 21.82978866114297 0 0 0 0 2.9832362000452122 10.882399527352788 0 10.882399527352788 4.30437578068927 0 0 0 0 1.1595587887277361 7.2044828467137449 0 7.2044828467137449 -0.29443712134820998 0 0 0 0 0.052319946515126503 13.004365651956164 0 13.004365651956164 3.887295965347846 0 0 0 0 -6.0510322887372254 6.7700120420337839 0 6.7700120420337839 14.688469210644939 0 0 0 0 0.71876817184075037 3.814138408046186 0 3.814138408046186 1.1823293352483868 0 0 0 0 0.60536920387835025 6.765114443255837 0 6.765114443255837 4.8096782385137171 0 0 0 0 2.9184798570910289 3.9161656788406782 0 3.9161656788406782 3.2883539127666279 0 0 0 0 2.7774554787843044 3.5555288005045895 0 3.5555288005045895 11.767831584983156 0 0 0 0 0.95862723415563877 8.927537915046269 0 8.927537915046269 -4.3749060373672819 0 0 0 0 1.2792911978722259 5.9748061473082998 0 5.9748061473082998 -4.0423052474593533 0 0 0 0 -2.0453891109136748 11.64650654696743 0 11.64650654696743 -3.4584182200956661 0 0 0 0 -2.9226204373774465 9.2114064356925134 0 9.2114064356925134 0.94088992782360492 0 0 0 0 -2.9320781502565296 9.4033919993171224 0 9.4033919993171224 5.7661151918655094 0 0 0 0 -2.8650680596729217 10.992976070236523 0 10.992976070236523 2.5320852709239148 0 0 0 0 -2.1867246951333073 11.470442581611053 0 11.470442581611053 -1.7725914128406828 0 0 0 0 -0.15132115955020708 12.18091191195208 0 12.18091191195208 -4.1874675422514542 0 0 0 0 -1.3163858474555283 6.7918533702198722 0 6.7918533702198722 3.6460088039064482 0 0 0 0 -2.1223550175522661 8.0817510476216512 0 8.0817510476216512 0.069300121311049123 0 0 0 0 13.934741113328073 8.6007083431802585 0 8.6007083431802585 30.711210910290902 0 0 0 0 -2.8164228404664158 6.9444763415142132 0 6.9444763415142132 2.0398618585139729 0 0 0 0 -3.3599991433238756 10.993670013696715 0 10.993670013696715 2.8893474912902093 0 0 0 0 -3.6082318406326976 9.2987282405144995 0 9.2987282405144995 0.51404820344851032 0 0 0 0 -2.4106156338966684 7.3037933804930617 0 7.3037933804930617 3.9140226465860906 0 0 0 0 -28.088437760427041 21.420273558726876 0 21.420273558726876 -10.855927195184904 0 0 0 0 -11.480739838536465 -8.6688160890821564 0 -8.6688160890821564 45.398669789376072 0 0 0 0 -0.086314292817725402 1.5550352027493357 0 1.5550352027493357 0.44494084542613965 0 0 0 0 -2.5511928189334867 8.7015451980323633 0 8.7015451980323633 3.1039597702629749 0 0 0 0 4.3004483355823595 9.1432627771848729 0 9.1432627771848729 20.640732473028493 0 0 0 0 0.80277832379112546 2.3295713096280037 0 2.3295713096280037 1.8981239328344648 0 0 0 0 -2.2946269404201303 2.6383471650005959 0 2.6383471650005959 23.685422809942793 0 0 0 0 -2.3537210540584823 7.794744906069063 0 7.794744906069063 4.4829563420929741 0 0 0 0 2.4455151291767834 8.6855044052081212 0 8.6855044052081212 -5.0821338637733788 0 0 0 0 4.3256301263086243 10.975354053209685 0 10.975354053209685 -2.9213380555579533 0 0 0 0 -2.4032303336547365 6.4961769924636279 0 6.4961769924636279 4.402181382798517 0 0 0 0 -2.0635273225782278 7.6082682703031796 0 7.6082682703031796 -0.91512337937418375 0 0 0 0 -2.9119094989926957 7.5444168649925114 0 7.5444168649925114 0.6731835242796933 0 0 0 0 -1.784516450925139 9.4998463608631454 0 9.4998463608631454 0.75228564456699587 0 0 0 0 1.2990618539637675 5.3993351530611786 0 5.3993351530611786 -3.1267861176157234 0 0 0 0 2.841201035153972 10.132139233594216 0 10.132139233594216 -2.8260955355508415 0 0 0 0 0.86636180474761204 7.0255568567049522 0 7.0255568567049522 -2.6373385437400145 0 0 0 0 2.282671720048711 8.6326175965189123 0 8.6326175965189123 -0.84140210876415722 0 0 0 0 1.2781534893148319 8.9916087036210754 0 8.9916087036210754 0.49366353368066029 0 0 0 0 2.5706255615814371 11.846258513968564 0 11.846258513968564 0.75808393112474448 0 0 0 0 4.6042491880825764 10.731951634787805 0 10.731951634787805 1.3015590156355188 0 0 0 0 1.9672083398140785 10.476394569812697 0 10.476394569812697 4.8595160026548001 0 0 0 0 -1.8734453676275362 6.8028906231123383 0 6.8028906231123383 3.3527104443492108 0 0 0 0 1.8176032801525253 11.900095432374997 0 11.900095432374997 1.1271315562767086 0 0 0 0 -2.2925759962436132 7.0421945628681897 0 7.0421945628681897 6.1551380251821683 0 0 0 0 -0.66830053087398622 4.7043616798049648 0 4.7043616798049648 7.2967661645455841 0 0 0 0 0.1212173017666851 6.3345482081052307 0 6.3345482081052307 3.5223857004493864 0 0 0 0 -2.1025807217238253 6.7519651515685837 0 6.7519651515685837 5.4627215324020426 0 0 0 0 -4.3554350105199049 7.4059039778563829 0 7.4059039778563829 13.609415014184833 0 0 0 0 -2.8359280435696128 3.9318604910309851 0 3.9318604910309851 5.1140693779527764 0 0 0 0 -2.4783284607593998 9.176291946621177 0 9.176291946621177 19.450729901599516 0 0 0 0 -2.7723639604626036 3.9742314260335068 0 3.9742314260335068 6.1311364523226999 0 0 0 0 0.42007500387080654 7.248539047781378 0 7.248539047781378 4.667804956650798 0 0 0 0 -1.1428849551275562 6.2640292142459657 0 6.2640292142459657 4.6556414255092022 0 0 0 0 -1.9118469287087549 5.3686943477533884 0 5.3686943477533884 5.5147799055432145 0 0 0 0 -0.79568888778794644 6.8967134311678819 0 6.8967134311678819 5.7285335917863449 0 0 0 0 31.953119268240812 -2.7927371114399477 0 -2.7927371114399477 5.4248474327578151 0 0 0 0 -0.43034771741054106 3.6078585349263683 0 3.6078585349263683 3.0900393848319592 0 0 0 0 0.10213387437488564 6.0578726202174948 0 6.0578726202174948 1.4938719749970915 0 0 0 0 3.1579449750291753 6.6648429470626835 0 6.6648429470626835 -0.27215388828094644 0 0 0 0 6.2227118895307285 1.8065186183353035 0 1.8065186183353035 -13.414539551950838 0 0 0 0 2.3571027453563147 9.4926375167087826 0 9.4926375167087826 90.807456988912691 0 0 0 0 4.4968565111357748 1.2806332540874337 0 1.2806332540874337 -8.7576237950779614 0 0 0 0 0.29392980525051904 0.81258873057649872 0 0.81258873057649872 -0.49783750269756943 0 0 0 0 2.8532572359249784 4.5953674832710547 0 4.5953674832710547 -0.75139479396239039 0 0 0 0 1.6027399070235333 1.0141325133490682 0 1.0141325133490682 -7.6666146990191919 0 0 0 0 -3.0106338474994687 4.1593438672641749 0 4.1593438672641749 -1.9730782849683521 0 0 0 0 10.642473696295497 6.9737043664745215 0 6.9737043664745215 -10.677656563191704 0 0 0 0 1.0517030077995115 4.4577018273629285 0 4.4577018273629285 -4.1284411611911853 0 0 0 0 -3.4038915491137089 1.4809885857684542 0 1.4809885857684542 -7.4025938242175471 0 0 0 0 4.0500048141652769 6.3277112496180052 0 6.3277112496180052 0.7139838502978364 0 0 0 0 -3.6371620607150454 4.6504418862568508 0 4.6504418862568508 -0.50284604201109318 0 0 0 0 7.0618674692177592 12.736173776902888 0 12.736173776902888 -37.275243821244658 0 0 0 0 0.24920130280188246 1.9442151833884842 0 1.9442151833884842 -0.22916174777280807 0 0 0 0 -9.7422728253204696 28.06201836847049 0 28.06201836847049 6.9239923522916342 0 0 0 0 0.58776964142816723 -0.33184506508882805 0 -0.33184506508882805 -15.312995515342664 0 0 0 0 4.8427209843691799 8.0575974529334076 0 8.0575974529334076 -18.093246274886042 0 0 0 0 5.8842308712974045 12.762260409101145 0 12.762260409101145 -8.0682716878048382 0 0 0 0 -1.8289623818997951 5.3549192379799013 0 5.3549192379799013 -4.872076010519967 0 0 0 0 -0.14671009093334053 5.4493792709427487 0 5.4493792709427487 -5.5005641534215979 0 0 0 0 -12.346790053838959 26.713973413210624 0 26.713973413210624 30.551149306366028 0 0 0 0 -11.024187652197725 -7.2722632153827362 0 -7.2722632153827362 23.27021958149885 0 0 0 0 -0.54652526762083653 -14.642020222367904 0 -14.642020222367904 -8.869248167540718 0 0 0 0 24.588615678560018 -6.775491252127722 0 -6.775491252127722 9.7398093703977793 0 0 0 0 -1.8088458574766264 -2.7811868243179561 0 -2.7811868243179561 12.094289752792974 0 0 0 0 25.288640880135063 -0.044713105839036871 0 -0.044713105839036871 11.457300777379714 0 0 0 0 -39.605132782151486 -22.963383091963351 0 -22.963383091963351 16.507574477210255 0 0 0 0 23.231100679367955 38.923771144934108 0 38.923771144934108 -136.21878566583973 0 0 0 0 -8.5589599799532152 53.33120485919153 0 53.33120485919153 -3.2098238175805136 0 0 0 0 -0.62344418975379057 1.3546988015182491 0 1.3546988015182491 0.09160683128338809 0 0 0 0 -35.886751726202419 1.8714116471255693 0 1.8714116471255693 99.405426790907313 0 0 0 0 -13.423428826514282 79.765341940447797 0 79.765341940447797 -72.611458878470785 0 0 0 0 -53.782951354103716 46.95551838369056 0 46.95551838369056 65.862527236431561 0 0 0 0 -9.2305433776364225 36.764091696871674 0 36.764091696871674 -22.621061212817494 0 0 0 0 -41.72783421128679 4.3259029137742573 0 4.3259029137742573 23.756035248386979 0 0 0 0 17.850254091950774 0.57393962553646816 0 0.57393962553646816 -8.9912469819037142 0 0 0 0 -23.707935325597646 -10.262028407761591 0 -10.262028407761591 6.5235028201225305 0 0 0 0 0.51428822343950742 2.1324315028723504 0 2.1324315028723504 11.07197535825162 0 0 0 0 -2.0231045584787353 7.4647341842528476 0 7.4647341842528476 18.894967812651885 0 0 0 0 13.828267035711178 15.268981514912412 0 15.268981514912412 9.8555145134881741 0 0 0 0 11.666899376630681 21.402004319108073 0 21.402004319108073 25.59821490333502 0 0 0 0 29.12842502139938 4.2967174782074835 0 4.2967174782074835 19.178291743658974 0 0 0 0 2.535458486268908 -9.0563120628314664 0 -9.0563120628314664 -82.806988187335264 0 0 0 0 -8.5292829198751861 22.732107678340526 0 22.732107678340526 -58.737317346663986 0 0 0 0 8.274928438070333 10.745552488694784 0 10.745552488694784 3.5180499619260672 0 0 0 0 -7.202274290690184 14.270824089576536 0 14.270824089576536 7.2579138207729557 0 0 0 0 0.078240548749931804 11.020007944269537 0 11.020007944269537 4.2681885427837187 0 0 0 0 5.5262951851409525 12.159881294355728 0 12.159881294355728 -4.9519949997147705 0 0 0 0 -0.31012391954899465 2.6577571828868272 0 2.6577571828868272 0.70435431524690983 0 0 0 0 -8.193169011364132 11.012978143774493 0 11.012978143774493 6.0615248004868558 0 0 0 0 -2.2837184540835551 9.1303865486756592 0 9.1303865486756592 -0.63133385815331167 0 0 0 0 -8.9912832854670341 15.896410843803437 0 15.896410843803437 1.4795954261626321 0 0 0 0 -6.6751715629789032 17.035676895554388 0 17.035676895554388 1.9358049729526101 0 0 0 0 2.2706914676539167 7.1123696316071099 0 7.1123696316071099 4.8355779984690734 0 0 0 0 -5.7000956501274231 16.133923791605923 0 16.133923791605923 -1.8052222707902956 0 0 0 0 -11.240549701840791 15.345381199470921 0 15.345381199470921 4.3928501797344488 0 0 0 0 4.2354160320518304 11.118205557030137 0 11.118205557030137 -1.1704241520365031 0 0 0 0 5.1278810896257312 15.509691374473533 0 15.509691374473533 5.7351332920525238 0 0 0 0 3.3563663757800324 7.5017326303147023 0 7.5017326303147023 5.0921505760672243 0 0 0 0 -4.5888324498428119 14.259429426612655 0 14.259429426612655 1.2088141815164022 0 0 0 0 6.8173219403260106 9.309617052976364 0 9.309617052976364 0.79307020818123419 0 0 0 0 -0.27106339446336286 4.2510185180098308 0 4.2510185180098308 -4.6249426306713453 0 0 0 0 6.4777575713075954 11.115503566602911 0 11.115503566602911 -0.20148823387972925 0 0 0 0 2.2567866455107719 9.8086573302956275 0 9.8086573302956275 4.4385512141390677 0 0 0 0 8.9861658612066542 10.19734223835821 0 10.19734223835821 1.0495483516763215 0 0 0 0 -2.6064748872134191 3.8755013001865368 0 3.8755013001865368 -1.7597316636091338 0 0 0 0 5.0148726052893267 12.428605380875236 0 12.428605380875236 1.3586618171490272 0 0 0 0 10.15487835250277 21.114618401780518 0 21.114618401780518 14.246191144337899 0 0 0 0 -0.8163846187119026 1.8818442541061429 0 1.8818442541061429 -3.3732711178502712 0 0 0 0 6.561859100282792 7.9636809388724714 0 7.9636809388724714 3.5242692139420342 0 0 0 0 8.9375536838994272 9.1644819824064143 0 9.1644819824064143 1.2335719067796163 0 0 0 0 12.703299830875693 7.9635609925294375 0 7.9635609925294375 1.3806476347176613 0 0 0 0 5.3583242656144243 10.389294773361598 0 10.389294773361598 12.591550815242954 0 0 0 0 -0.90054576727587965 2.2484851261018113 0 2.2484851261018113 0.86323740354709444 0 0 0 0 9.1573354159249902 8.192830432638857 0 8.192830432638857 3.2265228919197853 0 0 0 0 13.829343954580736 9.428709173122229 0 9.428709173122229 1.5149713511002574 0 0 0 0 13.22653662685434 17.102443910795046 0 17.102443910795046 -28.249808932072483 0 0 0 0 5.649727317588713 9.0262633669735806 0 9.0262633669735806 10.308536983750855 0 0 0 0 10.667158379523357 9.899640405054015 0 9.899640405054015 15.60290401189377 0 0 0 0 3.8501605263110905 5.9528179251637523 0 5.9528179251637523 -3.282762724675389 0 0 0 0 -4.1271699790090679 14.196784576898608 0 14.196784576898608 -1.9716820028206712 0 0 0 0 -2.8887657797488373 -1.1711430324321555 0 -1.1711430324321555 11.873687492770387 0 0 0 0 7.3301367727591078 13.434906102826517 0 13.434906102826517 1.5572892854736438 0 0 0 0 -0.58847545821744629 3.426460373925893 0 3.426460373925893 1.9729839722654754 0 0 0 0 -0.24218209044051786 0.098331369929237411 0 0.098331369929237411 0.31716257885510579 0 0 0 0 26.928184842927976 22.604560466057592 0 22.604560466057592 14.378464438267883 0 0 0 0 -0.65032016602935983 7.5395422573274118 0 7.5395422573274118 64.209001128805994 0 0 0 0 -0.078995456296289124 0.013040174980270436 0 0.013040174980270436 0.029758938306410521 0 0 0 0 4.7635758652173763 -4.0493619281060091 0 -4.0493619281060091 -38.86445515314972 0 0 0 0 -5.9337900369059753 3.5474524185165137 0 3.5474524185165137 -8.9456392059601058 0 0 0 0 14.759118038777842 14.054909776567456 0 14.054909776567456 9.8894414771843913 0 0 0 0 13.724225398284261 8.1970902716102501 0 8.1970902716102501 6.0944439184713701 0 0 0 0 -19.615930722292887 4.3083484181733525 0 4.3083484181733525 2.9202986262280319 0 0 0 0 -3.7343440080236014 10.119343855204617 0 10.119343855204617 8.8861602065989107 0 0 0 0 7.2099804049880172 5.7045865857757629 0 5.7045865857757629 -2.976829164987246 0 0 0 0 16.689472670448367 10.676569428422567 0 10.676569428422567 6.9658716072808602 0 0 0 0 11.582565597173016 11.48943176051398 0 11.48943176051398 11.239429757157268 0 0 0 0 -12.110662342030082 3.1654371301674473 0 3.1654371301674473 0.15522947693352762 0 0 0 0 -11.877593760184027 11.799103224213468 0 11.799103224213468 4.9161568254248778 0 0 0 0 0.25001042127606787 2.7695651696324859 0 2.7695651696324859 3.0239738440299826 0 0 0 0 -2.431603432501106 1.3921138691716806 0 1.3921138691716806 0.58854812527800959 0 0 0 0 -15.238807595917933 2.5964483440841377 0 2.5964483440841377 0.66549591707837408 0 0 0 0 0.97494178093620576 35.244703660973073 0 35.244703660973073 23.460262818314504 0 0 0 0 -4.8541583363621612 4.0381607502957877 0 4.0381607502957877 12.909092182009545 0 0 0 0 -2.6078532982654861 9.7026598486365501 0 9.7026598486365501 10.348210241428351 0 0 0 0 -38.370560748077878 2.692983187719733 0 2.692983187719733 29.612432374517994 0 0 0 0 17.556962785906933 12.911901929472151 0 12.911901929472151 9.8664256696210941 0 0 0 0 11.065288340910257 15.704876365514906 0 15.704876365514906 31.411096058034673 0 0 0 0 12.661644960197805 12.252691301226832 0 12.252691301226832 11.243869547372014 0 0 0 0 16.12780955514836 11.330501541921421 0 11.330501541921421 11.289206014593219 0 0 0 0 -17.240816667538866 -6.3398226224671816 0 -6.3398226224671816 34.315902609905606 0 0 0 0 10.932245829536214 14.500544887039041 0 14.500544887039041 30.858613084550598 0 0 0 0 9.1990027177505453 -3.5130158261999895 0 -3.5130158261999895 10.903999483542975 0 0 0 0 -6.12768730699554 8.7064592217211612 0 8.7064592217211612 -8.9544637446078923 0 0 0 0 8.3280744364480341 7.3502052189215874 0 7.3502052189215874 -12.036129627196715 0 0 0 0 11.346113260539369 17.529764904968033 0 17.529764904968033 -9.2462717390972102 0 0 0 0 12.786018489279058 14.262148400897331 0 14.262148400897331 -26.714351813638586 0 0 0 0 -8.5291051935598716 35.124035056858702 0 35.124035056858702 -0.38569743875723361 0 0 0 0 14.264565924701287 9.4767313896372798 0 9.4767313896372798 9.5614811864093099 0 0 0 0 8.2502904018280105 20.391281897841282 0 20.391281897841282 6.3449432270529087 0 0 0 0 4.1925918751221616 20.711876195344303 0 20.711876195344303 14.140932685761072 0 0 0 0 -15.185092691628256 20.860313140243761 0 20.860313140243761 19.448457378376588 0 0 0 0 0.54705167109932518 27.411887750903134 0 27.411887750903134 1.9246216605361042 0 0 0 0 0.47627748404860881 14.00376313533917 0 14.00376313533917 21.164425001768905 0 0 0 0 2.9563966985736982 23.816524086793351 0 23.816524086793351 17.058708817841762 0 0 0 0 -4.1097672375868797 8.1013479409348292 0 8.1013479409348292 20.949176368734243 0 0 0 0 6.1226588049921702 17.694126378721876 0 17.694126378721876 10.727510678773086 0 0 0 0 11.892053273176316 26.93266270969616 0 26.93266270969616 12.26141557112382 0 0 0 0 14.063906372642577 26.57182834307639 0 26.57182834307639 8.5782232078067864 0 0 0 0 11.337762448976719 24.202807592147451 0 24.202807592147451 12.943772571393765 0 0 0 0 45.517744546882568 25.103208333279781 0 25.103208333279781 10.758217826123087 0 0 0 0 37.162526472242462 26.735848722074707 0 26.735848722074707 14.463423954463906 0 0 0 0 11.245866988694843 32.907243316177301 0 32.907243316177301 21.16384369574007 0 0 0 0 -3.0672865708557309 9.5534902976482545 0 9.5534902976482545 11.613497482900094 0 0 0 0 -30.715915004060435 18.31757353971804 0 18.31757353971804 29.272512149181239 0 0 0 0 -5.536169107830915 13.288577480973117 0 13.288577480973117 -1.662471053677109 0 0 0 0 0.012440890254310943 7.9152008243386263 0 7.9152008243386263 3.0513851273140062 0 0 0 0 -4.4149095671218674 6.7058235010244971 0 6.7058235010244971 3.8540038864041435 0 0 0 0 -5.3393784900035826 12.065658767229252 0 12.065658767229252 7.1148601026343385 0 0 0 0 -5.3393784899963066 12.06565876723289 0 12.06565876723289 7.1148601026357028 0 0 0 0 3.3425971152410057 8.8233825068086844 0 8.8233825068086844 7.7944959545193342 0 0 0 0 -5.3393784900017636 12.065658767233117 0 12.065658767233117 7.1148601026416145 0 0 0 0 -2.7776676692847104 4.5140714278941232 0 4.5140714278941232 10.315748308510592 0 0 0 0 -7.3336899055561844 14.683150860177648 0 14.683150860177648 1.8744859229707345 0 0 0 0 -23.25440846550282 9.9854219796641246 0 9.9854219796641246 25.48193082852913 0 0 0 0 -10.901763419730255 8.7973292057398229 0 8.7973292057398229 -2.2157588862364914 0 0 0 0 -6.0748649275067237 13.133571445822326 0 13.133571445822326 0.91531865295837633 0 0 0 0 -4.0965575969639758 16.414592084179731 0 16.414592084179731 -3.404662746369695 0 0 0 0 -22.928258004027612 16.348701503233769 0 16.348701503233769 1.1962509863396917 0 0 0 0 127.46262902502167 -43.580612455505616 0 -43.580612455505616 -22.523420174467901 0 0 0 0 -1.1408451787373552 0.94718733207973393 0 0.94718733207973393 -0.68129647338995625 0 0 0 0 -21.915496453565645 0.48032285130483388 0 0.48032285130483388 -6.7389895907690516 0 0 0 0 -20.41126647444321 12.737613462976697 0 12.737613462976697 13.36431351236206 0 0 0 0 -9.9138492254423909 12.646499726623006 0 12.646499726623006 13.259082418986509 0 0 0 0 -9.3157490368905496 8.1248175748459452 0 8.1248175748459452 -4.1735036516728226 0 0 0 0 -15.743379226392335 -0.41273973847273737 0 -0.41273973847273737 8.4021177101058129 0 0 0 0 -5.0018153886467189 5.5501643154602789 0 5.5501643154602789 -8.0535429488827504 0 0 0 0 -2.7083906707366552 1.7395151461894187 0 1.7395151461894187 2.292096376678078 0 0 0 0 -12.944243569932041 11.500940516042647 0 11.500940516042647 0.29744328469314496 0 0 0 0 -16.323938742490554 12.217492430455877 0 12.217492430455877 0.60797772693695151 0 0 0 0 11.664349404638983 241.19346817202722 0 241.19346817202722 -125.85693031535448 0 0 0 0 -22.197933008010637 7.6198825933734042 0 7.6198825933734042 5.7844390939135337 0 0 0 0 149.01374588485976 86.883563794170641 0 86.883563794170641 -75.294293378303337 0 0 0 0 -0.64652965722905442 0.48005594596643153 0 0.48005594596643153 1.0448840123502521 0 0 0 0 66.242613515894845 -0.16726646130609879 0 -0.16726646130609879 35.05277511989334 0 0 0 0 -12.141513332204795 29.55260747826469 0 29.55260747826469 67.45352008694681 0 0 0 0 -18.148560051230561 -8.3756963747691771 0 -8.3756963747691771 52.826384225634683 0 0 0 0 28.421679448223813 62.557408336732351 0 62.557408336732351 5.9685426784635638 0 0 0 0 -11.011772480412333 8.6999994373686604 0 8.6999994373686604 1.4392324356049357 0 0 0 0 -125.14081318925673 60.363022050565633 0 60.363022050565633 8.5750641539377739 0 0 0 0 -91.987471311561876 -20.310069580362324 0 -20.310069580362324 -8.4534660541571611 0 0 0 0 -20.477784034781052 17.536463915915192 0 17.536463915915192 31.154136233305508 0 0 0 0 -8.2069110667542873 -5.6669102691267881 0 -5.6669102691267881 -79.794337794721287 0 0 0 0 -8.7914831545906509 39.21534381993024 0 39.21534381993024 -47.794457165759468 0 0 0 0 -30.51082787668804 35.475942928315362 0 35.475942928315362 10.222746702044788 0 0 0 0 -8.282624564111984 13.210294934839112 0 13.210294934839112 18.118536550026647 0 0 0 0 -13.606798141209424 10.652551775822076 0 10.652551775822076 24.230671940948014 0 0 0 0 3.1674917481245757 5.6354767585546597 0 5.6354767585546597 24.391198867440835 0 0 0 0 24.670078042267733 18.096729546750339 0 18.096729546750339 25.811924151056601 0 0 0 0 -6.1790535877187267 13.569591476996266 0 13.569591476996266 25.738728199708021 0 0 0 0 -18.617708897498233 10.000916133461033 0 10.000916133461033 26.894887271995231 0 0 0 0 0.52667404963767694 4.5508905314172807 0 4.5508905314172807 27.409051460202704 0 0 0 0 -4.0128284011805135 4.7659057914956975 0 4.7659057914956975 24.467760069391716 0 0 0 0 8.9925327004088729 21.725729913992382 0 21.725729913992382 34.991047239181626 0 0 0 0 -3.7647202397483976 2.6737761146894883 0 2.6737761146894883 -1.6953326908226813 0 0 0 0 -14.272810038325872 12.075478688165049 0 12.075478688165049 33.08679668767445 0 0 0 0 4.2004087875557161 15.532026677646627 0 15.532026677646627 21.269730868275246 0 0 0 0 -25.560750195282026 28.061350964979283 0 28.061350964979283 16.42529620241794 0 0 0 0 3.8973066105127145 18.60956552907146 0 18.60956552907146 13.576970596044248 0 0 0 0 1.8311145100309432 33.815112903244426 0 33.815112903244426 31.43388667455929 0 0 0 0 -6.772540860759344 3.939896293636493 0 3.939896293636493 -2.5961152570556756 0 0 0 0 -3.9955952352986515 11.794794951648328 0 11.794794951648328 12.839071062728181 0 0 0 0 8.9248744436054608 7.2205137014665297 0 7.2205137014665297 -0.63138192209498811 0 0 0 0 7.9197729881617533 15.61127173601335 0 15.61127173601335 -19.569216439680986 0 0 0 0 2.6209718886533437 29.635626394634073 0 29.635626394634073 -5.3559233960359052 0 0 0 0 0.14051202954442488 21.38996177531817 0 21.38996177531817 3.2732555766883706 0 0 0 0 -31.85793342967068 52.545554571586308 0 52.545554571586308 -26.898415071995259 0 0 0 0 18.122290033710783 10.838389305717101 0 10.838389305717101 -44.730252361019211 0 0 0 0 -0.11947454337913588 0.26068118313788213 0 0.26068118313788213 -0.28820763277176553 0 0 0 0 -55.978301958201428 32.011793580130416 0 32.011793580130416 -2.3207381906477167 0 0 0 0 -17.356473304957717 50.568389870472402 0 50.568389870472402 -34.701736241696068 0 0 0 0 0.16720977704164852 33.575581223155041 0 33.575581223155041 -22.729992018055782 0 0 0 0 -10.088718149392434 13.426560540716764 0 13.426560540716764 -33.263146916989172 0 0 0 0 -44.145484117996745 13.867601226883039 0 13.867601226883039 14.90430564480539 0 0 0 0 -12.023242795012038 9.5278981434162233 0 9.5278981434162233 15.007198576546216 0 0 0 0 22.333503321969374 26.803473270863606 0 26.803473270863606 -19.505532628993024 0 0 0 0 0.037735724852382191 -4.2828241855640954 0 -4.2828241855640954 29.535133250396939 0 0 0 0 -7.6012212950379308 30.806170686804762 0 30.806170686804762 30.126174231748031 0 0 0 0 -7.6662897601075883 26.572984120797628 0 26.572984120797628 -18.980825356063178 0 0 0 0 -3.8272663609350843 29.569739547972631 0 29.569739547972631 -33.845142579403728 0 0 0 0 -6.8786337458977869 13.388018191623814 0 13.388018191623814 -35.145547520835862 0 0 0 0 -7.2958916336444872 15.848007829568814 0 15.848007829568814 -28.397145501229033 0 0 0 0 -0.0088988348239156245 -0.13361865909890547 0 -0.13361865909890547 -0.0069137781656790631 0 0 0 0 -3.3300354615527112 6.1966549228582153 0 6.1966549228582153 -11.363114679948922 0 0 0 0 -19.281678490824106 26.565608835303692 0 26.565608835303692 -11.415056795384771 0 0 0 0 -10.372243881790723 31.247305400793721 0 31.247305400793721 -22.502766743093161 0 0 0 0 -2.5374260757823777 9.112226374396414 0 9.112226374396414 3.208572295342492 0 0 0 0 9.2183196272048917 15.783186671266321 0 15.783186671266321 -6.9840456539504885 0 0 0 0 1.6675598353280152 1.1934055245132651 0 1.1934055245132651 -0.66187677173479642 0 0 0 0 -0.73280797696108668 2.5142275648478147 0 2.5142275648478147 0.15101381936969416 0 0 0 0 48.116332426767258 14.173661464928045 0 14.173661464928045 -37.126982108205141 0 0 0 0 -1.7334332930473124 10.590168548736301 0 10.590168548736301 0.14740984995387407 0 0 0 0 11.751024337726449 3.3949205358949257 0 3.3949205358949257 -5.4326079251313786 0 0 0 0 -5.2219253736134306 6.3123056268996152 0 6.3123056268996152 5.8513331569902221 0 0 0 0 -0.10006476872386205 7.4268649837737328 0 7.4268649837737328 0.36830534237694579 0 0 0 0 17.661298042817634 3.4189225591653667 0 3.4189225591653667 1.3875200400761969 0 0 0 0 -1.5507821577857082 0.10940701783092077 0 0.10940701783092077 0.91716333539233474 0 0 0 0 -9.2374440116782353 12.286900472124216 0 12.286900472124216 13.661826867043146 0 0 0 0 20.489110642947708 15.661013612601892 0 15.661013612601892 -19.807808175502942 0 0 0 0 -1.5464803282584398 5.1817815446579516 0 5.1817815446579516 -1.9525516599442199 0 0 0 0 1.7408741125159217 3.7008425274834487 0 3.7008425274834487 0.077993380739561635 0 0 0 0 7.1180520015749247 6.8982994327078337 0 6.8982994327078337 2.7992448104042928 0 0 0 0 -12.017931823796062 20.999199383954874 0 20.999199383954874 4.7053869175424552 0 0 0 0 8.4667228297904273 7.9956974180324778 0 7.9956974180324778 -0.50858039702779934 0 0 0 0 16.797200255551228 15.763526059488933 0 15.763526059488933 7.8948798679134358 0 0 0 0 56.017086227956185 19.604039658312558 0 19.604039658312558 -50.740734267106291 0 0 0 0 12.424802728885425 19.074911637044686 0 19.074911637044686 14.107984530081922 0 0 0 0 21.381755523797437 20.808288587513744 0 20.808288587513744 -1.901024769482774 0 0 0 0 14.317586017199684 13.039241024285474 0 13.039241024285474 6.3770147140963207 0 0 0 0 12.546756340225102 18.593981479789818 0 18.593981479789818 4.0859297413562672 0 0 0 0 16.283266800675847 23.081917980832827 0 23.081917980832827 5.7583990795367299 0 0 0 0 13.124661739980183 24.137529170282392 0 24.137529170282392 8.1218955025560717 0 0 0 0 8.8350066562993561 25.137910875558475 0 25.137910875558475 12.039660499364572 0 0 0 0 -0.89079820201645887 10.774459442675935 0 10.774459442675935 12.84644513459029 0 0 0 0 11.676295295112141 23.691184510357687 0 23.691184510357687 12.124667203693889 0 0 0 0 -6.4494881759508189 10.369905884852869 0 10.369905884852869 18.75423832444676 0 0 0 0 -0.41301076151126637 1.9489371179484163 0 1.9489371179484163 1.4509730613569625 0 0 0 0 0.61786526691148902 -0.27972880384428933 0 -0.27972880384428933 -0.25370361914308504 0 0 0 0 5.9566568726970672 8.5951547844879315 0 8.5951547844879315 -8.7464031084109592 0 0 0 0 -4.375895122685165 10.845866319425113 0 10.845866319425113 60.251985090633752 0 0 0 0 3.7555656823047912 20.202162016198599 0 20.202162016198599 -19.278490844700173 0 0 0 0 -8.5338289550090849 17.172977707003156 0 17.172977707003156 -13.275677559277938 0 0 0 0 -7.0918286142075289 6.3205849780176493 0 6.3205849780176493 2.7034588689102748 0 0 0 0 -7.4162315437388315 19.437116808921473 0 19.437116808921473 -14.887927637499615 0 0 0 0 2.4524413988120211 2.1112839543348114 0 2.1112839543348114 -5.5023793662089489 0 0 0 0 -4.1140884240802507 13.892282344379964 0 13.892282344379964 -28.268509029845518 0 0 0 0 -19.6878399474042 26.528053932333478 0 26.528053932333478 -19.512576109939687 0 0 0 0 0.022652949156876101 0.1809875664825924 0 0.1809875664825924 0.036381271895552292 0 0 0 0 0.47643366428144418 30.738514922446484 0 30.738514922446484 -83.317284858994753 0 0 0 0 -31.133612197242883 32.437260224660349 0 32.437260224660349 -27.807330363006997 0 0 0 0 -80.13593322341319 16.81051493356631 0 16.81051493356631 460.04204735308576 0 0 0 0 -80.2074448645958 7.9121243522063196 0 7.9121243522063196 56.482044161060458 0 0 0 0 -0.44327311789157231 -0.32617739628089393 0 -0.32617739628089393 -1.1840641152494733 0 0 0 0 -36.210435663920293 82.97482906063442 0 82.97482906063442 375.76063219350772 0 0 0 0 89.945660328687453 112.1869593959907 0 112.1869593959907 66.743857221768849 0 0 0 0 159.39955033293805 266.31097539809457 0 266.31097539809457 152.37386090398468 0 0 0 0 284.17444974835996 170.01380511113075 0 170.01380511113075 -87.746033511575661 0 0 0 0 -7.4404834408056644 -46.982161950567274 0 -46.982161950567274 -98.162065097170853 0 0 0 0 183.73669019463227 -1.2867750283385249 0 -1.2867750283385249 -179.67028375494601 0 0 0 0 -26.386173660557688 45.530650565192445 0 45.530650565192445 -6.2160713944012969 0 0 0 0 70.315577982347691 58.977480967935662 0 58.977480967935662 -66.978783747027649 0 0 0 0 16.129564112967273 59.003569446887013 0 59.003569446887013 -66.790796154333293 0 0 0 0 -47.812663485266526 78.027877712343525 0 78.027877712343525 102.87764001460891 0 0 0 0 -33.642400909496928 21.713552586917103 0 21.713552586917103 123.53669986747445 0 0 0 0 -50.109593702478833 41.088200659824452 0 41.088200659824452 119.14268089292364 0 0 0 0 -32.835298715744557 27.114144429060161 0 27.114144429060161 75.409809997694538 0 0 0 0 -35.687952671565881 33.296061181502864 0 33.296061181502864 62.098626635190158 0 0 0 0 -32.776316933381622 21.070134427039648 0 21.070134427039648 17.427346445260355 0 0 0 0 -17.160634549190945 11.063121105539267 0 11.063121105539267 23.795694682798967 0 0 0 0 -11.347622504205674 5.0885549530373737 0 5.0885549530373737 19.146330323341317 0 0 0 0 -3.9414547664674728 16.99919655103929 0 16.99919655103929 12.440909865087633 0 0 0 0 3.6109684251914587 7.9169015387960826 0 7.9169015387960826 2.7407599178889086 0 0 0 0 5.8815805819439113 7.3447479425370377 0 7.3447479425370377 3.3032156493287914 0 0 0 0 4.6728075688670287 24.936618081193956 0 24.936618081193956 -0.19852268812383045 0 0 0 0 2.501726149864238 3.4839683097973086 0 3.4839683097973086 3.2253024997705708 0 0 0 0 8.7387387414510158 37.017098497436564 0 37.017098497436564 -78.573341378894838 0 0 0 0 -42.605626238364522 103.29497038515836 0 103.29497038515836 13.394440769669018 0 0 0 0 -14.574831596954482 70.827764127016053 0 70.827764127016053 242.43689385674315 0 0 0 0 0.71198273844445836 -0.82530219898102697 0 -0.82530219898102697 1.1192034031681608 0 0 0 0 -17.185610412709138 137.86894363243027 0 137.86894363243027 159.13028105043441 0 0 0 0 6.0020532011626386 3.4231233109866679 0 3.4231233109866679 3.6973701734249795 0 0 0 0 -84.679348339305761 -67.856768206935385 0 -67.856768206935385 -14.586031984532383 0 0 0 0 3.0895961192835184 -1.6765595961661095 0 -1.6765595961661095 2.4018338458882802 0 0 0 0 -15.602287065327801 0.68325224431555398 0 0.68325224431555398 11.516843720120676 0 0 0 0 8.1853322920942446 3.5100288201156218 0 3.5100288201156218 11.795711125499452 0 0 0 0 2.2075122393848314 3.5319756440075456 0 3.5319756440075456 6.5002758787019594 0 0 0 0 2.2181983357095305 3.5356601369448981 0 3.5356601369448981 2.3161120608851888 0 0 0 0 5.4362246393102396 7.4327072920314095 0 7.4327072920314095 7.2479441789319026 0 0 0 0 3.7911756018371667 5.5882563227049085 0 5.5882563227049085 5.0598672644657476 0 0 0 0 1.4915795518116788 6.6617334485791924 0 6.6617334485791924 7.0542221383285355 0 0 0 0 -0.98367732508688022 2.9654661662289232 0 2.9654661662289232 0.26943943954346494 0 0 0 0 3.504288775141049 8.3682064859004868 0 8.3682064859004868 8.9822001924205779 0 0 0 0 5.7690690750725935 9.6215744732969455 0 9.6215744732969455 8.8552581671376629 0 0 0 0 5.250472420531878 7.399924153755137 0 7.399924153755137 7.3469490688610222 0 0 0 0 3.9052408291669352 4.675657861540178 0 4.675657861540178 4.1597682323424845 0 0 0 0 7.6956523467497391 5.600048187088305 0 5.600048187088305 3.8153342979039735 0 0 0 0 4.5089987222891068 7.852989327171457 0 7.852989327171457 3.8982617795409169 0 0 0 0 5.3071696375109241 6.7318456364548638 0 6.7318456364548638 5.3072204943864563 0 0 0 0 4.1030360424308583 6.4161632935816328 0 6.4161632935816328 5.2368062917844327 0 0 0 0 5.2424033140105166 8.0965056042320498 0 8.0965056042320498 4.9968484745140813 0 0 0 0 7.4145019456533987 8.0534173391258719 0 8.0534173391258719 4.8011359872841695 0 0 0 0 -0.70978821026863415 1.6233236610109376 0 1.6233236610109376 -0.39946377576046554 0 0 0 0 -7.2135279244521371 21.223955972930753 0 21.223955972930753 -4.9520213820098888 0 0 0 0 -11.350887423391214 14.596500351942723 0 14.596500351942723 -5.6778153858362828 0 0 0 0 -24.039670322645179 12.312963269599777 0 12.312963269599777 10.310838434652169 0 0 0 0 2.908639677059 4.5112819882473332 0 4.5112819882473332 8.7764973569537688 0 0 0 0 -6.9386065282542404 10.910191392577531 0 10.910191392577531 5.808779465975249 0 0 0 0 13.134840698578046 9.284011744444939 0 9.284011744444939 0.72555490557579105 0 0 0 0 3.3565160914804437 8.8893755543367661 0 8.8893755543367661 7.4523897510437109 0 0 0 0 5.3358867497942519 5.3428546692069698 0 5.3428546692069698 -0.47879984008375054 0 0 0 0 7.6140088125537204 -1.1544807132127062 0 -1.1544807132127062 -21.370932762102939 0 0 0 0 0.28174018900988962 0.47101620873301009 0 0.47101620873301009 0.024691551645162235 0 0 0 0 66.999460104855643 14.973243432768186 0 14.973243432768186 -13.682194127180082 0 0 0 0 31.152246224025475 10.056766721165786 0 10.056766721165786 0.46350277762456926 0 0 0 0 21.378665588066724 28.038063846732484 0 28.038063846732484 5.2100678344954758 0 0 0 0 1.8267684814763925 32.992366908433723 0 32.992366908433723 5.7296341416848406 0 0 0 0 110.68295141772796 22.51088008905208 0 22.51088008905208 -60.253227099776041 0 0 0 0 26.905548198763427 39.067478682806723 0 39.067478682806723 58.147026033371958 0 0 0 0 13.879678763751599 58.407368799004928 0 58.407368799004928 -37.881780753305975 0 0 0 0 -0.042129660626027743 0.34851421868937438 0 0.34851421868937438 -0.045332067198077697 0 0 0 0 49.147029929502423 46.640801074581987 0 46.640801074581987 28.295229075695715 0 0 0 0 37.005007002404454 29.594204286791637 0 29.594204286791637 22.272061364442607 0 0 0 0 45.634005630407046 30.030552423750692 0 30.030552423750692 16.695868029969006 0 0 0 0 42.484538317099577 30.29673309766963 0 30.29673309766963 20.196666566741555 0 0 0 0 45.127202386452154 -19.187886085101582 0 -19.187886085101582 34.081474975522951 0 0 0 0 54.67594215354984 23.618826259169055 0 23.618826259169055 20.7359576028839 0 0 0 0 42.371982270608896 29.226639658958817 0 29.226639658958817 25.640332687571117 0 0 0 0 8.1115477127200393 -11.066038642032453 0 -11.066038642032453 31.728090814909592 0 0 0 0 -26.076529173567906 -21.550554616302861 0 -21.550554616302861 -33.315756510322217 0 0 0 0 12.153444516381569 20.382768871652615 0 20.382768871652615 40.173631602942578 0 0 0 0 6.386423277049289 6.9083690607419612 0 6.9083690607419612 -26.429929840913928 0 0 0 0 -0.58374489371770366 0.63233542627441253 0 0.63233542627441253 -0.081111735245639638 0 0 0 0 1.445046408500275 -6.1166681106765282 0 -6.1166681106765282 28.24735478120374 0 0 0 0 22.984713670914061 -19.937461929874985 0 -19.937461929874985 -19.721022000031098 0 0 0 0 -0.41369504015480629 0.34270739881856827 0 0.34270739881856827 -0.4359361737863825 0 0 0 0 -3.8056853674651165 12.089473194101863 0 12.089473194101863 20.794722253422606 0 0 0 0 -23.146573909645667 16.022989041338406 0 16.022989041338406 25.832141484281692 0 0 0 0 -5.1787765314135754 -5.9753285189051653 0 -5.9753285189051653 31.666535588854913 0 0 0 0 -28.064955442681821 29.445959477964379 0 29.445959477964379 15.918322815890633 0 0 0 0 -1.055284208003286 -4.176110596397848 0 -4.176110596397848 35.728505170975382 0 0 0 0 -1.0567003377836954 -3.237768891755195 0 -3.237768891755195 28.316137834169922 0 0 0 0 -28.229280261200984 5.5526416645050176 0 5.5526416645050176 44.928648974808766 0 0 0 0 -26.451088296020998 18.149119579272906 0 18.149119579272906 29.787528897847096 0 0 0 0 -19.125371023716525 -5.7259303803407704 0 -5.7259303803407704 53.916056260388814 0 0 0 0 -32.922622333768231 33.278840837429357 0 33.278840837429357 24.681002244072943 0 0 0 0 -86.663131515035275 61.182917441151972 0 61.182917441151972 19.054163522374438 0 0 0 0 -36.829254674062213 18.673448793957164 0 18.673448793957164 46.21646843738904 0 0 0 0 -105.81043395835513 56.351313935840381 0 56.351313935840381 39.692852768737339 0 0 0 0 -46.629861286208325 33.750508445529249 0 33.750508445529249 11.998204126915354 0 0 0 0 -47.492852348520529 26.30668214311666 0 26.30668214311666 81.075014833899331 0 0 0 0 100.57070429500664 37.576901276587478 0 37.576901276587478 -28.780471081694543 0 0 0 0 0.8067655483790297 0.6305382417456924 0 0.6305382417456924 1.075921255773812 0 0 0 0 -6.6029938137501176 -1.7588163714543157 0 -1.7588163714543157 37.957336458651525 0 0 0 0 20.873784174968023 46.816494189522473 0 46.816494189522473 57.404859650054902 0 0 0 0 116.72104847674927 28.545388413336582 0 28.545388413336582 16.70529407003778 0 0 0 0 40.913555120237106 -40.632531368783475 0 -40.632531368783475 72.78282878772049 0 0 0 0 -50.25956777965439 75.412493395994488 0 75.412493395994488 -9.4935688117293466 0 0 0 0 -52.941433922392207 74.220618449427093 0 74.220618449427093 0.31207105169946203 0 0 0 0 -22.521303127463398 52.171402003496269 0 52.171402003496269 -16.740586526211246 0 0 0 0 -26.460115523833338 58.2958555248631 0 58.2958555248631 -3.6695898304240586 0 0 0 0 -21.293396386160566 65.662658294199559 0 65.662658294199559 1.6352639766028005 0 0 0 0 -47.57242363700243 71.803508403070111 0 71.803508403070111 -6.2670872078542743 0 0 0 0 -45.215238477717662 78.009229384502902 0 78.009229384502902 -13.949118907125239 0 0 0 0 -57.423464380111 70.299674508674798 0 70.299674508674798 9.3868215166360187 0 0 0 0 -90.676843075080228 100.85950090044807 0 100.85950090044807 -7.0090645210718776 0 0 0 0 -72.846183314091832 84.974835629736617 0 84.974835629736617 -4.1036161946992706 0 0 0 0 -45.945137265396625 72.514329821361116 0 72.514329821361116 -9.0087382204776532 0 0 0 0 -72.136382929243609 86.432926160524744 0 86.432926160524744 -1.1388974392875753 0 0 0 0 -73.69597847386558 105.7670599166388 0 105.7670599166388 -40.99220313024739 0 0 0 0 -12.22983396331847 60.942950782443575 0 60.942950782443575 -110.64643787440082 0 0 0 0 -59.496514022992415 57.559455273343588 0 57.559455273343588 4.5470102707135993 0 0 0 0 -18.949944086947653 32.584926905912198 0 32.584926905912198 -4.8988337152388794 0 0 0 0 -5.4558749475754666 12.382703926696877 0 12.382703926696877 11.147619647495958 0 0 0 0 -1.2568501445235079 0.74195175975278005 0 0.74195175975278005 -0.076347412281028926 0 0 0 0 -95.716150302403548 47.493358610513496 0 47.493358610513496 0.25987910655658197 0 0 0 0 -20.033485799396658 17.092611522386278 0 17.092611522386278 24.031389945156207 0 0 0 0 59.576857364803573 66.878822151700092 0 66.878822151700092 -46.257011594798314 0 0 0 0 -0.72430830705126326 0.39455835090395475 0 0.39455835090395475 -0.055510656125500601 0 0 0 0 -39.332539852203809 13.703452475223912 0 13.703452475223912 89.207646669966152 0 0 0 0 71.039651417418895 -17.370303769517548 0 -17.370303769517548 12.327583088976553 0 0 0 0 -86.292692054508734 71.387813600206755 0 71.387813600206755 26.390018735909507 0 0 0 0 -65.079116458388853 97.308266114370326 0 97.308266114370326 -30.408950927225362 0 0 0 0 -101.60227137433867 81.285126074676043 0 81.285126074676043 -1.290477499146391 0 0 0 0 -38.694219249146499 49.030013615289818 0 49.030013615289818 -49.96738151342015 0 0 0 0 -7.4950971338466843 82.631502807564175 0 82.631502807564175 -22.5743494022351 0 0 0 0 11.638087799659843 65.377357144382586 0 65.377357144382586 -66.041069390846587 0 0 0 0 -0.37176449501566822 42.950665339867783 0 42.950665339867783 -68.845837281958666 0 0 0 0 5.1159700744356087 5.4371829297340355 0 5.4371829297340355 -72.81977455566647 0 0 0 0 -0.43448511563976666 0.36268267920653585 0 0.36268267920653585 -0.27327295252327222 0 0 0 0 -16.932454618929114 34.180537664863664 0 34.180537664863664 18.254964886021753 0 0 0 0 0.52723108047757705 116.61944378165879 0 116.61944378165879 -14.516205469270517 0 0 0 0 31.555646633531069 87.081314650599779 0 87.081314650599779 13.531313156692022 0 0 0 0 -40.382403605472973 54.885734350737607 0 54.885734350737607 -0.70210225821710992 0 0 0 0 18.401834365256036 36.355677169621003 0 36.355677169621003 -8.5354439460591038 0 0 0 0 2.1769189733968233 18.237362068364519 0 18.237362068364519 -12.391120237961729 0 0 0 0 7.1410879197792383 25.582552510263213 0 25.582552510263213 -1.9837993802126448 0 0 0 0 -2.6449592268036213 41.58958851280363 0 41.58958851280363 -28.05479640113299 0 0 0 0 6.5797762858164788 -2.7408946551622648 0 -2.7408946551622648 -32.3195501659401 0 0 0 0 7.8179412919862443 9.2425387314873433 0 9.2425387314873433 -0.17016052081021371 0 0 0 0 -1.4274573689434646 0.92545792591353937 0 0.92545792591353937 -0.81487483134873884 0 0 0 0 2.3683594044568963 5.9749478210558209 0 5.9749478210558209 6.6118460405073165 0 0 0 0 4.3443429209119131 11.665419622223453 0 11.665419622223453 0.73526083848889812 0 0 0 0 -1.4416411209567741 14.178773216915033 0 14.178773216915033 -0.39038489788890729 0 0 0 0 -0.25553944150306052 3.9512327282549222 0 3.9512327282549222 16.329356859301697 0 0 0 0 24.479835262049619 -10.314423531028183 0 -10.314423531028183 15.479809136567837 0 0 0 0 12.075669468245906 6.775024284718711 0 6.775024284718711 11.980967968608184 0 0 0 0 2.553456132305211 1.7077099997029546 0 1.7077099997029546 1.2973212986341709 0 0 0 0 -3.6512034787679113 3.1742227441768591 0 3.1742227441768591 17.960546546052228 0 0 0 0 102.46450287342032 5.9292657116120608 0 5.9292657116120608 -24.780926369187 0 0 0 0 233.61478527680083 66.193528802082255 0 66.193528802082255 117.82205591088405 0 0 0 0 7.793657110480984 4.4559184397586105 0 4.4559184397586105 1.7740741869269794 0 0 0 0 -3.3567641094032297 22.329650926353679 0 22.329650926353679 -2.3486157101650633 0 0 0 0 -13.456926522339927 17.819769222433479 0 17.819769222433479 11.656493774539854 0 0 0 0 -42.080667478027863 -32.304512695860012 0 -32.304512695860012 183.42019074106838 0 0 0 0 76.122907923213916 113.91491912169465 0 113.91491912169465 29.211359767141857 0 0 0 0 49.422188214060952 49.323345843828065 0 49.323345843828065 15.563762473905854 0 0 0 0 54.301794663995679 47.004290129860237 0 47.004290129860237 15.621828552495799 0 0 0 0 163.46787319766372 135.24734938802931 0 135.24734938802931 67.905096540593377 0 0 0 0 24.470307173738547 83.138698666139817 0 83.138698666139817 138.17892330079917 0 0 0 0 40.57145919001195 45.661839050455107 0 45.661839050455107 77.789855751967025 0 0 0 0 40.146590088807642 28.29427608255963 0 28.29427608255963 329.14351484197505 0 0 0 0 281.28559997497541 -30.701834345144107 0 -30.701834345144107 35.832923982145303 0 0 0 0 62.246117195532406 39.290710644812975 0 39.290710644812975 15.603724489536489 0 0 0 0 116.13052204390215 0.51276071855738792 0 0.51276071855738792 -19.895861555095507 0 0 0 0 49.235416356310452 -26.45670023785749 0 -26.45670023785749 78.733088861298711 0 0 0 0 62.928924226025629 21.946042124202222 0 21.946042124202222 -21.185354737177931 0 0 0 0 62.010612430434776 27.565385171972366 0 27.565385171972366 -31.475890393783175 0 0 0 0 56.178024557754952 54.281836716341274 0 54.281836716341274 -73.07827555812446 0 0 0 0 75.079235384006097 23.013641253554624 0 23.013641253554624 -52.009941417910795 0 0 0 0 55.530119974561785 62.194634659192957 0 62.194634659192957 3.6309599401793093 0 0 0 0 72.248836056198343 50.841846333550166 0 50.841846333550166 -52.819403734934568 0 0 0 0 56.339917453045018 34.940601177873077 0 34.940601177873077 -50.337415763220633 0 0 0 0 5.5377473148521492 6.7294776195481436 0 6.7294776195481436 5.7864085529669218 0 0 0 0 -2.0210716938090627 40.229344942321404 0 40.229344942321404 -45.144153836921873 0 0 0 0 23.322440089628799 26.199799017134865 0 26.199799017134865 -24.205275538531509 0 0 0 0 35.515626824911124 27.436040713431339 0 27.436040713431339 -34.462141530736062 0 0 0 0 42.612773154626211 23.242226191067743 0 23.242226191067743 -32.055543977566231 0 0 0 0 60.326779478032222 47.770194602626134 0 47.770194602626134 -19.12810727522583 0 0 0 0 16.613500732009133 9.3680496292833375 0 9.3680496292833375 1.0935625225213741 0 0 0 0 41.824299784912 1.3408933707776214 0 1.3408933707776214 -40.92528831698678 0 0 0 0 -22.041919867535398 66.087446371134547 0 66.087446371134547 -35.795410061766688 0 0 0 0 7.7000475127530787 3.7217476076203546 0 3.7217476076203546 -1.4690002786553844 0 0 0 0 0.59983520495370612 72.043658678193879 0 72.043658678193879 -55.494736339170686 0 0 0 0 12.492421450934216 -4.4058019614838031 0 -4.4058019614838031 -4.4315226733483541 0 0 0 0 50.787859782765736 -21.125890792640121 0 -21.125890792640121 -3.8229530868979964 0 0 0 0 101.26359048169525 -17.370442937545931 0 -17.370442937545931 -10.925898387319194 0 0 0 0 36.742431413585109 -14.868852318113568 0 -14.868852318113568 14.599728322138162 0 0 0 0 49.283977680000135 9.5253166213824443 0 9.5253166213824443 -40.873086269481632 0 0 0 0 -0.41064335498279014 0.83994255523466066 0 0.83994255523466066 2.7594391570453691 0 0 0 0 -129.98462457998971 182.40613269497896 0 182.40613269497896 -13.517118986179412 0 0 0 0 -195.1483362545041 -86.999654655544418 0 -86.999654655544418 502.38001936929663 0 0 0 0 -57.091650254239539 -51.528828839259859 0 -51.528828839259859 -35.179415895831426 0 0 0 0 59.012621386837054 176.82208862001914 0 176.82208862001914 368.73385291861541 0 0 0 0 0.15355694786403173 0.5213564314695347 0 0.5213564314695347 1.5774409573331667 0 0 0 0 230.39467981912685 86.847017458976438 0 86.847017458976438 71.331113721317706 0 0 0 0 -273.98931047795804 1.4313388489164254 0 1.4313388489164254 333.21755327727897 0 0 0 0 88.668041428431025 196.85956965866944 0 196.85956965866944 238.37581146011962 0 0 0 0 21.18852811555962 91.728261936884564 0 91.728261936884564 209.88977757108478 0 0 0 0 5.220934649118135 39.232878455828768 0 39.232878455828768 220.45760039437937 0 0 0 0 58.165840185495654 59.084286514158521 0 59.084286514158521 141.12094746758885 0 0 0 0 59.071555207945494 68.555153419962608 0 68.555153419962608 118.20507191112301 0 0 0 0 8.7462934530324219 38.344918432174723 0 38.344918432174723 149.73906310494021 0 0 0 0 7.3274443115442409 44.339556986382377 0 44.339556986382377 135.02895275649121 0 0 0 0 35.856191220011624 20.12998811295256 0 20.12998811295256 20.940163133825536 0 0 0 0 116.75125870025533 67.902321480278431 0 67.902321480278431 78.041527868311277 0 0 0 0 76.17600903242419 11.843987991021095 0 11.843987991021095 6.561623576568536 0 0 0 0 41.317496735265195 50.091854561205537 0 50.091854561205537 112.3528138583506 0 0 0 0 -21.552239162123442 -66.359026809569968 0 -66.359026809569968 75.586094659890477 0 0 0 0 -13.660328826608861 -72.196930742078393 0 -72.196930742078393 26.034836663056012 0 0 0 0 -45.531838278882788 -26.771131014496973 0 -26.771131014496973 36.122318720057592 0 0 0 0 -1.2431400411389291 161.69002432133254 0 161.69002432133254 283.68723788311945 0 0 0 0 -23.556966128131307 -50.255813573689238 0 -50.255813573689238 -12.635451489170464 0 0 0 0 1.5223998387332021 -0.42140690666638747 0 -0.42140690666638747 -0.0019656037982436203 0 0 0 0 45.111873767358702 38.303565269092132 0 38.303565269092132 133.73639169294165 0 0 0 0 25.939666802895545 -22.914014194878064 0 -22.914014194878064 -53.602724462741662 0 0 0 0 -111.08710403211171 -4.9910723964744648 0 -4.9910723964744648 228.4757994252069 0 0 0 0 50.72593986007422 145.46994708790362 0 145.46994708790362 77.986573873429734 0 0 0 0 -3.6522119902006125 25.326855327828525 0 25.326855327828525 1.4550712687787382 0 0 0 0 6.4572709692250294 7.2066441453851784 0 7.2066441453851784 7.6919877606118181 0 0 0 0 10.925452233626118 2.7537971019904717 0 2.7537971019904717 -1.245532767311488 0 0 0 0 0.74291041643618883 18.244095493146574 0 18.244095493146574 7.8721589879005478 0 0 0 0 13.658022167711806 80.625641923309104 0 80.625641923309104 -67.18390612235109 0 0 0 0 12.242155521929474 10.155628087008765 0 10.155628087008765 6.9380553687227202 0 0 0 0 -4.1859806649226812 41.943053174561101 0 41.943053174561101 -4.1093402232982044 0 0 0 0 8.3271752299636379 8.5734189446521469 0 8.5734189446521469 5.0802825196875361 0 0 0 0 -16.325927205980861 -2.9504909444940495 0 -2.9504909444940495 35.212202402251933 0 0 0 0 41.647242171488415 10.976142923958378 0 10.976142923958378 -49.311290395216929 0 0 0 0 40.207704998289955 16.785040904617063 0 16.785040904617063 6.5556012834035755 0 0 0 0 40.483751015026655 3.7020116447857703 0 3.7020116447857703 -18.191273779400035 0 0 0 0 36.647750314841829 48.040449799908814 0 48.040449799908814 5.1081475776791194 0 0 0 0 -0.73629238949934006 15.83806680089242 0 15.83806680089242 -21.204644299850543 0 0 0 0 40.832063867958823 -6.6538201180437682 0 -6.6538201180437682 -2.8219499467377318 0 0 0 0 13.552872204433548 9.0297436100043278 0 9.0297436100043278 3.3808794929408492 0 0 0 0 41.303598036347012 28.329762358843936 0 28.329762358843936 -72.65602245709988 0 0 0 0 14.236071491361713 14.649686960922736 0 14.649686960922736 -7.3104406190623195 0 0 0 0 18.765566183127703 35.439996699859648 0 35.439996699859648 -31.623210310885042 0 0 0 0 13.903936241083231 11.793336827030309 0 11.793336827030309 5.5785647838157963 0 0 0 0 13.487410518195105 10.729091502970217 0 10.729091502970217 6.3453825073731238 0 0 0 0 29.36467725517673 18.91254796965427 0 18.91254796965427 6.3886844350909087 0 0 0 0 16.468197279522997 6.9951220760890465 0 6.9951220760890465 0.20907509909739019 0 0 0 0 -5.8224195661800877 34.519653414440654 0 34.519653414440654 -17.393553178329967 0 0 0 0 31.20094886231891 6.8950827863600352 0 6.8950827863600352 -2.1310990834645054 0 0 0 0 -21.33256346943358 77.333209176653327 0 77.333209176653327 57.443172438017427 0 0 0 0 -0.85877897357508104 0.11280172473890104 0 0.11280172473890104 0.077288717350452174 0 0 0 0 -5.7957940531850909 -11.607538883237794 0 -11.607538883237794 -358.37834726634719 0 0 0 0 -8.1834837460528433 -9.1429257445615804 0 -9.1429257445615804 -107.21118155049408 0 0 0 0 18.860096607660921 24.827634155901251 0 24.827634155901251 -169.25285804019586 0 0 0 0 0.050850060358726523 2.7566641445295197 0 2.7566641445295197 0.88198834556911621 0 0 0 0 0.40070095655755722 -14.027830988707137 0 -14.027830988707137 -110.78203864398893 0 0 0 0 -33.766036182684729 49.847703337914936 0 49.847703337914936 -47.922086646779462 0 0 0 0 -21.932845476614602 69.906266612504623 0 69.906266612504623 -118.24071400907087 0 0 0 0 -4.550344509248589 38.680866611950478 0 38.680866611950478 -117.45844861899968 0 0 0 0 -38.64691401894197 78.127432415149997 0 78.127432415149997 -77.696585891865652 0 0 0 0 15.380984867517327 13.603462099053104 0 13.603462099053104 -52.552974826256104 0 0 0 0 14.248245809636956 31.487415350078209 0 31.487415350078209 -63.924235441571 0 0 0 0 14.621754682108303 95.554877067940993 0 95.554877067940993 -237.02058756700535 0 0 0 0 -50.280520559916795 156.09537013554586 0 156.09537013554586 -129.11632904617909 0 0 0 0 3.2389587548714189 60.018252548203236 0 60.018252548203236 -236.05931219671311 0 0 0 0 -13.924201060574887 67.536945318044673 0 67.536945318044673 -168.81273732604222 0 0 0 0 10.023341232305938 68.116019576752478 0 68.116019576752478 -168.9003405782878 0 0 0 0 -3.8384118361800574 21.93213539624503 0 21.93213539624503 44.984569644708245 0 0 0 0 4.6843561852151652 40.360619042261533 0 40.360619042261533 84.202405268380062 0 0 0 0 -6.6458535992796897 86.7467571703055 0 86.7467571703055 -232.92156834217985 0 0 0 0 1.8742432071900019 2.0776217733829441 0 2.0776217733829441 0.9312449584175333 0 0 0 0 -47.517493899514193 56.637672501625275 0 56.637672501625275 -230.64920460026588 0 0 0 0 -4.2332336555791699 34.767854007584901 0 34.767854007584901 109.69340754115728 0 0 0 0 4.0704183067109625 44.38416251975832 0 44.38416251975832 69.872387558694754 0 0 0 0 36.257709893376159 81.855790636300299 0 81.855790636300299 63.669795695671382 0 0 0 0 -4.8330878222286628 130.6871500761863 0 130.6871500761863 88.229680587970506 0 0 0 0 9.8101868438097881 191.36901007656525 0 191.36901007656525 -105.12592493708871 0 0 0 0 0.72715889953193624 0.60632606007037992 0 0.60632606007037992 0.18860854311755659 0 0 0 0 -11.924540176942173 127.56722723580879 0 127.56722723580879 -291.83537333085042 0 0 0 0 -85.11025331106157 107.51452928047502 0 107.51452928047502 -260.14831837250131 0 0 0 0 -21.323936169557783 44.153421370595197 0 44.153421370595197 305.29643685044357 0 0 0 0 47.416472700175291 128.39444469217324 0 128.39444469217324 121.54659439650277 0 0 0 0 18.903832609667006 74.657155372620764 0 74.657155372620764 79.712512674346954 0 0 0 0 11.405916509384497 87.108881411219045 0 87.108881411219045 59.109288187190032 0 0 0 0 20.398074773847839 86.77171222325569 0 86.77171222325569 39.056201535539003 0 0 0 0 18.725195577397244 145.94337570165135 0 145.94337570165135 -14.029168885492254 0 0 0 0 42.800588437823535 110.15273904547757 0 110.15273904547757 38.273967518822019 0 0 0 0 22.485201584795504 75.900641825997809 0 75.900641825997809 -25.398376027589848 0 0 0 0 34.714628034907491 -8.0098269059826634 0 -8.0098269059826634 -43.889368185387866 0 0 0 0 1.9174458780029777 1.0659372579505337 0 1.0659372579505337 -0.036097924005101589 0 0 0 0 195.90290819343863 79.348671682791974 0 79.348671682791974 27.743362241804789 0 0 0 0 109.24255639055991 81.868789650903636 0 81.868789650903636 -1.0143615830156705 0 0 0 0 90.049612102163337 80.732063687670234 0 80.732063687670234 7.9909986950133316 0 0 0 0 47.255546937377858 111.51673539186049 0 111.51673539186049 7.927081646714214 0 0 0 0 12.216740458043205 47.645678979990407 0 47.645678979990407 25.402035285657803 0 0 0 0 34.148536677888842 59.40829979716932 0 59.40829979716932 0.75171105532717775 0 0 0 0 -2.9897921102055989 13.083421910355355 0 13.083421910355355 -4.3640773098841237 0 0 0 0 27.774152288327628 14.620435050719607 0 14.620435050719607 -5.6382273405397427 0 0 0 0 17.999142855642503 14.273357673991995 0 14.273357673991995 -5.6494961238586257 0 0 0 0 -1.0018199034028161 6.4929944431408551 0 6.4929944431408551 -8.1324513833536543 0 0 0 0 0.11039255401169612 16.976965431403187 0 16.976965431403187 5.0813656296231784 0 0 0 0 16.636028776877424 22.266588646836681 0 22.266588646836681 4.6319554397032334 0 0 0 0 -0.14426941640009261 19.171629842032928 0 19.171629842032928 3.1868787215680641 0 0 0 0 7.6559667188657841 35.44151839999995 0 35.44151839999995 6.2202499557752162 0 0 0 0 5.0221839624572491 10.211243549029096 0 10.211243549029096 1.7367538062624988 0 0 0 0 -8.3292477520499748 6.8649042414185377 0 6.8649042414185377 -3.0778827434775877 0 0 0 0 3.4872064014793409 13.366813364631525 0 13.366813364631525 0.86811921058506414 0 0 0 0 -11.988685300237194 57.502946104802504 0 57.502946104802504 105.69062946693703 0 0 0 0 20.621880091290222 110.80022375339104 0 110.80022375339104 99.984096811014524 0 0 0 0 9.1599891604982986 265.33643465282694 0 265.33643465282694 177.54707874976521 0 0 0 0 7.6410947855147242 -2.7463417168401065 0 -2.7463417168401065 285.5050026501267 0 0 0 0 13.128823147441608 16.850720588886361 0 16.850720588886361 6.7146663105013431 0 0 0 0 3.0493924668320318 18.676260910549672 0 18.676260910549672 8.685071055944718 0 0 0 0 43.155802746358404 21.912708772292262 0 21.912708772292262 -50.012671025438067 0 0 0 0 32.787985572546333 22.008563015793129 0 22.008563015793129 2.7339112112255002 0 0 0 0 -5.5861865007956455 9.9272390600811686 0 9.9272390600811686 2.4592537721249883 0 0 0 0 39.242410679504019 64.843742419347791 0 64.843742419347791 13.384499632549705 0 0 0 0 36.711021113758775 20.392560509639658 0 20.392560509639658 2.1785654448248293 0 0 0 0 62.809117662866811 20.308258061440938 0 20.308258061440938 -56.14321712673518 0 0 0 0 41.491215969439509 159.61628387355813 0 159.61628387355813 -101.90624489261972 0 0 0 0 78.0771486925114 30.338539462660265 0 30.338539462660265 -108.23943242232053 0 0 0 0 28.668071112873804 34.585685437674329 0 34.585685437674329 10.556243070879646 0 0 0 0 65.929498325506756 34.507726526464467 0 34.507726526464467 -68.390869079732511 0 0 0 0 15.238404035351671 7.9309113297999492 0 7.9309113297999492 -7.8991996642506734 0 0 0 0 81.669858074046715 12.084199406384869 0 12.084199406384869 -77.955724161243779 0 0 0 0 292.29477173495252 -74.294565354241058 0 -74.294565354241058 -116.83029994078515 0 0 0 0 -17.32910076216649 160.11483256827296 0 160.11483256827296 -176.88667079698644 0 0 0 0 54.950032269605799 -19.453656199144461 0 -19.453656199144461 -63.485751242933475 0 0 0 0 60.278780276959878 -25.869568882175372 0 -25.869568882175372 -55.795391163472232 0 0 0 0 16.437975051575137 15.750673685402035 0 15.750673685402035 5.7701948287685809 0 0 0 0 17.812942872075009 7.6447239111027265 0 7.6447239111027265 -2.7030640169060192 0 0 0 0 -71.51599928759606 -30.252847547224519 0 -30.252847547224519 -55.914639448326852 0 0 0 0 3.6197423075034507 -0.52963026574083472 0 -0.52963026574083472 -4.1260918244897624 0 0 0 0 -8.7489881746168976 72.73289397602457 0 72.73289397602457 -6.0690082294495369 0 0 0 0 69.574331127669666 -8.2509344457971565 0 -8.2509344457971565 -86.947526765572547 0 0 0 0 75.949926417603365 -40.356092100407295 0 -40.356092100407295 52.27923783823644 0 0 0 0 -43.673916449132776 -15.291923729677364 0 -15.291923729677364 -71.546331430017744 0 0 0 0 2.8192672491622943 -18.801546501337725 0 -18.801546501337725 -106.92488590184075 0 0 0 0 28.476638403028119 72.905996454573142 0 72.905996454573142 -26.072396712304908 0 0 0 0 55.441086861993426 124.50457542922504 0 124.50457542922504 20.546469278247969 0 0 0 0 43.171909847693314 36.006208830311152 0 36.006208830311152 11.942629605749971 0 0 0 0 177.04732379789584 155.19265154562527 0 155.19265154562527 53.539381178128679 0 0 0 0 106.10528261969012 55.307338411697856 0 55.307338411697856 51.06696601014454 0 0 0 0 -1.1029586311253148 1.4772797500713573 0 1.4772797500713573 1.1861857880801523 0 0 0 0 320.28134643529665 109.80342199550614 0 109.80342199550614 34.414981414469366 0 0 0 0 132.96145446880928 -132.65519171507731 0 -132.65519171507731 216.71429213466035 0 0 0 0 181.07203103648317 171.73279485701732 0 171.73279485701732 230.91491054033759 0 0 0 0 130.92610403399522 -45.426914970044891 0 -45.426914970044891 -62.203280418591362 0 0 0 0 78.415130806103662 81.157282661004501 0 81.157282661004501 52.974194790134788 0 0 0 0 -58.57080226996527 33.777829990589908 0 33.777829990589908 -6.6593516073207866 0 0 0 0 1.7688844282497094 1.5227394685899851 0 1.5227394685899851 -1.535968328351963 0 0 0 0 -35.619482268959928 31.997697364940905 0 31.997697364940905 -25.403139505482613 0 0 0 0 -49.205373544886243 11.999831205019291 0 11.999831205019291 -4.9842381182388635 0 0 0 0 -19.416935380590758 30.402892118669115 0 30.402892118669115 -13.860919583134091 0 0 0 0 -11.933553613453569 18.071338580286465 0 18.071338580286465 -17.945616557190078 0 0 0 0 240.64273936653285 -5.4680456851392591 0 -5.4680456851392591 -115.6803137426914 0 0 0 0 13.255840362979029 18.587060319592183 0 18.587060319592183 31.574950672944397 0 0 0 0 -20.730891248333592 -83.39138047090546 0 -83.39138047090546 -134.35175852111252 0 0 0 0 134.14031369878558 201.06818299923395 0 201.06818299923395 -493.60653549825201 0 0 0 0 -2.3594315094870733 4.297522592462796 0 4.297522592462796 -0.81937626031406907 0 0 0 0 -26.109383630412594 21.738832272245872 0 21.738832272245872 -3.4791024662163181 0 0 0 0 68.002676672581288 121.63674231686946 0 121.63674231686946 89.145958700173651 0 0 0 0 -9.5682566450907416 9.2641900678841012 0 9.2641900678841012 -15.803426778316862 0 0 0 0 368.78332598595512 212.97711022438625 0 212.97711022438625 -157.84287687359938 0 0 0 0 -82.22913868560876 -34.109861358424496 0 -34.109861358424496 112.89185507647335 0 0 0 0 -6.5324247860214815 10.290122438663909 0 10.290122438663909 -3.9045013045897683 0 0 0 0 -27.593177931119499 16.975456738127377 0 16.975456738127377 1.4407064889492176 0 0 0 0 68.042213020982615 82.951816898857942 0 82.951816898857942 -18.445241239206553 0 0 0 0 -6.3077107332491762 8.5625396847281987 0 8.5625396847281987 -0.66848097383610394 0 0 0 0 -4.5984607602777032 11.243662064980526 0 11.243662064980526 -6.4828637716800586 0 0 0 0 10.74680467899816 25.363770554720759 0 25.363770554720759 3.1675623165519937 0 0 0 0 -49.709560270584319 -27.068964043606911 0 -27.068964043606911 22.343475647091509 0 0 0 0 -13.699320129856687 35.592563599223467 0 35.592563599223467 242.76258943262474 0 0 0 0 -81.355352640362753 135.53553945534145 0 135.53553945534145 582.18599920325778 0 0 0 0 26.15116862094294 -47.611445606511552 0 -47.611445606511552 259.12236481158732 0 0 0 0 1.838294744917381 0.99178915021996517 0 0.99178915021996517 0.24120710538288037 0 0 0 0 -5.5526420781418437 36.530717136556859 0 36.530717136556859 236.01193692984452 0 0 0 0 57.786642078333216 -1.4753126632977001 0 -1.4753126632977001 164.17847198142181 0 0 0 0 26.182041208989176 77.330178116949583 0 77.330178116949583 121.58602140316179 0 0 0 0 24.742491576976136 43.846601485146948 0 43.846601485146948 37.700601972976472 0 0 0 0 -10.186666022595261 2.1234581808039366 0 2.1234581808039366 62.65225701979216 0 0 0 0 -11.95378011872026 38.638434686312166 0 38.638434686312166 133.38779017742127 0 0 0 0 11.115898588907044 13.645824910358897 0 13.645824910358897 134.83681863405855 0 0 0 0 15.70489356076132 81.602783577087393 0 81.602783577087393 -365.80250810235498 0 0 0 0 4.0235020964476025 3.9315294809811832 0 3.9315294809811832 1.0277812490898253 0 0 0 0 -62.898099613815731 143.66625964730798 0 143.66625964730798 -102.12235334555771 0 0 0 0 105.39009599164547 49.706587456213128 0 49.706587456213128 -126.41348202233144 0 0 0 0 -32.479752120112948 106.45032415206833 0 106.45032415206833 -92.393373519003035 0 0 0 0 -13.686232332758323 74.092481775520127 0 74.092481775520127 -105.65574302141431 0 0 0 0 5.0765868213810261 5.5104921994562481 0 5.5104921994562481 1.534472152901305 0 0 0 0 -3.29721863266127 83.476881858627166 0 83.476881858627166 -217.16409017580008 0 0 0 0 -7.888932307124378 22.601616983714848 0 22.601616983714848 133.93850222687297 0 0 0 0 -4.8422224048536009 46.535416892033027 0 46.535416892033027 130.33601113278019 0 0 0 0 -1.7250795890848849 39.720711790624591 0 39.720711790624591 111.16281710717431 0 0 0 0 -14.963685008067614 33.813927379333563 0 33.813927379333563 125.91845767098525 0 0 0 0 -45.534835926787764 58.232612575956637 0 58.232612575956637 128.63571542029877 0 0 0 0 -25.365926578008953 84.445508160020609 0 84.445508160020609 61.564654097101084 0 0 0 0 6.1615020342168805 15.661083475720488 0 15.661083475720488 58.31870811110457 0 0 0 0 66.615416326183833 7.6508414502395752 0 7.6508414502395752 -9.9951361993471437 0 0 0 0 64.444500128447771 90.250831470134472 0 90.250831470134472 -16.906774575603777 0 0 0 0 2.157262372521747 2.5664523437200586 0 2.5664523437200586 3.1799755196639978 0 0 0 0 123.17391459303076 9.7582394644109627 0 9.7582394644109627 -11.112086493901188 0 0 0 0 157.18297649896806 91.265751288788579 0 91.265751288788579 -17.689864468534324 0 0 0 0 -17.011269095052739 -100.31039006654646 0 -100.31039006654646 93.406854296972597 0 0 0 0 -21.594807602220499 -118.50657852574568 0 -118.50657852574568 316.53208689163364 0 0 0 0 -43.761298851693084 -42.948067920219501 0 -42.948067920219501 180.59827478268198 0 0 0 0 -11.376525300234107 5.7438463511102782 0 5.7438463511102782 14.715396040717678 0 0 0 0 13.0905042301506 4.5021527910146233 0 4.5021527910146233 11.016810047932267 0 0 0 0 -4.7990875735220015 5.7682699857414264 0 5.7682699857414264 24.449484776549752 0 0 0 0 20.016481203374269 18.986127519898218 0 18.986127519898218 40.980009395855177 0 0 0 0 5.7969638167496162 6.4464578912188486 0 6.4464578912188486 1.8957802579192933 0 0 0 0 1.6148701615265963 60.633715758936887 0 60.633715758936887 -99.955373192002298 0 0 0 0 -14.57919668463137 72.751611110123122 0 72.751611110123122 -107.65739401863266 0 0 0 0 -13.315070288649622 17.987287609491432 0 17.987287609491432 -57.191956182468857 0 0 0 0 -33.898534162696933 37.46281772381235 0 37.46281772381235 -2.167810096503672 0 0 0 0 7.0431510466241516 6.3480113462755803 0 6.3480113462755803 1.5906292573874437 0 0 0 0 -93.695929905518824 62.938415187833016 0 62.938415187833016 -118.85687887805875 0 0 0 0 -41.20330507860217 66.617907877000107 0 66.617907877000107 -65.60240587610042 0 0 0 0 -25.042222967769248 56.529454478482876 0 56.529454478482876 -119.23404052801379 0 0 0 0 -15.141872362493871 78.669277240100939 0 78.669277240100939 -132.0748711808701 0 0 0 0 -44.754741330704746 81.165940009172118 0 81.165940009172118 -89.540203415168435 0 0 0 0 -53.442798720068822 109.0056971205031 0 109.0056971205031 -142.45183962015471 0 0 0 0 20.203667149418834 30.553146691981965 0 30.553146691981965 -247.15374893661283 0 0 0 0 4.9081208978916493 -0.86864488567061926 0 -0.86864488567061926 -5.5819386988059705 0 0 0 0 0.66857249020909038 -0.3749229286210678 0 -0.3749229286210678 -1.2071695111277609 0 0 0 0 -9.583803433817593 47.012922827941111 0 47.012922827941111 -108.46719331870736 0 0 0 0 2.9608982664448344 2.9956531077105275 0 2.9956531077105275 0.13872018886604742 0 0 0 0 -21.27326131782138 39.386667012287035 0 39.386667012287035 -187.75803024816014 0 0 0 0 -10.78792633386891 88.745400723449109 0 88.745400723449109 -194.48604640269878 0 0 0 0 -77.804225221454544 104.02687227022943 0 104.02687227022943 -127.34887820257609 0 0 0 0 0.0014377075961018448 0.67212768657636879 0 0.67212768657636879 0.41992931881334172 0 0 0 0 17.62671433831656 8.4052160708288284 0 8.4052160708288284 5.5796068968284089 0 0 0 0 10.829787080855112 16.61446141140641 0 16.61446141140641 -0.85517587406229723 0 0 0 0 13.044402595792235 19.460659788219346 0 19.460659788219346 13.203583674032416 0 0 0 0 28.237612627264753 33.722871194704567 0 33.722871194704567 16.523669677024373 0 0 0 0 20.771319084270544 18.455925932934861 0 18.455925932934861 -3.5251363386996672 0 0 0 0 0.055118412932188221 4.1988326130822315 0 4.1988326130822315 11.197461628948076 0 0 0 0 68.136150927232848 44.172829617562456 0 44.172829617562456 15.481002429048203 0 0 0 0 3.2739831715080072 -4.9247081192390851 0 -4.9247081192390851 -8.1031578714919306 0 0 0 0 1.3351077586818825 2.4925989524428935 0 2.4925989524428935 -4.6260545787863414 0 0 0 0 1.2014045064206584 9.7655742123324671 0 9.7655742123324671 -3.5504155430953688 0 0 0 0 5.4426035979076914 -1.4127136259812687 0 -1.4127136259812687 -10.708877000899065 0 0 0 0 2.0373297361061304 -3.0190804936601126 0 -3.0190804936601126 -11.85639093426289 0 0 0 0 1.6361834013712899 2.2087380653575313 0 2.2087380653575313 -5.1004002786530691 0 0 0 0 -32.003436465878622 -19.024430256837149 0 -19.024430256837149 -13.172866694245613 0 0 0 0 -67.391666734487899 8.0615419492987712 0 8.0615419492987712 -5.0407142064348136 0 0 0 0 1.2147993676538533 10.040886906621324 0 10.040886906621324 -13.366911596054706 0 0 0 0 1.2267414628196658 0.42407586607041559 0 0.42407586607041559 -2.0063854387496178 0 0 0 0 5.4509271350411836 -0.47343841932251962 0 -0.47343841932251962 -20.892679975127976 0 0 0 0 -64.433235845359604 7.9376601042558832 0 7.9376601042558832 1.134755536270859 0 0 0 0 0.17635219958323844 -0.2475349258208368 0 -0.2475349258208368 -0.12994907701603609 0 0 0 0 -10.737888420829677 62.264713236085299 0 62.264713236085299 -125.02640640714799 0 0 0 0 -15.421201039305743 76.738763219978864 0 76.738763219978864 -106.37294915914617 0 0 0 0 -29.775413260453206 46.252081857197481 0 46.252081857197481 -45.653531378316984 0 0 0 0 -46.043883025750006 55.598246365072555 0 55.598246365072555 -5.6025770238575205 0 0 0 0 -18.959623448599359 77.930730821117322 0 77.930730821117322 -107.11169025654135 0 0 0 0 50.767912810431426 67.391273169259875 0 67.391273169259875 -13.144769763439399 0 0 0 0 34.651252383506971 51.04436740515257 0 51.04436740515257 46.987893757865095 0 0 0 0 130.45042825137807 12.413667180100674 0 12.413667180100674 32.954741709375412 0 0 0 0 180.06965006802329 66.168722750860979 0 66.168722750860979 34.535003333985514 0 0 0 0 121.66988986343858 25.575830413696167 0 25.575830413696167 94.4247644435236 0 0 0 0 203.41265692936304 95.649590629971499 0 95.649590629971499 55.188457927739364 0 0 0 0 44.244776148238543 56.097603692894154 0 56.097603692894154 58.785990198457512 0 0 0 0 69.877818697127623 -0.34108130671302206 0 -0.34108130671302206 39.423636010004884 0 0 0 0 -43.032811123831721 47.576754732327117 0 47.576754732327117 24.378884787143761 0 0 0 0 11.097842629101706 14.041670410553706 0 14.041670410553706 16.351014338576533 0 0 0 0 -32.266588314970704 -48.910969312663838 0 -48.910969312663838 22.993594830824804 0 0 0 0 13.113863039032367 -8.0979928786582605 0 -8.0979928786582605 -19.770962275148122 0 0 0 0 -66.963602934002125 -17.697779424237339 0 -17.697779424237339 19.973820919476566 0 0 0 0 19.383524296554697 -15.600103534073241 0 -15.600103534073241 0.76497814648610074 0 0 0 0 15.780848126732963 -43.361953849898782 0 -43.361953849898782 2.8586424222921778 0 0 0 0 -7.3746345277985483 -23.7813137591545 0 -23.7813137591545 -10.048769920653285 0 0 0 0 -11.193696529744557 -35.118530296245808 0 -35.118530296245808 -8.5701936731584283 0 0 0 0 45.220440693664841 -16.266750641752878 0 -16.266750641752878 -17.95469533014591 0 0 0 0 49.476316066426989 -24.63276733001203 0 -24.63276733001203 -2.9365474992446252 0 0 0 0 99.328395391007234 -16.081838401861205 0 -16.081838401861205 -4.1451273664897599 0 0 0 0 134.52892385418386 6.296806212417323 0 6.296806212417323 49.129427685569681 0 0 0 0 30.145636833992739 -35.751684405680862 0 -35.751684405680862 38.116829369162588 0 0 0 0 74.722003129095356 -14.000898021507965 0 -14.000898021507965 23.295230772066134 0 0 0 0 12.494279444856588 1.1391454791643127 0 1.1391454791643127 77.108479776317836 0 0 0 0 98.285350084171114 46.163643135892926 0 46.163643135892926 99.15542799281684 0 0 0 0 86.713879033775811 -42.061740164876937 0 -42.061740164876937 88.324653050538473 0 0 0 0 161.57979087426429 103.7201129636851 0 103.7201129636851 246.82986484228968 0 0 0 0 178.96675819353459 -62.23262696258098 0 -62.23262696258098 154.81139569276002 0 0 0 0 263.57595425459704 43.50672277409376 0 43.50672277409376 34.357072376205906 0 0 0 0 125.68200359177308 120.21261051708188 0 120.21261051708188 112.86335415723806 0 0 0 0 105.26312700005656 41.911403864653039 0 41.911403864653039 34.711915771493523 0 0 0 0 119.27383761727833 78.477153509174968 0 78.477153509174968 31.083575717952044 0 0 0 0 105.61982688336684 -31.100674718409209 0 -31.100674718409209 28.266886295231416 0 0 0 0 74.854034348301866 14.434252738918076 0 14.434252738918076 -6.7213673641995229 0 0 0 0 144.29743292789158 28.771491186221738 0 28.771491186221738 -3.7994836270227097 0 0 0 0 93.159502180568552 29.387103602789466 0 29.387103602789466 -21.415187204871472 0 0 0 0 65.775016219140525 56.158483223570329 0 56.158483223570329 7.961592379873764 0 0 0 0 95.230903519885942 1.7725489301647031 0 1.7725489301647031 -24.79854393124333 0 0 0 0 29.207086912376326 43.740336116403341 0 43.740336116403341 -3.5322108930259901 0 0 0 0 34.046365953037366 53.302192498967088 0 53.302192498967088 15.062756587230979 0 0 0 0 58.833614404691616 44.460655684351877 0 44.460655684351877 -11.737301000292064 0 0 0 0 56.779029727764282 46.79740874604795 0 46.79740874604795 15.17047348286269 0 0 0 0 57.193324157700772 60.496293689107915 0 60.496293689107915 17.194901416856737 0 0 0 0 14.677376633032821 46.85708434165042 0 46.85708434165042 51.533291342824668 0 0 0 0 31.127182141928188 57.608825322624398 0 57.608825322624398 81.013287996031067 0 0 0 0 33.239574647935115 49.792375354400065 0 49.792375354400065 49.347153818644074 0 0 0 0 -3.6667728623383482 31.089563500830991 0 31.089563500830991 83.055065071876015 0 0 0 0 -2.6267497660346635 7.0730441614814481 0 7.0730441614814481 -5.7768428609915645 0 0 0 0 -0.75847644585685536 2.9655655066149826 0 2.9655655066149826 0.80940505757604253 0 0 0 0 10.181667660160201 8.1413057220247538 0 8.1413057220247538 -5.3579781534426729 0 0 0 0 4.5410767574494457 -18.999567255690636 0 -18.999567255690636 38.586394845684481 0 0 0 0 198.63072546720696 -44.160045919887125 0 -44.160045919887125 10.47588131905286 0 0 0 0 0.97819175185537732 1.2352986341437155 0 1.2352986341437155 -0.0080903715237958806 0 0 0 0 0.49645924151946019 31.651717914794062 0 31.651717914794062 141.12764996346868 0 0 0 0 -46.938269393238443 135.10177190733611 0 135.10177190733611 -43.622892832217985 0 0 0 0 286.55383920541436 109.07659991777155 0 109.07659991777155 -157.3390957962838 0 0 0 0 287.08629858114682 123.4596424481424 0 123.4596424481424 58.759447134805669 0 0 0 0 232.87943442463802 64.839906153181801 0 64.839906153181801 -3.4011932965586311 0 0 0 0 194.49589051376552 34.376404467537213 0 34.376404467537213 0.04563861500355415 0 0 0 0 -0.26472734899185113 0.64335083440517593 0 0.64335083440517593 -0.18198046568086301 0 0 0 0 209.18475213567177 -69.010327593854072 0 -69.010327593854072 9.4957890157229485 0 0 0 0 0.7516330034684835 0.73372942591516122 0 0.73372942591516122 -0.9362314101669682 0 0 0 0 365.2267766715504 -29.644440102711087 0 -29.644440102711087 -47.167754927267197 0 0 0 0 -80.001661247701804 70.686613093156666 0 70.686613093156666 -30.779541885775188 0 0 0 0 -52.118035540008236 9.2779426506865548 0 9.2779426506865548 -16.257869285253037 0 0 0 0 -10.171927957467915 18.416017615325472 0 18.416017615325472 -30.142488876406333 0 0 0 0 3.5769931313388641 1.0813694763229496 0 1.0813694763229496 -2.1230850580894192 0 0 0 0 0.60151355140636653 0.1945022339830409 0 0.1945022339830409 -0.2517516428437041 0 0 0 0 42.160496393463291 -28.803802723407898 0 -28.803802723407898 -82.314038764972793 0 0 0 0 37.148522816117293 2.4942963121966386 0 2.4942963121966386 -27.336408668765216 0 0 0 0 20.285045966448706 -30.44745327491546 0 -30.44745327491546 -44.645553154114168 0 0 0 0 4.6928479611742659 21.10634037447744 0 21.10634037447744 -5.2094183974422776 0 0 0 0 26.450288818259651 30.663173205553903 0 30.663173205553903 -41.094387332806946 0 0 0 0 34.640729821348032 18.415645316630616 0 18.415645316630616 11.075025799791547 0 0 0 0 6.7988348733761086 53.587118377562547 0 53.587118377562547 80.374776786614348 0 0 0 0 20.982078231855212 24.610263007110916 0 24.610263007110916 -17.494928705711573 0 0 0 0 17.569279313882248 11.655158303598682 0 11.655158303598682 -37.397245272699365 0 0 0 0 26.84310264003534 37.967597066248345 0 37.967597066248345 -21.109455241141404 0 0 0 0 39.10444652395131 31.181481735694433 0 31.181481735694433 -32.801566418240327 0 0 0 0 40.775348405452405 43.873501794392723 0 43.873501794392723 -11.756338565802821 0 0 0 0 26.361425301101917 49.456667606282281 0 49.456667606282281 -3.8562155861720839 0 0 0 0 41.496118586273269 42.279011979461757 0 42.279011979461757 -20.478653595419019 0 0 0 0 63.50152634154847 9.1195382157875429 0 9.1195382157875429 -38.151473199668544 0 0 0 0 43.811060482732955 -4.0255746431139414 0 -4.0255746431139414 -24.366898214841967 0 0 0 0 58.036462451335865 32.202644675247029 0 32.202644675247029 -30.593331628992019 0 0 0 0 49.237143779244889 26.459286041601445 0 26.459286041601445 -20.541297056977101 0 0 0 0 30.853374282249206 23.438283978031905 0 23.438283978031905 -32.223980030586972 0 0 0 0 25.474722672944154 6.4444022904908707 0 6.4444022904908707 -35.984535699910339 0 0 0 0 11.920322927659072 12.834572459114497 0 12.834572459114497 -44.191822903614138 0 0 0 0 29.271105542833311 10.461829178472726 0 10.461829178472726 -58.307888154646207 0 0 0 0 11.688190733790373 5.7715964125617099 0 5.7715964125617099 -3.2021540664643933 0 0 0 0 4.5931576998116839 -15.040566997863152 0 -15.040566997863152 -48.955787607988896 0 0 0 0 41.905127245357107 14.965700441705849 0 14.965700441705849 -46.423553264961811 0 0 0 0 10.232951502455357 5.4530141267762673 0 5.4530141267762673 -4.9074434179416162 0 0 0 0 20.645084579197601 -17.644314164525895 0 -17.644314164525895 -70.152615343520665 0 0 0 0 10.247654637834785 3.7237993938470026 0 3.7237993938470026 46.364724443064461 0 0 0 0 -6.8288245639632805 18.607285462458094 0 18.607285462458094 121.06840078774985 0 0 0 0 1.3574482649040061 1.2955393867590637 0 1.2955393867590637 1.4612920526878455 0 0 0 0 0.20461257344049955 -6.5201187281163584 0 -6.5201187281163584 -52.634086628896512 0 0 0 0 20.288955163862738 -13.031728002730233 0 -13.031728002730233 -36.499998259783752 0 0 0 0 36.759614405652428 -3.1657237459548924 0 -3.1657237459548924 -49.385625431725259 0 0 0 0 -3.0586402741582788 -24.76946764726199 0 -24.76946764726199 -29.185928882381404 0 0 0 0 24.114078087267217 -16.11881600896686 0 -16.11881600896686 -49.140481283298868 0 0 0 0 25.228403062781126 -28.134467414365645 0 -28.134467414365645 -18.564850478884068 0 0 0 0 21.063547974946687 -21.306722094341239 0 -21.306722094341239 -29.731683635473019 0 0 0 0 50.350310689230128 -8.1889014676098668 0 -8.1889014676098668 -37.606967804880696 0 0 0 0 -31.723023922792891 -25.900928040542567 0 -25.900928040542567 -10.21261549972769 0 0 0 0 3.8107475256605312 -32.244138890705017 0 -32.244138890705017 -38.240490173646322 0 0 0 0 -11.021899804383111 -20.495292605153736 0 -20.495292605153736 -32.402083925719126 0 0 0 0 5.3844274355578818 -37.804833625432366 0 -37.804833625432366 -14.341929500030346 0 0 0 0 1.2924175964444657 -0.54917730222223327 0 -0.54917730222223327 -13.7601733357169 0 0 0 0 15.64777863971176 58.368141849887252 0 58.368141849887252 97.285297260294101 0 0 0 0 1.284294909949379 -0.79305611558715228 0 -0.79305611558715228 -1.8447787597826864 0 0 0 0 -14.798634528516459 -30.728249984920922 0 -30.728249984920922 -37.401367396896603 0 0 0 0 1.4547136101453404 0.39487068979670426 0 0.39487068979670426 -0.63215297002440707 0 0 0 0 40.808129724939135 18.612909307703376 0 18.612909307703376 27.707133897973108 0 0 0 0 6.2767683510681795 3.1032094369267469 0 3.1032094369267469 -8.0632778357678205 0 0 0 0 17.945925884157987 2.6757314521728404 0 2.6757314521728404 63.061368083518573 0 0 0 0 -17.323883334840502 2.7090760043975024 0 2.7090760043975024 32.404140181854018 0 0 0 0 -3.6940769418706623 11.524417582175374 0 11.524417582175374 24.585053514430911 0 0 0 0 0.78694042269671627 7.2502975689094455 0 7.2502975689094455 14.560674357142489 0 0 0 0 1.0567360107997956 20.26179116631647 0 20.26179116631647 33.681840255754651 0 0 0 0 2.9679471964127515 42.506667346759059 0 42.506667346759059 39.047754776962392 0 0 0 0 14.499346714846979 37.775609741038352 0 37.775609741038352 25.211379858908913 0 0 0 0 20.215530115163347 44.212994965941107 0 44.212994965941107 23.224324355378485 0 0 0 0 22.77285958369248 29.638366720519116 0 29.638366720519116 -7.5797253768341761 0 0 0 0 11.734732315677775 29.515496110654567 0 29.515496110654567 8.376508262619609 0 0 0 0 5.7752563824815297 22.767639033178057 0 22.767639033178057 13.009012252092361 0 0 0 0 7.3385221246971923 20.265597450543282 0 20.265597450543282 11.537411386379972 0 0 0 0 6.4810505864097649 18.294720198708092 0 18.294720198708092 14.00788489972183 0 0 0 0 5.541000343124324 22.105578059439722 0 22.105578059439722 17.191193826860399 0 0 0 0 12.441707196345078 39.701375042487598 0 39.701375042487598 47.040799632086419 0 0 0 0 24.962350034569681 -1.784593865271745 0 -1.784593865271745 -45.846629489187762 0 0 0 0 9.9350627021412947 49.083600811594806 0 49.083600811594806 54.756950470979973 0 0 0 0 1.4240584536959773 0.36193225820679942 0 0.36193225820679942 -0.51011829839867673 0 0 0 0 -6.7819200972280669 1.3016978789273708 0 1.3016978789273708 -7.5925758924786351 0 0 0 0 12.184546500779106 16.89399919842981 0 16.89399919842981 -19.397663134304821 0 0 0 0 -7.0649827126580931 14.011279220165306 0 14.011279220165306 11.310572859372769 0 0 0 0 42.479305099057456 48.173544764107646 0 48.173544764107646 -1.7635525574587518 0 0 0 0 26.088679666914231 24.990807174478505 0 24.990807174478505 -14.412858644049265 0 0 0 0 44.717468754664878 71.929844433598191 0 71.929844433598191 22.482459466698856 0 0 0 0 29.947648818720154 55.484610954192249 0 55.484610954192249 8.316370153119351 0 0 0 0 38.738851673992031 90.877471458788932 0 90.877471458788932 44.249963508496876 0 0 0 0 29.665151079198495 69.620601797650124 0 69.620601797650124 43.910884963152057 0 0 0 0 20.670259486326358 50.679967692619357 0 50.679967692619357 14.691458240751672 0 0 0 0 26.147309717302051 96.818654542223157 0 96.818654542223157 59.03792906169565 0 0 0 0 21.652932242279348 77.796720373382414 0 77.796720373382414 35.719650088560229 0 0 0 0 28.192125289552678 93.462279590496109 0 93.462279590496109 64.527023568160075 0 0 0 0 45.300975595332147 100.12443740625713 0 100.12443740625713 26.539221028288011 0 0 0 0 54.738813193559508 114.88530691712185 0 114.88530691712185 49.078541087282247 0 0 0 0 46.514502865587019 122.72068728007071 0 122.72068728007071 72.450067113457408 0 0 0 0 42.278850240478278 117.56313781324752 0 117.56313781324752 68.565118056578285 0 0 0 0 -4.2416647762445088 48.614429284226752 0 48.614429284226752 222.34138091622481 0 0 0 0 75.136489180210219 185.24993103139923 0 185.24993103139923 193.80588287053797 0 0 0 0 -3.8938169403327265 18.705247550122294 0 18.705247550122294 63.050660245648032 0 0 0 0 -7.9738342801319959 47.625511364454724 0 47.625511364454724 125.26701963661617 0 0 0 0 -10.354785825586305 28.091975407277005 0 28.091975407277005 77.754216991350404 0 0 0 0 -3.6654088969808072 86.529545559762482 0 86.529545559762482 139.77971067084036 0 0 0 0 37.528190723820444 117.92525800031308 0 117.92525800031308 95.351654473786766 0 0 0 0 3.9365782845493413 74.552373703470948 0 74.552373703470948 92.313301331887487 0 0 0 0 -5.032754124589701 60.827483203596785 0 60.827483203596785 71.344881618387262 0 0 0 0 7.0919873337170429 53.39324543899329 0 53.39324543899329 59.445716146081395 0 0 0 0 -16.228418864677224 22.001984565646126 0 22.001984565646126 51.462086382441157 0 0 0 0 -6.1877467554568284 38.137615531813935 0 38.137615531813935 51.62903478921362 0 0 0 0 -10.603438233501947 22.379205836783512 0 22.379205836783512 47.484249447865295 0 0 0 0 4.1948728054258027 -5.9800395731672324 0 -5.9800395731672324 -17.621893846615421 0 0 0 0 40.071783103312555 114.38712369286077 0 114.38712369286077 13.992780451022099 0 0 0 0 -30.40825613992638 8.1047561760569806 0 8.1047561760569806 41.313649496847574 0 0 0 0 0.29308995691701156 -0.02412283713791652 0 -0.02412283713791652 0.039917243958942805 0 0 0 0 -57.721331859184602 -35.384890095773244 0 -35.384890095773244 148.21252610479132 0 0 0 0 -34.333741090676995 30.170862998362281 0 30.170862998362281 53.963692116097263 0 0 0 0 3.8510753659529655 42.206293122158968 0 42.206293122158968 40.625730915064196 0 0 0 0 6.1946100026721069 -2.6416335478552355 0 -2.6416335478552355 -14.882370457038633 0 0 0 0 4.3525093294292674 -0.20816448288496758 0 -0.20816448288496758 -10.475958805665869 0 0 0 0 -0.49419012196699441 -5.0810460839525149 0 -5.0810460839525149 -13.079982621358795 0 0 0 0 5.7151624625235824 1.5549000435687521 0 1.5549000435687521 -8.6589304725444585 0 0 0 0 2.2019566406106605 11.635019914965596 0 11.635019914965596 5.2704392724172067 0 0 0 0 31.451401471638292 64.454272499376657 0 64.454272499376657 6.6945365573847084 0 0 0 0 3.6860383038486422 4.0578745176214337 0 4.0578745176214337 1.0413025272096803 0 0 0 0 2.0880490094942061 0.44437280657362521 0 0.44437280657362521 -11.464193846746639 0 0 0 0 0.69142952524535062 1.2251661441983224 0 1.2251661441983224 1.0858480906210275 0 0 0 0 36.845826253444102 -29.280140805789415 0 -29.280140805789415 13.950034950836198 0 0 0 0 108.61397282753023 30.501173108386865 0 30.501173108386865 13.322906438668724 0 0 0 0 0.20609261343208907 1.5104814837760756 0 1.5104814837760756 -0.25847155631523933 0 0 0 0 -1.621486319378846 -39.300159987731149 0 -39.300159987731149 137.06566175763874 0 0 0 0 249.28186050492832 46.705187563322397 0 46.705187563322397 24.711430565261253 0 0 0 0 190.63526243664001 214.28797866574587 0 214.28797866574587 161.71030610753041 0 0 0 0 0.49882666296599876 1.5203787907762951 0 1.5203787907762951 2.4301739956857418 0 0 0 0 28.309940772292975 -24.277834732627525 0 -24.277834732627525 6.2405181352332875 0 0 0 0 153.63189558940621 25.006010347507072 0 25.006010347507072 -42.252653042511156 0 0 0 0 18.222846510192539 13.074878002380501 0 13.074878002380501 9.867871204878611 0 0 0 0 24.309249220583297 6.0026617642797646 0 6.0026617642797646 5.7168219604536716 0 0 0 0 16.552263867095462 17.037632768218828 0 17.037632768218828 2.4960188145705615 0 0 0 0 22.746123133263609 9.9724348525760433 0 9.9724348525760433 -1.9205737288102682 0 0 0 0 21.220647245132568 60.128234909834646 0 60.128234909834646 32.291174282154316 0 0 0 0 86.700377371337709 99.023561265934404 0 99.023561265934404 34.205008736689706 0 0 0 0 67.351759392469944 124.66278270787382 0 124.66278270787382 92.154697660056627 0 0 0 0 108.40020048769998 124.56931448817431 0 124.56931448817431 64.254972280330549 0 0 0 0 63.902215600473028 112.83439268121401 0 112.83439268121401 85.68384683498607 0 0 0 0 14.296288936923133 62.937733329825505 0 62.937733329825505 116.43514818973927 0 0 0 0 21.192229877116915 98.51034137174247 0 98.51034137174247 284.7100525613123 0 0 0 0 197.7872464646066 133.84346625684157 0 133.84346625684157 46.20057294009348 0 0 0 0 122.79872995052301 -12.746576760660901 0 -12.746576760660901 129.01670307858421 0 0 0 0 36.145318345330907 67.827715910196275 0 67.827715910196275 55.855091176055794 0 0 0 0 -3.6806738037626019 22.724962307636815 0 22.724962307636815 34.055687658430543 0 0 0 0 72.905167997744684 104.66275469048287 0 104.66275469048287 -0.32721841914099059 0 0 0 0 54.115327471162345 104.21539729483538 0 104.21539729483538 40.222633160635269 0 0 0 0 -54.01969322531113 103.25066808206884 0 103.25066808206884 -0.058217647605601996 0 0 0 0 47.89348996389981 133.06084091278171 0 133.06084091278171 -75.775728821488883 0 0 0 0 -41.690843362495627 34.925324364886706 0 34.925324364886706 -0.047736554723087465 0 0 0 0 -20.422413921930684 77.639808751117016 0 77.639808751117016 -52.360926508834382 0 0 0 0 -256.91861488569384 130.02171804008685 0 130.02171804008685 -0.011899541994353058 0 0 0 0 -32.779761735504735 63.076558422013932 0 63.076558422013932 144.87019321627304 0 0 0 0 0.14109592855694331 0.56478423423024537 0 0.56478423423024537 -0.44678220583764272 0 0 0 0 37.310373149282896 22.009293813894146 0 22.009293813894146 -121.80541800513038 0 0 0 0 54.551141951076715 75.718219572456292 0 75.718219572456292 43.888893896728405 0 0 0 0 65.236717614221561 84.849351875540378 0 84.849351875540378 48.177901276199918 0 0 0 0 84.103173695816849 99.424606466984642 0 99.424606466984642 -0.82606765712262131 0 0 0 0 0.21889925614059536 0.9869196235272959 0 0.9869196235272959 -0.67137033009128899 0 0 0 0 49.208248367296164 90.492801401347606 0 90.492801401347606 -0.012844552622482297 0 0 0 0 35.648928137685289 63.762004409821202 0 63.762004409821202 88.62636744372503 0 0 0 0 0.35711157891731204 0.69794956070348491 0 0.69794956070348491 -0.35468985190400915 0 0 0 0 25.527490863261391 29.165359120543144 0 29.165359120543144 0.070259547312161885 0 0 0 0 66.534366190715559 78.134552531480495 0 78.134552531480495 78.685888653362781 0 0 0 0 83.629393606970552 99.081776349397842 0 99.081776349397842 31.546492259945808 0 0 0 0 97.650298380457571 120.77176790237718 0 120.77176790237718 55.722548399791776 0 0 0 0 84.640540948059879 116.65431501410785 0 116.65431501410785 18.15448868285057 0 0 0 0 95.435241237316404 123.6094326441289 0 123.6094326441289 22.369154935724509 0 0 0 0 51.239659624548949 106.37643462831147 0 106.37643462831147 2.4047017757802678 0 0 0 0 76.388094680165523 127.85000913776457 0 127.85000913776457 4.1871920648604828 0 0 0 0 92.595405449650116 135.60718102893452 0 135.60718102893452 0.79868223750054312 0 0 0 0 75.87039090972803 145.70202308581702 0 145.70202308581702 49.931907301412139 0 0 0 0 68.765484324302179 128.31254316965897 0 128.31254316965897 15.421424430325715 0 0 0 0 78.037464923935659 116.12850833018274 0 116.12850833018274 31.209798252709788 0 0 0 0 64.398347612200268 90.536968394532778 0 90.536968394532778 12.902860284928465 0 0 0 0 73.374874284398174 82.733308515244971 0 82.733308515244971 15.710976310128899 0 0 0 0 66.419816462685958 55.070550887599893 0 55.070550887599893 -4.5886867444778545 0 0 0 0 54.973458983737146 63.210189311841987 0 63.210189311841987 11.896387003242126 0 0 0 0 98.097045132286439 68.579178519476955 0 68.579178519476955 8.3369946311281637 0 0 0 0 100.10276442003214 74.849667746237174 0 74.849667746237174 17.848876673611812 0 0 0 0 104.02536733329418 107.44948137570577 0 107.44948137570577 20.102684612276789 0 0 0 0 91.131601071693694 106.59337455210152 0 106.59337455210152 34.31631651555324 0 0 0 0 116.32682356236091 121.96148651396288 0 121.96148651396288 76.591533626917226 0 0 0 0 108.08381051734796 99.346182725561448 0 99.346182725561448 34.113856466073173 0 0 0 0 100.56037304058555 141.48850043024322 0 141.48850043024322 68.579062502079978 0 0 0 0 80.124046038710276 145.94868515798044 0 145.94868515798044 185.1636476252479 0 0 0 0 185.08952107962068 158.09431900723121 0 158.09431900723121 0.60935580477053009 0 0 0 0 184.98527779852202 87.906302069940466 0 87.906302069940466 13.448946016025729 0 0 0 0 110.83648840848673 28.36415403277897 0 28.36415403277897 17.224636341665246 0 0 0 0 139.81649133345582 32.980425854140776 0 32.980425854140776 4.9395147082323092 0 0 0 0 13.906537641089926 86.139346819970342 0 86.139346819970342 30.537489560949325 0 0 0 0 400.91600186930646 42.393961703245623 0 42.393961703245623 -9.5580294230012441 0 0 0 0 0.50010555101467169 0.35495538417453432 0 0.35495538417453432 0.50946475102418987 0 0 0 0 -27.318081951007343 -27.853661084301166 0 -27.853661084301166 -4.3858289182280714 0 0 0 0 -62.167787870877874 32.541732056424735 0 32.541732056424735 5.5077774578089702 0 0 0 0 -61.662253570080793 28.21971621096236 0 28.21971621096236 1.4194107863022509 0 0 0 0 -0.13305503368440696 0.16896666356088375 0 0.16896666356088375 0.54386354548211813 0 0 0 0 28.390911160793621 49.385367167305958 0 49.385367167305958 -0.073381947104280698 0 0 0 0 -61.609093995359217 24.475651187116455 0 24.475651187116455 -7.0494254505711069 0 0 0 0 -5.8253234763669752 32.962868407066708 0 32.962868407066708 -0.53354189321248668 0 0 0 0 66.142291497390943 -15.666604530502809 0 -15.666604530502809 8.2053345177282608 0 0 0 0 1.0574850847634174 1.2387737613159793 0 1.2387737613159793 0.88763705274212157 0 0 0 0 -0.66872675217109645 -5.5711430266619573 0 -5.5711430266619573 -1.6899689140827832 0 0 0 0 132.07870152282976 -1.7203046338927379 0 -1.7203046338927379 8.491977327317727 0 0 0 0 106.69066581058166 22.993747646009751 0 22.993747646009751 12.45012340712492 0 0 0 0 77.752396418810349 39.116317592776795 0 39.116317592776795 4.6600771736211755 0 0 0 0 49.358611986199094 11.770281562959781 0 11.770281562959781 -19.379335999004979 0 0 0 0 1.0654772030240132 1.4290922643767203 0 1.4290922643767203 1.3277622960965516 0 0 0 0 44.260575462713859 -12.704228578373659 0 -12.704228578373659 -31.838916805452072 0 0 0 0 38.857213054248632 6.3122619304015188 0 6.3122619304015188 -7.6591036874160636 0 0 0 0 1.7053415382407309 19.770354290692012 0 19.770354290692012 5.4042996379885153 0 0 0 0 0.47903640362721944 15.92920535534904 0 15.92920535534904 9.5255520180139683 0 0 0 0 -10.404535016440162 5.967811739573909 0 5.967811739573909 1.2629130041080501 0 0 0 0 -16.976318231725145 -4.4326438517455244 0 -4.4326438517455244 5.1094117316060874 0 0 0 0 2.3195642424898608 12.595766984803959 0 12.595766984803959 7.5453112537625202 0 0 0 0 2.1840935260351841 12.740966180383111 0 12.740966180383111 8.6610895669418824 0 0 0 0 10.571199148956225 17.132253584399223 0 17.132253584399223 1.9282370909231759 0 0 0 0 5.8524841770700959 21.536908864880388 0 21.536908864880388 -10.188707623124628 0 0 0 0 3.2589716759944167 10.436418605904692 0 10.436418605904692 -6.2921303649281981 0 0 0 0 6.1463120521418659 19.403340629875856 0 19.403340629875856 4.6207297594646661 0 0 0 0 13.596399959614018 33.846814427521565 0 33.846814427521565 0.33470267721531854 0 0 0 0 -6.365754908195413 28.867373133481124 0 28.867373133481124 6.2369592363529591 0 0 0 0 -1.9211832471824408 21.702379985024436 0 21.702379985024436 10.18333612906099 0 0 0 0 -7.3854365419194323 11.524412894622401 0 11.524412894622401 -0.43765153883214225 0 0 0 0 -8.212507416521369 15.793226206003055 0 15.793226206003055 11.789922153480802 0 0 0 0 -28.079051888559775 13.58200987994951 0 13.58200987994951 40.439302567636332 0 0 0 0 13.414105649236262 53.476616153292525 0 53.476616153292525 33.723816520216133 0 0 0 0 -0.03880448617653709 0.11651807774268441 0 0.11651807774268441 0.91218464559195667 0 0 0 0 -3.0219873189339022 3.0289162963869973 0 3.0289162963869973 0.46927803764063469 0 0 0 0 -13.265775302824068 16.082285091566064 0 16.082285091566064 -1.34644998676049 0 0 0 0 -11.864069664244983 11.938880139165654 0 11.938880139165654 -3.6162671760657759 0 0 0 0 12.505724580366859 36.9453997761766 0 36.9453997761766 11.18227250774089 0 0 0 0 -12.5533718242301 8.1561527751687066 0 8.1561527751687066 -1.3451524618362214 0 0 0 0 -17.649275400245642 11.515558040017368 0 11.515558040017368 19.641830917669722 0 0 0 0 3.0874934229614155 12.936227660709847 0 12.936227660709847 2.3877250734094559 0 0 0 0 -3.8531615873353076 42.970040624705234 0 42.970040624705234 67.029305232583283 0 0 0 0 17.381427700491713 55.247379731097681 0 55.247379731097681 48.504582008419675 0 0 0 0 -5.2722527124951739 59.479351106803733 0 59.479351106803733 110.98659307102889 0 0 0 0 20.834153686761056 79.190050359429279 0 79.190050359429279 87.602163091891271 0 0 0 0 -27.018925611357645 47.32042119254038 0 47.32042119254038 72.116112539339156 0 0 0 0 -13.715412304281926 30.209000477963855 0 30.209000477963855 56.545021936267403 0 0 0 0 -23.440191489996323 6.0193716802515951 0 6.0193716802515951 23.888733113984927 0 0 0 0 23.413926691191136 107.05864214274061 0 107.05864214274061 90.76658140030122 0 0 0 0 4.8638364232037929 89.725708595025935 0 89.725708595025935 75.09091211219129 0 0 0 0 -10.047089161709664 96.027299927228341 0 96.027299927228341 131.26502549168208 0 0 0 0 1.8768444941933922 95.426231963544524 0 95.426231963544524 104.70683384599397 0 0 0 0 -30.884668880144091 95.938300130850621 0 95.938300130850621 106.82627095612997 0 0 0 0 -8.5557236423365453 95.736511376749263 0 95.736511376749263 84.845981204342024 0 0 0 0 -13.350508846219782 109.98828770108321 0 109.98828770108321 165.82789605495054 0 0 0 0 -50.573143682997852 40.811042863268995 0 40.811042863268995 109.32375793982328 0 0 0 0 -80.909548617231394 -40.291305301298053 0 -40.291305301298053 19.393755770879636 0 0 0 0 -56.853679852772075 74.77402167060427 0 74.77402167060427 17.796422815867118 0 0 0 0 -8.7798242752965052 -10.553979389315828 0 -10.553979389315828 58.535650910092954 0 0 0 0 -22.281116634045247 80.190052832768743 0 80.190052832768743 115.71319434112957 0 0 0 0 -8.6180571882914592 11.508291674172142 0 11.508291674172142 6.917191636228381 0 0 0 0 -100.07178854117683 -11.265067272262058 0 -11.265067272262058 38.679678674489878 0 0 0 0 -19.939059208546496 45.149484821590704 0 45.149484821590704 71.403240209936484 0 0 0 0 -12.695890785174925 -7.8684534654930758 0 -7.8684534654930758 -13.280950223201216 0 0 0 0 -2.0526109351458679 0.48452547336768603 0 0.48452547336768603 0.32800068805958205 0 0 0 0 -8.3899274373570769 4.3058480412698756 0 4.3058480412698756 4.4962418909278128 0 0 0 0 -11.224105182822314 -2.5818625778929345 0 -2.5818625778929345 -1.8068702071200278 0 0 0 0 -1.3205506347310632 11.180564267240584 0 11.180564267240584 1.7427310382227006 0 0 0 0 1.2250490242283867 7.2521049228733219 0 7.2521049228733219 6.4188745037921109 0 0 0 0 -70.170388476512016 12.405478707318252 0 12.405478707318252 -0.83916536470906067 0 0 0 0 -100.42421409742929 25.597205898016909 0 25.597205898016909 -4.673726267852544 0 0 0 0 -3.4240902891499641 3.9470578011508266 0 3.9470578011508266 -2.0832835776997314 0 0 0 0 1.3232277383294786 6.1236646956112963 0 6.1236646956112963 1.7816759084557958 0 0 0 0 -1.2455263694025689 11.592193974607653 0 11.592193974607653 1.8617845574281091 0 0 0 0 -93.061900160631922 -28.817112607046511 0 -28.817112607046511 23.044393094313818 0 0 0 0 -36.375146554184994 14.449753808634341 0 14.449753808634341 37.262001345914541 0 0 0 0 -73.411437671472584 -22.592030833240017 0 -22.592030833240017 17.402618965079455 0 0 0 0 -116.39765348476112 -7.1808502166422841 0 -7.1808502166422841 13.663224440369959 0 0 0 0 -126.23073841079395 -45.196833621836959 0 -45.196833621836959 -3.9412879529858174 0 0 0 0 -68.592391533744831 -31.793389654173552 0 -31.793389654173552 -6.0705727270888019 0 0 0 0 -40.558590657345121 50.39266370607038 0 50.39266370607038 14.794982670882746 0 0 0 0 -118.56749225768431 -53.914686810659532 0 -53.914686810659532 -45.586142219788599 0 0 0 0 -186.95382427922186 59.718807301724155 0 59.718807301724155 8.0796904345506846 0 0 0 0 -2.2821811677414026 1.9037797433140522 0 1.9037797433140522 -1.770265640624217 0 0 0 0 5.6812242674891422 5.6440676340180289 0 5.6440676340180289 0.0048399104816780891 0 0 0 0 -315.87667301002148 -129.49116296478041 0 -129.49116296478041 -26.652332954911572 0 0 0 0 -0.86752328898918929 0.50865022526470938 0 0.50865022526470938 -0.66309021932315204 0 0 0 0 0.97886682693558669 7.7791732967682492 0 7.7791732967682492 -6.0254426148021594 0 0 0 0 -4.6294126224884167 5.3821896772178661 0 5.3821896772178661 -0.61952346186308205 0 0 0 0 4.8221425467866084 8.6464017051498558 0 8.6464017051498558 0.88493315777304815 0 0 0 0 3.4441998902761952 4.2611545649706386 0 4.2611545649706386 0.69126519581243429 0 0 0 0 0.92972411771222596 6.1486541386993849 0 6.1486541386993849 -0.0032777493561297888 0 0 0 0 -1.5245920295330961 4.0905935272776333 0 4.0905935272776333 -1.1746029101959721 0 0 0 0 -2.9924920582318464 5.4365590166694346 0 5.4365590166694346 0.00795693239706452 0 0 0 0 -0.32251073376710337 4.8817521509135986 0 4.8817521509135986 -1.9896076672393974 0 0 0 0 1.2101155150845102 4.7144261008716057 0 4.7144261008716057 -5.0769683383477968 0 0 0 0 1.167367242704529 6.0040809414995238 0 6.0040809414995238 -5.8548043008086097 0 0 0 0 -4.0009494077735326 9.2172925962877343 0 9.2172925962877343 -6.1858514080722671 0 0 0 0 -2.2135016256077051 12.881905301030201 0 12.881905301030201 -0.4778073212628442 0 0 0 0 1.4491636035156716 5.1297671391967015 0 5.1297671391967015 -12.516084693577795 0 0 0 0 -4.2432051196035445 6.1607202294808303 0 6.1607202294808303 4.774857923925083 0 0 0 0 4.0453187243479798 6.0939611811275078 0 6.0939611811275078 4.2938619939736782 0 0 0 0 0.74978825206019906 0.83810562553727763 0 0.83810562553727763 0.70485489345290731 0 0 0 0 4.7308526399283437 -1.5163286006663839 0 -1.5163286006663839 -4.5197061328103132 0 0 0 0 4.9720519405557164 4.5344992328427729 0 4.5344992328427729 -5.0158346630953261 0 0 0 0 0.34162427996133138 0.53183614073716257 0 0.53183614073716257 -0.42017871896971215 0 0 0 0 5.4284264321865976 -4.0227121737607376 0 -4.0227121737607376 -4.4765232834239725 0 0 0 0 12.728940680539949 7.2729250396387215 0 7.2729250396387215 -10.414816593136493 0 0 0 0 3.4618148828022157 12.676829891227044 0 12.676829891227044 6.9817232257082651 0 0 0 0 7.7045238608852884 9.9884390919619364 0 9.9884390919619364 4.5184324187721359 0 0 0 0 -0.089959767192188789 0.60516764547625357 0 0.60516764547625357 -2.4718705998658752 0 0 0 0 -1.4527273839552208 11.241296653764948 0 11.241296653764948 8.7471894801278722 0 0 0 0 4.210773593365559 12.752433157288579 0 12.752433157288579 -1.3219092125218594 0 0 0 0 9.0182439734851414 22.578366684380001 0 22.578366684380001 -11.17677758596983 0 0 0 0 9.5802763521908876 2.9447328668996704 0 2.9447328668996704 -1.2460093104868761 0 0 0 0 -3.0792885879156264 4.8214264799505386 0 4.8214264799505386 -3.9642285538036859 0 0 0 0 2.8734394163893739 13.67561347116316 0 13.67561347116316 17.228168075609574 0 0 0 0 2.7453846994546609 2.003565329848243 0 2.003565329848243 -8.0166778274397075 0 0 0 0 8.3235604917341561 -1.8581929020001553 0 -1.8581929020001553 -8.5384914533080973 0 0 0 0 4.2309356889304723 -4.1202982977220017 0 -4.1202982977220017 -9.9360887385601018 0 0 0 0 18.572413583691059 4.36324136114672 0 4.36324136114672 -23.715491336740342 0 0 0 0 33.017291999093146 6.7517309939794359 0 6.7517309939794359 -6.2358790799589769 0 0 0 0 15.449431511665011 -14.182840785613735 0 -14.182840785613735 9.5309564355993643 0 0 0 0 -0.29594118068311381 0.28606877176293111 0 0.28606877176293111 0.56314718986573808 0 0 0 0 -1.6198576347934477 10.622197914830394 0 10.622197914830394 4.9398923857170303 0 0 0 0 23.874215514721641 5.5878623593171142 0 5.5878623593171142 -0.0054716749418730615 0 0 0 0 22.155726302325576 3.1049418533598327 0 3.1049418533598327 11.436985666274268 0 0 0 0 15.985715585264302 11.557671455019317 0 11.557671455019317 0.0056487775527784834 0 0 0 0 17.575968728333748 29.477076833383308 0 29.477076833383308 22.161317100961242 0 0 0 0 10.22323309277931 15.835695326168207 0 15.835695326168207 9.6441380510714225 0 0 0 0 -0.54893068425019464 9.0646725810011048 0 9.0646725810011048 20.004081698225491 0 0 0 0 8.8886860116959241 13.912982618667229 0 13.912982618667229 12.53213516609685 0 0 0 0 7.2709089524760486 10.450244970908898 0 10.450244970908898 15.914438252085347 0 0 0 0 5.5877452959383618 0.27062008471966692 0 0.27062008471966692 -2.8043469420008478 0 0 0 0 96.393070773342288 90.25851557844635 0 90.25851557844635 54.570600442679279 0 0 0 0 30.35115386252005 27.500455985032204 0 27.500455985032204 0.070196005223815874 0 0 0 0 -3.299082650839182 12.41174229099579 0 12.41174229099579 47.233153001091978 0 0 0 0 62.307091765487826 99.214553475787397 0 99.214553475787397 145.04674399657233 0 0 0 0 65.447552909754563 -40.710664859495864 0 -40.710664859495864 -11.952085601053113 0 0 0 0 17.10171555897125 15.398683356743277 0 15.398683356743277 -5.4898988743316295 0 0 0 0 5.3582633511966993 1.6803714299516201 0 1.6803714299516201 0.38958349041173435 0 0 0 0 18.46347417978609 12.932312476392781 0 12.932312476392781 -49.220512172738381 0 0 0 0 7.3779753685707874 7.8433907077114782 0 7.8433907077114782 -6.9749795267125592 0 0 0 0 -0.83575461055170308 9.6587617586328633 0 9.6587617586328633 -14.501806159803891 0 0 0 0 23.029566020646143 -9.005303619883307 0 -9.005303619883307 -13.038246419724373 0 0 0 0 7.7704856806874583 2.1991786421270554 0 2.1991786421270554 0.74203037008312478 0 0 0 0 16.565398746532622 14.312120619269308 0 14.312120619269308 -24.028950199641258 0 0 0 0 8.3697419102609274 -2.8592518749928786 0 -2.8592518749928786 -23.663183127083357 0 0 0 0 10.123529939775835 22.030043603997001 0 22.030043603997001 -30.533210450996194 0 0 0 0 4.9360555448683385 2.3277984999290311 0 2.3277984999290311 -0.55150043995672604 0 0 0 0 16.304331516846787 29.223351172030561 0 29.223351172030561 8.7585853814280199 0 0 0 0 88.32321083451734 1.1996206995318062 0 1.1996206995318062 -33.869869101938647 0 0 0 0 6.2375500127689492 -25.807957482638301 0 -25.807957482638301 -34.052236836781958 0 0 0 0 -2.2708921043636572 2.7669814120180938 0 2.7669814120180938 -3.0081169517109068 0 0 0 0 10.059218328519194 11.196750828978338 0 11.196750828978338 21.900467275365372 0 0 0 0 27.368124213588544 12.482394310472046 0 12.482394310472046 -9.4892634622701735 0 0 0 0 40.398320477000198 -5.0760989080854415 0 -5.0760989080854415 -26.61249296983442 0 0 0 0 14.881538757284034 20.484424613036936 0 20.484424613036936 -23.350481895247867 0 0 0 0 17.165909170740861 8.4566281260122196 0 8.4566281260122196 7.0821813957008999 0 0 0 0 38.972849905120711 21.612856756982183 0 21.612856756982183 3.1215339971283811 0 0 0 0 27.718792681158448 40.861515189292732 0 40.861515189292732 30.234526326322111 0 0 0 0 -0.99154118099410837 1.6471903887940442 0 1.6471903887940442 -1.826685055803388 0 0 0 0 48.350169818304721 49.828330454288334 0 49.828330454288334 30.064501250513786 0 0 0 0 2.5682885262897344 12.858521323455079 0 12.858521323455079 28.186868307793702 0 0 0 0 -0.29701096580066455 0.55520661244770508 0 0.55520661244770508 -0.66817770187802239 0 0 0 0 -0.73518889125944042 -37.887978613440282 0 -37.887978613440282 -97.725563278381742 0 0 0 0 38.160556302852456 35.349608741551492 0 35.349608741551492 -91.850449542640263 0 0 0 0 -3.3353107132581954 18.088993081255467 0 18.088993081255467 -13.320331687951693 0 0 0 0 -24.362947351777393 -8.7771451810226608 0 -8.7771451810226608 -30.879512722567597 0 0 0 0 15.747641452469452 36.709666321262375 0 36.709666321262375 4.563310710253063 0 0 0 0 10.887364562669291 15.093766767937268 0 15.093766767937268 -23.829142236054395 0 0 0 0 116.58423014967889 -4.5079347824112119 0 -4.5079347824112119 -9.5283881997279423 0 0 0 0 52.675338429192607 28.517126490348346 0 28.517126490348346 -17.754275690444047 0 0 0 0 36.851740054285528 8.8509190197783028 0 8.8509190197783028 -10.705184576488818 0 0 0 0 72.803255311997987 54.167781721732808 0 54.167781721732808 2.8021044306351541 0 0 0 0 -25.786162593120707 17.10142385517338 0 17.10142385517338 48.55368297660425 0 0 0 0 -19.327691282606338 -32.458615605957675 0 -32.458615605957675 -28.830666277168348 0 0 0 0 16.475405691050128 58.353273846645607 0 58.353273846645607 3.4188488770541881 0 0 0 0 106.65955448699424 72.19998643942381 0 72.19998643942381 21.899474576268403 0 0 0 0 9.9193667544095661 79.583300940399567 0 79.583300940399567 71.816165453390909 0 0 0 0 -0.18434289563221995 0.36182111349517854 0 0.36182111349517854 -0.11516031574727137 0 0 0 0 45.250812542500171 97.916387032485545 0 97.916387032485545 122.79723776692117 0 0 0 0 32.640463876220565 15.773362781009382 0 15.773362781009382 30.220895139311324 0 0 0 0 7.0528353243348647 23.390469172010853 0 23.390469172010853 65.40070086270498 0 0 0 0 4.9891473831776239 40.20482520709993 0 40.20482520709993 27.694979621250241 0 0 0 0 -63.40485023523388 24.259894253464154 0 24.259894253464154 20.030216940946048 0 0 0 0 -26.9405046154302 31.548678543228561 0 31.548678543228561 10.776896916482656 0 0 0 0 -30.742433544706273 15.25072520771937 0 15.25072520771937 -5.06329547282985 0 0 0 0 -2.0995331014796648 22.227922563560242 0 22.227922563560242 6.6893829328728316 0 0 0 0 0.22956093331066052 0.73806202393811082 0 0.73806202393811082 -0.47256636892406334 0 0 0 0 -66.977090343009877 32.863408505218558 0 32.863408505218558 9.6470406472326431 0 0 0 0 53.755808886578507 31.565395576761148 0 31.565395576761148 -81.935590976121603 0 0 0 0 53.166241479255405 38.021667772633919 0 38.021667772633919 -6.4881767602200853 0 0 0 0 -7.0046229583076638 55.723363140941728 0 55.723363140941728 26.772119035054857 0 0 0 0 -13.967238497918061 14.301211512865848 0 14.301211512865848 -13.924556185145775 0 0 0 0 8.3115296144815147 74.788175949632205 0 74.788175949632205 3.5672795105674595 0 0 0 0 33.842480988787884 63.976590210341783 0 63.976590210341783 2.523040337007842 0 0 0 0 0.33020863143513202 0.87098998008404038 0 0.87098998008404038 -0.2498829975835406 0 0 0 0 -10.381315378672298 29.607958207579941 0 29.607958207579941 7.5077318959047261 0 0 0 0 -79.381415702889171 38.151339713613197 0 38.151339713613197 -8.9821726975014826 0 0 0 0 4.8520027188078529 9.0282595372209471 0 9.0282595372209471 -12.966370076801468 0 0 0 0 241.51634805018739 64.221800829733183 0 64.221800829733183 -27.748596559659745 0 0 0 0 80.022481263543796 60.634103571645028 0 60.634103571645028 6.3220146266085067 0 0 0 0 0.21606836617209213 0.37174815301011321 0 0.37174815301011321 -0.1101670202757532 0 0 0 0 84.379479934221735 117.86000803742979 0 117.86000803742979 -50.32135410826595 0 0 0 0 60.067783325057917 157.78269336607082 0 157.78269336607082 -24.983226380900305 0 0 0 0 45.480231828567639 136.13363595924648 0 136.13363595924648 35.494244467936369 0 0 0 0 55.072589641907825 134.126249721759 0 134.126249721759 -125.00538535945816 0 0 0 0 0.25547208298693391 0.66869381301614794 0 0.66869381301614794 0.43618928628637832 0 0 0 0 -7.5126341817149296 66.173080645925438 0 66.173080645925438 142.958241879458 0 0 0 0 -0.47028397269082234 52.137852621902312 0 52.137852621902312 -88.667308328975196 0 0 0 0 25.187908038861679 100.88740435279215 0 100.88740435279215 3.152514602229985 0 0 0 0 -21.349985366521196 107.02455158747853 0 107.02455158747853 34.387210310873343 0 0 0 0 73.535653035771702 87.453114191227542 0 87.453114191227542 -3.5605069640791953 0 0 0 0 80.971384245127695 110.69242611221148 0 110.69242611221148 6.8466947957767843 0 0 0 0 50.968023027110576 91.127456311068272 0 91.127456311068272 71.682100719892333 0 0 0 0 51.059139738919384 92.484716750764164 0 92.484716750764164 23.681163739952808 0 0 0 0 5.3138684413289639 52.190166806753041 0 52.190166806753041 -47.241779846857753 0 0 0 0 117.50636206086074 112.67282557469844 0 112.67282557469844 5.97877024522586 0 0 0 0 77.30909187656971 120.77575108718247 0 120.77575108718247 103.52842124352901 0 0 0 0 145.71252767107694 150.73756721028076 0 150.73756721028076 53.640526587500062 0 0 0 0 1.9560817337193663 0.77665960898382025 0 0.77665960898382025 0.30944230676431062 0 0 0 0 219.98951536564027 60.837825423251161 0 60.837825423251161 -47.139651386951385 0 0 0 0 212.25953252750855 109.31832808551599 0 109.31832808551599 23.910658610890096 0 0 0 0 169.89178583870887 18.676566738243764 0 18.676566738243764 46.026541656015979 0 0 0 0 123.01677989862725 58.622851195192652 0 58.622851195192652 -0.032118388877279358 0 0 0 0 -29.091201284763883 125.68394790016737 0 125.68394790016737 25.675591072539646 0 0 0 0 83.066580663204149 93.382059916756589 0 93.382059916756589 0.033394100555597106 0 0 0 0 43.479398498331079 45.650205570537992 0 45.650205570537992 6.6719633963275555 0 0 0 0 -46.493338844921254 97.774866006293905 0 97.774866006293905 -0.044251039036680595 0 0 0 0 -110.18909630318512 142.69004881947421 0 142.69004881947421 -21.728662093251614 0 0 0 0 -100.90737142735543 22.75247113966725 0 22.75247113966725 -52.166864863083902 0 0 0 0 -199.1005717056405 66.763375470773553 0 66.763375470773553 0.066023572639096528 0 0 0 0 -95.155996383577076 98.431758124866519 0 98.431758124866519 -86.390544013525869 0 0 0 0 -12.13412673176208 5.4794639033943895 0 5.4794639033943895 -0.14639633205661085 0 0 0 0 -40.759974396301459 -17.063930789124242 0 -17.063930789124242 8.9339662245522504 0 0 0 0 -1.7989137284738561 0.42940818564443006 0 0.42940818564443006 -0.11912973870769328 0 0 0 0 -171.0325268456786 44.53381744865419 0 44.53381744865419 78.248429040226256 0 0 0 0 -4.8715978721147621 13.440943606176916 0 13.440943606176916 18.082912895484696 0 0 0 0 1.6219632396980614 10.59398331224611 0 10.59398331224611 18.887333097254668 0 0 0 0 -36.296660325203447 21.725566363392318 0 21.725566363392318 64.880821577831739 0 0 0 0 -50.534630808846259 32.122467636858346 0 32.122467636858346 178.27107958899796 0 0 0 0 -71.350706309933003 80.770413389650003 0 80.770413389650003 36.798274310842316 0 0 0 0 -27.613021348379448 84.422330618075193 0 84.422330618075193 22.414277285079152 0 0 0 0 -58.219803971207511 94.16839633015752 0 94.16839633015752 45.974995470471185 0 0 0 0 -60.3780965467854 83.837276056031442 0 83.837276056031442 46.129250447915183 0 0 0 0 4.7038495848310049 22.805067766902994 0 22.805067766902994 0.026155451399972662 0 0 0 0 -11.158482179174825 15.183285924599659 0 15.183285924599659 56.826670446054777 0 0 0 0 60.749642177275746 2.3041912638536814 0 2.3041912638536814 -7.1815575503296714 0 0 0 0 49.995883805188328 40.540493732559185 0 40.540493732559185 22.592881948334252 0 0 0 0 0.83484128652350975 1.0400764166708889 0 1.0400764166708889 -0.29732151447229249 0 0 0 0 -0.13034752740198385 -0.28144301274061689 0 -0.28144301274061689 -0.25924617611082112 0 0 0 0 26.161032638862707 16.34267015070418 0 16.34267015070418 0.018133811707230052 0 0 0 0 -14.207883272783874 4.0886213198300538 0 4.0886213198300538 -0.12762179831565845 0 0 0 0 -4.8922128323978278 1.3028105170203794 0 1.3028105170203794 -0.10995705204308237 0 0 0 0 4.2821696070295729 10.381639132858254 0 10.381639132858254 4.5143583441895316 0 0 0 0 -2.8621732973833787 26.673708718929447 0 26.673708718929447 50.710102528690186 0 0 0 0 10.37133877964061 21.736997961225825 0 21.736997961225825 8.9159714626357527 0 0 0 0 -6.948524910595097 4.0525696834483824 0 4.0525696834483824 12.560299671404209 0 0 0 0 -4.13763833416448 3.8793478104136057 0 3.8793478104136057 -1.4041743447019783 0 0 0 0 52.847816724193308 9.7432597760403041 0 9.7432597760403041 -13.983942913797364 0 0 0 0 36.724668503076828 -6.4450537910570347 0 -6.4450537910570347 0.10894202364397643 0 0 0 0 -34.11109347339152 36.794347472157824 0 36.794347472157824 93.474867765900854 0 0 0 0 -3.8956272576895978 4.4903277750630046 0 4.4903277750630046 -2.5806747970537316 0 0 0 0 5.1101806253955147 19.028389400729338 0 19.028389400729338 13.023089693413567 0 0 0 0 -13.406926823374306 75.357538593235404 0 75.357538593235404 -28.321467181018079 0 0 0 0 -0.16327527508209272 0.57483145469263164 0 0.57483145469263164 1.036196189713614 0 0 0 0 -9.8060970064513526 102.58794193598453 0 102.58794193598453 -83.955464140310141 0 0 0 0 -3.9568116880127491 29.544025738684013 0 29.544025738684013 -74.115156393674624 0 0 0 0 12.49089169414583 64.225048508971668 0 64.225048508971668 -8.452521422321297 0 0 0 0 31.233164111414254 9.7309820566788972 0 9.7309820566788972 -2.4315691157935362 0 0 0 0 -4.9406826714871803 5.7131959114361237 0 5.7131959114361237 -3.6485852529677132 0 0 0 0 33.509229810370016 -24.849266625194105 0 -24.849266625194105 -63.177541980870046 0 0 0 0 33.919239812069691 39.979944306694961 0 39.979944306694961 10.739961796847638 0 0 0 0 28.523477962447487 45.387774361238371 0 45.387774361238371 38.367215893864341 0 0 0 0 15.30597270702691 52.828881667379051 0 52.828881667379051 34.067823553183189 0 0 0 0 14.448058535684595 41.094879917322032 0 41.094879917322032 44.155398499753574 0 0 0 0 1.4469071273747431 47.784611148320437 0 47.784611148320437 37.095168583391114 0 0 0 0 7.2962176393066329 34.819999022482079 0 34.819999022482079 53.591057621813889 0 0 0 0 0.8058781727963833 42.921421260084117 0 42.921421260084117 66.531885078951746 0 0 0 0 -0.80359748111732188 31.50144753720906 0 31.50144753720906 66.619777303090814 0 0 0 0 -8.1098836359492452 36.011343730837325 0 36.011343730837325 106.17856968835622 0 0 0 0 5.3172588617517249 27.093926167526661 0 27.093926167526661 96.813384166332526 0 0 0 0 -0.71641096204712085 37.692858411817724 0 37.692858411817724 100.52801940123754 0 0 0 0 2.58685031945015 32.087306335488393 0 32.087306335488393 131.47311716775948 0 0 0 0 21.239775859705333 53.418067005475677 0 53.418067005475677 98.54855067580138 0 0 0 0 9.6014866352552417 26.472615798049446 0 26.472615798049446 119.30605146173912 0 0 0 0 14.386550154084944 47.120041678784219 0 47.120041678784219 70.579978053274317 0 0 0 0 13.945649266274899 38.971959922107658 0 38.971959922107658 82.363355712954217 0 0 0 0 30.918773702417639 53.004735757289382 0 53.004735757289382 49.340208028715097 0 0 0 0 27.919415655428111 47.829975959649346 0 47.829975959649346 75.403886170661281 0 0 0 0 45.26218129578865 42.251794698847334 0 42.251794698847334 37.367155364037899 0 0 0 0 41.09908255332266 66.486887772392947 0 66.486887772392947 79.783330637993004 0 0 0 0 22.128287200546708 42.445670462177873 0 42.445670462177873 113.68437832639029 0 0 0 0 12.155578285350202 39.672041864445418 0 39.672041864445418 135.30121979322394 0 0 0 0 14.0556631990803 29.201363715847037 0 29.201363715847037 160.82661036709214 0 0 0 0 27.269370927357159 59.333651187323994 0 59.333651187323994 128.59883198095486 0 0 0 0 26.046624918932935 54.615073726819674 0 54.615073726819674 151.60634945758284 0 0 0 0 59.117731155107322 84.874626406281095 0 84.874626406281095 114.11917993553834 0 0 0 0 20.935268520771388 75.489814344504339 0 75.489814344504339 178.97192090010685 0 0 0 0 21.883493558462192 83.856911011784177 0 83.856911011784177 252.57134528047391 0 0 0 0 67.495708689805838 50.050059535351465 0 50.050059535351465 75.152693621061189 0 0 0 0 31.966426561516528 49.977540429595592 0 49.977540429595592 82.586455642544024 0 0 0 0 49.69304120195693 56.185633030191639 0 56.185633030191639 77.815888310051378 0 0 0 0 56.194168080923191 65.976797986386373 0 65.976797986386373 73.310119484704046 0 0 0 0 58.073825440108976 67.946537362096024 0 67.946537362096024 62.973350431442668 0 0 0 0 -0.34694065309594713 1.9086308635523395 0 1.9086308635523395 -0.11053003224527824 0 0 0 0 -23.469115704016531 50.927521668836562 0 50.927521668836562 -14.228640086265841 0 0 0 0 -34.842104730313395 38.550408104088547 0 38.550408104088547 127.82775111397132 0 0 0 0 -66.705508136490153 63.046157932523784 0 63.046157932523784 16.387053232610469 0 0 0 0 0.38856771486780772 1.0802082578158512 0 1.0802082578158512 0.79297359448981908 0 0 0 0 -62.649772109373316 75.199267129480404 0 75.199267129480404 40.217157654253242 0 0 0 0 0.076872910479366396 0.46704112695962863 0 0.46704112695962863 0.38590911429071895 0 0 0 0 -0.83412745635087049 65.738882392404776 0 65.738882392404776 -93.679486391467435 0 0 0 0 -11.765533857467517 63.387214009450418 0 63.387214009450418 28.41759663304947 0 0 0 0 -3.8604754604020854 27.745927958007087 0 27.745927958007087 23.01334079559274 0 0 0 0 -27.915788637816604 17.190195514810512 0 17.190195514810512 30.207447312615841 0 0 0 0 -26.965934406080009 41.522815256450713 0 41.522815256450713 64.655595391144743 0 0 0 0 -29.842421808538347 26.987578459858923 0 26.987578459858923 75.035318917474797 0 0 0 0 -16.191940044359399 27.240598032766684 0 27.240598032766684 97.220136094241752 0 0 0 0 -14.764713722085446 34.345901267091676 0 34.345901267091676 78.619265630237351 0 0 0 0 -23.152507484131092 29.147960536281971 0 29.147960536281971 79.252817886999765 0 0 0 0 -26.853715399971406 32.669216198293725 0 32.669216198293725 99.071875521053698 0 0 0 0 -20.254207201265444 22.298073731228669 0 22.298073731228669 89.626531227631858 0 0 0 0 18.326728060309506 61.541835759893729 0 61.541835759893729 74.230430522545475 0 0 0 0 -22.920763862690819 2.6659696246888416 0 2.6659696246888416 66.32356289432937 0 0 0 0 23.457079852577408 63.835388755020176 0 63.835388755020176 95.132538912255768 0 0 0 0 -0.50863621289565941 0.60957494845613525 0 0.60957494845613525 -0.21868995159509907 0 0 0 0 5.6103624016145659 77.541421472034017 0 77.541421472034017 114.05995558080031 0 0 0 0 36.603609372460141 51.662299145259567 0 51.662299145259567 60.527739234750698 0 0 0 0 15.710291081759806 16.727671679499053 0 16.727671679499053 41.293858734788955 0 0 0 0 16.771890061724662 19.200326024436436 0 19.200326024436436 38.815920687629841 0 0 0 0 26.909964918978403 32.781099501148447 0 32.781099501148447 42.20834847945298 0 0 0 0 7.4688369237502457 -6.8218859224293737 0 -6.8218859224293737 12.406158621965005 0 0 0 0 -4.31741826636528 16.53985431660999 0 16.53985431660999 53.702570707679115 0 0 0 0 15.753452240634942 17.410414043901255 0 17.410414043901255 54.928853023765441 0 0 0 0 4.8482900901656514 1.1231893238258515 0 1.1231893238258515 0.0047739268329634044 0 0 0 0 21.079227972376884 33.128847269985272 0 33.128847269985272 62.597664840306606 0 0 0 0 -5.532429663127914 -37.433224463457009 0 -37.433224463457009 61.752752473005785 0 0 0 0 42.501347692420495 40.078826425087755 0 40.078826425087755 46.535813269944356 0 0 0 0 -0.23296250188203516 0.31772485271645934 0 0.31772485271645934 -0.096813082785661919 0 0 0 0 27.599286892749888 55.488994734307198 0 55.488994734307198 74.245532316146637 0 0 0 0 -32.007979111422628 20.941017239256325 0 20.941017239256325 89.490338115408804 0 0 0 0 -36.940126947372846 26.595103919651592 0 26.595103919651592 102.15998322187988 0 0 0 0 -24.360696029278188 24.225288561703564 0 24.225288561703564 98.837033079998264 0 0 0 0 -14.173904489405686 21.60581567851159 0 21.60581567851159 116.18413346354646 0 0 0 0 -10.741271291140947 27.365100036320655 0 27.365100036320655 93.570122355555213 0 0 0 0 -24.43256654634024 34.319002472984721 0 34.319002472984721 96.397311393415293 0 0 0 0 1.0416469936256512 6.8107014949025029 0 6.8107014949025029 0.97157971636299045 0 0 0 0 -13.631916678123162 24.144435968393736 0 24.144435968393736 31.75096320555258 0 0 0 0 4.0206018492145006 1.1106783398379392 0 1.1106783398379392 1.9501572785026777 0 0 0 0 -19.084947380227277 0.52529098230297677 0 0.52529098230297677 131.811766117964 0 0 0 0 -1.7585485973891082 -21.265621455966084 0 -21.265621455966084 58.558280342505896 0 0 0 0 5.9391991804568534 31.050823487757953 0 31.050823487757953 71.800428800422196 0 0 0 0 -18.41884956157628 -28.422439351421417 0 -28.422439351421417 81.206105705304253 0 0 0 0 11.820275447246786 -31.740356365022308 0 -31.740356365022308 35.44378072561085 0 0 0 0 61.285125574366248 -6.1310635088702838 0 -6.1310635088702838 -4.4066840902523836 0 0 0 0 31.914413113163846 38.936816039213682 0 38.936816039213682 4.2393296649861441 0 0 0 0 -8.4217151009106601 40.550918767253734 0 40.550918767253734 6.110628116864973 0 0 0 0 6.1881630333264184 -5.3089222021226306 0 -5.3089222021226306 -3.1543946271667664 0 0 0 0 15.940849919726134 8.5399867847427231 0 8.5399867847427231 -29.842838919112182 0 0 0 0 -5.2998953673304641 4.4623663652182586 0 4.4623663652182586 -41.383199591943139 0 0 0 0 -12.631608505901568 9.4451744903790313 0 9.4451744903790313 15.684013759443587 0 0 0 0 6.2443377674298972 35.450704029392 0 35.450704029392 -29.35159849422962 0 0 0 0 -112.48663550275978 12.085831384405537 0 12.085831384405537 77.806182583996588 0 0 0 0 -1.2314611775092601 0.55028459838230859 0 0.55028459838230859 0.02783383067733336 0 0 0 0 8.5594345570671067 44.05966930068098 0 44.05966930068098 -95.575578878412671 0 0 0 0 -26.137817468918456 -0.74058390333289026 0 -0.74058390333289026 -30.663340553743183 0 0 0 0 -0.51372329539735517 -0.054495845368549567 0 -0.054495845368549567 -0.073504925144836086 0 0 0 0 14.393694725636124 39.779139102532099 0 39.779139102532099 -164.93404667365576 0 0 0 0 -48.673962368027219 62.071761941738941 0 62.071761941738941 -10.935266637823588 0 0 0 0 -4.7658983774626904 12.203961776361211 0 12.203961776361211 -39.375147721135363 0 0 0 0 -38.923041625591566 -18.316216569055882 0 -18.316216569055882 -13.175554012359498 0 0 0 0 0.13965190722228726 3.2053615860349964 0 3.2053615860349964 -1.8327750752891916 0 0 0 0 -7.8109106282390712 51.426189099053772 0 51.426189099053772 33.715259921173129 0 0 0 0 48.587120288979349 -24.011360800912371 0 -24.011360800912371 5.7992979601294792 0 0 0 0 1.9177034832350657 7.1817369547127186 0 7.1817369547127186 2.6217445049210673 0 0 0 0 -40.551375201303017 34.904656982191227 0 34.904656982191227 67.090195244687493 0 0 0 0 -45.412828271906619 -6.7197148151826696 0 -6.7197148151826696 82.150087282637287 0 0 0 0 -49.293586676172708 12.430461126645241 0 12.430461126645241 33.254438183299044 0 0 0 0 -45.843925902335286 -6.1008122744185584 0 -6.1008122744185584 32.761975959674601 0 0 0 0 -10.466387738626509 27.839119945580023 0 27.839119945580023 -21.572174715706751 0 0 0 0 -4.1151893732603639 27.652739395890649 0 27.652739395890649 -109.72391769015667 0 0 0 0 -3.8247050636682616 23.265024038310003 0 23.265024038310003 -65.502267092746479 0 0 0 0 -117.23205346357099 -18.7603040111062 0 -18.7603040111062 203.38605308928163 0 0 0 0 -11.086566443056654 -13.024738225978581 0 -13.024738225978581 245.41249303672521 0 0 0 0 20.651119064653358 -2.8621310690577957 0 -2.8621310690577957 203.1896318844374 0 0 0 0 9.5230427840967877 35.851717944437951 0 35.851717944437951 249.73513017153164 0 0 0 0 8.9331645362108247 26.920184212218373 0 26.920184212218373 201.51471725889587 0 0 0 0 9.7777707786653991 26.771416406087155 0 26.771416406087155 199.92270287618885 0 0 0 0 17.551348613336813 8.0657416288158856 0 8.0657416288158856 206.60324359698279 0 0 0 0 19.098620250850217 15.184708560347644 0 15.184708560347644 213.89570632814139 0 0 0 0 25.219231534165374 11.647645354240012 0 11.647645354240012 208.25589059344929 0 0 0 0 5.1135466948053363 13.717789652557258 0 13.717789652557258 223.90291223004169 0 0 0 0 7.8243859270456824 17.253846480920402 0 17.253846480920402 190.83583140470364 0 0 0 0 7.190145144413691 11.572821592373657 0 11.572821592373657 213.02105375393694 0 0 0 0 14.965616953506924 32.230516773387535 0 32.230516773387535 163.16920097966795 0 0 0 0 9.2289920817911479 13.98436667515125 0 13.98436667515125 188.39641801010293 0 0 0 0 8.7059990176624638 21.34471776164753 0 21.34471776164753 162.85950669975864 0 0 0 0 6.2935652424712316 -3.6454132589497021 0 -3.6454132589497021 206.07454814032099 0 0 0 0 3.1490546693657961 2.9912709643449489 0 2.9912709643449489 192.23506258186535 0 0 0 0 2.7275048190176676 -6.7858745345611169 0 -6.7858745345611169 193.64404237525741 0 0 0 0 -5.6458731048096524 -12.25992378236333 0 -12.25992378236333 234.21697646699249 0 0 0 0 4.4673652617984771 -28.504757455968502 0 -28.504757455968502 213.50450917161288 0 0 0 0 0.63903914812326512 0.41998931455218624 0 0.41998931455218624 0.39690614062506047 0 0 0 0 3.4539081221755623 22.778530590240734 0 22.778530590240734 -70.85372252538582 0 0 0 0 4.559484800658538 21.629108357403311 0 21.629108357403311 -70.19383800776086 0 0 0 0 3.9293300472271557 6.2736838483800881 0 6.2736838483800881 0.35378426718856737 0 0 0 0 -13.270714212714665 12.934371852417826 0 12.934371852417826 -44.457154634619656 0 0 0 0 49.841580581035032 7.9492823639466224 0 7.9492823639466224 -52.925152787314801 0 0 0 0 0.25356568643837818 -2.9048240452830214 0 -2.9048240452830214 232.94468308179057 0 0 0 0 2.472223062913919 6.4071970385439023 0 6.4071970385439023 2.4335183711206714 0 0 0 0 2.8457054312766559 -12.576912289525353 0 -12.576912289525353 149.4155499692788 0 0 0 0 10.454622989731888 3.3944208843977322 0 3.3944208843977322 -51.815641671490084 0 0 0 0 2.2369992187833017 0.85798493037731305 0 0.85798493037731305 -1.1603236372138195 0 0 0 0 1.9994197500327573 24.970071473922872 0 24.970071473922872 -17.589520187534617 0 0 0 0 1.9366897368236096 23.170704388356171 0 23.170704388356171 -19.792537056224319 0 0 0 0 -1.1310830848578917 18.421846513759192 0 18.421846513759192 -26.038986288993328 0 0 0 0 10.818561609906737 -22.607061568035533 0 -22.607061568035533 160.48231442012911 0 0 0 0 9.8472608322799715 -2.5298821483502252 0 -2.5298821483502252 177.03022406753007 0 0 0 0 2.9451061094709985 9.879391321339881 0 9.879391321339881 160.03283108453252 0 0 0 0 10.478898839401154 15.981203435172574 0 15.981203435172574 154.57350146847784 0 0 0 0 6.6667931105744174 27.067058025286769 0 27.067058025286769 127.49221719382695 0 0 0 0 3.04928996972194 2.3255391409902586 0 2.3255391409902586 148.01995292821266 0 0 0 0 2.4199156273643894 12.54230680226101 0 12.54230680226101 112.79068351182195 0 0 0 0 -3.6758871319107129 15.552498277277209 0 15.552498277277209 125.9103922762406 0 0 0 0 11.745684776423332 5.0291155901104503 0 5.0291155901104503 104.12415255456472 0 0 0 0 12.393546307325778 -14.537757007587061 0 -14.537757007587061 138.70914307905241 0 0 0 0 7.6650540216742229 14.572477620970403 0 14.572477620970403 -14.013503249594578 0 0 0 0 2.6781921057804539 26.810925240722781 0 26.810925240722781 -19.538497318559166 0 0 0 0 4.3877129376087396 26.879537299967524 0 26.879537299967524 -22.258130667561318 0 0 0 0 -18.165169744435161 26.715824268251481 0 26.715824268251481 -17.710024854075527 0 0 0 0 3.1831719276842705 30.040572842840902 0 30.040572842840902 -36.775185666250763 0 0 0 0 -4.2352158961984969 70.977543062848781 0 70.977543062848781 -146.67037992047335 0 0 0 0 -0.83413437055342854 0.87850504018776832 0 0.87850504018776832 -0.046953237710680717 0 0 0 0 33.82751632956024 -25.784860944155298 0 -25.784860944155298 -133.13253702320981 0 0 0 0 -38.773680775146659 64.745844736756226 0 64.745844736756226 -91.362264294863053 0 0 0 0 2.0237984049972511 16.557601463522587 0 16.557601463522587 -3.1778725422591378 0 0 0 0 3.2859238252312934 27.585422178168301 0 27.585422178168301 -12.387794153768482 0 0 0 0 6.816922104855621 20.34532995200243 0 20.34532995200243 -23.194579408218488 0 0 0 0 7.3680681885125523 18.14594972922896 0 18.14594972922896 -18.395476039593632 0 0 0 0 4.7386882547559708 25.46994228260769 0 25.46994228260769 -21.221096763278183 0 0 0 0 4.4692506006181247 27.600320107941116 0 27.600320107941116 -27.382278836277692 0 0 0 0 -9.0222783356430227 54.253779536359616 0 54.253779536359616 -19.067616654781887 0 0 0 0 11.83609604094454 43.26148203179946 0 43.26148203179946 -56.051329181896563 0 0 0 0 -0.1743960523072019 35.067367177834058 0 35.067367177834058 -4.6007135950785596 0 0 0 0 4.7711331842074287 10.037000990050728 0 10.037000990050728 -50.524112991133734 0 0 0 0 -20.094276458770764 42.984761998729482 0 42.984761998729482 53.002824857616361 0 0 0 0 -0.12972217821547716 0.36258810444036982 0 0.36258810444036982 -0.099601007397112085 0 0 0 0 3.5742195840266504 67.417057918358296 0 67.417057918358296 -238.88381660844175 0 0 0 0 -24.335973758723412 54.520669208370236 0 54.520669208370236 -89.883444923149 0 0 0 0 -36.074175940581426 61.255891920131489 0 61.255891920131489 -85.401699992391514 0 0 0 0 -9.3282945326774893 61.420003072079936 0 61.420003072079936 -72.898613481880602 0 0 0 0 -5.7200653092504581 56.941639024757933 0 56.941639024757933 -86.400538376889017 0 0 0 0 -0.32976766016190595 20.119531463997191 0 20.119531463997191 -62.884640915031923 0 0 0 0 -68.790964391187572 65.610431176943621 0 65.610431176943621 -65.180599628116397 0 0 0 0 -77.417407795091094 89.670674776150008 0 89.670674776150008 -99.245788700358389 0 0 0 0 -55.438748387708074 37.973807019372543 0 37.973807019372543 -44.182183836048353 0 0 0 0 -64.295494036377931 58.083249098023771 0 58.083249098023771 -89.661491523469977 0 0 0 0 -29.473792459453762 56.928786072035109 0 56.928786072035109 -112.38295666463819 0 0 0 0 -41.597979221812238 56.404008180852543 0 56.404008180852543 -63.870607497009587 0 0 0 0 -84.253766442076085 64.249033879486888 0 64.249033879486888 -33.384360864596601 0 0 0 0 -26.968184802859469 57.40364089911418 0 57.40364089911418 -41.420030643942255 0 0 0 0 -43.826208342366385 50.025927158958439 0 50.025927158958439 -16.540840768957423 0 0 0 0 120.13057758137165 -0.63515045008807647 0 -0.63515045008807647 -50.719354251646564 0 0 0 0 51.485486364116696 -22.432863681656272 0 -22.432863681656272 -34.590570914928321 0 0 0 0 176.24203820921321 76.30235545390633 0 76.30235545390633 -106.81957155293821 0 0 0 0 -300.60334042271916 286.70763984085943 0 286.70763984085943 -150.16384551290321 0 0 0 0 1.1969335061241999 0.71995240237960267 0 0.71995240237960267 -1.1224129632931472 0 0 0 0 31.004857556203206 143.24249407461048 0 143.24249407461048 -238.55988148550114 0 0 0 0 391.06332736656805 -159.85841122149327 0 -159.85841122149327 -52.625979427812126 0 0 0 0 89.819727848071125 13.815716901488486 0 13.815716901488486 27.985423813192028 0 0 0 0 90.920854556578092 -86.450885686529546 0 -86.450885686529546 69.52796194083021 0 0 0 0 68.710058081696843 -11.897486487315632 0 -11.897486487315632 15.900642000363405 0 0 0 0 99.758586587084665 43.031939425197606 0 43.031939425197606 -81.985029112231132 0 0 0 0 35.692286716684976 75.588922315429045 0 75.588922315429045 -56.192848743612558 0 0 0 0 4.4204346246460773 73.581220454791946 0 73.581220454791946 -44.648567938349515 0 0 0 0 -4.0045291340461517 54.763067711136046 0 54.763067711136046 -72.533296951780358 0 0 0 0 -94.95629261074555 98.995599542318814 0 98.995599542318814 -53.980551292223026 0 0 0 0 1.7264621628128225 58.741439450934195 0 58.741439450934195 -88.501530546156573 0 0 0 0 12.416989201452452 78.883112717196127 0 78.883112717196127 -55.421099854929707 0 0 0 0 100.77723375183359 -12.048755123555566 0 -12.048755123555566 -72.081747505839303 0 0 0 0 -81.578611147931042 -4.3481857393662722 0 -4.3481857393662722 -106.93218558231092 0 0 0 0 -144.44904560782652 116.30187208370262 0 116.30187208370262 -71.605110150216206 0 0 0 0 -39.492112017677755 106.58971936950184 0 106.58971936950184 -205.07712749593156 0 0 0 0 -0.25253427840635645 0.45407334098064922 0 0.45407334098064922 -0.25187580101825802 0 0 0 0 -71.25635733938725 143.59746919557074 0 143.59746919557074 -171.44396731724919 0 0 0 0 -241.48319656682906 88.944354232954538 0 88.944354232954538 -29.405778761287365 0 0 0 0 -0.11628555411313179 0.63944999443592199 0 0.63944999443592199 -0.51749261839421123 0 0 0 0 -102.3184141520187 59.579280785729679 0 59.579280785729679 -25.685178981295394 0 0 0 0 -3.3922953996113847 -0.62934342457057824 0 -0.62934342457057824 0.81781147208675975 0 0 0 0 -2.811761705976096 7.7959092026867438 0 7.7959092026867438 -13.805058060474039 0 0 0 0 -3.0343843954850094 2.6777739491915433 0 2.6777739491915433 -2.3579812198879964 0 0 0 0 11.638787229670015 5.1764608186213081 0 5.1764608186213081 -2.8411585337649399 0 0 0 0 23.345494438385685 3.2049074014962571 0 3.2049074014962571 -2.6661939143414202 0 0 0 0 0.90134287176676509 0.90510665371025389 0 0.90510665371025389 -0.81828362456858983 0 0 0 0 -48.465534672966896 73.998440724943976 0 73.998440724943976 -106.42471548095818 0 0 0 0 -62.025035112639671 65.896940566982266 0 65.896940566982266 -76.341122557940253 0 0 0 0 -28.035958133792519 5.4953156129590752 0 5.4953156129590752 -52.121840744419387 0 0 0 0 -21.123040225355908 15.556336456335885 0 15.556336456335885 -37.587129441013531 0 0 0 0 -11.222155240371649 -0.2650566535330654 0 -0.2650566535330654 -39.32326043431658 0 0 0 0 -46.388050668367782 8.207092970141673 0 8.207092970141673 -27.306007780885921 0 0 0 0 -47.748362652284413 19.899169195904506 0 19.899169195904506 66.354560877785161 0 0 0 0 -29.25135048154516 104.16284272002531 0 104.16284272002531 -87.931351641492256 0 0 0 0 -11.763569279043168 -19.166454707964022 0 -19.166454707964022 -44.719362324709437 0 0 0 0 -112.71163876195237 59.704781233321455 0 59.704781233321455 -101.0948752521781 0 0 0 0 -180.07686013181365 167.43949581208926 0 167.43949581208926 -127.44810779322574 0 0 0 0 -126.90428075509226 60.450397808604521 0 60.450397808604521 -49.56029849661536 0 0 0 0 -113.95717553052441 75.798237650976716 0 75.798237650976716 -96.321846479011583 0 0 0 0 216.47957711992194 -54.968929759030743 0 -54.968929759030743 -24.090296203625257 0 0 0 0 3.2346513739586307 1.9403087795023359 0 1.9403087795023359 -2.7035920119782588 0 0 0 0 53.477639878737136 32.156740014557727 0 32.156740014557727 -20.430108827061304 0 0 0 0 90.891603600443887 -25.802948683859995 0 -25.802948683859995 -0.1879121167703488 0 0 0 0 4.517725848398241 2.8730112980164875 0 2.8730112980164875 -3.370562118322578 0 0 0 0 -197.85670134839029 145.15846999573159 0 145.15846999573159 -88.176225219542857 0 0 0 0 -172.94078851950189 70.826089627169495 0 70.826089627169495 -52.713259668741557 0 0 0 0 -68.057946287121013 41.162493956839171 0 41.162493956839171 -83.836551864919784 0 0 0 0 -66.051989873823914 48.310714396894582 0 48.310714396894582 -59.615585013245209 0 0 0 0 -28.189791788519869 10.031616349050182 0 10.031616349050182 -42.458005352603323 0 0 0 0 -111.37190823507717 41.480664165118469 0 41.480664165118469 -19.922710254782942 0 0 0 0 -24.80778928259133 56.182981862347788 0 56.182981862347788 -65.641393493301621 0 0 0 0 -4.7525051632610484 26.605513734010856 0 26.605513734010856 -22.065676820502404 0 0 0 0 29.898302342995976 41.546243766610132 0 41.546243766610132 5.8398211693929625 0 0 0 0 36.558565260717842 41.631880999376108 0 41.631880999376108 -36.211614533376633 0 0 0 0 32.574298207421634 28.887492729951646 0 28.887492729951646 -20.306308427710974 0 0 0 0 17.306727590055743 10.449862343321001 0 10.449862343321001 -25.740791938724442 0 0 0 0 1.8345250698071141 28.932911074821732 0 28.932911074821732 -45.294591039897568 0 0 0 0 -3.8856070380270467 -1.1281294226200771 0 -1.1281294226200771 -34.362643374999607 0 0 0 0 19.81891915019969 6.9826466033296128 0 6.9826466033296128 -36.985845282787523 0 0 0 0 19.967842963625571 3.8608823175513862 0 3.8608823175513862 -17.384884606592095 0 0 0 0 33.888803897665639 5.9547488669877566 0 5.9547488669877566 -27.569623476180823 0 0 0 0 21.742117539025458 -1.230236244248772 0 -1.230236244248772 -24.963579384520926 0 0 0 0 11.217261791834972 -5.3616316640209334 0 -5.3616316640209334 -25.769394309523705 0 0 0 0 -1.641301988298892 9.6842743062911723 0 9.6842743062911723 -33.88886082098179 0 0 0 0 28.677181560072313 7.8296931766990383 0 7.8296931766990383 -15.193905914388779 0 0 0 0 24.110823652208637 20.322450289963854 0 20.322450289963854 4.4684366654582846 0 0 0 0 42.97957053821392 31.002696854458463 0 31.002696854458463 -2.1181832904494513 0 0 0 0 21.860278322710656 -2.9622398267902099 0 -2.9622398267902099 -17.660766994156802 0 0 0 0 29.307414860473727 4.5728806207062007 0 4.5728806207062007 -23.450361557996985 0 0 0 0 25.414509156398822 3.6109305461995973 0 3.6109305461995973 -11.67491189275097 0 0 0 0 26.777073690564066 13.168591142514742 0 13.168591142514742 -4.995987617299761 0 0 0 0 36.231768570389249 15.141628522507744 0 15.141628522507744 -7.0643420712149236 0 0 0 0 36.60658537989184 17.720247819018368 0 17.720247819018368 -16.856845485069016 0 0 0 0 36.944315983233537 30.559940922253645 0 30.559940922253645 7.9604523970310765 0 0 0 0 42.907897813714044 23.44834445970173 0 23.44834445970173 -8.7886603355120769 0 0 0 0 38.84001318628907 37.913254354035416 0 37.913254354035416 23.44686993724099 0 0 0 0 46.64902850153976 28.793111395325923 0 28.793111395325923 5.6023666759519983 0 0 0 0 52.262503431849836 34.879182254672742 0 34.879182254672742 11.951651176433188 0 0 0 0 55.255493776385265 58.923245994758418 0 58.923245994758418 23.897207297604837 0 0 0 0 60.863126542525606 49.026553335418157 0 49.026553335418157 6.6112304103210988 0 0 0 0 -2.5612498276187523 9.4260154503662932 0 9.4260154503662932 -14.458175595448031 0 0 0 0 44.018142837580854 19.636682447949624 0 19.636682447949624 -15.558573480469022 0 0 0 0 51.570148628097741 40.473343157892486 0 40.473343157892486 -2.8222412138019308 0 0 0 0 70.625321173964039 71.574673760762835 0 71.574673760762835 18.02383124650396 0 0 0 0 62.398549693152745 39.321552705808244 0 39.321552705808244 -0.087099934878096974 0 0 0 0 -2.8687427494859037 7.3048754950657919 0 7.3048754950657919 -13.914565132961879 0 0 0 0 9.264578152350623 21.531720345934218 0 21.531720345934218 -9.1848257560349893 0 0 0 0 -0.47490605503662664 34.680256701071585 0 34.680256701071585 26.242432193609261 0 0 0 0 -0.84879919233571854 13.281483299837532 0 13.281483299837532 11.581166171629775 0 0 0 0 4.1796304976819556 16.259865540255873 0 16.259865540255873 -10.653918080666244 0 0 0 0 -12.708051005071866 3.335045929302396 0 3.335045929302396 -8.3518930100515334 0 0 0 0 38.840013186316355 37.913254354039964 0 37.913254354039964 23.446869937235533 0 0 0 0 26.833770706774885 43.519568893125324 0 43.519568893125324 92.516566448039612 0 0 0 0 19.157461940909343 23.658317090891614 0 23.658317090891614 43.801165153151715 0 0 0 0 10.451205014714105 19.67197736695482 0 19.67197736695482 -0.019919471000775957 0 0 0 0 7.8357037399116507 18.293754968474389 0 18.293754968474389 54.249302716222246 0 0 0 0 34.067371027525041 12.0774954351416 0 12.0774954351416 2.5141852918339964 0 0 0 0 58.839447702033567 -3.8995733181019432 0 -3.8995733181019432 -19.03648571929898 0 0 0 0 24.09741499725169 -4.402382074817524 0 -4.402382074817524 6.1861046660944226 0 0 0 0 8.5515430824725627 8.6889324134876915 0 8.6889324134876915 -3.8531426943943643 0 0 0 0 9.5949457989884763 -11.755224170590807 0 -11.755224170590807 -31.673770386352317 0 0 0 0 3.0292140402283643 5.9847660305461883 0 5.9847660305461883 -11.192024350144802 0 0 0 0 13.381389455641511 18.778922861160481 0 18.778922861160481 17.25843683439598 0 0 0 0 -4.35587875137049 9.2515845464738362 0 9.2515845464738362 -2.680563876936116 0 0 0 0 7.4063408929357593 10.758365690394079 0 10.758365690394079 -5.3246596713132455 0 0 0 0 26.832951671819501 5.6635165386235258 0 5.6635165386235258 -36.033858676329146 0 0 0 0 34.180531494861498 14.242550004829354 0 14.242550004829354 -32.245564215653758 0 0 0 0 -6.8892787853532873 5.7322168935457896 0 5.7322168935457896 -1.4369852265795338 0 0 0 0 38.065244481724221 31.634056732664249 0 31.634056732664249 8.6203100794282363 0 0 0 0 3.689453637534541 6.2923453816379187 0 6.2923453816379187 -13.059326607119143 0 0 0 0 36.60140801819216 47.416444190260336 0 47.416444190260336 18.151649626857761 0 0 0 0 38.840013186279975 37.913254354014498 0 37.913254354014498 23.446869937230076 0 0 0 0 17.731730359793801 25.435414260650759 0 25.435414260650759 27.36557117121265 0 0 0 0 -6.4835348480692119 8.0677851266864309 0 8.0677851266864309 9.4977598035067103 0 0 0 0 -8.0155255692579885 -11.165184911760662 0 -11.165184911760662 -26.781077968957788 0 0 0 0 20.772385166721506 37.551890879035454 0 37.551890879035454 6.919763682228222 0 0 0 0 17.255174079578865 23.400557970310729 0 23.400557970310729 12.863594089661888 0 0 0 0 22.822479430467865 8.8873741033880833 0 8.8873741033880833 -20.702106288274081 0 0 0 0 20.177423994683107 11.857421741124462 0 11.857421741124462 1.3774234398171696 0 0 0 0 29.296770133798418 32.245170351937531 0 32.245170351937531 -5.1836692506303734 0 0 0 0 55.454158322523199 63.245825855781732 0 63.245825855781732 22.950095201581007 0 0 0 0 0.88217052203722446 0.63537062214416196 0 0.63537062214416196 0.10407872433071796 0 0 0 0 -5.3423799513428207 10.817606010316467 0 10.817606010316467 105.84438711137227 0 0 0 0 -3.6104341109643201 10.551580080622443 0 10.551580080622443 68.963954603521415 0 0 0 0 15.65563213848236 28.120194521132817 0 28.120194521132817 6.8392377506988851 0 0 0 0 16.918361500946844 22.319313070589487 0 22.319313070589487 7.5015943578846418 0 0 0 0 13.199243957255087 13.468974216981596 0 13.468974216981596 -0.45194477508821684 0 0 0 0 2.4345906863158664 6.8817721136073366 0 6.8817721136073366 -2.7644938429017003 0 0 0 0 13.361059348571075 -31.86444707736996 0 -31.86444707736996 12.51852905148553 0 0 0 0 -2.2857622810628544 4.0453884510576881 0 4.0453884510576881 -7.6079375539477994 0 0 0 0 -1.1532633055055612 25.16968658775022 0 25.16968658775022 3.344121021022147 0 0 0 0 48.794584398439611 52.743581101058226 0 52.743581101058226 -7.1319072452952241 0 0 0 0 9.7672861970308986 54.418527035256375 0 54.418527035256375 44.016460339629248 0 0 0 0 28.05014178978081 32.493967599430107 0 32.493967599430107 -17.87716855272356 0 0 0 0 19.979013982425045 35.034034698212054 0 35.034034698212054 -12.847775601348985 0 0 0 0 26.417941424965193 29.216095106925422 0 29.216095106925422 3.9377598767359814 0 0 0 0 29.189467799667909 35.012193560124615 0 35.012193560124615 -14.587810855737189 0 0 0 0 4.5763930534640167 11.767495418484032 0 11.767495418484032 -12.588433102057479 0 0 0 0 59.522673960922475 19.053679526972701 0 19.053679526972701 -18.957530751846207 0 0 0 0 3.4637760121578367 24.107606863972933 0 24.107606863972933 -11.668428381261037 0 0 0 0 15.377061171015384 -6.7566692899395093 0 -6.7566692899395093 -17.869554318727751 0 0 0 0 42.321469497258533 24.542289803721587 0 24.542289803721587 -31.773526221288193 0 0 0 0 32.073349195673927 6.9619184228067752 0 6.9619184228067752 -52.764055557468737 0 0 0 0 11.584684033207395 19.190867883141436 0 19.190867883141436 -12.580056839706231 0 0 0 0 7.3629302443869165 16.021674911214177 0 16.021674911214177 -13.817847098951461 0 0 0 0 0.76520737690543683 26.080008841478048 0 26.080008841478048 -27.073733558007461 0 0 0 0 -2.1569976139397227 1.4363693359489389 0 1.4363693359489389 -23.197789320263837 0 0 0 0 10.321217620038851 1.3835641095010942 0 1.3835641095010942 1.5628393363840587 0 0 0 0 17.814013881842584 19.528868521807453 0 19.528868521807453 -8.8380267158408969 0 0 0 0 -130.77026936406651 45.811348100565738 0 45.811348100565738 13.088123493678722 0 0 0 0 -26.350247408746327 77.072166949525126 0 77.072166949525126 45.938808996284934 0 0 0 0 0.015570138081679952 0.1121490749917724 0 0.1121490749917724 -0.28715407031418039 0 0 0 0 24.915691950531937 -31.020115512616371 0 -31.020115512616371 30.74163457155737 0 0 0 0 99.971409987052084 -23.581193273090321 0 -23.581193273090321 -19.015019740678326 0 0 0 0 -80.043912990261106 -5.1540771528325422 0 -5.1540771528325422 -15.37146905958798 0 0 0 0 -41.174751549295252 31.658158510202156 0 31.658158510202156 -26.602579608745145 0 0 0 0 -30.028527651606055 11.382522416230131 0 11.382522416230131 -16.442028455781838 0 0 0 0 -80.368294635286588 71.55974910377131 0 71.55974910377131 -13.718629457485804 0 0 0 0 -25.227190078477179 61.334363273799681 0 61.334363273799681 -39.981163249038218 0 0 0 0 7.7155845419147226 -21.164697647735011 0 -21.164697647735011 1.8807896076923498 0 0 0 0 28.63727720499628 6.374306212484953 0 6.374306212484953 -27.73715215262439 0 0 0 0 -32.575150729422603 30.125782897786848 0 30.125782897786848 -26.402463888818374 0 0 0 0 -0.73286154774268653 -0.82394485926488414 0 -0.82394485926488414 -14.037542771475273 0 0 0 0 -59.825056197101503 12.133788402481514 0 12.133788402481514 -15.197055774377077 0 0 0 0 -4.1310390345370251 -1.3529469689465259 0 -1.3529469689465259 -8.3391912229890295 0 0 0 0 -15.221911599354826 1.3901872165706664 0 1.3901872165706664 -4.3364812084219011 0 0 0 0 -31.447541423524854 23.74669092768454 0 23.74669092768454 -19.838984185078971 0 0 0 0 -32.83046492583162 21.121431617704729 0 21.121431617704729 -14.801895127026739 0 0 0 0 -1.4249199715968643 13.289092032397093 0 13.289092032397093 -15.734556725270522 0 0 0 0 -0.20620058795157092 19.277036557587053 0 19.277036557587053 8.4494099539952003 0 0 0 0 12.853747337942877 10.13153806333321 0 10.13153806333321 14.148532290478215 0 0 0 0 12.886616788450738 7.8562933103385149 0 7.8562933103385149 4.6342355660999601 0 0 0 0 -3.3735929149097501 9.6703789409621095 0 9.6703789409621095 -5.5801355430232888 0 0 0 0 6.659312343030706 0.98765208678196359 0 0.98765208678196359 0.24393239611890749 0 0 0 0 21.166064596778824 26.439337540790348 0 26.439337540790348 20.421248140402895 0 0 0 0 10.061964496893097 7.3669660312398264 0 7.3669660312398264 23.54952960794617 0 0 0 0 15.623753788793692 1.4586105816179042 0 1.4586105816179042 12.175944075112056 0 0 0 0 5.0916909648877464 1.184492056289109 0 1.184492056289109 0.1825620915856776 0 0 0 0 23.018873840469041 5.0009301481768489 0 5.0009301481768489 -3.2660466371853545 0 0 0 0 24.434213354613803 12.362714144474921 0 12.362714144474921 8.8297410646700882 0 0 0 0 -1.8133245132885349 -0.95871220182743855 0 -0.95871220182743855 9.6829920128984668 0 0 0 0 7.3833640224538613 9.5240833862735599 0 9.5240833862735599 8.9803486882937023 0 0 0 0 -1.6043141816044226 -12.555898413698742 0 -12.555898413698742 12.469027610906778 0 0 0 0 4.0811788634052188 1.1109200307540448 0 1.1109200307540448 0.14272626049012116 0 0 0 0 3.2141433519373095 -7.5763891409915232 0 -7.5763891409915232 -6.1759591286636351 0 0 0 0 3.5839246582363558 -4.4137982757856662 0 -4.4137982757856662 7.0785657854030433 0 0 0 0 5.9116337966715946 -4.4696044947231712 0 -4.4696044947231712 4.3522435906807004 0 0 0 0 12.499867403043027 3.9816018407309457 0 3.9816018407309457 10.292544215630187 0 0 0 0 4.0981093011978373 -5.2472061928283438 0 -5.2472061928283438 6.4640246954877512 0 0 0 0 16.821673432008538 -2.2106477521210763 0 -2.2106477521210763 -10.987289193174547 0 0 0 0 31.118977737311297 38.738299112090544 0 38.738299112090544 32.62650004160605 0 0 0 0 -6.8198469701346767 -20.615891764688058 0 -20.615891764688058 47.16630148467857 0 0 0 0 1.881974069365242 0.58004203717064229 0 0.58004203717064229 35.549253615845373 0 0 0 0 4.8527360782323257 7.5704745142915293 0 7.5704745142915293 2.45916477683609 0 0 0 0 -8.9728379453408706 -46.290937335550552 0 -46.290937335550552 72.317165930734518 0 0 0 0 18.011708399917552 7.3119890060215766 0 7.3119890060215766 10.596861216306934 0 0 0 0 10.07509811471482 -1.8936040377348036 0 -1.8936040377348036 -13.935758101404645 0 0 0 0 20.394726768687178 -9.2457436471759138 0 -9.2457436471759138 -13.888262597243738 0 0 0 0 1.5111400443914818 -24.489129197746308 0 -24.489129197746308 14.857253565471183 0 0 0 0 6.0372434704331681 -10.489423075947343 0 -10.489423075947343 -26.599847047114508 0 0 0 0 19.823761851780091 -11.138919170265126 0 -11.138919170265126 -18.990022347057675 0 0 0 0 18.503156905857395 -3.3061106364402804 0 -3.3061106364402804 -11.247958916169409 0 0 0 0 19.212362967777153 -2.016626042443022 0 -2.016626042443022 -12.280817601256786 0 0 0 0 14.30459532214627 -0.5893542259809692 0 -0.5893542259809692 -11.665667251731975 0 0 0 0 21.374668238429877 -2.3059745476639364 0 -2.3059745476639364 -16.889806580849836 0 0 0 0 18.525288941296083 -2.9396017997925981 0 -2.9396017997925981 -15.724516711074102 0 0 0 0 7.7350657325059728 5.3533407999766496 0 5.3533407999766496 -15.269682208358972 0 0 0 0 24.856398677452489 3.1550176732271211 0 3.1550176732271211 -16.265009673516033 0 0 0 0 17.505659665368512 12.535198062294057 0 12.535198062294057 -17.14824872587451 0 0 0 0 26.983990757547872 17.905904726921108 0 17.905904726921108 -32.388666324990481 0 0 0 0 8.3651979420301359 14.83994989097846 0 14.83994989097846 -15.799273034317139 0 0 0 0 15.006176968559 9.7054035969455512 0 9.7054035969455512 3.0616495997124922 0 0 0 0 2.5259984871476053 1.0799294081342303 0 1.0799294081342303 0.14072193731847804 0 0 0 0 20.206527451355214 29.812048588151811 0 29.812048588151811 47.040967213408521 0 0 0 0 -9.394228320054026 -32.467586449443843 0 -32.467586449443843 80.804636522337205 0 0 0 0 9.4302464827888457 8.6492656793668292 0 8.6492656793668292 2.6195600454053336 0 0 0 0 -7.1715604827077186 41.006312617177173 0 41.006312617177173 134.81092270557201 0 0 0 0 -12.036686515582915 -110.85996997018719 0 -110.85996997018719 -295.45451592487279 0 0 0 0 -0.34557926786510507 108.27259136305884 0 108.27259136305884 96.116874062482566 0 0 0 0 -0.00099266527714547692 0.048667612290600459 0 0.048667612290600459 2.5440622306242631 0 0 0 0 210.19829223507077 177.15609030866563 0 177.15609030866563 -19.117611804269472 0 0 0 0 -19.208108023538443 22.914080490912056 0 22.914080490912056 98.171645706187064 0 0 0 0 -21.718811158607423 -4.9016956168093202 0 -4.9016956168093202 14.612505300392513 0 0 0 0 -6.4849324990391324 23.664922578046571 0 23.664922578046571 1.4686431023492332 0 0 0 0 -22.863313312113405 61.677868746602371 0 61.677868746602371 64.331157273052668 0 0 0 0 -17.087672365841172 80.155980960842953 0 80.155980960842953 121.54670624815299 0 0 0 0 94.310574532626561 116.39769139216241 0 116.39769139216241 16.195792932807308 0 0 0 0 -2.3676727921579186 20.810595977558478 0 20.810595977558478 32.213693081450401 0 0 0 0 31.237477443788521 -6.9806115130486432 0 -6.9806115130486432 -113.7364662852533 0 0 0 0 19.900038670846698 92.428333130003921 0 92.428333130003921 381.53534231938465 0 0 0 0 2.6239688617414956 7.1017138658265893 0 7.1017138658265893 1.4472175232015898 0 0 0 0 23.493646724164137 -71.088624189760594 0 -71.088624189760594 291.63671920993693 0 0 0 0 38.806032131697066 15.767751536732248 0 15.767751536732248 -146.3078580006113 0 0 0 0 -0.4404188663760209 0.98692051284668025 0 0.98692051284668025 2.4427079491207735 0 0 0 0 -116.72571502604842 45.36381679538863 0 45.36381679538863 868.38544608212169 0 0 0 0 -0.48669591627503905 2.726027012138605 0 2.726027012138605 -1.5633804753920728 0 0 0 0 4.7491404300162685 5.6284776131697072 0 5.6284776131697072 -3.5497811488676234 0 0 0 0 118.40063630454824 148.35548559977269 0 148.35548559977269 628.27721208252115 0 0 0 0 104.02908743801004 -8.6802824789824911 0 -8.6802824789824911 -140.2438405067478 0 0 0 0 -22.407036645737207 -97.184455074862626 0 -97.184455074862626 -155.56370240794058 0 0 0 0 -0.55165173097986298 0.32027408632942667 0 0.32027408632942667 -0.8486819830262391 0 0 0 0 0.013097414515868877 6.7568495682207868 0 6.7568495682207868 4.2818623837010819 0 0 0 0 2.4361911766027333 4.0733582128777925 0 4.0733582128777925 3.6369215141930908 0 0 0 0 -0.0077874057604977358 7.7302328405977212 0 7.7302328405977212 -0.28755519637707039 0 0 0 0 2.1204375546823258 1.5405368535265183 0 1.5405368535265183 0.55056124198304524 0 0 0 0 4.5853537688526558 7.4047785417224077 0 7.4047785417224077 -4.8578127038827006 0 0 0 0 -0.067460604965162929 333.09512500615165 0 333.09512500615165 552.20791130500402 0 0 0 0 150.81601880546532 264.74559639639665 0 264.74559639639665 0.26210845252808213 0 0 0 0 56.64933176609884 70.218647056133705 0 70.218647056133705 541.13379608167816 0 0 0 0 -17.478402768955675 153.65627742672359 0 153.65627742672359 502.77513088639353 0 0 0 0 99.559202971407558 65.227579167340309 0 65.227579167340309 121.46047024012478 0 0 0 0 0.29048393185175314 0.88115093039163384 0 0.88115093039163384 0.6447776614034737 0 0 0 0 -0.58756762413122487 421.34837589724384 0 421.34837589724384 525.87872858239234 0 0 0 0 80.525104276694947 334.33378277440511 0 334.33378277440511 78.538870315981512 0 0 0 0 52.537370741945779 299.40909795767766 0 299.40909795767766 112.24692381492059 0 0 0 0 58.199117112365798 186.46555024765718 0 186.46555024765718 182.97776962515854 0 0 0 0 69.664431044778212 254.13666734646267 0 254.13666734646267 229.74236541537175 0 0 0 0 7.3369310459675035 185.76510169122048 0 185.76510169122048 542.91856093122635 0 0 0 0 0.29479986400379943 1.0080162864658213 0 1.0080162864658213 0.49069888832121467 0 0 0 0 53.110495868468206 101.58114738074983 0 101.58114738074983 362.88044346082279 0 0 0 0 -20.553002488182301 9.1396430188219711 0 9.1396430188219711 231.95678951749869 0 0 0 0 51.987034551342731 236.73806485508157 0 236.73806485508157 442.34478141317959 0 0 0 0 27.75805316203332 150.529115520716 0 150.529115520716 256.86006520918318 0 0 0 0 23.864546472748771 114.46488906199647 0 114.46488906199647 131.65397601896257 0 0 0 0 65.098337521458234 97.337010343269867 0 97.337010343269867 64.036473134035987 0 0 0 0 11.48875588620831 -5.1110703632375589 0 -5.1110703632375589 94.886909601312709 0 0 0 0 147.7526198090834 172.54035371710575 0 172.54035371710575 49.926768748355244 0 0 0 0 66.491923360173814 126.84831142038763 0 126.84831142038763 86.366750099188721 0 0 0 0 75.813254211350795 227.19565799990414 0 227.19565799990414 87.690012058817956 0 0 0 0 57.227034847784353 164.33201475269198 0 164.33201475269198 161.38209013577944 0 0 0 0 99.394075982672803 251.76098986234865 0 251.76098986234865 105.755254972275 0 0 0 0 206.44302874083041 164.43601737165955 0 164.43601737165955 106.50945919419343 0 0 0 0 89.033469621385848 193.6783505831454 0 193.6783505831454 303.13675854579014 0 0 0 0 1.0534847097018201 0.8692157578969173 0 0.8692157578969173 -0.0044645205847926306 0 0 0 0 13.46705185799874 -64.81533671843863 0 -64.81533671843863 -109.84761190627228 0 0 0 0 50.035154045612671 94.19122822091299 0 94.19122822091299 83.432091968716122 0 0 0 0 2.1256324710947396 1.6648025846647947 0 1.6648025846647947 -0.25326422487965328 0 0 0 0 51.270181078157293 57.089201563229494 0 57.089201563229494 -113.83523704465915 0 0 0 0 8.6906757494180056 28.517492848086476 0 28.517492848086476 -42.321597349968215 0 0 0 0 -24.025049010531802 46.863373976273579 0 46.863373976273579 6.9845660566952574 0 0 0 0 -0.36310913292302871 1.0717376360783781 0 1.0717376360783781 -0.09758025882670518 0 0 0 0 -0.16628204775905431 0.55922165066571949 0 0.55922165066571949 -0.071001034616296366 0 0 0 0 45.698803721610602 28.767779354682716 0 28.767779354682716 -115.72465030544703 0 0 0 0 -27.984624999953667 16.684020376942499 0 16.684020376942499 37.763162917857699 0 0 0 0 2.0395200520251819 3.2573775384880719 0 3.2573775384880719 41.194287124510993 0 0 0 0 -5.0284416001704813 14.513328337721759 0 14.513328337721759 29.235118827889892 0 0 0 0 -17.026238071261105 26.558511163835647 0 26.558511163835647 52.790778820199193 0 0 0 0 11.677832294263681 1.2200098656312548 0 1.2200098656312548 64.990942554555659 0 0 0 0 -4.2578385679007624 28.619673179777692 0 28.619673179777692 61.3731798914705 0 0 0 0 -11.392149998371337 23.930126558521977 0 23.930126558521977 0.29185835671432869 0 0 0 0 1.1887049532324454 47.815626092175989 0 47.815626092175989 -56.534545676556263 0 0 0 0 -7.8832021291518686 21.670538152721747 0 21.670538152721747 84.134472422418185 0 0 0 0 1.6862051133823357 8.7005907712583195 0 8.7005907712583195 2.0138789053669477 0 0 0 0 -17.998298385874477 -4.0481474418388643 0 -4.0481474418388643 119.30549075573981 0 0 0 0 36.994660544157341 47.891580130820785 0 47.891580130820785 -98.09438955045573 0 0 0 0 27.147771427511543 26.732478687023104 0 26.732478687023104 153.48191386194685 0 0 0 0 2.8534667438823007 8.0349530672765557 0 8.0349530672765557 1.8892274702586711 0 0 0 0 -19.271534525260904 55.919172320309372 0 55.919172320309372 49.594915198029412 0 0 0 0 -2.1779783512247377 -20.605986725092407 0 -20.605986725092407 87.918859854025868 0 0 0 0 1.1698793091345578 47.664735074268719 0 47.664735074268719 -33.409710285254732 0 0 0 0 -3.584448957530185 54.480917278850939 0 54.480917278850939 66.683251608424143 0 0 0 0 -0.21256318520145356 0.64710573728559861 0 0.64710573728559861 1.0298203008171463 0 0 0 0 -10.935884178014021 4.1745138387495899 0 4.1745138387495899 28.358907863677359 0 0 0 0 -14.615990395350309 13.54084482431017 0 13.54084482431017 5.7620842490814539 0 0 0 0 -12.13325461389104 20.669619362200137 0 20.669619362200137 17.301629337340273 0 0 0 0 -21.879575870638291 18.85666789321931 0 18.85666789321931 18.032797109188323 0 0 0 0 -5.262317018057729 11.25621967769348 0 11.25621967769348 10.296633062727324 0 0 0 0 -6.6729558195029313 16.455181870051092 0 16.455181870051092 10.43065750316407 0 0 0 0 -14.291117371465589 14.859222823062737 0 14.859222823062737 10.188086799021221 0 0 0 0 -8.7431471737750144 13.321489294666662 0 13.321489294666662 2.1504210929524561 0 0 0 0 -11.005938154992069 7.2124015832549055 0 7.2124015832549055 1.7508649311731972 0 0 0 0 -8.8571388640284567 13.719731425859209 0 13.719731425859209 9.5076062266434747 0 0 0 0 -94.143639374397935 -78.353142498451462 0 -78.353142498451462 76.400756981449376 0 0 0 0 -19.655210025926863 85.785876869819731 0 85.785876869819731 129.97013238071759 0 0 0 0 29.652955694507739 -31.395782156274436 0 -31.395782156274436 -16.087513625718202 0 0 0 0 -58.023848344129874 -29.714878410755773 0 -29.714878410755773 -11.848377020142834 0 0 0 0 -10.815100639224507 5.6182669683946607 0 5.6182669683946607 6.2810641386226038 0 0 0 0 -0.58628392165162069 9.9505310935663864 0 9.9505310935663864 2.344790265589225 0 0 0 0 -2.6438054400714464 14.436492234156958 0 14.436492234156958 13.460558310896886 0 0 0 0 0.7879451823864656 22.064306211527764 0 22.064306211527764 36.293957780637356 0 0 0 0 -22.022173026623022 3.8508474338923406 0 3.8508474338923406 20.397652436442513 0 0 0 0 -14.831475963945298 5.2408131330754522 0 5.2408131330754522 2.6425720270492015 0 0 0 0 31.156691044276158 2.9690603965291302 0 2.9690603965291302 -71.043290104140397 0 0 0 0 -2.4417483774734379 1.2584215336037055 0 1.2584215336037055 3.1888869083068698 0 0 0 0 0.97261021092172939 -0.38563037085273066 0 -0.38563037085273066 -0.8388675264670411 0 0 0 0 -3.8022825028965599 17.958598076510498 0 17.958598076510498 35.169803572571254 0 0 0 0 4.6807887378890882 22.739892825111383 0 22.739892825111383 35.648157715857906 0 0 0 0 0.20295408868150844 26.251435721748749 0 26.251435721748749 44.632655951880224 0 0 0 0 -2.3817337895088713 21.094188611353275 0 21.094188611353275 38.247072833612037 0 0 0 0 1.329697658713485 13.497611685756965 0 13.497611685756965 51.81944006815138 0 0 0 0 0.53875223586464216 8.7437749903306106 0 8.7437749903306106 2.0602453969540075 0 0 0 0 -12.590583220337066 14.057907753140171 0 14.057907753140171 84.293605150683561 0 0 0 0 -3.3529226684022433 14.5783432887456 0 14.5783432887456 45.051289711043864 0 0 0 0 34.173047034123101 31.591149079806655 0 31.591149079806655 0.17175734359216221 0 0 0 0 -8.6512983658526537 28.995781916220494 0 28.995781916220494 43.707270292672547 0 0 0 0 -11.580135910536683 35.638752727650399 0 35.638752727650399 25.34054221122642 0 0 0 0 -2.6458025925912807 20.47868571716208 0 20.47868571716208 29.428256685002452 0 0 0 0 -0.25579944238736374 1.0995552827409227 0 1.0995552827409227 -0.067093498244024552 0 0 0 0 1.2213939621015015 16.492150067070725 0 16.492150067070725 24.735974468980203 0 0 0 0 -8.4908325648211758 16.407083192290884 0 16.407083192290884 31.669226765044641 0 0 0 0 -5.3658943627488043 4.2905586671431593 0 4.2905586671431593 2.4488317422710679 0 0 0 0 -24.1899470179942 -5.7542270128233213 0 -5.7542270128233213 -9.9069532065684029 0 0 0 0 -0.13719682944429223 10.422680053038675 0 10.422680053038675 31.853686592281633 0 0 0 0 17.465921231925222 18.510318536113573 0 18.510318536113573 -77.718647490894 0 0 0 0 -3.7306943105431856 6.8105121522958143 0 6.8105121522958143 -43.207731215828971 0 0 0 0 1.9716094691575137 2.1062657795460069 0 2.1062657795460069 -0.37570953399488438 0 0 0 0 3.8344667378146369 13.424633826196896 0 13.424633826196896 -12.835597249684724 0 0 0 0 3.2766651143865602 15.800288446167542 0 15.800288446167542 16.289544196328279 0 0 0 0 1.4713538231048986 2.3591562761661962 0 2.3591562761661962 -0.43483946780499627 0 0 0 0 -4.6417397688219353 6.4368171591395367 0 6.4368171591395367 -42.697459768258796 0 0 0 0 12.265486852946196 5.8220182124082385 0 5.8220182124082385 -67.119376729542637 0 0 0 0 -0.051615563953994581 0.75328946622985526 0 0.75328946622985526 -0.03407370340961613 0 0 0 0 2.453020670418482 12.806138820213164 0 12.806138820213164 56.618668272198192 0 0 0 0 -3.7660194464460801 18.878777984528824 0 18.878777984528824 66.88330390428564 0 0 0 0 2.1453531461565944 10.137688664446614 0 10.137688664446614 35.416921527525119 0 0 0 0 -3.3328546158272729 22.779066597015685 0 22.779066597015685 47.258955400799096 0 0 0 0 1.1927478045836324 14.830933647646816 0 14.830933647646816 54.676197545066316 0 0 0 0 17.556378558148026 42.026936841511997 0 42.026936841511997 64.496727089135675 0 0 0 0 -1.85554455373358 8.608407653165159 0 8.608407653165159 43.339025502886216 0 0 0 0 -18.987839722297394 10.18999816667565 0 10.18999816667565 52.421650287902594 0 0 0 0 -18.169573963240509 1.6758235604866059 0 1.6758235604866059 37.072779339833687 0 0 0 0 -3.9376464907420541 13.458188872258461 0 13.458188872258461 11.278830059200118 0 0 0 0 -8.8133476705379508 0.83572434652160155 0 0.83572434652160155 32.43261090863507 0 0 0 0 -0.81860157156006608 26.087969279189565 0 26.087969279189565 45.675741434987913 0 0 0 0 -3.328818552264238 12.518706281191044 0 12.518706281191044 6.7619827820708451 0 0 0 0 -12.439493049412704 21.002140661985322 0 21.002140661985322 -14.536955794934329 0 0 0 0 1.0258307672040239 2.4643076827550416 0 2.4643076827550416 -0.091192168964143505 0 0 0 0 1.147997883905191 1.0250127703766339 0 1.0250127703766339 -8.9534539173419034 0 0 0 0 -3.0710215893632267 12.075551576783255 0 12.075551576783255 -22.187748353422649 0 0 0 0 -25.371830270148166 15.920096913097041 0 15.920096913097041 -0.059164020138268825 0 0 0 0 0.33286910171544193 0.022845952978943984 0 0.022845952978943984 -0.48636090885702998 0 0 0 0 0.32873912372451741 4.8323403347094427 0 4.8323403347094427 -7.6503231987044273 0 0 0 0 -9.6239045585371059 13.218907495064741 0 13.218907495064741 6.8489079184546426 0 0 0 0 0.012945291301704742 1.8387005894471375 0 1.8387005894471375 2.6207536717318476 0 0 0 0 -60.250461143181383 47.549083492151112 0 47.549083492151112 -16.929065818459037 0 0 0 0 -0.75869907264996073 4.394611598493384 0 4.394611598493384 8.1931167590446421 0 0 0 0 -55.179783352198683 45.139819365852418 0 45.139819365852418 -31.33486883336991 0 0 0 0 0.25404786378203426 5.2877061094623059 0 5.2877061094623059 -23.828664795799341 0 0 0 0 0.0630982419990751 0.47561374066677331 0 0.47561374066677331 0.51363532405873258 0 0 0 0 -52.606705250095729 35.531675093471677 0 35.531675093471677 -13.384869145351331 0 0 0 0 -45.627077432931401 22.003732854915143 0 22.003732854915143 18.291643950684374 0 0 0 0 -42.5943767895169 34.338057887511241 0 34.338057887511241 -17.783115209083917 0 0 0 0 -37.642999492290301 22.936467728576645 0 22.936467728576645 -12.454493095505313 0 0 0 0 -54.087381728498258 32.521282047582645 0 32.521282047582645 -3.3876476432906202 0 0 0 0 -12.973371144779833 44.002528692909607 0 44.002528692909607 -18.610669882356888 0 0 0 0 -58.701607940036411 37.390654212095797 0 37.390654212095797 5.4242046945328184 0 0 0 0 -57.847109340426869 73.288630909533822 0 73.288630909533822 -50.955102648953471 0 0 0 0 -0.064759802970034031 1.346749519809185 0 1.346749519809185 2.2941305496647715 0 0 0 0 -7.9633913362735029 -7.2362497152544734 0 -7.2362497152544734 41.323042571822953 0 0 0 0 -7.471397521995641 -1.8811945913867021 0 -1.8811945913867021 36.746928964404105 0 0 0 0 4.7794851423659566 -38.878042418219593 0 -38.878042418219593 90.932332891699843 0 0 0 0 -9.5129069094618899 29.47864193278042 0 29.47864193278042 57.07558362294003 0 0 0 0 -11.004217063600064 5.6258193251406361 0 5.6258193251406361 1.3942323976675066 0 0 0 0 2.4175574888058691 12.892867960273634 0 12.892867960273634 -13.126932453918926 0 0 0 0 -21.538281287206701 15.661577343603312 0 15.661577343603312 37.298403465858428 0 0 0 0 -14.885722750175773 -1.8655076171435212 0 -1.8655076171435212 42.520393247492393 0 0 0 0 -19.068200765624624 8.1589509252464723 0 8.1589509252464723 30.37739507274091 0 0 0 0 -16.360263996793037 3.8699625280396504 0 3.8699625280396504 25.604199344751578 0 0 0 0 -39.957685504036817 -18.433562891356814 0 -18.433562891356814 20.741421281940347 0 0 0 0 -15.6403422116 3.1008406099763306 0 3.1008406099763306 13.9623930235839 0 0 0 0 -13.024077484942609 15.286225682820259 0 15.286225682820259 9.0051550495591073 0 0 0 0 -12.26016834845997 4.8153944844688112 0 4.8153944844688112 1.0568463369237318 0 0 0 0 20.81120737652418 44.378971756487772 0 44.378971756487772 -44.166355893592709 0 0 0 0 -25.417376179065286 0.98361872798068362 0 0.98361872798068362 74.564617855057804 0 0 0 0 -18.926617929310851 -26.913244260763349 0 -26.913244260763349 4.5601558195266989 0 0 0 0 40.520434601594388 -6.4660399302865699 0 -6.4660399302865699 120.1224086627717 0 0 0 0 4.029364239865572 53.67014629807295 0 53.67014629807295 81.591502503268202 0 0 0 0 -1.4432743175184441 11.253478473571704 0 11.253478473571704 76.018920919554375 0 0 0 0 -27.720015396789677 48.214500858138308 0 48.214500858138308 243.92276876141841 0 0 0 0 -57.270808502014461 6.7916113508604212 0 6.7916113508604212 286.37671184993087 0 0 0 0 -71.148395002300276 -76.25460178463527 0 -76.25460178463527 46.012833674272429 0 0 0 0 0.38409412742331916 -0.45949615974056357 0 -0.45949615974056357 1.2138810218742435 0 0 0 0 162.12538098624668 227.31092758193972 0 227.31092758193972 283.8637568989725 0 0 0 0 121.03344428655964 128.1787632989035 0 128.1787632989035 121.82262034313862 0 0 0 0 -38.021096984170072 19.389174922554048 0 19.389174922554048 -1.1671376306953789 0 0 0 0 -1.9046841676738655 -0.58873552792982764 0 -0.58873552792982764 4.6305104066428484 0 0 0 0 -25.178705423075847 40.600327946404803 0 40.600327946404803 29.907687063769117 0 0 0 0 7.5522513641053592 29.54955275602515 0 29.54955275602515 -192.09495387991467 0 0 0 0 2.8895979686707314 5.2655831234817718 0 5.2655831234817718 0.6286795302268855 0 0 0 0 32.382768991509693 47.319499441145581 0 47.319499441145581 127.37405170220882 0 0 0 0 2.0254867367948464 35.972374316318565 0 35.972374316318565 -128.10245353728203 0 0 0 0 4.1839615283382514 6.1719619217957984 0 6.1719619217957984 0.65727544375749924 0 0 0 0 2.9990075874710556 43.276846917836792 0 43.276846917836792 -115.02984094728527 0 0 0 0 37.221688071735116 -38.886275027879492 0 -38.886275027879492 264.68626527307424 0 0 0 0 57.488571072309242 19.948156098065738 0 19.948156098065738 141.39461883220883 0 0 0 0 6.4098543787949893 41.117557464318452 0 41.117557464318452 243.09747886446439 0 0 0 0 20.3287264452008 114.65391530884187 0 114.65391530884187 386.91390061873608 0 0 0 0 10.186191566579737 76.075327867530973 0 76.075327867530973 277.99723529436051 0 0 0 0 27.704185112293089 10.340805778290814 0 10.340805778290814 248.6207565006938 0 0 0 0 -28.742749573662422 52.559175898946705 0 52.559175898946705 274.2211956782503 0 0 0 0 -31.82134542245285 35.173332071768982 0 35.173332071768982 426.40971528332011 0 0 0 0 1.2926127016464264 3.5711166767427827 0 3.5711166767427827 0.50472799766197873 0 0 0 0 0.10351264004930272 49.172650087362399 0 49.172650087362399 -276.29477838652838 0 0 0 0 3.4107401761089022 57.958886156351127 0 57.958886156351127 -148.57265094537615 0 0 0 0 -11.818749151106203 35.985802392399819 0 35.985802392399819 -156.74505358863826 0 0 0 0 -16.039141166202455 39.558733120366639 0 39.558733120366639 -142.85272243429426 0 0 0 0 -19.514163678365549 74.23387959982756 0 74.23387959982756 -118.73265024858529 0 0 0 0 -6.4477070004500092 39.717840839630753 0 39.717840839630753 -67.135027765265477 0 0 0 0 1.3131935359524505 64.549871973582412 0 64.549871973582412 -99.826082556597612 0 0 0 0 3.8218151803121145 42.784087989537511 0 42.784087989537511 -131.67491890247948 0 0 0 0 -5.2464215944310126 54.543894119203287 0 54.543894119203287 -120.09569534846787 0 0 0 0 -5.0131315168255242 57.377502306188035 0 57.377502306188035 -89.412235025977679 0 0 0 0 24.66947597073522 58.707082931681725 0 58.707082931681725 -102.89543884232262 0 0 0 0 3.0587982650128822 66.938785734748294 0 66.938785734748294 -105.80623263809139 0 0 0 0 -82.299229368148644 117.36245519631507 0 117.36245519631507 -106.33975565977744 0 0 0 0 1.6647858139872369 89.138906202852922 0 89.138906202852922 -97.472203521363554 0 0 0 0 3.5497869165255906 45.437607173448669 0 45.437607173448669 -56.861826648450005 0 0 0 0 30.812994829325362 57.512747398492138 0 57.512747398492138 -52.038346221946085 0 0 0 0 0.58314135352184238 0.23266584565579862 0 0.23266584565579862 -0.28535616383905804 0 0 0 0 101.19708734112555 -10.552418052112444 0 -10.552418052112444 -14.540244342932965 0 0 0 0 24.823127209193444 12.750537636969057 0 12.750537636969057 -10.811011524213654 0 0 0 0 21.256017783817242 11.029888560255131 0 11.029888560255131 -5.6710057496966328 0 0 0 0 29.860486123164719 23.462882020072584 0 23.462882020072584 -4.7780016513497685 0 0 0 0 9.5872077176959465 22.917993683922759 0 22.917993683922759 -4.7926134943771785 0 0 0 0 16.757856290719928 15.470411592520122 0 15.470411592520122 -3.3776776842751133 0 0 0 0 15.624842320132302 13.740105655818297 0 13.740105655818297 -5.2338818285094248 0 0 0 0 15.629231909413193 12.434319341517948 0 12.434319341517948 -1.7005419317738415 0 0 0 0 8.5589029885977652 22.100088418206724 0 22.100088418206724 2.9427517696744872 0 0 0 0 6.9805423023044568 40.120721748307005 0 40.120721748307005 -9.6412372045579104 0 0 0 0 -4.4631964548516407 22.933566249413161 0 22.933566249413161 3.8535053095279181 0 0 0 0 3.3182126850757641 9.4800005545523618 0 9.4800005545523618 13.996956289829541 0 0 0 0 7.6897596090411753 23.162706772748606 0 23.162706772748606 1.8858467914260473 0 0 0 0 2.4834937568730311 23.376470917970437 0 23.376470917970437 -9.1639940562454285 0 0 0 0 1.9944700252092389 30.640192504518836 0 30.640192504518836 -13.295520123119786 0 0 0 0 -5.3068519097496392 52.379807192338376 0 52.379807192338376 -59.694086226014861 0 0 0 0 -27.125518074690945 32.611306735508151 0 32.611306735508151 -7.6140909701389319 0 0 0 0 -7.4647791160277848 21.61677511335165 0 21.61677511335165 -35.796337916499169 0 0 0 0 -16.937874700852944 27.929621717464897 0 27.929621717464897 1.322643822119062 0 0 0 0 55.14749017444683 45.555028185784067 0 45.555028185784067 -27.952067575439287 0 0 0 0 -6.2004177088206234 -0.82999084572543325 0 -0.82999084572543325 45.471142486541794 0 0 0 0 50.631556451626238 -13.476309312606645 0 -13.476309312606645 -3.0018923177613033 0 0 0 0 18.431611344992007 5.4494602477120679 0 5.4494602477120679 -13.419822807725723 0 0 0 0 15.940167802845281 3.7979045368947482 0 3.7979045368947482 1.2862915643414663 0 0 0 0 -4.4641395550588641 21.526580919706248 0 21.526580919706248 8.9470852415406625 0 0 0 0 27.773522567340478 -99.159611034621548 0 -99.159611034621548 64.11831413257778 0 0 0 0 15.79015602540467 13.45424113645435 0 13.45424113645435 11.154164371662977 0 0 0 0 22.7428169756854 36.06736583467125 0 36.06736583467125 -18.915356695199534 0 0 0 0 14.381419443583148 12.137182374325278 0 12.137182374325278 9.6267026215801792 0 0 0 0 74.02032098820564 -42.949591107558263 0 -42.949591107558263 9.3304686551359737 0 0 0 0 -21.856823486810754 4.6638266548279717 0 4.6638266548279717 -14.186060615709948 0 0 0 0 -222.06895663185787 68.271469950007031 0 68.271469950007031 -32.682969678823156 0 0 0 0 -26.422411517713044 17.408585106831652 0 17.408585106831652 120.95814010489539 0 0 0 0 4.3542801813628103 42.491614995992904 0 42.491614995992904 16.948888633490242 0 0 0 0 -13.110205521677017 39.350175060481888 0 39.350175060481888 67.841552568376756 0 0 0 0 -4.7789882127071905 -5.4855054133008707 0 -5.4855054133008707 46.495053148667921 0 0 0 0 -51.45664513110296 52.980727388639934 0 52.980727388639934 57.913145174124111 0 0 0 0 -6.8418253916897811 -41.623404833075483 0 -41.623404833075483 130.62442441450696 0 0 0 0 39.268602937134347 17.219317596465658 0 17.219317596465658 62.321487541109491 0 0 0 0 18.421883459239687 15.832412273265428 0 15.832412273265428 10.427932261027699 0 0 0 0 21.281872729118163 56.973542058888484 0 56.973542058888484 36.91583416389858 0 0 0 0 28.013931692121332 -2.8258881823812771 0 -2.8258881823812771 -12.557178420758646 0 0 0 0 1.3481376328906904 2.9984543998804547 0 2.9984543998804547 3.1411495876375817 0 0 0 0 45.754358570055956 -11.687882452364647 0 -11.687882452364647 -29.973392187204809 0 0 0 0 17.203464811569575 7.6185447654397649 0 7.6185447654397649 -22.636180115927345 0 0 0 0 16.732753659697408 23.378177183526262 0 23.378177183526262 -25.674129597140563 0 0 0 0 24.697330239216171 16.103251737065875 0 16.103251737065875 -21.857784894375072 0 0 0 0 40.990830243240453 7.9518955519652081 0 7.9518955519652081 -23.723619802449775 0 0 0 0 53.141726613948777 31.679488139195655 0 31.679488139195655 -22.389369118032846 0 0 0 0 14.849929546326734 45.414557157369018 0 45.414557157369018 14.859504053936689 0 0 0 0 43.229965281119348 16.636476958478397 0 16.636476958478397 -42.105178795856773 0 0 0 0 95.180705968703478 50.824200373250278 0 50.824200373250278 -33.926545883786275 0 0 0 0 40.528505182469416 22.084169972081327 0 22.084169972081327 -5.7490398711433954 0 0 0 0 13.334812321885693 60.967251134014987 0 60.967251134014987 -54.405732247431843 0 0 0 0 42.323596363089109 15.352474828749109 0 15.352474828749109 -35.463541281469588 0 0 0 0 40.340377924982931 4.0675991595817322 0 4.0675991595817322 -42.956073399131128 0 0 0 0 34.661960356186228 -4.0923015051357652 0 -4.0923015051357652 -82.155685479028762 0 0 0 0 -2.0451148760541855 25.14730475220631 0 25.14730475220631 -97.286336691127872 0 0 0 0 -12.86264794953513 37.926061811611362 0 37.926061811611362 -27.22974019760386 0 0 0 0 -43.757539209366769 64.994081423919852 0 64.994081423919852 -45.696379551718792 0 0 0 0 -39.034866334442086 82.137475004512453 0 82.137475004512453 -166.88710675923721 0 0 0 0 -59.701167308889126 95.725531186801163 0 95.725531186801163 -113.5912688160347 0 0 0 0 -1.2327525437799522 21.229864189219825 0 21.229864189219825 -141.03506403227948 0 0 0 0 -35.17548508857999 229.38381176042185 0 229.38381176042185 -152.84893022640125 0 0 0 0 0.33965792714325715 1.0716830626523688 0 1.0716830626523688 0.16061491737264788 0 0 0 0 49.847116994001226 147.85936821814357 0 147.85936821814357 -482.6467085862223 0 0 0 0 -41.150915315061411 22.156879260021924 0 22.156879260021924 -243.03107521559832 0 0 0 0 44.432055248929373 87.091228507318192 0 87.091228507318192 253.16606458504339 0 0 0 0 34.221421285583347 -22.519635568703052 0 -22.519635568703052 186.49815306920073 0 0 0 0 -50.149027155974636 127.70418668085404 0 127.70418668085404 555.76983586247479 0 0 0 0 15.609068842774832 84.506546534727931 0 84.506546534727931 28.698604476628589 0 0 0 0 -30.399111384360367 85.466336288370258 0 85.466336288370258 91.171234789921073 0 0 0 0 -29.042578968922498 33.067361125206844 0 33.067361125206844 20.305903101245349 0 0 0 0 -16.753632205212853 8.7857878351096588 0 8.7857878351096588 3.2311475104056626 0 0 0 0 -12.589843134043868 11.048263067659388 0 11.048263067659388 -1.3993053717127779 0 0 0 0 29.255400778444709 90.308698559618279 0 90.308698559618279 85.387699381837592 0 0 0 0 -7.2069527850723887 4.6380552953738494 0 4.6380552953738494 1.6725915762269139 0 0 0 0 117.72628564146726 71.491005367201069 0 71.491005367201069 -5.932441583923719 0 0 0 0 16.549307937222693 149.77980349468999 0 149.77980349468999 17.038605398674918 0 0 0 0 -10.469527808772909 154.83449677051567 0 154.83449677051567 69.646477404814505 0 0 0 0 -15.071207145676453 18.577628205875953 0 18.577628205875953 -4.347817658227541 0 0 0 0 -20.077254441937839 15.734964172263972 0 15.734964172263972 -4.8829830227321054 0 0 0 0 -7.645073034473171 23.671906476801269 0 23.671906476801269 -6.472370542333465 0 0 0 0 -17.504460479181944 24.903841942948929 0 24.903841942948929 -6.5610569419577587 0 0 0 0 -2.1314851543505355 4.6471475267593121 0 4.6471475267593121 1.6743304226720959 0 0 0 0 -16.057839051277369 12.502740470494587 0 12.502740470494587 6.4002289144355018 0 0 0 0 1.1230102940178455 1.1398262134338584 0 1.1398262134338584 1.6614031054557756 0 0 0 0 -14.275628024190155 16.522591938659843 0 16.522591938659843 -15.668867116899492 0 0 0 0 -28.820461951727339 32.151510269724895 0 32.151510269724895 -19.679848653682711 0 0 0 0 -17.822296136396744 11.879356572073448 0 11.879356572073448 -8.0858373098271841 0 0 0 0 -2.4818826761365926 13.663034817228436 0 13.663034817228436 -11.483363851937611 0 0 0 0 -13.342417073945398 10.452964200911083 0 10.452964200911083 -9.2031718143753096 0 0 0 0 -0.5894281939663415 13.858891323484386 0 13.858891323484386 -12.409056392552884 0 0 0 0 0.013621103900732123 15.646796303923111 0 15.646796303923111 -7.3429553121495701 0 0 0 0 -16.959111790638417 20.034617338797034 0 20.034617338797034 -4.0308820809732424 0 0 0 0 -14.928051975553899 14.826777332168604 0 14.826777332168604 -0.6746530937962234 0 0 0 0 -13.544365297606419 16.502284934171257 0 16.502284934171257 -4.7718481589436124 0 0 0 0 -17.07508251699619 16.020568406138409 0 16.020568406138409 0.46829463419453532 0 0 0 0 -4.8109950732657865 6.972694599181505 0 6.972694599181505 9.4819934202092924 0 0 0 0 -14.27653082352299 12.84798582235544 0 12.84798582235544 4.4349216319615152 0 0 0 0 -12.973207295962766 15.909015197632925 0 15.909015197632925 0.081049725882621715 0 0 0 0 -0.5195816212126374 11.841076508054812 0 11.841076508054812 1.4252294765810802 0 0 0 0 1.3234643122569878 19.311356994908294 0 19.311356994908294 -10.687877200929506 0 0 0 0 0.47241770275791017 4.0215262029056618 0 4.0215262029056618 -0.54157643764010999 0 0 0 0 -11.699487083285931 16.913503004469021 0 16.913503004469021 0.59191989880127949 0 0 0 0 1.4243411374466657 6.6944478048150025 0 6.6944478048150025 -3.471184056141194 0 0 0 0 2.0123884740946778 10.741588821624305 0 10.741588821624305 -0.30307593374163844 0 0 0 0 -1.1556172578202677 8.3436513202391325 0 8.3436513202391325 -2.0012817606384488 0 0 0 0 -5.5534768262150465 32.394191627134205 0 32.394191627134205 -25.849214325697176 0 0 0 0 -3.9707119086979219 5.0054039094211475 0 5.0054039094211475 0.15217838316675625 0 0 0 0 0.38427889497700107 16.299983325868311 0 16.299983325868311 -19.922426969626031 0 0 0 0 -14.772464074900199 17.515961041741321 0 17.515961041741321 -1.3540530342352213 0 0 0 0 -7.3708581070233947 7.4023742939314641 0 7.4023742939314641 9.5995349157650764 0 0 0 0 -13.134187960944473 15.533386966422768 0 15.533386966422768 0.098778189701988595 0 0 0 0 -14.530575265509469 18.404510022624891 0 18.404510022624891 0.69258346292190254 0 0 0 0 -16.569662877199583 12.826166328159644 0 12.826166328159644 -3.0807770123374496 0 0 0 0 24.539939228569892 42.734288402577477 0 42.734288402577477 15.201441656400675 0 0 0 0 9.5567774106702927 34.47903807027069 0 34.47903807027069 -3.7436722776656097 0 0 0 0 -14.568585082525201 16.170695216753849 0 16.170695216753849 -4.7325153321421354 0 0 0 0 23.126800766727683 35.989683714575222 0 35.989683714575222 -5.5325756454712973 0 0 0 0 28.071253049499319 17.57041889321772 0 17.57041889321772 -22.93304844069462 0 0 0 0 -5.5200193591244897 26.067684427567656 0 26.067684427567656 7.9263036723459663 0 0 0 0 7.0995840763559599 13.576419669155976 0 13.576419669155976 1.4565711174940823 0 0 0 0 15.77756770327488 12.799934872204179 0 12.799934872204179 2.0164328479709681 0 0 0 0 18.114405481717466 7.1559012286961776 0 7.1559012286961776 -0.74060584995739021 0 0 0 0 -8.2012083151021216 18.65255675989647 0 18.65255675989647 35.359984180779065 0 0 0 0 -2.3883701289657893 6.6822706284016249 0 6.6822706284016249 19.032760759306257 0 0 0 0 2.5915002266792726 39.694032526741466 0 39.694032526741466 -21.896923481254817 0 0 0 0 4.2869059291315352 8.3005826818207424 0 8.3005826818207424 -4.294966830915655 0 0 0 0 15.973669664774206 35.136484153064202 0 35.136484153064202 33.038401182505822 0 0 0 0 -6.8684567014624918 43.240940631551894 0 43.240940631551894 80.629242777498234 0 0 0 0 4.8419151577872981 46.521474207926076 0 46.521474207926076 9.5326637976922939 0 0 0 0 37.051251162820336 59.802707494915921 0 59.802707494915921 -54.912557427553111 0 0 0 0 -12.934310239888873 65.610174848973656 0 65.610174848973656 23.195141043638387 0 0 0 0 45.210907537353705 27.131613530470077 0 27.131613530470077 -44.559593830574727 0 0 0 0 42.740213819295604 46.858783999519801 0 46.858783999519801 -112.45941538601733 0 0 0 0 -94.980416073231936 120.28921491059589 0 120.28921491059589 -34.498082870221879 0 0 0 0 -91.281518021951342 85.155381928569341 0 85.155381928569341 -90.199088688163101 0 0 0 0 -0.13016865867166505 -1.0935278950548586 0 -1.0935278950548586 -0.7814313112053668 0 0 0 0 85.304379642431741 58.953346446840442 0 58.953346446840442 -119.74099379465133 0 0 0 0 149.3106223303439 1.0030490723370349 0 1.0030490723370349 -69.672461310529343 0 0 0 0 46.776863931863772 30.600726707137824 0 30.600726707137824 12.516534728382794 0 0 0 0 43.921925741053201 42.230942625448733 0 42.230942625448733 2.9245885010464008 0 0 0 0 -9.5341972221267497 3.8728492710670253 0 3.8728492710670253 -13.800196450073145 0 0 0 0 -8.2049664288697386 25.470256322772457 0 25.470256322772457 -3.4388722404219152 0 0 0 0 -9.1561032189856633 13.603110724659928 0 13.603110724659928 0.90832964060246013 0 0 0 0 -2.089340980424538 8.8119994442123719 0 8.8119994442123719 -2.8597136104902798 0 0 0 0 -20.698619212033009 20.956347523510431 0 20.956347523510431 4.4777872106351424 0 0 0 0 0.48372367428501395 2.3035040966308529 0 2.3035040966308529 -2.7640685128215168 0 0 0 0 48.778376095543535 4.0959732585032498 0 4.0959732585032498 -16.655608311033575 0 0 0 0 6.8759341615082761 16.351757860749181 0 16.351757860749181 2.2222083548492577 0 0 0 0 9.386409415572416 16.697515262581874 0 16.697515262581874 35.466256418712874 0 0 0 0 17.98766108169184 36.383645235121492 0 36.383645235121492 15.551710818794163 0 0 0 0 6.1302055319248794 10.768355238394053 0 10.768355238394053 -2.9671157650944671 0 0 0 0 0.56620715288740087 1.6933447507955144 0 1.6933447507955144 4.0136346403018415 0 0 0 0 9.3477591319551721 10.290564073145561 0 10.290564073145561 2.0983036294583144 0 0 0 0 3.6972727606698754 25.302110066438217 0 25.302110066438217 21.191788038260711 0 0 0 0 10.643442435302859 3.3512623305650777 0 3.3512623305650777 20.593009626650655 0 0 0 0 7.5313613370963139 7.836838471838746 0 7.836838471838746 13.559709546942031 0 0 0 0 -5.3776396932789794 10.756051408741428 0 10.756051408741428 -3.3632796562669682 0 0 0 0 -1.115530576213132 9.1872070201416136 0 9.1872070201416136 -8.5607965941544535 0 0 0 0 0.67544932296663518 7.6354359541219452 0 7.6354359541219452 0.9068115139680728 0 0 0 0 -1.6302868541388307 10.360230122112625 0 10.360230122112625 -2.4401975839373335 0 0 0 0 -2.5010919104788627 8.3920039441172776 0 8.3920039441172776 -3.4179525970484974 0 0 0 0 -1.010663144668797 8.4793145650301085 0 8.4793145650301085 -4.0501466548794269 0 0 0 0 -19.646029133369666 10.997272013527436 0 10.997272013527436 4.5972951826533972 0 0 0 0 0.06433316052151028 0.1530510132482199 0 0.1530510132482199 0.14810983115908272 0 0 0 0 -2.4933678908801085 8.2452129013863669 0 8.2452129013863669 -5.4007920361182187 0 0 0 0 -0.5795614610103712 0.17864517086763243 0 0.17864517086763243 -2.0287632024425069 0 0 0 0 22.758921209458094 11.173730581743257 0 11.173730581743257 -9.4623015231773024 0 0 0 0 0.24948484127692794 2.1070339594455518 0 2.1070339594455518 -0.651049390905726 0 0 0 0 -4.5050924109382322 10.100255598298645 0 10.100255598298645 -3.8656192823023048 0 0 0 0 0.057418317394315466 6.3246803293466911 0 6.3246803293466911 -4.036655700938927 0 0 0 0 7.2845383364347072 8.3711696277582632 0 8.3711696277582632 -10.788841134251243 0 0 0 0 -3.4171089775863948 8.8031071097093445 0 8.8031071097093445 -2.5722237732697977 0 0 0 0 8.6700659167399863 18.009775465808161 0 18.009775465808161 -5.2678916762497465 0 0 0 0 34.894865824886438 14.770810515982248 0 14.770810515982248 -14.531353311709609 0 0 0 0 0.079505507406572917 -1.3226630507830315 0 -1.3226630507830315 -9.2066867351089368 0 0 0 0 -37.31184792149088 41.140909720413674 0 41.140909720413674 -41.269944580999436 0 0 0 0 -26.008122907879624 28.905059510740557 0 28.905059510740557 -65.776847055454709 0 0 0 0 -122.78150291669044 52.840733243670456 0 52.840733243670456 -11.736531012798878 0 0 0 0 -50.413813697412479 115.39204462631972 0 115.39204462631972 -149.60177763094543 0 0 0 0 35.442387575609246 -67.271768600323412 0 -67.271768600323412 -95.555314097864084 0 0 0 0 -0.37086358852321055 -0.81635769159165505 0 -0.81635769159165505 -3.0421075447427164 0 0 0 0 -184.84243000788774 159.99539270655578 0 159.99539270655578 -127.8777548977323 0 0 0 0 -3.9404182078260419 19.804441933274461 0 19.804441933274461 18.712015735323803 0 0 0 0 -10.696652676106169 89.677625945276304 0 89.677625945276304 -126.45859639293622 0 0 0 0 -24.857701450020613 110.09767287774275 0 110.09767287774275 -109.93302910205512 0 0 0 0 -42.503063637597734 94.00996204654939 0 94.00996204654939 -113.66784083034872 0 0 0 0 2.2726539185132424 45.326358703076949 0 45.326358703076949 -90.285318831296536 0 0 0 0 -6.8412922385541606 78.102910062663341 0 78.102910062663341 -202.81706625016614 0 0 0 0 -25.933382497885759 91.442628818998855 0 91.442628818998855 -126.63786810227612 0 0 0 0 -0.020922174235238344 63.832774098299524 0 63.832774098299524 -131.35650809418803 0 0 0 0 -26.565390660620324 83.844971424773576 0 83.844971424773576 -40.96883648831863 0 0 0 0 -25.988216652702249 38.268124290178093 0 38.268124290178093 -14.27982084836276 0 0 0 0 23.195999050989485 26.024161772462321 0 26.024161772462321 -20.185616297025263 0 0 0 0 -14.47274482593275 43.474060680926414 0 43.474060680926414 69.94915376958852 0 0 0 0 24.278347915527775 18.287345312640355 0 18.287345312640355 1.7502155207689611 0 0 0 0 -0.39191571817233495 -0.11303965346770894 0 -0.11303965346770894 0.0086275536739810477 0 0 0 0 66.582523176599352 -5.0066355739181745 0 -5.0066355739181745 -5.5000867175879193 0 0 0 0 47.841931183145789 23.987186448648572 0 23.987186448648572 -13.901456221657099 0 0 0 0 20.656194134964608 12.41302535007253 0 12.41302535007253 -3.7525345039548483 0 0 0 0 -0.056030641966572148 17.868389868506256 0 17.868389868506256 -55.237447547706324 0 0 0 0 -8.3137197702453705 -7.8300443026455468 0 -7.8300443026455468 -8.5294356823897033 0 0 0 0 -0.27084813012555387 0.44130060975384566 0 0.44130060975384566 -0.10872272732104449 0 0 0 0 19.23391126273782 21.129519962544464 0 21.129519962544464 -52.175983133014597 0 0 0 0 -8.5543259830565148 11.286297641744795 0 11.286297641744795 -1.2007845185871702 0 0 0 0 14.645655916254327 2.602209439568469 0 2.602209439568469 1.940429073550149 0 0 0 0 -0.25424938228418625 0.53055194018758911 0 0.53055194018758911 -0.95261741006078893 0 0 0 0 24.442238615132737 20.256151841999554 0 20.256151841999554 12.747380152750338 0 0 0 0 11.911076831000173 21.719573793825475 0 21.719573793825475 22.641598177924607 0 0 0 0 0.018447395234034047 12.617509257928759 0 12.617509257928759 19.447508816652771 0 0 0 0 2.4600469507358866 -4.3051108838189975 0 -4.3051108838189975 0.59691555646168126 0 0 0 0 11.32264093406593 3.9741198305991929 0 3.9741198305991929 -3.9182575148606702 0 0 0 0 15.225743248788604 -5.2876476488654589 0 -5.2876476488654589 12.132845528371035 0 0 0 0 15.259577853528754 -2.5336712745611294 0 -2.5336712745611294 -6.0270408865162608 0 0 0 0 9.1888804037444061 12.230856517841858 0 12.230856517841858 4.6319008491482236 0 0 0 0 8.9132283754443051 10.81290804794844 0 10.81290804794844 18.324779471184229 0 0 0 0 14.145985227234632 22.728857401647474 0 22.728857401647474 2.6468088257952331 0 0 0 0 29.927984702257163 5.2125605144974543 0 5.2125605144974543 -3.9202435180177417 0 0 0 0 -1.2202159487096651 20.168153125124263 0 20.168153125124263 9.1080540162229227 0 0 0 0 -2.3222418084014862 10.701558498803024 0 10.701558498803024 1.0919806635247369 0 0 0 0 -4.4649020028164159 8.9519645400946501 0 8.9519645400946501 2.7014267669510446 0 0 0 0 -2.0784138980852731 13.371423386402057 0 13.371423386402057 5.4628489168926535 0 0 0 0 -2.2862223722113413 10.894281698654595 0 10.894281698654595 0.93071543273890711 0 0 0 0 -0.9075145099832298 12.306910702895038 0 12.306910702895038 1.4348945957408432 0 0 0 0 3.940926965137507 7.0126644999594108 0 7.0126644999594108 5.0815237072536164 0 0 0 0 -0.25683794797623705 13.513335688799998 0 13.513335688799998 0.73428692573679655 0 0 0 0 5.1135181593963352 13.43096391846575 0 13.43096391846575 1.6447386962181554 0 0 0 0 7.5834002297260668 8.2207366281058967 0 8.2207366281058967 -5.0026288910248695 0 0 0 0 7.5470094876545772 8.4389648971173301 0 8.4389648971173301 -4.0518045838434773 0 0 0 0 1.8482550932009403 4.1684052609124107 0 4.1684052609124107 4.8845908005216359 0 0 0 0 4.7231450138187938 9.3129987122883904 0 9.3129987122883904 -5.3311760638578107 0 0 0 0 -2.1593791773183284 18.976354565735761 0 18.976354565735761 3.1696697473180393 0 0 0 0 -3.4103312355400703 9.5598081617163189 0 9.5598081617163189 -7.0189335302002291 0 0 0 0 -0.88197666855558055 23.35009383625561 0 23.35009383625561 0.10522636419227638 0 0 0 0 259.75291196683975 101.79311973066433 0 101.79311973066433 41.394006459027878 0 0 0 0 75.120802840816395 56.011236398497203 0 56.011236398497203 99.633821049697872 0 0 0 0 -0.21021678995991522 0.12754397322107369 0 0.12754397322107369 0.3593092682630683 0 0 0 0 61.711404133846372 79.564151108707847 0 79.564151108707847 114.57050844956029 0 0 0 0 236.11044140544618 83.326433487987742 0 83.326433487987742 -55.452121274649471 0 0 0 0 64.686086362264177 79.695739662156939 0 79.695739662156939 97.616004402554609 0 0 0 0 31.510253116859531 84.521582882385701 0 84.521582882385701 99.89154288401096 0 0 0 0 45.77272622725468 52.285755526983849 0 52.285755526983849 68.175984757952392 0 0 0 0 72.59426738133152 69.383969478098777 0 69.383969478098777 53.23970150232708 0 0 0 0 0.13846234474658559 56.24675094098302 0 56.24675094098302 83.241917939303676 0 0 0 0 50.575696714389778 42.702841955509484 0 42.702841955509484 23.871237319619468 0 0 0 0 71.485103491777409 54.344621422849741 0 54.344621422849741 47.300099849133403 0 0 0 0 2.0687089892944641 5.6454756962830288 0 5.6454756962830288 -4.2179708738622139 0 0 0 0 0.0028513976982953437 1.4689047929534418 0 1.4689047929534418 -1.4512002217393203 0 0 0 0 -5.1166665021701192 5.484080312831793 0 5.484080312831793 55.968373801480993 0 0 0 0 -4.1964880944869947 -5.2461311721567654 0 -5.2461311721567654 40.516573639200942 0 0 0 0 0.80135201263225753 0.37955859219292165 0 0.37955859219292165 0.92651028986336925 0 0 0 0 -68.31609291141649 41.280203138121578 0 41.280203138121578 -22.023591691992422 0 0 0 0 -0.079198222914470762 -0.38297643386786184 0 -0.38297643386786184 0.55512087876752458 0 0 0 0 -0.13600071014479909 32.639842759735984 0 32.639842759735984 -47.495064257308059 0 0 0 0 -24.509401961851836 46.888319699183739 0 46.888319699183739 -53.306881067433096 0 0 0 0 -28.817936401708721 60.869084255152757 0 60.869084255152757 -66.937488352215951 0 0 0 0 0.2610971314170456 48.434689584159059 0 48.434689584159059 -13.49395633969425 0 0 0 0 -43.310133320233945 49.439716757304495 0 49.439716757304495 59.6196774159298 0 0 0 0 -47.710348644732221 18.424791825593729 0 18.424791825593729 7.4986203571374972 0 0 0 0 -9.6514010910868819 42.114492257793245 0 42.114492257793245 -71.207240626690918 0 0 0 0 -6.6585551067473716 27.898712276283277 0 27.898712276283277 -55.621515859696729 0 0 0 0 -39.801311409679329 48.243611212976248 0 48.243611212976248 -69.892644503392404 0 0 0 0 -42.506886478337037 59.719108899322691 0 59.719108899322691 0.11692714128548687 0 0 0 0 1.8085353960250359 -2.6887177367425465 0 -2.6887177367425465 4.0162943565951039 0 0 0 0 -0.77794011151987519 0.84970222544184715 0 0.84970222544184715 2.6498356039897342 0 0 0 0 1.7996085491449776 1.0509940117517544 0 1.0509940117517544 4.5265955548525199 0 0 0 0 0.72236834297791574 -0.56293526853187359 0 -0.56293526853187359 2.3726628153872298 0 0 0 0 54.506522955533001 -27.270899158191241 0 -27.270899158191241 19.582757271440641 0 0 0 0 82.056076947570546 -12.109414556430693 0 -12.109414556430693 -23.326018991701858 0 0 0 0 21.5294134600299 -31.629253230300037 0 -31.629253230300037 27.969775812704938 0 0 0 0 -20.030983189386461 -1.9534234778830069 0 -1.9534234778830069 8.5887597289129189 0 0 0 0 -0.032448696970259761 0.070891785015437137 0 0.070891785015437137 -0.26394784257788118 0 0 0 0 -5.4861372629748075 -4.1911308780818217 0 -4.1911308780818217 -1.0418589637010882 0 0 0 0 0.2069320210201262 1.5508458740895321 0 1.5508458740895321 3.9824436588095065 0 0 0 0 -0.70985301336060047 -0.43045282235622118 0 -0.43045282235622118 1.1158852005501219 0 0 0 0 -12.951356712837878 -11.892756718123564 0 -11.892756718123564 12.311992097089387 0 0 0 0 1.2751560902256927 -0.78339464625858746 0 -0.78339464625858746 0.38905731142198879 0 0 0 0 16.201820914640848 5.495832247067483 0 5.495832247067483 0.47096107327401171 0 0 0 0 9.2034167235797213 -11.191150479130556 0 -11.191150479130556 0.85024507041271136 0 0 0 0 2.5234170126686877 14.680030409935512 0 14.680030409935512 33.727459531675777 0 0 0 0 5.1696199382604391 23.304231481597071 0 23.304231481597071 28.259789750465643 0 0 0 0 37.192579569509689 67.943174985412043 0 67.943174985412043 84.173466618834027 0 0 0 0 -22.721802361214941 58.96984292061029 0 58.96984292061029 150.78837071862017 0 0 0 0 -19.293356807269447 50.195016421073888 0 50.195016421073888 94.916204490915106 0 0 0 0 0.34378985094285852 0.57520425470729819 0 0.57520425470729819 1.3606930851706593 0 0 0 0 39.298857302215765 -65.654709733721575 0 -65.654709733721575 107.69700695950451 0 0 0 0 87.337647437911073 73.59347112706746 0 73.59347112706746 49.757846517538383 0 0 0 0 13.41971952813401 -22.575502318973122 0 -22.575502318973122 47.912710227552338 0 0 0 0 36.474968787193461 7.9839576468144067 0 7.9839576468144067 -7.8175564465464049 0 0 0 0 28.941998587713897 -8.9636016808635759 0 -8.9636016808635759 49.171108577689665 0 0 0 0 -5.7730827849845809 50.588414382497376 0 50.588414382497376 187.5549109836561 0 0 0 0 36.94888477745917 -60.140000231102022 0 -60.140000231102022 141.14513036408061 0 0 0 0 -49.062861476469379 9.6327861847395297 0 9.6327861847395297 145.56244551769487 0 0 0 0 -46.72760703962922 28.116591835296276 0 28.116591835296276 221.43509186785468 0 0 0 0 19.765573874288748 115.05771545816265 0 115.05771545816265 191.93483279655356 0 0 0 0 -38.544149273420771 28.027798941170659 0 28.027798941170659 114.20547348985372 0 0 0 0 -33.901695835498685 33.943597399245391 0 33.943597399245391 72.561834772616749 0 0 0 0 -25.889915689294867 43.517956632310415 0 43.517956632310415 119.21006810706058 0 0 0 0 -35.855229727944334 22.090608326887946 0 22.090608326887946 165.77458067952466 0 0 0 0 -37.104741215140166 31.22339817473221 0 31.22339817473221 107.05737318921911 0 0 0 0 -1.3534078725551808 35.551558601911324 0 35.551558601911324 96.365632334148358 0 0 0 0 0.43223103694342768 0.19376793038358109 0 0.19376793038358109 0.14791355392443073 0 0 0 0 -12.603891314141947 -15.199227069089829 0 -15.199227069089829 80.589212570752807 0 0 0 0 -0.99973280761696515 -58.784442718369974 0 -58.784442718369974 232.96804868158051 0 0 0 0 -29.738328844665375 41.093835994360688 0 41.093835994360688 194.32778633683301 0 0 0 0 0.076086867420111476 53.718636233990793 0 53.718636233990793 117.65274409708582 0 0 0 0 -9.6575736268641776 11.273922371615754 0 11.273922371615754 50.612852489484794 0 0 0 0 -0.03264203911749064 47.796396533271491 0 47.796396533271491 20.711137600551183 0 0 0 0 -18.930448341962347 69.352689193754031 0 69.352689193754031 -66.698782562979432 0 0 0 0 -5.8158448411177233 7.5917457949622076 0 7.5917457949622076 -43.178057077179801 0 0 0 0 -0.012398385710184812 44.318533754569671 0 44.318533754569671 -69.970753543281035 0 0 0 0 -26.605039174589365 67.372999802295908 0 67.372999802295908 -41.921571826944273 0 0 0 0 0.58810959436630128 0.15018077822697151 0 0.15018077822697151 -0.38712963749015117 0 0 0 0 -23.874212592097138 58.004950176186753 0 58.004950176186753 -119.91920609631597 0 0 0 0 -0.055842615796791506 97.640160190571351 0 97.640160190571351 -122.84939763096736 0 0 0 0 -72.07266631438506 84.418027477691794 0 84.418027477691794 -316.57449419490604 0 0 0 0 -78.864315318942317 56.03806510828872 0 56.03806510828872 -121.79800289505579 0 0 0 0 -39.541102346770003 83.72755770717913 0 83.72755770717913 -108.9134057871488 0 0 0 0 -225.38276332287933 33.706258079117561 0 33.706258079117561 -61.201216388294597 0 0 0 0 7.5669508624214359 112.06398329926424 0 112.06398329926424 -53.452591299819289 0 0 0 0 15.796909954062357 275.8116684303991 0 275.8116684303991 -106.48921640234403 0 0 0 0 -73.152361949783881 70.574727383338086 0 70.574727383338086 -48.669534071922499 0 0 0 0 -67.026530484694376 21.19208996310681 0 21.19208996310681 -60.388047067710431 0 0 0 0 0.95433396659913683 0.56806415612031103 0 0.56806415612031103 0.012760737724970994 0 0 0 0 6.7042466758866794 -32.134459907275868 0 -32.134459907275868 -2.9545487980030885 0 0 0 0 -22.036602586942536 -39.210411147123978 0 -39.210411147123978 99.365981701324927 0 0 0 0 35.298004952989231 141.27931463381196 0 141.27931463381196 70.627265652462484 0 0 0 0 31.98399111332219 67.546440990661722 0 67.546440990661722 -66.747964788086392 0 0 0 0 0.53254356264285718 0.41420906563456938 0 0.41420906563456938 0.1018021735350878 0 0 0 0 50.44253302776815 113.89570888683329 0 113.89570888683329 -57.776687633694564 0 0 0 0 -23.647054748431401 145.5924556905893 0 145.5924556905893 -19.652658604645239 0 0 0 0 -125.90129058697312 96.006309487251656 0 96.006309487251656 -16.400059573175895 0 0 0 0 -14.43619021759514 91.580160892467575 0 91.580160892467575 -18.410025843297262 0 0 0 0 -15.994587926130407 28.09465740320411 0 28.09465740320411 -44.515391046032164 0 0 0 0 2.4197088137407725 3.3579802347276271 0 3.3579802347276271 4.5172694110285008 0 0 0 0 -12.450663488998543 88.474310628739659 0 88.474310628739659 -63.702330780935426 0 0 0 0 271.63252072938121 29.960675316310699 0 29.960675316310699 -107.27673758354149 0 0 0 0 12.56120103688761 62.900879263520181 0 62.900879263520181 -44.237816339324127 0 0 0 0 -47.079707509665958 87.322146390120722 0 87.322146390120722 -77.002139629039448 0 0 0 0 0.78254711125633492 1.1412086082122403 0 1.1412086082122403 1.527223375313838 0 0 0 0 -4.6199146559574729 28.68680088857036 0 28.68680088857036 -44.646463404017595 0 0 0 0 -46.997284075187054 62.017279850430896 0 62.017279850430896 -70.356615744177361 0 0 0 0 19.319823901001655 58.070135122293777 0 58.070135122293777 -119.52035599719602 0 0 0 0 -19.73710822306748 55.278274191123273 0 55.278274191123273 -74.115389352479724 0 0 0 0 193.31955235849819 72.018379333643225 0 72.018379333643225 -182.72327936184729 0 0 0 0 123.46233640082755 -117.82031766502496 0 -117.82031766502496 -225.66544695774428 0 0 0 0 -17.171227122247842 81.967123248019391 0 81.967123248019391 -82.557530810670869 0 0 0 0 44.565872234172275 48.620094500966161 0 48.620094500966161 -118.45033842561952 0 0 0 0 37.696052514666007 -5.1443701702291946 0 -5.1443701702291946 -140.42267101750326 0 0 0 0 50.193839078687233 20.972521328639232 0 20.972521328639232 -89.256023344455571 0 0 0 0 -2.6421372853837966 32.270173367188363 0 32.270173367188363 -75.316628409465466 0 0 0 0 13.87167138543191 -16.854383748580403 0 -16.854383748580403 -70.337698531175192 0 0 0 0 15.968656909898073 -1.6109712805974823 0 -1.6109712805974823 -19.567104020991792 0 0 0 0 16.538648340836517 4.6121744755396321 0 4.6121744755396321 -8.6722848126519239 0 0 0 0 4.7531485256404267 17.827820937891374 0 17.827820937891374 -21.678672682850447 0 0 0 0 1.7947703143831859 8.687443066635069 0 8.687443066635069 -43.198977364725579 0 0 0 0 -15.673649896336428 24.500517471914463 0 24.500517471914463 -9.4349036266229405 0 0 0 0 -1.6748323733318102 17.784480157466533 0 17.784480157466533 -8.0563830976873305 0 0 0 0 3.7665034768068146 6.3649099539661051 0 6.3649099539661051 6.4614539077524675 0 0 0 0 -77.618791450293429 -1.36612770721365 0 -1.36612770721365 9.4433692844913821 0 0 0 0 -0.60073386124440731 15.117811619827989 0 15.117811619827989 -1.9768186234159657 0 0 0 0 6.8976670805941467 20.506492509671261 0 20.506492509671261 -6.6371447443534635 0 0 0 0 6.2756024035679729 15.20461675960064 0 15.20461675960064 -3.8082512954242702 0 0 0 0 1.944555949304231 5.1055216355630364 0 5.1055216355630364 -9.8007231128767671 0 0 0 0 -1.0594642098876648 5.8347303559221473 0 5.8347303559221473 0.71618992491130484 0 0 0 0 3.3483825847561093 9.2753102186375145 0 9.2753102186375145 -9.3815806445963972 0 0 0 0 1.9053460648369764 4.5238615248208589 0 4.5238615248208589 -10.613514082673646 0 0 0 0 3.3848971325884634 2.8338048158480618 0 2.8338048158480618 -0.049177187512816189 0 0 0 0 1.4547882590122754 3.4042626340415154 0 3.4042626340415154 -9.2415526371551096 0 0 0 0 1.2149067519287726 7.1823335024129786 0 7.1823335024129786 2.2427624378454727 0 0 0 0 -0.032116297493935519 0.96967936134316624 0 0.96967936134316624 1.9469226965616886 0 0 0 0 -2.5973341775534209 15.373218509754224 0 15.373218509754224 11.778680543129667 0 0 0 0 -43.592676778000168 29.390600541449658 0 29.390600541449658 -6.3392224951419252 0 0 0 0 -54.204209757048375 40.609468896785529 0 40.609468896785529 -6.6069252622598285 0 0 0 0 -4.3820208599386206 28.331379502469986 0 28.331379502469986 33.040071084553347 0 0 0 0 -107.61310163076814 42.621696414186317 0 42.621696414186317 35.647900482033037 0 0 0 0 -1.5074875325897423 1.62310508775127 0 1.62310508775127 1.4565517138403772 0 0 0 0 -85.47951581205416 114.20551249858249 0 114.20551249858249 -108.37563012613009 0 0 0 0 -60.038481140825752 68.850577991622004 0 68.850577991622004 -46.101947398024095 0 0 0 0 -142.83163158317075 94.774728153026899 0 94.774728153026899 -18.694800415099053 0 0 0 0 -123.4737170574117 23.086127005737126 0 23.086127005737126 45.913995584694021 0 0 0 0 -36.171047310508584 4.4269877726515006 0 4.4269877726515006 3.0837993664544001 0 0 0 0 9.104170529933981 59.514450908945264 0 59.514450908945264 62.629059251182298 0 0 0 0 0.61465170845985995 -28.798957310500555 0 -28.798957310500555 69.910434867700019 0 0 0 0 -29.942183142229624 -5.612861228778911 0 -5.612861228778911 54.408920855931683 0 0 0 0 13.891155134439032 -23.507896759060714 0 -23.507896759060714 26.041949873684644 0 0 0 0 -62.304830114131619 36.462532727918642 0 36.462532727918642 21.210879677808407 0 0 0 0 -29.488001522948252 -5.9700214191249188 0 -5.9700214191249188 22.786414465783309 0 0 0 0 -75.455672131829488 8.6434561979394857 0 8.6434561979394857 38.381435982562834 0 0 0 0 -41.079969327116487 45.464815811111635 0 45.464815811111635 3.3469051087413391 0 0 0 0 -6.0120754075542209 -6.3640703951764408 0 -6.3640703951764408 18.420691977345996 0 0 0 0 0.050479852674129688 0.36037634323805712 0 0.36037634323805712 0.60677223637952971 0 0 0 0 -19.058889778350931 -16.630345048861273 0 -16.630345048861273 33.806944964584545 0 0 0 0 11.417933130065649 -9.7456192706008551 0 -9.7456192706008551 26.532002385440137 0 0 0 0 -0.59470129259317872 1.705629948630893 0 1.705629948630893 6.3647581976770429 0 0 0 0 -5.8575329429604608 3.106688344675149 0 3.106688344675149 1.515151075780345 0 0 0 0 -0.048060974443647098 0.5880178903264941 0 0.5880178903264941 1.0021879317585114 0 0 0 0 -0.39694067100313646 0.38577387035683941 0 0.38577387035683941 3.0598379732585279 0 0 0 0 23.283096191182267 11.207206739594767 0 11.207206739594767 8.47162775955303 0 0 0 0 -2.8125318322781823 2.2569150367480688 0 2.2569150367480688 -11.41571677275715 0 0 0 0 0.19112293915623013 0.049372159345807631 0 0.049372159345807631 5.4283715904148266 0 0 0 0 16.368686624669863 27.806841597025823 0 27.806841597025823 -30.560885115827659 0 0 0 0 -58.770229446070516 -9.6514198721931734 0 -9.6514198721931734 63.729513947141641 0 0 0 0 -131.11082021770562 64.559389602698957 0 64.559389602698957 -10.378077742067035 0 0 0 0 -0.72032161874891187 0.62774184045690973 0 0.62774184045690973 -0.58497916694202701 0 0 0 0 -142.18689302659732 -39.501182177929422 0 -39.501182177929422 4.8354607666260563 0 0 0 0 -39.025409497137844 -3.7700381842500974 0 -3.7700381842500974 11.510713012834458 0 0 0 0 -91.218031833532223 38.012950810840721 0 38.012950810840721 31.069591840329394 0 0 0 0 -96.698849791971952 11.75008240517127 0 11.75008240517127 12.021281437488142 0 0 0 0 -0.12624183441919712 0.31054105621813299 0 0.31054105621813299 0.0076738678257809168 0 0 0 0 7.1982650869485951 15.446290817587624 0 15.446290817587624 4.8995171356627907 0 0 0 0 2.6531103297004606 1.4399186012617626 0 1.4399186012617626 -2.3361297568753887 0 0 0 0 34.50677942629045 49.572720160494328 0 49.572720160494328 43.331872787305542 0 0 0 0 46.000750945875552 45.195595266628743 0 45.195595266628743 40.538456271026917 0 0 0 0 3.0862074364010006 3.0406447403851633 0 3.0406447403851633 1.1083368015599433 0 0 0 0 -30.949733532417213 11.371489856269932 0 11.371489856269932 1.7937075352001557 0 0 0 0 -9.3175575816858327 -11.503386756603504 0 -11.503386756603504 -27.830220191150147 0 0 0 0 -31.000611870178091 2.7236092397762377 0 2.7236092397762377 -4.0988713597362221 0 0 0 0 11.085756233083885 11.832847323582428 0 11.832847323582428 -9.4625451416113719 0 0 0 0 5.2617567448378395 34.083132346338516 0 34.083132346338516 64.614740357820665 0 0 0 0 8.0901413302308356 26.075984980061094 0 26.075984980061094 19.06328596859521 0 0 0 0 0.38555996363261613 0.42470830579074992 0 0.42470830579074992 -0.70889827601999755 0 0 0 0 -1.4560527170167958 2.3416401111372522 0 2.3416401111372522 -0.89156800356408183 0 0 0 0 14.322835746865167 27.464262789651002 0 27.464262789651002 19.316203483388563 0 0 0 0 50.24732711724937 30.050350911268652 0 30.050350911268652 13.063968983553423 0 0 0 0 40.20204587499029 37.851121910506663 0 37.851121910506663 10.259165352978471 0 0 0 0 35.919763512691134 25.655979519522589 0 25.655979519522589 23.243153803832683 0 0 0 0 41.378308094329441 33.236389345324369 0 33.236389345324369 -6.3370040830523067 0 0 0 0 42.053802309340426 18.963330538604396 0 18.963330538604396 27.128445481226663 0 0 0 0 35.808919566210761 44.159219688664393 0 44.159219688664393 -12.711999403741174 0 0 0 0 33.201987380760329 34.095853426210851 0 34.095853426210851 22.696671969728413 0 0 0 0 33.301141257285053 31.252394261765403 0 31.252394261765403 -47.496792549529346 0 0 0 0 -11.323586934910054 60.031636809084375 0 60.031636809084375 24.159474655665917 0 0 0 0 36.302477857453141 33.962521286579545 0 33.962521286579545 32.776056537515615 0 0 0 0 39.215362079879924 43.111746395715272 0 43.111746395715272 18.352229813724648 0 0 0 0 23.916354233299899 54.08428961433583 0 54.08428961433583 69.777809397895453 0 0 0 0 9.5657271932323056 4.1214438662327666 0 4.1214438662327666 -4.7777563952258788 0 0 0 0 -3.3493608242279151 8.4900138300054095 0 8.4900138300054095 2.7793096192963276 0 0 0 0 1.6130373863817411 1.3340870130037104 0 1.3340870130037104 -2.285428367324073 0 0 0 0 6.6900953076547012 6.0300292225788326 0 6.0300292225788326 -3.5742361718257598 0 0 0 0 5.2516592903702985 4.51954130053673 0 4.51954130053673 -4.0642514672532286 0 0 0 0 1.846306907638791 6.5633287994000966 0 6.5633287994000966 -5.2794749740587577 0 0 0 0 -33.962208202305192 25.176852880742445 0 25.176852880742445 -4.685760662229427 0 0 0 0 -14.082529520774187 -14.820092794763696 0 -14.820092794763696 2.5408681618673654 0 0 0 0 32.622359140965273 9.8409066816286668 0 9.8409066816286668 -26.68024479874839 0 0 0 0 12.006352310614602 7.958308647675949 0 7.958308647675949 -9.4799617785356531 0 0 0 0 0.25325868506397597 0.45055348508839277 0 0.45055348508839277 0.26399279422761746 0 0 0 0 -2.6592680194225977 5.6264977551209086 0 5.6264977551209086 3.1988296824299596 0 0 0 0 3.080993065739257 -0.026718914953645978 0 -0.026718914953645978 0.060335728258157667 0 0 0 0 0.19073234820098151 3.1000647406954158 0 3.1000647406954158 -4.0433011454952066 0 0 0 0 4.7721874999406282 -0.29384746984260346 0 -0.29384746984260346 -8.2162297922191101 0 0 0 0 -1.203485148418622 -4.3429656999210238 0 -4.3429656999210238 -12.591574777748065 0 0 0 0 1.1163546488519742 0.48003572864129485 0 0.48003572864129485 -0.71703665533405125 0 0 0 0 -2.5024423661634501 10.788441797856649 0 10.788441797856649 -16.579684136921614 0 0 0 0 3.7418160391643198 0.67173390857294279 0 0.67173390857294279 -1.0117010484600697 0 0 0 0 3.3203805752200424 -1.1778453568022087 0 -1.1778453568022087 -6.5624561328713753 0 0 0 0 6.7128660844282422 2.0585244989497369 0 2.0585244989497369 -3.951800889281003 0 0 0 0 4.6669890098346514 4.389340164967507 0 4.389340164967507 5.1855629460907267 0 0 0 0 5.3523729635344353 -0.11954513638920616 0 -0.11954513638920616 -6.5081339493558517 0 0 0 0 7.3873096450442972 -0.45699963761489926 0 -0.45699963761489926 -8.0068171251305102 0 0 0 0 3.9815733245777665 -2.1521137565205208 0 -2.1521137565205208 -7.8240201445096318 0 0 0 0 9.6464735381141509 4.4511763090940804 0 4.4511763090940804 -8.716864752013862 0 0 0 0 6.4977271922743967 -0.15208213576124763 0 -0.15208213576124763 -2.1327395370917657 0 0 0 0 0.82614448840173171 0.26098363925401458 0 0.26098363925401458 -0.19448624486785704 0 0 0 0 -0.53307318424231198 -3.6777690921437625 0 -3.6777690921437625 -8.5235752435496579 0 0 0 0 6.51074788421829 0.072060748358126148 0 0.072060748358126148 -14.783094483485002 0 0 0 0 2.6240791795862606 -0.18375153896977281 0 -0.18375153896977281 -7.253311463258342 0 0 0 0 1.0481676494791827 -0.81112814149878432 0 -0.81112814149878432 -6.3824854145523204 0 0 0 0 -16.102776523622197 7.1823013574394281 0 7.1823013574394281 7.0597812500618602 0 0 0 0 3.0579061910879446 6.2111530911416004 0 6.2111530911416004 -1.3005739535407637 0 0 0 0 22.191875495806016 16.14012417934191 0 16.14012417934191 -9.9193656577699585 0 0 0 0 1.4698798972587785 2.1055112134395664 0 2.1055112134395664 -9.9729770637091981 0 0 0 0 3.4142461190567701 10.65150083899789 0 10.65150083899789 -20.518606441733027 0 0 0 0 -1.3334848568847519 7.3733913572746133 0 7.3733913572746133 -22.465727404254721 0 0 0 0 -6.387675485145337 8.2768438985240209 0 8.2768438985240209 -17.863910282985216 0 0 0 0 -38.374871435540626 46.276920368487026 0 46.276920368487026 -37.184460857950171 0 0 0 0 -0.12518024911707482 0.39942169102812741 0 0.39942169102812741 -6.8086001567835694 0 0 0 0 47.831791072798296 9.948897369761653 0 9.948897369761653 -36.930487682503554 0 0 0 0 -29.483736387170211 112.40072358131943 0 112.40072358131943 -118.65012860608476 0 0 0 0 -70.633570407042498 48.000868395856287 0 48.000868395856287 -18.881839724721885 0 0 0 0 -5.9757349973324381 2.3791224951744425 0 2.3791224951744425 -50.825602605241784 0 0 0 0 -7.885037933288686 50.620973660653931 0 50.620973660653931 -327.23687191639783 0 0 0 0 -0.095344390935472312 -0.016245997377659194 0 -0.016245997377659194 -2.5108164704692193 0 0 0 0 21.687975438049762 -80.916858738836709 0 -80.916858738836709 -189.51526754285442 0 0 0 0 -244.58367808644834 139.54644887503173 0 139.54644887503173 -62.637164974605639 0 0 0 0 7.6923062327159641 124.84299325849543 0 124.84299325849543 -284.38478969857533 0 0 0 0 23.470292101766972 32.186305788650316 0 32.186305788650316 -19.619562365032039 0 0 0 0 38.869959638541332 48.084535984533886 0 48.084535984533886 -149.95746781383696 0 0 0 0 49.447689846976346 14.208723817587781 0 14.208723817587781 -87.720795980641924 0 0 0 0 -2.735538876910141 70.599543272843221 0 70.599543272843221 -75.002027353900303 0 0 0 0 35.06029908997516 56.517391086962789 0 56.517391086962789 -91.128148475305352 0 0 0 0 18.518487490500775 74.496579639172069 0 74.496579639172069 -104.68973723368231 0 0 0 0 6.5723410540101668 54.617782495972477 0 54.617782495972477 -91.095885125205314 0 0 0 0 20.403851479530204 52.970948515181135 0 52.970948515181135 -98.103546165686112 0 0 0 0 6.4471934094563039 54.454444018941558 0 54.454444018941558 -60.74483533863895 0 0 0 0 -10.396148086770495 39.049636348241165 0 39.049636348241165 -69.558917604205817 0 0 0 0 4.7112969212175813 22.964283063437051 0 22.964283063437051 -52.882627016507683 0 0 0 0 5.5477713333400516 22.24866992684332 0 22.24866992684332 -112.08001755744863 0 0 0 0 5.6513200936442445 -17.531304767690017 0 -17.531304767690017 -192.37803364067531 0 0 0 0 13.437010770359848 10.993363713044346 0 10.993363713044346 -99.075899309089436 0 0 0 0 -5.7091628993966879 51.245282371416124 0 51.245282371416124 -142.28540295602647 0 0 0 0 -14.792595294025887 -11.436415903015387 0 -11.436415903015387 -135.4573411551255 0 0 0 0 11.553943546978189 28.44656417961869 0 28.44656417961869 -119.267107845601 0 0 0 0 27.587136668731546 59.813491960075226 0 59.813491960075226 -99.859460550707809 0 0 0 0 15.661151984884782 44.45818043954273 0 44.45818043954273 -52.145001191807751 0 0 0 0 3.8781941469796948 37.255216393655473 0 37.255216393655473 -53.698801843228466 0 0 0 0 17.008551507513403 46.430622161583869 0 46.430622161583869 -48.656202507197122 0 0 0 0 13.399214735532301 11.302025959740591 0 11.302025959740591 9.1226955970517096 0 0 0 0 24.700367328603079 -2.215500701154383 0 -2.215500701154383 18.224551517816508 0 0 0 0 44.966697842975009 29.083736861030957 0 29.083736861030957 -58.837753446216993 0 0 0 0 13.961029100700216 17.463345744011804 0 17.463345744011804 -4.4916006061112057 0 0 0 0 -0.38734686023409459 6.4844831332306683 0 6.4844831332306683 -1.7971637901401927 0 0 0 0 13.414836973912088 15.677146423393424 0 15.677146423393424 -0.66318080135170021 0 0 0 0 12.384053597832498 11.323140124608631 0 11.323140124608631 7.892156952143127 0 0 0 0 7.8627279567635924 -8.0756324292939041 0 -8.0756324292939041 10.430754129816705 0 0 0 0 -19.411311114115961 60.31361527119634 0 60.31361527119634 -15.448960793180731 0 0 0 0 21.629510462034204 8.8981451511108389 0 8.8981451511108389 -160.11048345667132 0 0 0 0 3.1990360412051224 3.1631172298281029 0 3.1631172298281029 1.1487386369625661 0 0 0 0 77.21825672612249 68.399421722890111 0 68.399421722890111 -189.4652762347323 0 0 0 0 49.428371330505797 88.041367093287363 0 88.041367093287363 -175.86325949391266 0 0 0 0 20.897282279968749 60.861152482086027 0 60.861152482086027 -163.5166018248583 0 0 0 0 17.934978522289384 -11.27568148303726 0 -11.27568148303726 -165.02805827636021 0 0 0 0 89.861897367267375 126.08216565032399 0 126.08216565032399 -35.158128425958239 0 0 0 0 -28.580565644601393 78.498426693011652 0 78.498426693011652 -139.14754528348294 0 0 0 0 46.59246012069525 8.6013608195307825 0 8.6013608195307825 -160.27561319601773 0 0 0 0 57.590764775070056 21.748692775602194 0 21.748692775602194 -103.87561970010984 0 0 0 0 103.31211153950335 83.682683182765118 0 83.682683182765118 -175.73167759103853 0 0 0 0 43.584800317723193 34.147537946803538 0 34.147537946803538 1.3007389663589493 0 0 0 0 38.95549804620623 38.768868049655566 0 38.768868049655566 58.220691312786585 0 0 0 0 28.82217423604925 21.073203071605349 0 21.073203071605349 4.4642236406145912 0 0 0 0 47.289877945381704 24.894265693532589 0 24.894265693532589 3.2745914756578713 0 0 0 0 50.063128129509181 93.059294501569624 0 93.059294501569624 91.533732782549123 0 0 0 0 51.175933221756168 14.111868323193903 0 14.111868323193903 23.958333119498093 0 0 0 0 -22.315349916068953 50.483161107020351 0 50.483161107020351 -94.329433984712523 0 0 0 0 -9.3088115642422053 61.850982773244596 0 61.850982773244596 184.16692727305724 0 0 0 0 1.3536162800469498 0.6325509871095516 0 0.6325509871095516 -0.41017878475668679 0 0 0 0 0.3438311556848177 0.60504282588518521 0 0.60504282588518521 -0.44235803181480193 0 0 0 0 2.2654942135891005 -0.023573234031207591 0 -0.023573234031207591 -0.5310903149463948 0 0 0 0 1.3582676336626776 1.6896578518808347 0 1.6896578518808347 -2.0365847203491896 0 0 0 0 31.575847199264899 -21.754321846427501 0 -21.754321846427501 4.5779685584420804 0 0 0 0 38.680485187098384 42.712281409667412 0 42.712281409667412 55.839346003709124 0 0 0 0 20.220304169210067 66.714543328743275 0 66.714543328743275 73.511203357330942 0 0 0 0 1.4783586871235457 20.830061094542543 0 20.830061094542543 117.00369935935714 0 0 0 0 55.547431224551474 49.633295501991142 0 49.633295501991142 10.286867925320621 0 0 0 0 -83.023709085191513 64.280485164067159 0 64.280485164067159 11.467019497949224 0 0 0 0 -0.17045671095262804 -0.17251556323882511 0 -0.17251556323882511 -0.092024718007738926 0 0 0 0 112.85761550929965 -8.3637831973410357 0 -8.3637831973410357 12.482465625002078 0 0 0 0 7.3028826492918597 -33.068413674603562 0 -33.068413674603562 -8.3842687278101948 0 0 0 0 42.367991897168395 -0.54041278058457465 0 -0.54041278058457465 15.869738500320523 0 0 0 0 0.84200215706338 -0.029833076306136519 0 -0.029833076306136519 -0.990447955836256 0 0 0 0 72.146572566025498 -22.671428264163751 0 -22.671428264163751 -43.030171458337463 0 0 0 0 -61.012266488281966 32.561983845914256 0 32.561983845914256 -11.857196829054374 0 0 0 0 -5.5559924313092779 40.819291660061936 0 40.819291660061936 -30.5592287877937 0 0 0 0 13.801005689228987 19.1490666923346 0 19.1490666923346 -19.337198986756448 0 0 0 0 27.149111252843795 13.699731166358561 0 13.699731166358561 -24.051762397231869 0 0 0 0 12.228402827310674 15.324040377257916 0 15.324040377257916 -28.325541186615737 0 0 0 0 15.790915262768976 15.78153047638034 0 15.78153047638034 -14.876564047644933 0 0 0 0 14.017271106979024 6.7934615693667411 0 6.7934615693667411 -8.1741515934381823 0 0 0 0 23.452731930824484 21.85422918429731 0 21.85422918429731 -35.063781336992179 0 0 0 0 11.592557736561503 2.0114793488342002 0 2.0114793488342002 -4.7140609055177265 0 0 0 0 2.2709221712349326 4.6185719600813258 0 4.6185719600813258 3.0299491376609247 0 0 0 0 3.5467477937559622 5.4262932072291648 0 5.4262932072291648 -1.9502621331894172 0 0 0 0 0.54712244193081006 0.93568168220551584 0 0.93568168220551584 1.0897336745854478 0 0 0 0 20.71648254155798 25.159861876986383 0 25.159861876986383 28.80982270646291 0 0 0 0 5.695209490142588 8.8405519412244757 0 8.8405519412244757 1.0270620060034616 0 0 0 0 4.3126149743930942 11.379101751134662 0 11.379101751134662 3.5067587643725844 0 0 0 0 0.9212813532917643 0.91114947230238208 0 0.91114947230238208 -0.57914571703412321 0 0 0 0 4.7492214397052521 8.0328347408337777 0 8.0328347408337777 -37.828883277399655 0 0 0 0 -3.4457149881045552 13.123526437220562 0 13.123526437220562 -14.230688203593672 0 0 0 0 0.99315678135008056 21.688707031270496 0 21.688707031270496 -9.8476140564489469 0 0 0 0 22.694211163732689 29.387348356021903 0 29.387348356021903 -22.880971875872092 0 0 0 0 10.212052753671742 32.911588501599454 0 32.911588501599454 -9.5457634332469752 0 0 0 0 7.8632874423892645 12.689185565166554 0 12.689185565166554 -7.648347424914391 0 0 0 0 -1.9570297907721397 28.957557152165009 0 28.957557152165009 0.76775458428528509 0 0 0 0 -1.6783619733073465 30.26196531569019 0 30.26196531569019 -6.5011652054599836 0 0 0 0 6.5996880496004451 16.236200990978205 0 16.236200990978205 -17.547493975202087 0 0 0 0 1.4584404135284039 0.91363326824708579 0 0.91363326824708579 -4.7816788493084381 0 0 0 0 41.236585467424447 27.775536255129509 0 27.775536255129509 14.162278070230286 0 0 0 0 39.278582817642018 44.076341147315816 0 44.076341147315816 -65.09763659719124 0 0 0 0 -5.5767501895479654 20.907083534042158 0 20.907083534042158 26.703121686091436 0 0 0 0 -14.076927961328693 13.1948575641361 0 13.1948575641361 22.810385374480575 0 0 0 0 5.0664298730252995 8.6077871838425608 0 8.6077871838425608 -0.30291270453199104 0 0 0 0 -11.000937040151712 6.9500087443621013 0 6.9500087443621013 24.970345729023528 0 0 0 0 5.6254602971821441 5.2642624225013606 0 5.2642624225013606 -1.3775860358541649 0 0 0 0 17.930948309835003 29.11492877409728 0 29.11492877409728 18.354182321739245 0 0 0 0 0.657559921659157 4.7233448341844451 0 4.7233448341844451 -5.8154851376807102 0 0 0 0 4.5904673089798322 4.8142296914961014 0 4.8142296914961014 -6.0248794974553253 0 0 0 0 8.9192189276068348 12.315974495074499 0 12.315974495074499 -0.56479184466616061 0 0 0 0 5.0252240372392407 4.7459074114423174 0 4.7459074114423174 22.027953573130475 0 0 0 0 18.183838013941568 26.269313954469908 0 26.269313954469908 -27.111201508162083 0 0 0 0 0.32355680938167097 0.79904982252761059 0 0.79904982252761059 1.2887505284454361 0 0 0 0 14.396926305063971 6.326018060386815 0 6.326018060386815 -24.633461838825212 0 0 0 0 5.5736406366122537 3.5491182966836732 0 3.5491182966836732 -24.536182262454872 0 0 0 0 25.744808895855385 25.464431531116588 0 25.464431531116588 -56.435976585451726 0 0 0 0 6.4144032328331377 -6.0837851671361705 0 -6.0837851671361705 -51.794392356291439 0 0 0 0 16.85787327941398 7.5274244519128501 0 7.5274244519128501 -34.931227101961724 0 0 0 0 -19.323850795246472 14.549530924211851 0 14.549530924211851 -34.317299438668385 0 0 0 0 12.184894136720686 22.705243026422693 0 22.705243026422693 -37.281048725050184 0 0 0 0 14.260553704953054 27.801778380184373 0 27.801778380184373 -36.051874931631033 0 0 0 0 7.2032546119153267 21.15015965739471 0 21.15015965739471 -30.200427874569499 0 0 0 0 19.758747065563512 13.766666810992035 0 13.766666810992035 -31.309082795695332 0 0 0 0 13.532410385701951 22.507011457961056 0 22.507011457961056 -41.260412625083347 0 0 0 0 1.9591296959192306 6.5725628661280204 0 6.5725628661280204 -4.1736010989585752 0 0 0 0 8.7664246772328625 20.374806418629703 0 20.374806418629703 16.22050774558177 0 0 0 0 0.42712982706536096 0.89877706935444834 0 0.89877706935444834 0.4156852163266006 0 0 0 0 7.9091299873252865 8.0383547522798011 0 8.0383547522798011 -31.972658327536116 0 0 0 0 18.96968557877517 15.024808663633053 0 15.024808663633053 -26.569805265726472 0 0 0 0 4.8009708443059935 4.9233604132685684 0 4.9233604132685684 -6.7832573187023968 0 0 0 0 3.3857475840486586 12.380001174505423 0 12.380001174505423 52.574141351358435 0 0 0 0 5.6272795707882324 9.8301823344095283 0 9.8301823344095283 0.7408425065159463 0 0 0 0 1.060367142448019 1.1801343021576685 0 1.1801343021576685 -0.9647540406848174 0 0 0 0 2.9131230274419551 9.6630017798650059 0 9.6630017798650059 3.8912908450705466 0 0 0 0 -22.14868193658458 11.57379546521679 0 11.57379546521679 7.5116731957773482 0 0 0 0 -9.50594691225524 22.135622588881439 0 22.135622588881439 5.9886631819129548 0 0 0 0 1.5567972629372324 4.2770058134814963 0 4.2770058134814963 5.1553950724752458 0 0 0 0 2.8740399586072556 5.069552123740948 0 5.069552123740948 -3.3027766517501078 0 0 0 0 11.693297482845082 7.8705951509851673 0 7.8705951509851673 -2.1002976143708452 0 0 0 0 15.999202604871243 8.3204830907171896 0 8.3204830907171896 -23.949109258871829 0 0 0 0 -1.2588304816181335 19.788338587792623 0 19.788338587792623 -27.025333174238966 0 0 0 0 12.453557494241977 12.735329470210118 0 12.735329470210118 -23.401628394012292 0 0 0 0 -37.606068535986196 63.619159102417726 0 63.619159102417726 -31.40804350694458 0 0 0 0 8.8367753337888644 27.5340338837334 0 27.5340338837334 -33.494762824581983 0 0 0 0 28.934866935231184 28.599536661207537 0 28.599536661207537 -34.757425098197047 0 0 0 0 48.355069351790917 8.8733327236682555 0 8.8733327236682555 -21.579881043369028 0 0 0 0 38.517924920057339 27.390238286600834 0 27.390238286600834 9.2426412861370295 0 0 0 0 5.0180101078567532 41.639212574567949 0 41.639212574567949 34.280910893292344 0 0 0 0 -2.3294033533552465 19.406060613910142 0 19.406060613910142 -32.991629266219832 0 0 0 0 30.618473956914386 81.061678070167432 0 81.061678070167432 100.22894268319521 0 0 0 0 81.042466569138924 95.012704561286114 0 95.012704561286114 51.339055413436 0 0 0 0 154.03153483423375 98.330908709420441 0 98.330908709420441 40.285495806788958 0 0 0 0 69.734716587845696 29.620514531453708 0 29.620514531453708 1.4196476274083807 0 0 0 0 58.298509168825149 135.95172920521611 0 135.95172920521611 166.17266074874192 0 0 0 0 137.46067299311471 159.99677213940106 0 159.99677213940106 156.34951825517155 0 0 0 0 1.577994680734264 13.69450127478342 0 13.69450127478342 -3.8582339621041228 0 0 0 0 2.3174682537792251 15.741116279246967 0 15.741116279246967 1.1584840923815136 0 0 0 0 -1.6779946825954539 11.333733120634918 0 11.333733120634918 6.6941707044791769 0 0 0 0 90.108438120043502 -1.4384381246848079 0 -1.4384381246848079 -18.497608387021899 0 0 0 0 22.48053613929369 -16.682491705502628 0 -16.682491705502628 -19.650366593354192 0 0 0 0 17.335227207466232 14.663595202273257 0 14.663595202273257 12.211683028192738 0 0 0 0 12.680785587266655 5.2218101152283793 0 5.2218101152283793 -2.9168967458194857 0 0 0 0 -1.174870333281433 11.136801920386006 0 11.136801920386006 -3.0213539467829378 0 0 0 0 14.201170318274308 1.9831832918740417 0 1.9831832918740417 -11.790409554762277 0 0 0 0 11.164406570246683 -3.7431084121427034 0 -3.7431084121427034 -18.370272026749262 0 0 0 0 23.144460790452285 -9.7620272254028464 0 -9.7620272254028464 3.6330872672543251 0 0 0 0 50.657064508204712 0.77675246539104137 0 0.77675246539104137 -15.690848751987801 0 0 0 0 20.362016269427841 1.3040998006289044 0 1.3040998006289044 -15.421605213241484 0 0 0 0 31.687418667637871 -1.4505749511574795 0 -1.4505749511574795 -29.572491113940828 0 0 0 0 3.4117923494086426 5.914487460684029 0 5.914487460684029 -30.606113487434584 0 0 0 0 18.327263129885978 -2.3232264668025095 0 -2.3232264668025095 -34.773031083935372 0 0 0 0 19.230388927921013 9.9536312045232762 0 9.9536312045232762 -34.003578618562443 0 0 0 0 7.0249358621695137 -8.5590043944793024 0 -8.5590043944793024 -23.036315767346252 0 0 0 0 18.408872725365654 -11.989264726256124 0 -11.989264726256124 -24.350035219653648 0 0 0 0 14.568303045429275 -2.7517656252051665 0 -2.7517656252051665 -20.12510449421768 0 0 0 0 -3.0068549488805729 -18.700265152282327 0 -18.700265152282327 -24.385438041656471 0 0 0 0 -3.093239013942366 -20.589642377276164 0 -20.589642377276164 -54.438662332191484 0 0 0 0 6.8059970282165523 -7.8352041065167271 0 -7.8352041065167271 -12.375247145053265 0 0 0 0 -37.208200248025605 -1.8221986360413212 0 -1.8221986360413212 8.9098549477053268 0 0 0 0 37.585494411907348 56.314062867395819 0 56.314062867395819 -3.685523744602051 0 0 0 0 -0.32620872092554976 5.0898487278328268 0 5.0898487278328268 -6.0251204914584822 0 0 0 0 -0.20044284369248899 0.25098685519937192 0 0.25098685519937192 -1.1330259314466882 0 0 0 0 21.278547460402478 10.20447352096653 0 10.20447352096653 -2.5046881358550763 0 0 0 0 -46.368592689266279 75.45974110868076 0 75.45974110868076 30.68971347648494 0 0 0 0 48.229493475873824 -57.994839132054551 0 -57.994839132054551 -67.386119189846454 0 0 0 0 -78.876318680046097 -15.252271334758291 0 -15.252271334758291 -10.725274447981974 0 0 0 0 -17.073959838875453 24.293079231077172 0 24.293079231077172 -55.414850165091067 0 0 0 0 5.6739931169104239 6.3334433286852345 0 6.3334433286852345 -36.82296539742191 0 0 0 0 -8.0697235670468217 5.1553891060835326 0 5.1553891060835326 -14.903655168663363 0 0 0 0 -15.243249611958163 13.37149400650344 0 13.37149400650344 -1.0580693163594788 0 0 0 0 -2.0019635963867586 7.4538752981759302 0 7.4538752981759302 -16.580139531987243 0 0 0 0 -2.6587386962473829 -3.2159550198186935 0 -3.2159550198186935 -3.088417187950995 0 0 0 0 -18.421061870782069 -8.1240743657626808 0 -8.1240743657626808 1.3019762779804296 0 0 0 0 14.686250516939253 6.4112658494025823 0 6.4112658494025823 -3.373380266440563 0 0 0 0 5.9707303276081802 -5.0286392831601461 0 -5.0286392831601461 -10.387344451042452 0 0 0 0 0.77320598428923404 -7.8608280236030623 0 -7.8608280236030623 2.4516251239938356 0 0 0 0 3.8549118726332381 -1.1874949380058126 0 -1.1874949380058126 -2.9867613194327305 0 0 0 0 8.8943569599796319 -2.7122888581625375 0 -2.7122888581625375 -11.817293732318316 0 0 0 0 -2.236973049090011 9.3320956665031076 0 9.3320956665031076 -0.23139999300451564 0 0 0 0 -4.0162831410561921 6.6465017073087438 0 6.6465017073087438 -2.5889592008647071 0 0 0 0 -0.95371964167497936 10.790256793873482 0 10.790256793873482 0.8181504247831981 0 0 0 0 -61.415019371568633 62.931391694655304 0 62.931391694655304 147.59423164948203 0 0 0 0 -0.43030789343889353 0.79675411929126483 0 0.79675411929126483 -1.3951206143028392 0 0 0 0 30.297101204549563 4.6303868572401257 0 4.6303868572401257 1.3167348847141511 0 0 0 0 29.854760986932888 14.212648584556518 0 14.212648584556518 -5.192307012983747 0 0 0 0 -67.853612348282695 -25.818436802841688 0 -25.818436802841688 42.605470741714953 0 0 0 0 -4.9561326114308031 -26.060242658814062 0 -26.060242658814062 -26.793084055642112 0 0 0 0 17.102224880607537 1.8011939385036158 0 1.8011939385036158 -13.416144532739168 0 0 0 0 9.3165634268407302 -7.9650365998644475 0 -7.9650365998644475 -21.039707708018454 0 0 0 0 -1.6157776513828139 -14.324751134681662 0 -14.324751134681662 1.2062434949094722 0 0 0 0 -11.324853375679595 24.441359390720663 0 24.441359390720663 7.479143599370218 0 0 0 0 2.2531393690442201 -0.34666625791703609 0 -0.34666625791703609 15.902275954312358 0 0 0 0 11.276540053091594 11.795076642152594 0 11.795076642152594 8.975836453033935 0 0 0 0 -1.3936748641681334 36.365664485375646 0 36.365664485375646 6.8747459751789393 0 0 0 0 25.663934598532251 18.678306417058053 0 18.678306417058053 -1.842132449827659 0 0 0 0 18.449540956571582 -20.476869351542291 0 -20.476869351542291 -33.566724712942687 0 0 0 0 2.7844490215256883 1.5799594237476526 0 1.5799594237476526 1.2275936877717868 0 0 0 0 19.743085489450664 11.097659430734552 0 11.097659430734552 -0.6247113555755277 0 0 0 0 7.6372480679419823 15.270871348513538 0 15.270871348513538 10.88396122744507 0 0 0 0 -0.0057742590061273802 0.47905874811807969 0 0.47905874811807969 -0.54583615352046877 0 0 0 0 27.856743351174373 -1.9591170708486061 0 -1.9591170708486061 -5.6268409835165585 0 0 0 0 -0.038223095423177256 0.88147936123329274 0 0.88147936123329274 -0.69442298459803631 0 0 0 0 2.2538121925826999 -0.45324773237734917 0 -0.45324773237734917 -5.7143121410462072 0 0 0 0 -34.400832958541287 12.204720051590357 0 12.204720051590357 3.4610551682872028 0 0 0 0 -12.866616277806315 2.7377786856433204 0 2.7377786856433204 -7.1062152129452443 0 0 0 0 -10.00869813722602 26.409444270279778 0 26.409444270279778 -0.27717802539609693 0 0 0 0 -12.358994420377712 17.486081131551146 0 17.486081131551146 -1.8405846068862388 0 0 0 0 -27.660358745495614 8.2740432177815819 0 8.2740432177815819 0.64991811579693604 0 0 0 0 80.046586360098445 4.4420047322309415 0 4.4420047322309415 -48.244661025346659 0 0 0 0 -11.428908637074187 22.609735945154327 0 22.609735945154327 2.0849442817498129 0 0 0 0 -1.0706459912155672 1.9850876605903096 0 1.9850876605903096 -4.8152744830477321 0 0 0 0 -5.9192249487787194 19.678876507812447 0 19.678876507812447 3.4972739166737483 0 0 0 0 -5.5303720656556834 23.800137691303917 0 23.800137691303917 -6.0973398691699003 0 0 0 0 25.818393811785427 4.5513215427757814 0 4.5513215427757814 -0.68193257775010352 0 0 0 0 30.098718162040313 5.3466953409183589 0 5.3466953409183589 -22.253362749381722 0 0 0 0 21.364768627048761 35.792478147630391 0 35.792478147630391 -45.562392470760642 0 0 0 0 -7.9481785168063652 -21.917904223677112 0 -21.917904223677112 -10.521551217700107 0 0 0 0 33.180008473172165 5.7609635849788106 0 5.7609635849788106 -15.399781281234027 0 0 0 0 -32.496324272739002 32.517990863385876 0 32.517990863385876 -4.7135943395892355 0 0 0 0 -5.5688830622093519 23.262755460370045 0 23.262755460370045 -4.13979421906879 0 0 0 0 30.110126377203414 -42.559613348644234 0 -42.559613348644234 -29.001225646312378 0 0 0 0 80.328724922488618 -32.331737203410739 0 -32.331737203410739 -49.940111175646962 0 0 0 0 0.63019412212890558 1.096304506321168 0 1.096304506321168 -1.6001909001816319 0 0 0 0 20.930082768129068 34.904839474384062 0 34.904839474384062 55.918629288216835 0 0 0 0 8.0053098650378729 40.174680200505478 0 40.174680200505478 33.715544859952388 0 0 0 0 3.9834047997447684 5.4835499913808903 0 5.4835499913808903 -5.4392863835450935 0 0 0 0 10.2852971319262 18.16522265977801 0 18.16522265977801 36.407485593139427 0 0 0 0 22.24789570642497 39.819796489655118 0 39.819796489655118 29.811296818031224 0 0 0 0 -2.7327141748673895 3.3440027221819442 0 3.3440027221819442 -1.8723727762287332 0 0 0 0 -116.487779709194 30.766826285764182 0 30.766826285764182 24.953979028890444 0 0 0 0 23.97371869129347 25.525472003231698 0 25.525472003231698 21.448753294611379 0 0 0 0 1.7991341157130591 35.876687372859351 0 35.876687372859351 35.129326499199124 0 0 0 0 34.260601706537273 32.015637280890587 0 32.015637280890587 3.8248876109719276 0 0 0 0 6.7772039932849282 4.8065535097603078 0 4.8065535097603078 -4.4380843180494916 0 0 0 0 12.826590089613092 3.6169475788094587 0 3.6169475788094587 0.014161392278765561 0 0 0 0 10.308376764765853 8.1044669330049146 0 8.1044669330049146 -6.3182545856338947 0 0 0 0 7.9857237046271621 13.600804349510327 0 13.600804349510327 5.1551734171953285 0 0 0 0 23.551533341926188 6.8614569595438297 0 6.8614569595438297 2.3789457185505398 0 0 0 0 0.39419463646401454 4.2233336758633051 0 4.2233336758633051 3.164059145584222 0 0 0 0 2.7001648703862884 7.2617859935753586 0 7.2617859935753586 5.5255977759152302 0 0 0 0 6.9621790422843333 15.205526703300706 0 15.205526703300706 -34.133032568856152 0 0 0 0 5.482014131383913 9.0592990498456025 0 9.0592990498456025 -6.1244796289093761 0 0 0 0 4.2097352458404202 17.202489623321526 0 17.202489623321526 4.8002760530848718 0 0 0 0 0.094231307059146729 3.6366436805388958 0 3.6366436805388958 0.32029492640975032 0 0 0 0 8.2759758920692548 8.3709465147014726 0 8.3709465147014726 17.725734757967075 0 0 0 0 3.1158282684118603 13.430438125069486 0 13.430438125069486 13.231114060994059 0 0 0 0 4.5350234068669124 1.5342388443883834 0 1.5342388443883834 -11.129874037186369 0 0 0 0 7.3100738559824094 11.602061624798807 0 11.602061624798807 12.070439030419038 0 0 0 0 8.7055624326831094 15.984805240051628 0 15.984805240051628 4.5025816274992394 0 0 0 0 -1.4100581272449446 1.8165305189741865 0 1.8165305189741865 -2.2774783738774573 0 0 0 0 2.7790376299526542 18.43989923329832 0 18.43989923329832 13.645446754735076 0 0 0 0 4.9765426927096996 19.108992425730321 0 19.108992425730321 3.7721335983324025 0 0 0 0 33.710389495339768 32.710959425267902 0 32.710959425267902 7.1754629958322766 0 0 0 0 32.401207506016362 29.715313282848001 0 29.715313282848001 8.1814890615951299 0 0 0 0 6.4719589212709252 10.586280568636312 0 10.586280568636312 10.901987198581992 0 0 0 0 -8.1661097775495364 2.6488163519762793 0 2.6488163519762793 12.415033701774519 0 0 0 0 22.618054390623001 -2.1820572303845438 0 -2.1820572303845438 -42.907648984441948 0 0 0 0 -0.2410133415591531 0.65377952557545171 0 0.65377952557545171 -0.95583423300438852 0 0 0 0 32.220353083156624 21.39998456987496 0 21.39998456987496 -0.026586707665956055 0 0 0 0 19.190598248315382 5.8558461284734449 0 5.8558461284734449 -13.730567335193882 0 0 0 0 38.435586775327465 23.419791746119699 0 23.419791746119699 -7.2541499039261907 0 0 0 0 40.195896626468311 25.377163493223634 0 25.377163493223634 -5.4685921664186026 0 0 0 0 25.746355317587586 24.472512900635593 0 24.472512900635593 -0.38332754271232261 0 0 0 0 25.907922005928413 23.332941563170493 0 23.332941563170493 -16.053772074868903 0 0 0 0 31.85704023762537 34.519226183087312 0 34.519226183087312 -24.804695728893421 0 0 0 0 31.51782446150537 36.709477530879667 0 36.709477530879667 -10.633048121959746 0 0 0 0 27.28108493263062 31.150693005350149 0 31.150693005350149 2.4198668152839673 0 0 0 0 9.1177570573127014 47.002181531996939 0 47.002181531996939 -11.120580257099391 0 0 0 0 7.9427825933925575 39.163755655469842 0 39.163755655469842 3.8824904308130499 0 0 0 0 7.9371400367815923 40.146027612385353 0 40.146027612385353 9.4955050558310177 0 0 0 0 31.846290298119129 28.27163675670954 0 28.27163675670954 5.0825324621655454 0 0 0 0 30.137434316642612 33.917894073377283 0 33.917894073377283 -10.16156257721741 0 0 0 0 -46.886142211644255 -7.3354607720586955 0 -7.3354607720586955 32.364734415263229 0 0 0 0 -41.144450153212347 -6.5539249241280686 0 -6.5539249241280686 13.312148818202331 0 0 0 0 -7.3308686281670816 48.701930495078614 0 48.701930495078614 -5.937714631466406 0 0 0 0 -72.12296694190718 31.118144325413823 0 31.118144325413823 22.415545985979406 0 0 0 0 -2.3198539761542634 38.880409884661731 0 38.880409884661731 4.455036252309128 0 0 0 0 -97.047313554583525 76.384214542525569 0 76.384214542525569 -13.040726066677507 0 0 0 0 13.387354480720887 40.031920907146059 0 40.031920907146059 -63.142491031038844 0 0 0 0 -21.248534898997605 -23.175495044430136 0 -23.175495044430136 -98.44231796783879 0 0 0 0 -145.39638069096873 -24.213128477899772 0 -24.213128477899772 10.82424369108594 0 0 0 0 30.998210846872098 -33.115824779486957 0 -33.115824779486957 -20.601024704313659 0 0 0 0 -0.031967431201074703 1.0386201803314563 0 1.0386201803314563 4.8923204515183407 0 0 0 0 -19.700028871296809 -10.431678190910077 0 -10.431678190910077 5.8820780602900413 0 0 0 0 -12.399237346865448 7.2559672435281755 0 7.2559672435281755 21.812155748992154 0 0 0 0 0.011151315669849282 -1.9310577354151519 0 -1.9310577354151519 3.0426921134767326 0 0 0 0 0.027351317606949976 0.045812643053153579 0 0.045812643053153579 0.40324504029093688 0 0 0 0 5.9699506834558633 -7.2420982431503944 0 -7.2420982431503944 3.7786925425825757 0 0 0 0 -2.8994201752393565 -4.2342965154684862 0 -4.2342965154684862 -34.710107218785197 0 0 0 0 0.024385037752001182 1.6196438363113366 0 1.6196438363113366 7.1536822103837636 0 0 0 0 -41.49362971141818 -10.301018867566199 0 -10.301018867566199 30.72896328859747 0 0 0 0 -12.813099577561843 21.665671039900985 0 21.665671039900985 68.577741274561049 0 0 0 0 0.70388745436503086 -1.3879485779916649 0 -1.3879485779916649 -6.3147199263694347 0 0 0 0 0.69083878894018369 2.792103406612485 0 2.792103406612485 4.7541473249831512 0 0 0 0 1.0544824968336712 18.40637976560328 0 18.40637976560328 24.655128391113976 0 0 0 0 -20.480225810733828 20.739917954595967 0 20.739917954595967 3.8609366234336733 0 0 0 0 -9.601377886498085 -1.5096355426321679 0 -1.5096355426321679 18.178096414283118 0 0 0 0 -1.8658265034482611 3.2936412921986857 0 3.2936412921986857 2.1962875137203355 0 0 0 0 0.66104052103840161 2.919219582873616 0 2.919219582873616 6.8588870552164076 0 0 0 0 -4.0228726615332562 1.4162219195804937 0 1.4162219195804937 -6.3787579774280374 0 0 0 0 0.99588641245472331 3.6648441124549755 0 3.6648441124549755 7.4343502867918332 0 0 0 0 -3.624042646793896 67.112102582857005 0 67.112102582857005 20.896442027708986 0 0 0 0 -25.059339341112718 -23.786717755634527 0 -23.786717755634527 29.71282869521383 0 0 0 0 9.4532433230724564 29.451948904252049 0 29.451948904252049 25.589393783649939 0 0 0 0 -8.9404369495314313 33.434934909424555 0 33.434934909424555 37.14051025147819 0 0 0 0 -15.602880090627878 45.289282733492655 0 45.289282733492655 23.792735026535411 0 0 0 0 -8.7861970592166472 21.721220140018886 0 21.721220140018886 22.523005489677416 0 0 0 0 3.5977246242473484 35.466666490789066 0 35.466666490789066 27.856178919832018 0 0 0 0 -22.258565409032599 27.81181157584524 0 27.81181157584524 40.82221369740364 0 0 0 0 -0.047174207335056728 1.7327143781825782 0 1.7327143781825782 0.39157738378825613 0 0 0 0 6.6351654961049462 20.720742677879571 0 20.720742677879571 33.469858103635488 0 0 0 0 -28.910752416475589 16.52425910761076 0 16.52425910761076 22.34261309710746 0 0 0 0 -9.9644238368418883 30.700311474908631 0 30.700311474908631 37.379237873106717 0 0 0 0 -14.714611305102153 14.656020634745801 0 14.656020634745801 30.039774214441422 0 0 0 0 -9.2694270689680707 22.806159808887969 0 22.806159808887969 33.984068861728701 0 0 0 0 12.329434524253884 12.095927023634431 0 12.095927023634431 28.680697191768559 0 0 0 0 15.70333764606039 20.487051294931007 0 20.487051294931007 26.870159224188683 0 0 0 0 -16.664998918895435 22.075287171544915 0 22.075287171544915 36.193385273329113 0 0 0 0 -7.6027147855929798 15.520500255590377 0 15.520500255590377 -14.46772719665023 0 0 0 0 27.672851997456746 17.357953620441549 0 17.357953620441549 15.174863563455801 0 0 0 0 -0.62193032398370462 8.7363993075977291 0 8.7363993075977291 -11.047560997672409 0 0 0 0 11.1299561245105 35.684639563638484 0 35.684639563638484 -0.92194999186176574 0 0 0 0 78.420619519697027 33.045094624363394 0 33.045094624363394 -15.455205279530674 0 0 0 0 -2.396485355294633 2.3377801555604307 0 2.3377801555604307 4.1463630136760905 0 0 0 0 -13.373381462184625 33.979679676834849 0 33.979679676834849 13.305436658585677 0 0 0 0 -13.649550545818784 1.3417996760908864 0 1.3417996760908864 -9.0476667197181087 0 0 0 0 0.79728667711862755 4.4621513129870074 0 4.4621513129870074 -5.8333005715108666 0 0 0 0 5.812486378941685 7.2692186892600148 0 7.2692186892600148 2.0094147011659516 0 0 0 0 6.8202100510432047 13.627968242853058 0 13.627968242853058 -11.261744538103812 0 0 0 0 -0.6883721768676736 7.4669480531987951 0 7.4669480531987951 -3.9427113975035546 0 0 0 0 0.17233687711654255 12.757278451795399 0 12.757278451795399 -12.012233042601258 0 0 0 0 13.843512280167488 13.806591490206301 0 13.806591490206301 -5.0402598957771261 0 0 0 0 0.49880379856767831 -3.386846060798689 0 -3.386846060798689 -17.739157472066836 0 0 0 0 4.3300837106653489 12.537669335919418 0 12.537669335919418 -15.099316820062086 0 0 0 0 6.2056116462044884 7.8704211404701709 0 7.8704211404701709 -9.6536753057434908 0 0 0 0 28.582981856264723 7.1567942487672553 0 7.1567942487672553 -16.841731106713269 0 0 0 0 -4.9018521435355069 6.0440480079450936 0 6.0440480079450936 3.0634655207013566 0 0 0 0 -10.762431066852514 6.5954456336833118 0 6.5954456336833118 12.057717462456822 0 0 0 0 -0.58459346602371909 4.2435788836393211 0 4.2435788836393211 8.8724844837861276 0 0 0 0 0.40807537745261868 5.2950624740312726 0 5.2950624740312726 5.4414866120752396 0 0 0 0 -9.1063978296951973 3.6931538337471466 0 3.6931538337471466 17.129273032532183 0 0 0 0 2.6611518812678696 5.3548810882374482 0 5.3548810882374482 4.8995719796330377 0 0 0 0 -3.2130756652331911 1.1813989248082635 0 1.1813989248082635 7.9833646913652956 0 0 0 0 -0.73123721068317238 1.9613394595278173 0 1.9613394595278173 0.57353719031136663 0 0 0 0 5.9720255069378254 6.9441016872961825 0 6.9441016872961825 0.96301046817825409 0 0 0 0 6.9177680072662042 8.2818552898069697 0 8.2818552898069697 6.4869683091824299 0 0 0 0 -0.24785651057248259 1.3072228381743258 0 1.3072228381743258 0.98147319599091887 0 0 0 0 -0.090319426975455031 1.6233294553257402 0 1.6233294553257402 0.77438905447610096 0 0 0 0 6.5506933402230061 8.5314768465348152 0 8.5314768465348152 7.1573440711617877 0 0 0 0 -1.1187221104919445 1.2566116645466536 0 1.2566116645466536 7.1960573450542142 0 0 0 0 1.6050800892699044 4.0018029484508588 0 4.0018029484508588 0.43477268147398718 0 0 0 0 3.2687963264946944 4.1183539263889681 0 4.1183539263889681 0.84451686492864064 0 0 0 0 0.90385334328415468 5.5537787832457717 0 5.5537787832457717 -1.3761276687855695 0 0 0 0 0.86984865344129503 5.6388647347330334 0 5.6388647347330334 3.2166012871894054 0 0 0 0 1.9324730634789375 6.5152544381160382 0 6.5152544381160382 6.9628079801500888 0 0 0 0 5.7860413721355144 5.6287087078671902 0 5.6287087078671902 4.0527944067120529 0 0 0 0 7.0884304204882937 8.2254831666696191 0 8.2254831666696191 -23.668789959392598 0 0 0 0 0.066889959254908149 1.6843313305552634 0 1.6843313305552634 -0.62009008523536657 0 0 0 0 -10.361279265040139 9.8268576278713908 0 9.8268576278713908 -2.799175082788679 0 0 0 0 -0.57223537634126842 7.0854874110409582 0 7.0854874110409582 -7.0895284656035074 0 0 0 0 -1.2037690863289754 2.7425456566859339 0 2.7425456566859339 0.1600955750036519 0 0 0 0 -3.1213171484341729 5.5247679376589076 0 5.5247679376589076 -1.2494031718225926 0 0 0 0 0.28251750242679208 6.1521135260184305 0 6.1521135260184305 -6.4188522637959888 0 0 0 0 -1.418060014009825 6.1861627900871099 0 6.1861627900871099 -0.69858656642099959 0 0 0 0 -2.4681668813028992 4.2139949410333823 0 4.2139949410333823 2.8291471749665784 0 0 0 0 2.1794219289858177 10.929174074752531 0 10.929174074752531 10.378516615856956 0 0 0 0 0.97899094028980471 7.4859424174610467 0 7.4859424174610467 3.0617033359158086 0 0 0 0 1.1453914433368482 7.6946713340103088 0 7.6946713340103088 1.1595766946011281 0 0 0 0 1.5164618921262445 6.7229845492020104 0 6.7229845492020104 1.8737549774559739 0 0 0 0 1.6480815966827418 6.6912805837042733 0 6.6912805837042733 1.8632814776447262 0 0 0 0 1.3350036086412729 6.0649910138690757 0 6.0649910138690757 0.92531137536570895 0 0 0 0 1.1723414771236236 4.3273490322938333 0 4.3273490322938333 0.51934632911647005 0 0 0 0 1.9156434000594089 4.6427771160477072 0 4.6427771160477072 3.5494783853948757 0 0 0 0 1.0916709090524819 3.3236417466305284 0 3.3236417466305284 0.42569175382118374 0 0 0 0 0.43288736931146232 5.9935242127944726 0 5.9935242127944726 0.650240424261046 0 0 0 0 0.4054949419228393 3.46523952716095 0 3.46523952716095 -0.30322580732903326 0 0 0 0 -0.32029629522669012 3.3278268719777273 0 3.3278268719777273 1.3981819180143127 0 0 0 0 0.99150409291658548 2.9349007150181983 0 2.9349007150181983 -0.31146241910269712 0 0 0 0 -2.8316277670273848 4.7784266402984485 0 4.7784266402984485 0.23784940486939377 0 0 0 0 -0.75834862894943811 1.8894841635204962 0 1.8894841635204962 0.869150125869945 0 0 0 0 -5.0294226492151211 3.2041444189692356 0 3.2041444189692356 0.64279181482379499 0 0 0 0 -0.47556830620218804 2.8758194810406401 0 2.8758194810406401 0.45639310010196699 0 0 0 0 -2.6883166893640009 4.1931023448740916 0 4.1931023448740916 0.080535705846017436 0 0 0 0 0.99446232186545558 2.8951654608233603 0 2.8951654608233603 0.7545074769086817 0 0 0 0 3.9560678460511554 2.4196428433717188 0 2.4196428433717188 1.3711347784887948 0 0 0 0 0.56210678875254416 7.4774613267075551 0 7.4774613267075551 3.2164446167535061 0 0 0 0 2.7214017544702074 2.7500121894540257 0 2.7500121894540257 0.9403428510357088 0 0 0 0 -0.11804001714974177 1.6027086038868994 0 1.6027086038868994 1.7427945123141848 0 0 0 0 -4.1438633230009145 9.3250024190238037 0 9.3250024190238037 -1.1838323146498624 0 0 0 0 -2.7033238217882172 5.1763447458782252 0 5.1763447458782252 1.7138273884862656 0 0 0 0 0.12857884724575008 2.3436262049315708 0 2.3436262049315708 -0.86828037990334783 0 0 0 0 -3.2363173827470746 2.1865843668155094 0 2.1865843668155094 -0.0076630762849276834 0 0 0 0 -1.0822784554794946 2.3927316849554714 0 2.3927316849554714 0.68832669738927965 0 0 0 0 0.66067383605852115 1.1255995091299376 0 1.1255995091299376 -0.54414638886741296 0 0 0 0 1.8864698012912413 2.8395434338580543 0 2.8395434338580543 1.9104961270489156 0 0 0 0 3.77397226936273 5.6433006360708617 0 5.6433006360708617 0.24300393368378082 0 0 0 0 4.3654136470131562 3.7159804759267558 0 3.7159804759267558 3.3552261926246842 0 0 0 0 5.652090548328033 6.9351593304973278 0 6.9351593304973278 1.9366739961423036 0 0 0 0 -0.5981499876592018 1.7625704268454712 0 1.7625704268454712 0.38202694415176497 0 0 0 0 4.3256651756964857 5.5371149454398392 0 5.5371149454398392 3.3940259959527452 0 0 0 0 2.5030505213642016 3.5186305707802177 0 3.5186305707802177 2.4703557249396879 0 0 0 0 -0.61625340006714424 1.459869916201022 0 1.459869916201022 0.10345904562963515 0 0 0 0 5.0185665875505947 5.7746082515222952 0 5.7746082515222952 3.1230835378944448 0 0 0 0 2.6627217987552285 4.9763826823011641 0 4.9763826823011641 3.1971566019637976 0 0 0 0 1.499840016995222 2.9801682520670454 0 2.9801682520670454 1.8657781956407007 0 0 0 0 1.3869203145159972 2.4428840847125848 0 2.4428840847125848 1.3345590833907863 0 0 0 0 -0.3970697363402067 1.0747322833754431 0 1.0747322833754431 0.39824575008174001 0 0 0 0 0.39668541224813225 1.621047431300596 0 1.621047431300596 -0.10760416807579531 0 0 0 0 0.39795100495970814 1.6825959422374517 0 1.6825959422374517 1.1775532305118759 0 0 0 0 0.57884932386634347 0.97469659935059472 0 0.97469659935059472 -0.12505827793963362 0 0 0 0 -0.76304655023461976 1.0685249280291735 0 1.0685249280291735 0.73039871512710697 0 0 0 0 0.84424521795517649 3.2864829065267713 0 3.2864829065267713 4.291496481146396 0 0 0 0 -12.657977216771542 4.1854841098722773 0 4.1854841098722773 18.954687040694353 0 0 0 0 -4.8081287466739013 15.982870328450417 0 15.982870328450417 6.6795003894626461 0 0 0 0 1.2938117885423708 -3.8657933229451373 0 -3.8657933229451373 11.027856932869781 0 0 0 0 -0.17616366767481395 0.42434767098322723 0 0.42434767098322723 0.84541879665412178 0 0 0 0 1.3545791336291586 7.2849080501162007 0 7.2849080501162007 19.569805266366075 0 0 0 0 0.26761306312710076 -2.4985164474402382 0 -2.4985164474402382 16.678027952249977 0 0 0 0 -3.2633641289176012 1.3522886418354574 0 1.3522886418354574 12.75576599999934 0 0 0 0 1.6208660437987419 -1.0292526763987553 0 -1.0292526763987553 8.4832340010316329 0 0 0 0 0.017548935096243667 -0.09476497977652798 0 -0.09476497977652798 0.36997685227554333 0 0 0 0 1.6360926802663016 2.6193031645152587 0 2.6193031645152587 5.2659755697660557 0 0 0 0 2.2716731847249321 -7.0400252638846723 0 -7.0400252638846723 17.830662344023949 0 0 0 0 2.2933370940918394 -0.308480140292545 0 -0.308480140292545 4.8493859971667916 0 0 0 0 5.4078987815737491 6.5855821373236267 0 6.5855821373236267 9.1536074418763747 0 0 0 0 0.076627786461948233 0.27016145366961197 0 0.27016145366961197 0.28502148257787141 0 0 0 0 0.66924649484462861 1.7713803422033152 0 1.7713803422033152 0.20917846858787215 0 0 0 0 -0.018857109079689849 1.443324096110203 0 1.443324096110203 0.48655938460678771 0 0 0 0 0.91230487440770958 3.5213889771712275 0 3.5213889771712275 4.4369044674476754 0 0 0 0 -0.43896127550504449 1.1020467676121868 0 1.1020467676121868 2.7662591805410646 0 0 0 0 -1.3229019800687638 1.8004518092701574 0 1.8004518092701574 5.112330117239253 0 0 0 0 0.91125802307879411 1.3579301086166424 0 1.3579301086166424 0.68816945614038971 0 0 0 0 0.87166606815662817 0.016754827549902984 0 0.016754827549902984 9.9991615284770887 0 0 0 0 0.15817259730593491 1.0556647520712366 0 1.0556647520712366 0.42767736222601294 0 0 0 0 1.0139306998316897 0.59199591874767066 0 0.59199591874767066 8.1985719206059002 0 0 0 0 0.65574323897472198 0.28216379013506199 0 0.28216379013506199 -0.91447209352136394 0 0 0 0 0.5593888058574521 2.2926490004527977 0 2.2926490004527977 1.2853912403534196 0 0 0 0 0.43423037256161479 1.8933918391795146 0 1.8933918391795146 1.1137818255901948 0 0 0 0 1.1667690188260167 2.518026710101708 0 2.518026710101708 1.2816635688724816 0 0 0 0 0.66687217072103522 2.235900451408952 0 2.235900451408952 1.3206378909335399 0 0 0 0 0.63431489070353564 2.0031999371173583 0 2.0031999371173583 1.0291034658575882 0 0 0 0 0.083068367471051729 1.2414162263098092 0 1.2414162263098092 0.5807250600187519 0 0 0 0 0.61491025445752712 1.8770816825872743 0 1.8770816825872743 1.2866993731713592 0 0 0 0 1.3661524249291688 0.49917018083249332 0 0.49917018083249332 -0.57637384555542326 0 0 0 0 1.2528214854209878 1.4541643936821735 0 1.4541643936821735 1.1105271923420714 0 0 0 0 0.12887609019340385 0.55400755264573931 0 0.55400755264573931 -0.031572324759186768 0 0 0 0 0.50826039591458816 0.51282013319571007 0 0.51282013319571007 -1.2262465096337554 0 0 0 0 0.86654424560401822 2.1914736160068173 0 2.1914736160068173 1.1755991825760077 0 0 0 0 1.3182089003457804 1.9325150408787977 0 1.9325150408787977 1.2889873499439659 0 0 0 0 0.68348025310106575 1.5412913074489296 0 1.5412913074489296 0.10672740862837204 0 0 0 0 0.69879303173517648 1.6323016656103135 0 1.6323016656103135 0.77938848456407528 0 0 0 0 -0.36614501629082952 1.2709882499160585 0 1.2709882499160585 -0.29318607540153607 0 0 0 0 0.29918490259251485 0.61232018978422786 0 0.61232018978422786 -0.14596109993477568 0 0 0 0 0.94895807718421565 2.4143986559549262 0 2.4143986559549262 1.5403354099897655 0 0 0 0 1.8963965185794223 2.7616817934171536 0 2.7616817934171536 2.3205011701650164 0 0 0 0 -0.53188693916428065 0.97405869596746442 0 0.97405869596746442 0.55005653302538704 0 0 0 0 0.87490460397020797 2.0863255344424374 0 2.0863255344424374 1.4060788270874127 0 0 0 0 -8.5509618851338018 17.37305083235924 0 17.37305083235924 -20.219913060045769 0 0 0 0 -0.20836568047025139 0.0036963452896969784 0 0.0036963452896969784 -0.25724480075405154 0 0 0 0 -8.9688005050229549 10.811013310042597 0 10.811013310042597 -9.6633276921269839 0 0 0 0 -29.878833608589048 24.38149094457529 0 24.38149094457529 -15.232215479826152 0 0 0 0 -24.232910066108161 20.459875674686106 0 20.459875674686106 -15.10089496275962 0 0 0 0 0.42278277459273284 0.094012022060031342 0 0.094012022060031342 -0.28363849994724921 0 0 0 0 0.75760829619321157 1.8725162911255211 0 1.8725162911255211 1.3480503874970964 0 0 0 0 -1.4852083160767506 1.3684390479663762 0 1.3684390479663762 3.3007857869827149 0 0 0 0 0.44058402308250422 1.0570378897932216 0 1.0570378897932216 0.73630015287505213 0 0 0 0 -5.529865699907532 -3.1103541825013963 0 -3.1103541825013963 18.297738619336769 0 0 0 0 0.47272579043880114 -0.10963997122763125 0 -0.10963997122763125 -0.38658472194537241 0 0 0 0 0.94756682437218842 -2.7785019675636704 0 -2.7785019675636704 4.7259690467280961 0 0 0 0 -0.018585823776447796 12.325066421983138 0 12.325066421983138 -18.168323992478577 0 0 0 0 -0.76928354579285951 0.54452177883285913 0 0.54452177883285913 -20.915222710786111 0 0 0 0 -0.0084731040042242967 20.983631563082781 0 20.983631563082781 11.663030338620729 0 0 0 0 0.27291685464478377 0.27098902116440926 0 0.27098902116440926 0.43298115955145317 0 0 0 0 0.17195930021307504 7.2466768353713178 0 7.2466768353713178 7.4160145125383679 0 0 0 0 -0.4651235487241081 -0.41657452733931244 0 -0.41657452733931244 1.407220544377807 0 0 0 0 -0.14890058795572259 0.88755070615616205 0 0.88755070615616205 6.4153056846031404 0 0 0 0 -0.31808199002996673 -0.34764882621401938 0 -0.34764882621401938 0.76214311964805814 0 0 0 0 0.11545231721538585 0.4040921270943727 0 0.4040921270943727 1.9265203444515464 0 0 0 0 0.22067886537388404 1.2590650106099588 0 1.2590650106099588 0.86156351766703665 0 0 0 0 2.1948004233508982 2.5229735415836103 0 2.5229735415836103 -5.0519121504312352 0 0 0 0 0.44840861841233171 1.1971854623764138 0 1.1971854623764138 0.84738533141645078 0 0 0 0 0.24727373985660961 0.90857877464168268 0 0.90857877464168268 2.0712880262622093 0 0 0 0 -0.3181665979391255 1.3516228806401216 0 1.3516228806401216 2.4898524964032731 0 0 0 0 -0.010535098221161832 0.48775313628736416 0 0.48775313628736416 1.2475421981416541 0 0 0 0 -1.9827750077965902 3.2020562907931662 0 3.2020562907931662 11.612287527189437 0 0 0 0 0.19694312862536556 1.1740593491729818 0 1.1740593491729818 3.1978134766806487 0 0 0 0 1.9333476210631488 -0.33467872613800864 0 -0.33467872613800864 -3.0380126444620146 0 0 0 0 -0.11130346083540843 0.85299052010959997 0 0.85299052010959997 1.194036915081679 0 0 0 0 -0.69901938651310047 1.3446869605317033 0 1.3446869605317033 4.074182382483059 0 0 0 0 0.00040212253588833846 1.416105732818437 0 1.416105732818437 4.2067242000352962 0 0 0 0 -0.26563196333518135 1.722981047315443 0 1.722981047315443 4.3376690421246167 0 0 0 0 -0.069679670727055054 0.82283951053068449 0 0.82283951053068449 2.4042961887514593 0 0 0 0 -0.00071136124824988656 1.3485527267705493 0 1.3485527267705493 2.0797342471713591 0 0 0 0 0.28703653189773348 0.67992744277272266 0 0.67992744277272266 1.9069355084482176 0 0 0 0 -0.53341342269050074 0.67558100743326577 0 0.67558100743326577 1.2663377548924473 0 0 0 0 10.600049664463768 -20.388790229720712 0 -20.388790229720712 13.38637155923152 0 0 0 0 -2.2369200400698901 -15.861777505507689 0 -15.861777505507689 20.227097209496634 0 0 0 0 -1.5176266622438561 6.8323848316258591 0 6.8323848316258591 17.172591009280495 0 0 0 0 9.6361518391604477 -11.046996356283273 0 -11.046996356283273 17.454930331613468 0 0 0 0 -9.8298698988710385 -4.3968543429120928 0 -4.3968543429120928 22.250292317193498 0 0 0 0 -2.674440267153841 -10.833110574476677 0 -10.833110574476677 23.877936558808187 0 0 0 0 -7.3721655450881372 -1.7280441587161022 0 -1.7280441587161022 3.4042938525524278 0 0 0 0 5.634493670795564 8.8337463521329482 0 8.8337463521329482 11.829470780088513 0 0 0 0 -27.692761253865683 23.70571280708009 0 23.70571280708009 -3.9782031717423365 0 0 0 0 -0.18851834811363943 1.9154922649304744 0 1.9154922649304744 4.0920248869065041 0 0 0 0 -0.028545023060814856 -1.7721928689957167 0 -1.7721928689957167 6.531791550406524 0 0 0 0 -9.0097925289637715 -6.9809487121072493 0 -6.9809487121072493 -9.9198128356638335 0 0 0 0 40.034618298623172 -57.602359146284698 0 -57.602359146284698 58.163881694808659 0 0 0 0 -0.00028900178558874818 0.86110312200815931 0 0.86110312200815931 1.1051892912919357 0 0 0 0 0.26415668981075235 0.39634762362982556 0 0.39634762362982556 0.49557421457876316 0 0 0 0 -7.9796309369048686 1.3372402350746597 0 1.3372402350746597 17.302797620015099 0 0 0 0 -57.663436995600023 97.806950247719897 0 97.806950247719897 -79.377563089798969 0 0 0 0 1.2319443774952639 1.1447608037871397 0 1.1447608037871397 -1.569960895986894 0 0 0 0 28.098164634859131 61.239016703548259 0 61.239016703548259 -86.830201835374623 0 0 0 0 -163.95000813090519 118.57588472344969 0 118.57588472344969 -102.0858437497119 0 0 0 0 -75.653206625026314 284.49547975592782 0 284.49547975592782 -175.8367500487343 0 0 0 0 51.05866138353781 253.27282626517751 0 253.27282626517751 -176.07740123878102 0 0 0 0 162.71844545357999 -67.418133287802789 0 -67.418133287802789 5.4091269479365565 0 0 0 0 1.233308493200024 0.28268745776627302 0 0.28268745776627302 -0.59160585402120525 0 0 0 0 -54.816515569005787 53.370526016560007 0 53.370526016560007 -190.88829069631311 0 0 0 0 -88.568850597035635 202.65864442650036 0 202.65864442650036 -252.14006846508767 0 0 0 0 2.5206290158925988 0.0080649097273619574 0 0.0080649097273619574 -1.6538976672358396 0 0 0 0 -83.57258681019448 81.53234816754798 0 81.53234816754798 -194.94446221112048 0 0 0 0 -49.915056505857137 132.26948787238598 0 132.26948787238598 -128.2941151158077 0 0 0 0 -49.885368880749411 23.454988527872047 0 23.454988527872047 50.353764423378379 0 0 0 0 6.9936753363022675 1.1664623590833081 0 1.1664623590833081 -7.9467180543266993 0 0 0 0 17.85217699560053 -10.823344032996374 0 -10.823344032996374 6.2550272952421437 0 0 0 0 1.3734493543951416 -0.44605283258511363 0 -0.44605283258511363 -0.52075549290906586 0 0 0 0 18.527766639883339 21.499176557787905 0 21.499176557787905 -32.639105090212979 0 0 0 0 -20.660499183928096 33.068457408597396 0 33.068457408597396 -16.884354292659282 0 0 0 0 -35.542058428667588 -8.2550523636209618 0 -8.2550523636209618 -7.3058428190132645 0 0 0 0 7.6455461210960074 0.97825489734488347 0 0.97825489734488347 -7.4180262150677088 0 0 0 0 16.5503784203338 -14.661714063674481 0 -14.661714063674481 -1.7685365318930053 0 0 0 0 9.512422249314568 -9.6376256101669533 0 -9.6376256101669533 -23.586692994787882 0 0 0 0 25.70552355363543 38.083322032893307 0 38.083322032893307 18.258364060112172 0 0 0 0 -69.439171548830927 23.246081064633472 0 23.246081064633472 -16.641220792587774 0 0 0 0 -3.7176408802125565 7.5684466266214887 0 7.5684466266214887 -4.8645771403881817 0 0 0 0 2.4651196384825198 4.9369799953299776 0 4.9369799953299776 -8.0552337686426654 0 0 0 0 -1.2880395362699346 18.400004703533341 0 18.400004703533341 -4.8849757355956172 0 0 0 0 -3.8616007479267864 17.186493963616613 0 17.186493963616613 0.86850373307925111 0 0 0 0 57.113171464530751 -13.642443516013373 0 -13.642443516013373 -24.740647226711189 0 0 0 0 -1.3318355482831805 5.8689874644992877 0 5.8689874644992877 -3.0475365055756591 0 0 0 0 -0.55950742421591215 1.2057428137991337 0 1.2057428137991337 -0.75402295956221699 0 0 0 0 -8.7205689915390394 6.2692120117742434 0 6.2692120117742434 57.75337203037941 0 0 0 0 -4.9472750428694781 57.722071283059336 0 57.722071283059336 143.36669009081834 0 0 0 0 14.819354936185846 83.555847967242698 0 83.555847967242698 112.89230931127486 0 0 0 0 77.672114424398387 187.28364231550881 0 187.28364231550881 242.62451668961819 0 0 0 0 -33.002421658979074 24.252294793560509 0 24.252294793560509 253.0833039822835 0 0 0 0 7.6789216752385983 -8.9497967786079471 0 -8.9497967786079471 14.261925529368 0 0 0 0 0.63358752630997017 0.96277525515126161 0 0.96277525515126161 1.0889181183113443 0 0 0 0 -36.461403970656477 87.152936421933617 0 87.152936421933617 -31.853005527746518 0 0 0 0 -28.624452315803865 6.3538753021312004 0 6.3538753021312004 -3.3926080063101836 0 0 0 0 1.7376316858611638 3.6802842057168803 0 3.6802842057168803 0.28945287149161292 0 0 0 0 5.8285299047140029 42.188182263321877 0 42.188182263321877 -11.677158264735226 0 0 0 0 185.95156830107771 50.567744868528962 0 50.567744868528962 -47.761476819337986 0 0 0 0 102.64066071065918 247.96934176015088 0 247.96934176015088 96.398054076174049 0 0 0 0 77.176713461987674 107.03837036862183 0 107.03837036862183 221.71023293489134 0 0 0 0 233.78843435169938 139.66826654151674 0 139.66826654151674 106.07632973784985 0 0 0 0 164.63119134595581 39.513220907819232 0 39.513220907819232 140.41697095520044 0 0 0 0 79.534036968954752 50.143222465978397 0 50.143222465978397 88.959037651789927 0 0 0 0 70.616617264473462 135.68768131139336 0 135.68768131139336 96.883205094501733 0 0 0 0 72.456307856235071 97.855070209948622 0 97.855070209948622 43.992323218049819 0 0 0 0 36.168053040886662 67.766146946599065 0 67.766146946599065 62.150503112581191 0 0 0 0 81.618692633946011 108.27803940816852 0 108.27803940816852 24.696734995434099 0 0 0 0 50.184325949607228 72.257035413707399 0 72.257035413707399 16.005728539015763 0 0 0 0 69.337794525028812 106.62047739480715 0 106.62047739480715 34.960886402298001 0 0 0 0 152.05132740878798 153.97368260809628 0 153.97368260809628 -85.790272062713711 0 0 0 0 154.27022973607745 138.38658373893304 0 138.38658373893304 20.64234912148936 0 0 0 0 7.3429314522181812 67.152506961564313 0 67.152506961564313 11.64337932031583 0 0 0 0 -4.2461734935868662 50.179535131346029 0 50.179535131346029 2.1704332183294355 0 0 0 0 34.170325246577704 77.041654692659222 0 77.041654692659222 42.428806677295142 0 0 0 0 20.48441921879612 53.309619977910245 0 53.309619977910245 10.448817281444917 0 0 0 0 35.36812988904785 59.567765480740718 0 59.567765480740718 21.953803965595398 0 0 0 0 28.212480231203699 87.963368800443391 0 87.963368800443391 16.77606171627383 0 0 0 0 16.280869080688717 62.482662289900532 0 62.482662289900532 -15.31234706940154 0 0 0 0 -7.5854115106603786 75.633734807777671 0 75.633734807777671 5.0436847045052673 0 0 0 0 -6.5978473013883558 77.71233197873255 0 77.71233197873255 -1.3608167358083847 0 0 0 0 68.363868923092923 105.40715571520559 0 105.40715571520559 -4.9213255011773072 0 0 0 0 53.531537410536203 72.905956270933359 0 72.905956270933359 -5.4436525551227533 0 0 0 0 38.524578539883805 72.051122089058367 0 72.051122089058367 -32.356670724975857 0 0 0 0 44.944602176100489 107.79966427497584 0 107.79966427497584 -29.874350919345602 0 0 0 0 125.32609749779749 120.84001944814463 0 120.84001944814463 0.59182486900769504 0 0 0 0 101.89835372988364 92.607913194835987 0 92.607913194835987 -5.6540626866617458 0 0 0 0 100.1948492371921 81.287145909566107 0 81.287145909566107 -22.434526177794169 0 0 0 0 219.03677119271015 64.484518045446748 0 64.484518045446748 -46.00117999743884 0 0 0 0 91.95222403655589 46.328061119988206 0 46.328061119988206 -38.243438201880281 0 0 0 0 73.035451539449241 100.52359019868572 0 100.52359019868572 -9.9641148880454011 0 0 0 0 111.08096602226078 84.884200520042157 0 84.884200520042157 -26.516874209441539 0 0 0 0 58.024965275983959 77.010100909533321 0 77.010100909533321 -25.881224882054994 0 0 0 0 61.869165191211323 66.407520766633326 0 66.407520766633326 -9.3552999735006779 0 0 0 0 51.767341059630553 37.876427003643443 0 37.876427003643443 -23.612429797158256 0 0 0 0 82.790249832331028 43.560457264093884 0 43.560457264093884 -23.418256555440394 0 0 0 0 13.970200850280605 99.073958811684122 0 99.073958811684122 -14.18061481318091 0 0 0 0 69.229476921570495 90.624330775341036 0 90.624330775341036 -25.668001815365869 0 0 0 0 64.963623966106752 93.483116448972964 0 93.483116448972964 -2.9125581177997901 0 0 0 0 50.68505665199973 106.98206532312497 0 106.98206532312497 -15.563546593769274 0 0 0 0 47.916304444051093 95.310671872356579 0 95.310671872356579 -27.573941503010246 0 0 0 0 40.094556049668427 121.05262687538357 0 121.05262687538357 -0.73702497471163042 0 0 0 0 34.312774003738923 98.210757804205855 0 98.210757804205855 47.357734314419304 0 0 0 0 38.618244721290466 78.055412783214706 0 78.055412783214706 22.556239710163027 0 0 0 0 34.117784255262677 92.279167568554271 0 92.279167568554271 -2.1184808426773998 0 0 0 0 16.668321873214154 69.345233879849502 0 69.345233879849502 63.041304285074659 0 0 0 0 12.695339111609883 56.401974673163295 0 56.401974673163295 21.67920315343099 0 0 0 0 24.431177059263405 78.232336018829571 0 78.232336018829571 36.085660078613728 0 0 0 0 35.039203154397001 36.787685978320951 0 36.787685978320951 -8.2043264552910387 0 0 0 0 34.507949711628498 61.11736655572895 0 61.11736655572895 -9.6784596708030222 0 0 0 0 21.944321816308729 47.955897873632523 0 47.955897873632523 7.6572323478171711 0 0 0 0 23.403913066863424 50.003631513616028 0 50.003631513616028 10.007585802944504 0 0 0 0 5.1260955639136228 25.484757575536491 0 25.484757575536491 -0.17714497443307664 0 0 0 0 25.67780721447815 29.437643542320075 0 29.437643542320075 -13.510185299536715 0 0 0 0 1.0322751276034978 5.9695408998663879 0 5.9695408998663879 -15.938774878316508 0 0 0 0 -2.2334161460308195 6.2448467191428456 0 6.2448467191428456 -11.88711971498666 0 0 0 0 0.073351366881524882 -0.79517444606292997 0 -0.79517444606292997 -13.254759406606809 0 0 0 0 -4.9011672462884235 7.9026199440502296 0 7.9026199440502296 -8.4125998559231903 0 0 0 0 4.4355899792423088 16.333162121064674 0 16.333162121064674 -5.5257275147914697 0 0 0 0 28.903464480230468 11.572795317952796 0 11.572795317952796 -16.449311834799801 0 0 0 0 23.278131533274973 16.710764595069463 0 16.710764595069463 -9.7942276743083312 0 0 0 0 18.363495098413296 2.8217215277548746 0 2.8217215277548746 -13.609711999908995 0 0 0 0 30.420718162736193 6.5531975416421915 0 6.5531975416421915 -12.851480682884358 0 0 0 0 -5.2981777533668719 1.137417209232126 0 1.137417209232126 -7.6090598248629249 0 0 0 0 62.594123115153025 -1.6975889252288425 0 -1.6975889252288425 -17.509503239999049 0 0 0 0 29.997487435769472 5.490660352350119 0 5.490660352350119 -11.297166038492605 0 0 0 0 -28.896906732068601 120.53310541627388 0 120.53310541627388 -424.84793236453788 0 0 0 0 -116.69021293607636 198.91046782018813 0 198.91046782018813 -167.111724001109 0 0 0 0 2.0221533841000401 -0.79411197557880087 0 -0.79411197557880087 -4.4123141623491993 0 0 0 0 -21.328729462787123 158.90318539561918 0 158.90318539561918 -244.85185366021619 0 0 0 0 -1.7408831410054972 8.4274716884451664 0 8.4274716884451664 -14.02706928685302 0 0 0 0 -1.1432821477039177 5.0745943925843005 0 5.0745943925843005 -9.9908154574653771 0 0 0 0 -6.3849431600783646 0.54070229232411293 0 0.54070229232411293 -12.05991229751811 0 0 0 0 -11.501407533124393 2.2758602538391415 0 2.2758602538391415 152.95065801971759 0 0 0 0 -322.92532788612607 215.73441582989358 0 215.73441582989358 -146.41533178163809 0 0 0 0 -0.25166424998049131 0.49596689207866973 0 0.49596689207866973 -0.66360812343973485 0 0 0 0 11.296436291506325 27.788912338522891 0 27.788912338522891 54.080661899207371 0 0 0 0 9.8492934762349922 67.431522991109063 0 67.431522991109063 10.492145783868182 0 0 0 0 30.164189932635054 58.352414839606354 0 58.352414839606354 51.534586362368259 0 0 0 0 54.780613344790254 83.052046615491236 0 83.052046615491236 22.109583697400012 0 0 0 0 33.161341816443382 67.801437522790366 0 67.801437522790366 31.051964350079743 0 0 0 0 16.292747633617182 69.525098456981141 0 69.525098456981141 -35.218530408290917 0 0 0 0 9.8201333264432833 85.747073512450697 0 85.747073512450697 17.239811279438072 0 0 0 0 26.139152199637238 43.588730025850737 0 43.588730025850737 12.01140230094461 0 0 0 0 -20.204715664613104 73.734343114174408 0 73.734343114174408 10.389608750130719 0 0 0 0 -23.026567669488031 25.833620420299667 0 25.833620420299667 -70.792137259226365 0 0 0 0 -30.624879849575336 132.70346817904101 0 132.70346817904101 -1.0914063591344529 0 0 0 0 -46.069997026939745 98.209458493610782 0 98.209458493610782 140.39626612030588 0 0 0 0 -109.31974928402701 -33.533361835002779 0 -33.533361835002779 -101.33201118444958 0 0 0 0 27.287041699444671 -6.2758231346688262 0 -6.2758231346688262 6.6678056938239934 0 0 0 0 -300.24874156933924 147.93640421149667 0 147.93640421149667 -25.536733558325068 0 0 0 0 5.5873737866920425 3.6067096761204591 0 3.6067096761204591 -4.1121082900596626 0 0 0 0 -111.37570066075848 72.484399908887028 0 72.484399908887028 -87.589179974903345 0 0 0 0 28.015163429921813 15.458235569505177 0 15.458235569505177 -10.636734425766463 0 0 0 0 18.687752510406654 5.4171126071805702 0 5.4171126071805702 -19.786661550690042 0 0 0 0 13.748404876969857 33.749138757334777 0 33.749138757334777 -23.515765596510391 0 0 0 0 -1.4113891084871284 29.991809702625687 0 29.991809702625687 -23.496761492439987 0 0 0 0 49.865005815476479 -6.91433808897159 0 -6.91433808897159 -14.280730696407772 0 0 0 0 47.410849547719408 -20.472192410469688 0 -20.472192410469688 -4.6940416155448474 0 0 0 0 31.846162299350908 11.733712277121413 0 11.733712277121413 -23.191807703954964 0 0 0 0 26.785617829364128 15.344808060949617 0 15.344808060949617 -23.51211886393321 0 0 0 0 15.182527992930773 12.272644455038062 0 12.272644455038062 -16.385493785411199 0 0 0 0 17.078662630921826 21.311746302229039 0 21.311746302229039 -29.547751630228959 0 0 0 0 13.289595872623977 16.057294762914353 0 16.057294762914353 -20.682297421578369 0 0 0 0 20.161925988002622 15.102941695336085 0 15.102941695336085 -23.319426433205081 0 0 0 0 15.596260507697934 11.523489392430974 0 11.523489392430974 -25.572909536265797 0 0 0 0 -2.3990037949461112 21.511469188208594 0 21.511469188208594 -15.224984577238502 0 0 0 0 -3.1126735564885166 24.668900087827751 0 24.668900087827751 -20.539904759543901 0 0 0 0 4.2961331078705829 1.9122149986186603 0 1.9122149986186603 -0.75817684596162138 0 0 0 0 -1.0496632664685421 18.571817879997752 0 18.571817879997752 -22.130007400726754 0 0 0 0 0.58244536193751628 22.710948169499829 0 22.710948169499829 -22.094492919975892 0 0 0 0 13.166288231881481 17.737532078642289 0 17.737532078642289 -22.280562856094548 0 0 0 0 10.443499905242788 20.726504135796858 0 20.726504135796858 -22.700291443027709 0 0 0 0 11.988944289889332 17.275159147913428 0 17.275159147913428 -20.849694880145762 0 0 0 0 10.384517862992652 18.740679335133791 0 18.740679335133791 -21.548710327777826 0 0 0 0 11.630605040394585 15.109297733152744 0 15.109297733152744 -21.059411717800685 0 0 0 0 12.731521330240867 13.840901147264958 0 13.840901147264958 -19.879108734125111 0 0 0 0 16.292437458610948 13.444653359287258 0 13.444653359287258 -21.284506213696659 0 0 0 0 16.4421232534296 13.851883372681186 0 13.851883372681186 -20.735422999457114 0 0 0 0 13.846010856084831 9.771793910957058 0 9.771793910957058 -19.189269248436176 0 0 0 0 14.27531341129361 8.7137970297608263 0 8.7137970297608263 -16.890995022586139 0 0 0 0 8.4209858805952535 9.6473299518747808 0 9.6473299518747808 -19.160895891608106 0 0 0 0 7.2230826427231349 1.6878039406933212 0 1.6878039406933212 -8.1424475476351024 0 0 0 0 -65.23656841384468 -80.590131223614719 0 -80.590131223614719 -217.7235428070635 0 0 0 0 -4.4670916061349999 14.170102426000085 0 14.170102426000085 -13.158945772558582 0 0 0 0 -0.048452770160679393 0.77989550142319919 0 0.77989550142319919 -1.6912343550845641 0 0 0 0 1.8669853617575427 7.4045063488119922 0 7.4045063488119922 -9.9879189819766907 0 0 0 0 -160.65822802432376 228.25007049661008 0 228.25007049661008 -163.70002159501519 0 0 0 0 1.482771273708714 1.5982084535985868 0 1.5982084535985868 -1.3118031500792853 0 0 0 0 -144.96713097490465 320.16988587490437 0 320.16988587490437 -88.692059638543071 0 0 0 0 6.2509007040600579 3.6215647439516276 0 3.6215647439516276 -6.7041419410513061 0 0 0 0 24.111427534908216 1.1813567654858161 0 1.1813567654858161 -14.239516833840753 0 0 0 0 23.374181813835094 9.0104284429326071 0 9.0104284429326071 -12.090683541367071 0 0 0 0 23.105544874481893 5.7564383604999421 0 5.7564383604999421 -16.784187626686617 0 0 0 0 19.535171538471332 10.782826659697093 0 10.782826659697093 -18.927195238726199 0 0 0 0 18.005628393182633 10.858154977822323 0 10.858154977822323 -18.34669346458395 0 0 0 0 13.111437018535071 2.2040260153789859 0 2.2040260153789859 -10.168645247279301 0 0 0 0 21.979389494223142 6.744801407932755 0 6.744801407932755 -18.407411934051197 0 0 0 0 15.125102008753057 10.088219103732088 0 10.088219103732088 4.766184007791944 0 0 0 0 -6.7628438891797487 18.43072142537585 0 18.43072142537585 1.9827290610976434 0 0 0 0 -11.3172543572 35.569226415871526 0 35.569226415871526 0.51683099947337041 0 0 0 0 -20.150317442209598 22.060110872966106 0 22.060110872966106 10.180513138990136 0 0 0 0 -8.8215464470341658 10.866293102204509 0 10.866293102204509 23.300584751110364 0 0 0 0 -2.6958178717122792 -11.106882604074599 0 -11.106882604074599 8.9601986974766987 0 0 0 0 -3.5255595005537543 11.466473849010981 0 11.466473849010981 18.578648842043094 0 0 0 0 7.4193000252817001 -8.7932953598055974 0 -8.7932953598055974 -11.627249268658829 0 0 0 0 -0.9208528316992215 3.5446898298760061 0 3.5446898298760061 35.414908212262162 0 0 0 0 1.4668341162814613 32.684343183942474 0 32.684343183942474 38.782676475977951 0 0 0 0 -0.23670523202144977 25.485934373512464 0 25.485934373512464 9.5007333979856412 0 0 0 0 42.021199026175964 9.5948390112612287 0 9.5948390112612287 4.2710011801755172 0 0 0 0 129.8093121342863 -25.801563671457302 0 -25.801563671457302 -2.6233004901014283 0 0 0 0 0.99657283655215778 0.73636366463312219 0 0.73636366463312219 -0.52203860900432986 0 0 0 0 89.065846849945956 56.504697424300048 0 56.504697424300048 23.250584514114962 0 0 0 0 -42.670372395298727 116.92623327086767 0 116.92623327086767 -2.8094257035277224 0 0 0 0 12.966328318357455 41.491648197503309 0 41.491648197503309 77.585021225857417 0 0 0 0 0.49247495066657088 0.20605964420100431 0 0.20605964420100431 -0.34268080518135591 0 0 0 0 31.352242159151501 47.049594035896007 0 47.049594035896007 33.232961909052392 0 0 0 0 -11.830983158130493 -5.0984250816031818 0 -5.0984250816031818 47.118863026555118 0 0 0 0 -4.3850190692946853 99.899284418954267 0 99.899284418954267 -67.970744866399173 0 0 0 0 46.874069102020258 31.625256927830378 0 31.625256927830378 -9.292439393719178 0 0 0 0 -7.1516642395308736 74.325528251320065 0 74.325528251320065 9.7157218685724729 0 0 0 0 -3.6871038114284715 88.372167753155452 0 88.372167753155452 -5.6228623239694571 0 0 0 0 -20.286125856260696 41.713213319517308 0 41.713213319517308 -2.9118758706158587 0 0 0 0 -77.605005471071308 46.009805341544052 0 46.009805341544052 6.0077614003421331 0 0 0 0 -33.036425308862817 9.8753574318534447 0 9.8753574318534447 -28.136478568887469 0 0 0 0 1.3321204660352848 1.2892223232547964 0 1.2892223232547964 -0.2132202473888718 0 0 0 0 -0.87391649464643706 25.624992671569089 0 25.624992671569089 -42.72419391517451 0 0 0 0 -40.550627472135602 41.281973227933577 0 41.281973227933577 -25.389335750418013 0 0 0 0 54.620870982221732 -29.629607445335637 0 -29.629607445335637 -14.233852172255865 0 0 0 0 32.172998100380937 4.6473610404286774 0 4.6473610404286774 -21.866547941559475 0 0 0 0 -11.595245516478826 -0.42537406422434287 0 -0.42537406422434287 24.837151331446421 0 0 0 0 -6.7276990728478268 35.73964609315135 0 35.73964609315135 -72.585822520210741 0 0 0 0 12.076903436636321 6.569098435247593 0 6.569098435247593 3.2797698097532972 0 0 0 0 21.377682187777282 34.741114191940369 0 34.741114191940369 -40.863626695817402 0 0 0 0 19.207580222022443 -12.599193813005058 0 -12.599193813005058 15.846331302104545 0 0 0 0 46.599112672952401 2.8062053643239437 0 2.8062053643239437 -35.974197601264677 0 0 0 0 -61.06893279286669 0.97755357191363146 0 0.97755357191363146 -41.133779249288636 0 0 0 0 8.6612359733444464 49.532059989035133 0 49.532059989035133 0.99665595292685794 0 0 0 0 19.871657563108784 48.738977367803273 0 48.738977367803273 -48.471233106965883 0 0 0 0 13.626079924454128 7.6809705163924926 0 7.6809705163924926 4.2843790174905276 0 0 0 0 17.879990416018245 97.054958164573236 0 97.054958164573236 -113.82566738656442 0 0 0 0 -129.24457277311558 70.152374401872976 0 70.152374401872976 -79.686227473103827 0 0 0 0 166.77047868341924 -7.6007714259123986 0 -7.6007714259123986 -44.55124770923203 0 0 0 0 0.17725258588517256 0.044667011290057346 0 0.044667011290057346 -1.808977526636907 0 0 0 0 -228.736422709213 225.68819738890193 0 225.68819738890193 -109.96087505854234 0 0 0 0 -75.405820672503978 111.57305553283823 0 111.57305553283823 -49.512862231730196 0 0 0 0 67.610965115405634 99.316740958222908 0 99.316740958222908 -264.83323765166642 0 0 0 0 6.9428607660572652 -18.948554613900285 0 -18.948554613900285 -10.322243173240167 0 0 0 0 37.013743576314482 14.787891795983796 0 14.787891795983796 5.1218559999606441 0 0 0 0 33.814160976105086 11.998030484360584 0 11.998030484360584 14.879451958987374 0 0 0 0 -35.481632182363683 73.044031474189751 0 73.044031474189751 -88.282990118586781 0 0 0 0 0.26247937096345808 -0.58413959967184503 0 -0.58413959967184503 -5.0998590725129542 0 0 0 0 43.340508631052217 -1.3356409414700465 0 -1.3356409414700465 -10.612679189072878 0 0 0 0 -96.042181994212115 84.799868218736265 0 84.799868218736265 -61.669188624319759 0 0 0 0 -35.179481563844092 43.564254809004979 0 43.564254809004979 -43.40793314264856 0 0 0 0 -8.8204037043215067 64.416387050842786 0 64.416387050842786 -56.287760391562642 0 0 0 0 -18.036886320629492 64.188614207746923 0 64.188614207746923 -77.894901998805835 0 0 0 0 -15.195784179153634 74.872691672631163 0 74.872691672631163 -68.037596401213705 0 0 0 0 -35.83153412303318 64.561030037361263 0 64.561030037361263 -72.671548910442652 0 0 0 0 -18.61465907532147 68.479124383381532 0 68.479124383381532 -81.56420609503482 0 0 0 0 -20.567335488105527 55.411155551008051 0 55.411155551008051 -53.278506781718534 0 0 0 0 -13.781324436033174 62.303467384394366 0 62.303467384394366 -76.095373388773169 0 0 0 0 9.8155070370493966 5.680778318554184 0 5.680778318554184 3.1021653846073711 0 0 0 0 -23.462792150938185 74.570006121153938 0 74.570006121153938 -63.638991823944252 0 0 0 0 -15.102680932353906 73.6244319151524 0 73.6244319151524 -65.673536829900968 0 0 0 0 -7.4386853853411594 83.458986290241228 0 83.458986290241228 -59.826319244495608 0 0 0 0 -24.444812767743315 79.717667005670648 0 79.717667005670648 -51.24408438291448 0 0 0 0 -13.349459733823096 79.837828780460768 0 79.837828780460768 -54.764353427919104 0 0 0 0 -9.9106436786146332 91.338465516717292 0 91.338465516717292 -58.100883548319871 0 0 0 0 11.634555505894241 84.414831337993206 0 84.414831337993206 -58.187924757833571 0 0 0 0 4.6092523992132328 98.339076304198571 0 98.339076304198571 -59.277755322666508 0 0 0 0 3.975421791894405 73.108612453951991 0 73.108612453951991 -49.6348158982114 0 0 0 0 81.186962984862475 9.2374161835703035 0 9.2374161835703035 -52.851617207067875 0 0 0 0 61.492272989587946 49.530526762198861 0 49.530526762198861 -73.245662267434454 0 0 0 0 18.936644761932257 78.849897456920417 0 78.849897456920417 -54.291967249107984 0 0 0 0 25.690688768969267 32.683664271636189 0 32.683664271636189 -12.623581193584641 0 0 0 0 -0.83442274768185598 14.278473346824171 0 14.278473346824171 -14.596792731133064 0 0 0 0 137.0252706032752 -34.481673779981293 0 -34.481673779981293 -40.905447485488367 0 0 0 0 104.23785084477004 -15.796314366103275 0 -15.796314366103275 -22.354083486730815 0 0 0 0 1.2440629506094112 2.4057181439374062 0 2.4057181439374062 -0.024924056635743597 0 0 0 0 91.098452943304437 -4.2893358976880336 0 -4.2893358976880336 39.28752570157485 0 0 0 0 1.2190546783958744 -0.14277827452925429 0 -0.14277827452925429 -1.6797626416077467 0 0 0 0 -18.271615768549964 11.596607079171918 0 11.596607079171918 -15.364867626143678 0 0 0 0 21.287109492352101 36.479625128004955 0 36.479625128004955 -46.45633586765598 0 0 0 0 12.894696031744388 46.886081938906955 0 46.886081938906955 -25.316721616923587 0 0 0 0 32.025160333214444 62.3735982388298 0 62.3735982388298 -53.236362338710705 0 0 0 0 52.716468565085961 45.586193578969869 0 45.586193578969869 -45.300409722507538 0 0 0 0 4.6107541792189295 68.102523753675086 0 68.102523753675086 -56.571240261879666 0 0 0 0 7.8867418709796766 59.852846089189171 0 59.852846089189171 -49.281479514707826 0 0 0 0 1.4790684946274268 32.171887941633486 0 32.171887941633486 -43.746551694332808 0 0 0 0 12.370227245194201 0.55452394690598794 0 0.55452394690598794 -9.6153431393613573 0 0 0 0 10.638521281466637 4.9641230250504123 0 4.9641230250504123 -12.648582992876072 0 0 0 0 0.75106422511079174 -1.3523758223910871 0 -1.3523758223910871 -8.7876865893582075 0 0 0 0 15.877197076026278 0.3040750216359811 0 0.3040750216359811 -12.562407132490343 0 0 0 0 2.0842544906704212 3.5571070363790174 0 3.5571070363790174 -9.3894898648579872 0 0 0 0 15.306763687196508 0.98253655910366433 0 0.98253655910366433 -11.798454841554303 0 0 0 0 20.888588186011475 0.33437533531514418 0 0.33437533531514418 -13.764822396226918 0 0 0 0 10.768329619670112 7.7500336199464073 0 7.7500336199464073 -12.393807719564393 0 0 0 0 20.210020014268594 5.4192899529666647 0 5.4192899529666647 -15.620568976341929 0 0 0 0 22.614528227036317 4.1784981528240905 0 4.1784981528240905 -15.136352817785337 0 0 0 0 21.279543089543949 -6.5154569465798886 0 -6.5154569465798886 -6.1521914336944974 0 0 0 0 23.758605246754087 6.0142883496373543 0 6.0142883496373543 -13.895274979015085 0 0 0 0 26.988609135999923 -0.081547574793745525 0 -0.081547574793745525 -7.6739003490747564 0 0 0 0 5.4336805335242389 11.526272967400473 0 11.526272967400473 -8.3707311078387647 0 0 0 0 10.088943684686456 5.4140603137266226 0 5.4140603137266226 -8.1680975454517437 0 0 0 0 21.817606771419378 40.889335190283987 0 40.889335190283987 -28.620035799611742 0 0 0 0 9.8418637614240225 4.8896897070277783 0 4.8896897070277783 2.3698263288492711 0 0 0 0 2.177478117908322 13.990412003247911 0 13.990412003247911 -11.287006636283877 0 0 0 0 6.847580937694147 13.979370851113799 0 13.979370851113799 -11.604222323556996 0 0 0 0 -8.6136416504054978 4.4054684275459977 0 4.4054684275459977 -18.919552895314155 0 0 0 0 3.7341233657798227 11.979190396437225 0 11.979190396437225 -17.323678491935425 0 0 0 0 3.7671114355234749 15.518917789847364 0 15.518917789847364 -21.960813996891375 0 0 0 0 7.8499185584332736 13.977609206945999 0 13.977609206945999 -19.197734073055472 0 0 0 0 6.0104393326487298 7.1097198798565842 0 7.1097198798565842 -15.094511382618293 0 0 0 0 8.5823514264957339 12.966151809004259 0 12.966151809004259 -19.853666103778323 0 0 0 0 8.9171244658805335 11.668846846633414 0 11.668846846633414 -14.902610820707196 0 0 0 0 10.120822408382082 14.896369719469476 0 14.896369719469476 -17.545152240535572 0 0 0 0 8.9963403400925017 13.008238825054377 0 13.008238825054377 -19.452698379260255 0 0 0 0 9.5264365483632787 5.215514686487472 0 5.215514686487472 2.5904579560096499 0 0 0 0 12.083254234272317 16.200371155923222 0 16.200371155923222 -18.581337290179363 0 0 0 0 8.6081146842479939 10.909839265930714 0 10.909839265930714 -10.50277100403855 0 0 0 0 9.1059054704164737 16.021910665312134 0 16.021910665312134 -18.472281485126587 0 0 0 0 6.0590744007567992 13.674759015896825 0 13.674759015896825 -10.231783500776146 0 0 0 0 3.2081712476929169 17.002532001071813 0 17.002532001071813 -12.614414454518737 0 0 0 0 8.2039790912822355 14.149192142976062 0 14.149192142976062 -13.290334588119549 0 0 0 0 -49.024333269022463 64.738286373346909 0 64.738286373346909 -56.111344625783431 0 0 0 0 3.9376019935540683 1.5254435066718486 0 1.5254435066718486 -0.60622091128783673 0 0 0 0 -50.402984836701307 65.581622721163967 0 65.581622721163967 -39.247245635728177 0 0 0 0 -77.813299777782959 65.991960941661091 0 65.991960941661091 -38.972536586034266 0 0 0 0 -50.827602986697457 84.452360658576026 0 84.452360658576026 -36.366133221671589 0 0 0 0 -47.767340914895613 85.644391370533413 0 85.644391370533413 -52.692188051618814 0 0 0 0 31.967358553698432 2.8524634225682348 0 2.8524634225682348 -25.19733208578964 0 0 0 0 -13.150578364440662 -7.3434203558686022 0 -7.3434203558686022 26.632747198399102 0 0 0 0 67.200190907276919 -25.423508927756529 0 -25.423508927756529 -7.9809307981670372 0 0 0 0 0.3390122590900333 0.46470082376806943 0 0.46470082376806943 0.10661799536855909 0 0 0 0 -100.66315294710557 47.328697700106829 0 47.328697700106829 3.3792611068556653 0 0 0 0 -107.6062336984869 64.816586629521225 0 64.816586629521225 -22.328415980065984 0 0 0 0 -130.48847378019855 64.611110449932312 0 64.611110449932312 24.069485182058997 0 0 0 0 -46.714884684373828 109.83189850461758 0 109.83189850461758 -56.092612635975456 0 0 0 0 -82.363429033412103 90.317175023238633 0 90.317175023238633 -36.955048450887318 0 0 0 0 -86.567593796058645 85.369908901676581 0 85.369908901676581 -2.719450176974533 0 0 0 0 -151.07269602740416 108.37348103437807 0 108.37348103437807 -9.466151601586148 0 0 0 0 -130.04050253449714 180.23279380096756 0 180.23279380096756 -83.474199658489397 0 0 0 0 44.003080134845732 49.934638114921768 0 49.934638114921768 -202.81684398789059 0 0 0 0 -56.245364592190526 135.55404809912488 0 135.55404809912488 -65.778863082723547 0 0 0 0 -42.104745906081007 -9.7940305662061746 0 -9.7940305662061746 12.109653293601241 0 0 0 0 -2.3897011634693754 0.94590538514622935 0 0.94590538514622935 -0.64216804298462193 0 0 0 0 -189.481458518414 101.94282899004679 0 101.94282899004679 7.7771678672631879 0 0 0 0 -4.8418186244016397 20.408578429353383 0 20.408578429353383 -19.352579829595584 0 0 0 0 -4.0712080930916272 39.267903740518477 0 39.267903740518477 -243.92130237750882 0 0 0 0 55.062555748950444 29.892314700895554 0 29.892314700895554 -1.5815832482467158 0 0 0 0 2.6750840329623315 9.9260372491748967 0 9.9260372491748967 17.913010774076156 0 0 0 0 14.921761910909481 -0.22077091837149965 0 -0.22077091837149965 -23.55559760621054 0 0 0 0 0.45311257441971975 3.0770273409161746 0 3.0770273409161746 -2.2444873236458989 0 0 0 0 1.9844660745881697 18.075093737697401 0 18.075093737697401 3.093850634636965 0 0 0 0 8.422592506559333 5.9672947308499911 0 5.9672947308499911 0.61871792080759214 0 0 0 0 -13.789590485362169 27.414173278184592 0 27.414173278184592 4.5703850408983726 0 0 0 0 -5.9453758805155559 4.0531119511099973 0 4.0531119511099973 -1.0925552067158484 0 0 0 0 5.3024600027601991 8.6062043696058481 0 8.6062043696058481 -28.584430312765562 0 0 0 0 8.7715754359285256 48.396862898047729 0 48.396862898047729 -57.70763828578788 0 0 0 0 10.985825700345231 92.495381562291982 0 92.495381562291982 8.9510582493281845 0 0 0 0 -62.71890184195945 125.71678908536671 0 125.71678908536671 -5.8993674848530873 0 0 0 0 -42.213087892988369 78.646193485646677 0 78.646193485646677 -4.0063228275648726 0 0 0 0 -158.10697425292892 202.69736976628951 0 202.69736976628951 -104.25370972320275 0 0 0 0 -146.95642450357991 -17.162332800538593 0 -17.162332800538593 -22.824649471124758 0 0 0 0 33.831544465181764 48.304127818194559 0 48.304127818194559 0.56062588591294116 0 0 0 0 32.840822345858214 10.628786672589058 0 10.628786672589058 52.384671689376091 0 0 0 0 -20.284969779866515 164.61065646766178 0 164.61065646766178 83.136113149028574 0 0 0 0 -0.13261200057439382 0.19865563668865072 0 0.19865563668865072 0.10597384644661645 0 0 0 0 60.935028803669411 100.33304367972812 0 100.33304367972812 97.19039295539892 0 0 0 0 -86.365706273394608 39.364334022341382 0 39.364334022341382 76.761156325836055 0 0 0 0 37.650334338855828 22.919089854622371 0 22.919089854622371 78.128631264438354 0 0 0 0 -0.58321544813943049 0.34292216273552789 0 0.34292216273552789 0.4037708371492279 0 0 0 0 6.0713490231146352 52.219130460118208 0 52.219130460118208 112.76772502059509 0 0 0 0 7.8988667719149817 89.859546300862803 0 89.859546300862803 150.9056034051132 0 0 0 0 24.017716699301673 116.53249283171766 0 116.53249283171766 103.64611702389675 0 0 0 0 4.2485306998141823 132.3918660917945 0 132.3918660917945 103.93134607350498 0 0 0 0 24.027128353083299 139.0544346504945 0 139.0544346504945 37.312982958038901 0 0 0 0 -4.4218907935573952 -1.4461665026231003 0 -1.4461665026231003 -2.2319658004430494 0 0 0 0 1.4452459725453082 2.3889303132286841 0 2.3889303132286841 -11.866078933933522 0 0 0 0 0.5901449670400325 -8.7815298496025207 0 -8.7815298496025207 -6.9375936617727234 0 0 0 0 21.837484970907099 42.459196824271203 0 42.459196824271203 -8.865968202604563 0 0 0 0 2.0777861173424199 5.4698022968537892 0 5.4698022968537892 -7.8114919789546313 0 0 0 0 2.4639173296345689 -2.4688682560963571 0 -2.4688682560963571 11.186222300065765 0 0 0 0 14.710487281397945 -4.5073873858027582 0 -4.5073873858027582 -3.7197404974810979 0 0 0 0 1.3728240928321611 31.445328144582163 0 31.445328144582163 -23.687330234664387 0 0 0 0 -3.891767035209341 23.148434895709443 0 23.148434895709443 26.901667567202821 0 0 0 0 14.782111631469888 0.65423116275042048 0 0.65423116275042048 -0.83294413218663976 0 0 0 0 5.9356934934367018 8.4018910460572442 0 8.4018910460572442 -13.509728158783673 0 0 0 0 4.6571838959389424 7.7673993347491432 0 7.7673993347491432 -17.163806509651749 0 0 0 0 13.386502581470268 6.0413368975446247 0 6.0413368975446247 -16.872649032890195 0 0 0 0 6.2201793311051006 13.851126917299553 0 13.851126917299553 -18.081923566543082 0 0 0 0 27.351687647351355 8.9845485837350907 0 8.9845485837350907 -17.513670197202373 0 0 0 0 19.426904378758081 0.77255217949726784 0 0.77255217949726784 7.1010529605241572 0 0 0 0 14.548997828569554 -0.59442381512508291 0 -0.59442381512508291 -4.1135757259576167 0 0 0 0 13.282001316971218 7.5612482104472747 0 7.5612482104472747 -0.18901073741244545 0 0 0 0 61.607074952442417 49.52377879092478 0 49.52377879092478 3.5920366253808709 0 0 0 0 -4.4338633797169678 35.537696023689762 0 35.537696023689762 2.0645612232992789 0 0 0 0 -38.33509714495176 23.368417907684716 0 23.368417907684716 1.7734114456641237 0 0 0 0 0.27034190310377859 0.21734367211616679 0 0.21734367211616679 0.43437468775806298 0 0 0 0 7.9106993063451227 16.429739658539802 0 16.429739658539802 -14.152611631473974 0 0 0 0 128.81987485789682 23.584327470753038 0 23.584327470753038 -52.433619716427529 0 0 0 0 192.1064164576419 -73.98703207908386 0 -73.98703207908386 16.931582371215654 0 0 0 0 21.328742617751232 46.190443079629517 0 46.190443079629517 6.1455840360017646 0 0 0 0 158.89073918568647 34.663035561678385 0 34.663035561678385 -78.114137196184743 0 0 0 0 33.849526960248994 14.742496638796954 0 14.742496638796954 57.840278510450844 0 0 0 0 87.511622971138422 1.3237186402908492 0 1.3237186402908492 50.629422791070624 0 0 0 0 76.978750592272718 52.70990582374435 0 52.70990582374435 39.589157450779567 0 0 0 0 79.705424395859154 66.853999540668838 0 66.853999540668838 85.311271480843686 0 0 0 0 56.833951396852171 27.91788538175814 0 27.91788538175814 36.099202532864183 0 0 0 0 76.032341323612854 56.193397744035224 0 56.193397744035224 34.215745344701872 0 0 0 0 100.58722804442459 22.871658952448144 0 22.871658952448144 19.716563423658954 0 0 0 0 35.437652387381604 -4.6756333834501334 0 -4.6756333834501334 -2.9332960372166781 0 0 0 0 52.836726800530414 35.876567538004565 0 35.876567538004565 20.991318307980293 0 0 0 0 14.41302135135993 -10.184266677960522 0 -10.184266677960522 7.1674141087754606 0 0 0 0 9.2462903487248695 31.293353981899031 0 31.293353981899031 26.088227154480705 0 0 0 0 -9.2170829191964003 -6.4362585189676338 0 -6.4362585189676338 12.017719680806294 0 0 0 0 15.806735807067525 10.77390777242033 0 10.77390777242033 2.7772439677655711 0 0 0 0 0.52444741548697316 1.0608379482451724 0 1.0608379482451724 1.7820781746824794 0 0 0 0 -124.7843387408011 88.420487942883938 0 88.420487942883938 119.46039226686355 0 0 0 0 278.63716739995471 111.31808252478993 0 111.31808252478993 55.128650591869814 0 0 0 0 0.96312291536703931 2.198957569258944 0 2.198957569258944 4.6830762928903846 0 0 0 0 118.59943857311555 -11.969725541170419 0 -11.969725541170419 -34.474276008176957 0 0 0 0 109.52755522059044 95.982810480735338 0 95.982810480735338 109.92896182384152 0 0 0 0 -0.014942728945065653 0.18128205366908112 0 0.18128205366908112 0.82126166687699875 0 0 0 0 111.89402841489573 158.55133878499544 0 158.55133878499544 190.43588509895017 0 0 0 0 191.81983175973255 158.7125301509999 0 158.7125301509999 81.014355179072538 0 0 0 0 68.852587772435072 384.31489267167512 0 384.31489267167512 151.18929764436325 0 0 0 0 114.62959901224372 160.19934709963576 0 160.19934709963576 171.49041221201333 0 0 0 0 108.99140354159317 127.80084234182789 0 127.80084234182789 144.2854769413625 0 0 0 0 -0.52683072044649748 0.38734147663768681 0 0.38734147663768681 0.52533302849530816 0 0 0 0 96.578573928806691 99.214365808167031 0 99.214365808167031 82.533264368560765 0 0 0 0 106.32964497898774 64.849058258635125 0 64.849058258635125 18.509565673309226 0 0 0 0 57.995190047990945 119.10674950291798 0 119.10674950291798 151.10549137586122 0 0 0 0 43.609567989337847 122.38088885587729 0 122.38088885587729 142.77956920156703 0 0 0 0 66.011084940725596 107.22749236842435 0 107.22749236842435 147.32525330517296 0 0 0 0 44.661870028577141 93.951816887601808 0 93.951816887601808 125.85680677942764 0 0 0 0 58.012436294824511 108.86729815268973 0 108.86729815268973 136.13712862355305 0 0 0 0 39.722812637763127 90.727973753605738 0 90.727973753605738 136.53967151904209 0 0 0 0 43.852048517437652 92.531251408179287 0 92.531251408179287 112.67816606986617 0 0 0 0 33.839878597212191 72.431993097137251 0 72.431993097137251 106.03583608438157 0 0 0 0 30.015894142503385 76.891114195190767 0 76.891114195190767 101.81140867757858 0 0 0 0 34.720701401725819 71.432014816900164 0 71.432014816900164 95.030150626914747 0 0 0 0 29.338437371741747 61.389854375995128 0 61.389854375995128 92.421068686288663 0 0 0 0 38.750058657313275 81.48712869498894 0 81.48712869498894 120.6820117817042 0 0 0 0 34.598990706734185 66.6960007620944 0 66.6960007620944 103.30602763678735 0 0 0 0 43.619846503584995 85.787448585019774 0 85.787448585019774 112.48432761194499 0 0 0 0 56.064751587353385 96.644930786256282 0 96.644930786256282 127.05255078156006 0 0 0 0 39.127727578750637 83.682347964108203 0 83.682347964108203 128.77723943736055 0 0 0 0 52.286255953054933 102.09014168618614 0 102.09014168618614 148.98850439827083 0 0 0 0 65.886535219142388 96.149883606025924 0 96.149883606025924 133.91200220481915 0 0 0 0 47.56027707530302 89.911371306875935 0 89.911371306875935 138.536949609869 0 0 0 0 46.294483574580227 87.034762804174534 0 87.034762804174534 120.92221177270312 0 0 0 0 51.812505066114682 84.799714147350187 0 84.799714147350187 116.90898731997777 0 0 0 0 60.723092734195234 98.529445256281178 0 98.529445256281178 132.48785009992571 0 0 0 0 40.861419040058536 67.493678042018018 0 67.493678042018018 104.30728506749028 0 0 0 0 72.828310238144695 103.51817098939625 0 103.51817098939625 133.91380106207544 0 0 0 0 53.404194132501289 95.447498173978147 0 95.447498173978147 142.53009419607207 0 0 0 0 56.008205682141124 81.524233984155444 0 81.524233984155444 123.9520648920336 0 0 0 0 75.77333521174296 106.31921096743827 0 106.31921096743827 140.69164261644437 0 0 0 0 76.122759670983214 105.33189194526926 0 105.33189194526926 157.85233993377324 0 0 0 0 59.867676649195346 94.267862105085669 0 94.267862105085669 143.02906175228418 0 0 0 0 71.904497759049264 112.1162880806628 0 112.1162880806628 148.6394379290108 0 0 0 0 83.50022239634302 129.46553568197734 0 129.46553568197734 164.88082362325895 0 0 0 0 81.010428647583467 105.44726648603273 0 105.44726648603273 141.80649830516131 0 0 0 0 55.18922911356276 106.76074291170607 0 106.76074291170607 157.21343250957852 0 0 0 0 104.96709240916607 124.10414249351675 0 124.10414249351675 159.34488010439873 0 0 0 0 126.46268806308217 125.17744565030307 0 125.17744565030307 196.10453598874818 0 0 0 0 191.39150602615791 167.55364120942187 0 167.55364120942187 159.39114457263531 0 0 0 0 157.83890127542145 122.36192794906913 0 122.36192794906913 177.24574172155098 0 0 0 0 112.79501245181746 125.37614134093201 0 125.37614134093201 168.36543103884028 0 0 0 0 135.99543997891305 143.09305523268517 0 143.09305523268517 167.22466544322651 0 0 0 0 104.40557474576781 139.13490050050905 0 139.13490050050905 192.33573320500409 0 0 0 0 101.83887119860083 117.63089857395926 0 117.63089857395926 150.85226779053301 0 0 0 0 97.354883153308037 131.74190334872515 0 131.74190334872515 169.5628403905107 0 0 0 0 72.306597739821882 105.92828695511935 0 105.92828695511935 154.158041651487 0 0 0 0 99.422499176238489 118.35249616220221 0 118.35249616220221 145.58676525954479 0 0 0 0 63.100154398794984 108.68703932268909 0 108.68703932268909 148.7555076150984 0 0 0 0 92.01089619011691 123.56500096709919 0 123.56500096709919 146.06967715383416 0 0 0 0 97.280848698250338 120.36955000913667 0 120.36955000913667 147.42554111370737 0 0 0 0 118.97004954360364 170.12143956704907 0 170.12143956704907 181.39639738129381 0 0 0 0 86.114755053959016 123.47054525737008 0 123.47054525737008 163.45526546986684 0 0 0 0 132.16002450140149 131.94271050755424 0 131.94271050755424 156.97360220134397 0 0 0 0 118.93618338364831 137.32006040404644 0 137.32006040404644 159.04764604422508 0 0 0 0 86.572176924957603 156.39845624913391 0 156.39845624913391 179.92998147429512 0 0 0 0 121.75553619735001 155.60835030430314 0 155.60835030430314 166.11998693431292 0 0 0 0 88.301942751379102 190.58622243666628 0 190.58622243666628 220.27018757306973 0 0 0 0 150.61518875103502 218.60346438975375 0 218.60346438975375 198.73603905922164 0 0 0 0 40.848983262116235 169.92241372194093 0 169.92241372194093 141.78017431750004 0 0 0 0 230.87109069898725 59.359955868564612 0 59.359955868564612 168.87516657921151 0 0 0 0 0.55638253908856328 0.078646061015801294 0 0.078646061015801294 0.33738743136172911 0 0 0 0 50.836524541911785 204.49827968121519 0 204.49827968121519 86.039016979141024 0 0 0 0 27.825303854873709 130.69603926868285 0 130.69603926868285 -54.131445461946214 0 0 0 0 0.75355405871583514 1.0557718794126245 0 1.0557718794126245 1.1669885488280318 0 0 0 0 -13.10018738985525 -13.593002781783454 0 -13.593002781783454 366.63050820628632 0 0 0 0 -15.880291166007055 13.55554632753379 0 13.55554632753379 105.4906741440177 0 0 0 0 14.24857672473081 155.6412472001229 0 155.6412472001229 238.85337274774952 0 0 0 0 85.590925308916667 69.027414082759947 0 69.027414082759947 121.27058688628858 0 0 0 0 39.844234419364511 47.317189495432388 0 47.317189495432388 205.3911365059173 0 0 0 0 49.497336636310138 105.17956035942609 0 105.17956035942609 160.03652848701836 0 0 0 0 36.539536156178656 110.32713856902524 0 110.32713856902524 130.16654422534577 0 0 0 0 10.256271541508795 128.94649206746749 0 128.94649206746749 146.41719129945011 0 0 0 0 -0.21083333673777815 139.85410544702791 0 139.85410544702791 247.54611993474975 0 0 0 0 38.045293102909454 126.3333770127291 0 126.3333770127291 111.39141211909509 0 0 0 0 39.708374780125268 126.66331506936535 0 126.66331506936535 81.916420105584166 0 0 0 0 4.3966439816749698 80.098036041624027 0 80.098036041624027 49.955307199235449 0 0 0 0 42.283281805364823 85.728931917591126 0 85.728931917591126 97.330658497076797 0 0 0 0 35.299221418072193 92.487818935256882 0 92.487818935256882 129.04192793893958 0 0 0 0 42.202517830603938 85.114482496028643 0 85.114482496028643 95.229879979860016 0 0 0 0 38.528269299054955 79.823830570217979 0 79.823830570217979 98.593121524372918 0 0 0 0 47.253156916923672 58.22913020836009 0 58.22913020836009 50.367146595087888 0 0 0 0 32.131257690736675 35.274901963020511 0 35.274901963020511 43.024364185825561 0 0 0 0 39.544942791195353 56.834513298716274 0 56.834513298716274 64.917233022390064 0 0 0 0 30.034752273662889 57.374581921153549 0 57.374581921153549 73.507379519982806 0 0 0 0 37.10155597562516 69.547974819687965 0 69.547974819687965 84.294906119274856 0 0 0 0 70.249035523864222 97.283190627364093 0 97.283190627364093 42.552507236325823 0 0 0 0 66.048832735308679 79.587527404940374 0 79.587527404940374 74.57612659397364 0 0 0 0 -21.026175795595918 -5.3227466178046825 0 -5.3227466178046825 1.7861467685806929 0 0 0 0 0.049029900824869799 0.015817473376298352 0 0.015817473376298352 0.043346864934691531 0 0 0 0 -1.2042806935796158 0.43099737463332488 0 0.43099737463332488 -0.16346179791478876 0 0 0 0 -6.527518746243004 30.792379594961176 0 30.792379594961176 -63.433166878652173 0 0 0 0 11.969632265288055 91.955018517225767 0 91.955018517225767 0.19550178389840767 0 0 0 0 -130.24272697817105 100.87684900317277 0 100.87684900317277 4.0601922732140565 0 0 0 0 -94.97773724270337 52.80944402918567 0 52.80944402918567 -4.7323850647222798 0 0 0 0 -59.341507059747528 -7.3962722549159139 0 -7.3962722549159139 6.3307375146769118 0 0 0 0 -55.530208735028282 4.0217777288303296 0 4.0217777288303296 6.2700628963889358 0 0 0 0 -125.81461225268268 -35.376066400914468 0 -35.376066400914468 -13.936539784538127 0 0 0 0 -87.445168429714613 63.043694755314618 0 63.043694755314618 -82.857281194799498 0 0 0 0 -54.297497081606707 -1.9669468703860957 0 -1.9669468703860957 9.3601346490465858 0 0 0 0 10.251053568747921 -31.884318346254645 0 -31.884318346254645 18.716001209942306 0 0 0 0 16.647598171730351 -13.863951986273605 0 -13.863951986273605 -39.579571534605066 0 0 0 0 29.779438233337714 9.168280332615268 0 9.168280332615268 -37.373801218956658 0 0 0 0 27.074549924176608 8.9408788881266901 0 8.9408788881266901 -23.671048395011894 0 0 0 0 57.393640786140168 18.773289094631536 0 18.773289094631536 -30.080852221209511 0 0 0 0 6.3957058260893973 33.90117454707206 0 33.90117454707206 -14.225898327396635 0 0 0 0 7.5672771080753591 9.8189322116760991 0 9.8189322116760991 8.9438995339517078 0 0 0 0 2.5639742361058282 1.1331678345266099 0 1.1331678345266099 -0.80885913836994483 0 0 0 0 -0.68499713455499034 3.2240387185443726 0 3.2240387185443726 -2.6189265996038702 0 0 0 0 46.423876252243645 30.583304995454 0 30.583304995454 -9.5172671447812718 0 0 0 0 23.296178038419384 -19.187110733278473 0 -19.187110733278473 -37.50795463470854 0 0 0 0 34.61178795026899 20.630650083438809 0 20.630650083438809 4.9016282397619761 0 0 0 0 41.825187160091446 19.382510833950164 0 19.382510833950164 -18.302325516903693 0 0 0 0 25.621640350138478 0.32840995670858319 0 0.32840995670858319 -11.710210717050586 0 0 0 0 20.177015233904967 0.0090912729165211204 0 0.0090912729165211204 5.9580264666763014 0 0 0 0 31.461829997506356 11.486902960402858 0 11.486902960402858 9.361766114056536 0 0 0 0 0.24449845100884815 3.8054491173599239 0 3.8054491173599239 -2.0300749182109108 0 0 0 0 1.7709950886192019 5.4309520055670646 0 5.4309520055670646 -1.9134269253756884 0 0 0 0 3.9016551825745154 2.7492266053466263 0 2.7492266053466263 -1.3038785488819968 0 0 0 0 1.5046981721534394 6.3866199873245932 0 6.3866199873245932 -4.8006187619357661 0 0 0 0 -51.769561585999327 0.41665018583330493 0 0.41665018583330493 10.884413591866178 0 0 0 0 2.5269335862962805 2.9798908704562121 0 2.9798908704562121 1.6551825083597453 0 0 0 0 0.62676602236557954 0.67765928677917842 0 0.67765928677917842 -0.19871293017899649 0 0 0 0 -59.868023361202177 -11.891821683122885 0 -11.891821683122885 0.68338645874428039 0 0 0 0 1.9100735023639572 13.030215096438042 0 13.030215096438042 7.740082221409466 0 0 0 0 27.433655343880673 1.8551570722752331 0 1.8551570722752331 -20.631533036206747 0 0 0 0 5.0806625801924383 -31.559669583371033 0 -31.559669583371033 23.971891349601719 0 0 0 0 38.758667149519169 -18.230498977708521 0 -18.230498977708521 -17.160375674716079 0 0 0 0 -17.073566557078266 30.18150962974903 0 30.18150962974903 -27.284363864127169 0 0 0 0 -7.1944333390104021 28.016787056598758 0 28.016787056598758 9.0016031515534678 0 0 0 0 -10.690325178911962 -2.7262811331054309 0 -2.7262811331054309 -3.7867852371957724 0 0 0 0 -13.626560686178891 8.5292301833070496 0 8.5292301833070496 -18.135254282158712 0 0 0 0 4.1618341618777777 11.696887815207901 0 11.696887815207901 -28.444028835615939 0 0 0 0 -12.677631972374002 15.846398579053698 0 15.846398579053698 -27.74800425375804 0 0 0 0 2.2621859694975388 -0.42516395533639528 0 -0.42516395533639528 -1.0914002721851968 0 0 0 0 -22.379909499744826 19.557574164872449 0 19.557574164872449 -28.972642579622288 0 0 0 0 13.893041043773223 5.7811356966012131 0 5.7811356966012131 -3.9461239345516699 0 0 0 0 11.046826306757112 1.4788362777379405 0 1.4788362777379405 0.85189714319858467 0 0 0 0 7.3763774413528154 18.366207861995463 0 18.366207861995463 -5.3549146488225006 0 0 0 0 3.0159999916847937 -10.279836206615407 0 -10.279836206615407 -18.979479520946597 0 0 0 0 6.7890013586526976 7.0685557279364915 0 7.0685557279364915 -2.6651948896641917 0 0 0 0 19.794804143553847 -2.5902216780468521 0 -2.5902216780468521 -14.873098185457195 0 0 0 0 5.9980464922482497 18.270322472879457 0 18.270322472879457 0.65112295264034969 0 0 0 0 1.1913663868563162 6.0235586429110981 0 6.0235586429110981 0.007670567129707706 0 0 0 0 -1.9017523678682338 5.408999356209705 0 5.408999356209705 -3.9572766819061922 0 0 0 0 18.549592155901337 43.551012105207917 0 43.551012105207917 1.2387423093515508 0 0 0 0 -2.1699085912185421 5.3480513344910463 0 5.3480513344910463 -3.4886543344574865 0 0 0 0 39.671261596172599 -43.205829297481188 0 -43.205829297481188 -41.078672262594409 0 0 0 0 51.483716595119404 12.799270225265161 0 12.799270225265161 -26.695906191082486 0 0 0 0 -18.623959890247988 17.62505005918571 0 17.62505005918571 45.120910736582914 0 0 0 0 9.973502173088491 59.411481421000524 0 59.411481421000524 -7.4030209751422271 0 0 0 0 5.3606692928915436 20.514536131172349 0 20.514536131172349 19.055132875603704 0 0 0 0 -5.1831002996880251 3.6945561189515095 0 3.6945561189515095 -1.8443117912673208 0 0 0 0 -1.8501908006114434 4.8944844976511854 0 4.8944844976511854 -4.4409466128619011 0 0 0 0 0.038605496036325349 9.2021957930776352 0 9.2021957930776352 3.9306646987527074 0 0 0 0 0.80299123777695058 35.576126643552584 0 35.576126643552584 50.160280877818877 0 0 0 0 8.5330596464937116 30.156521006156936 0 30.156521006156936 35.392403590137974 0 0 0 0 23.861178405973988 74.952488908674923 0 74.952488908674923 67.239804475742062 0 0 0 0 14.95442002059508 57.026238786967951 0 57.026238786967951 40.548138785050469 0 0 0 0 7.2215385722556675 26.080682982541475 0 26.080682982541475 28.252412512434603 0 0 0 0 10.315823223007101 56.913722425362721 0 56.913722425362721 43.686853720304271 0 0 0 0 15.414824153011068 54.151984241904302 0 54.151984241904302 -2.664970648165081 0 0 0 0 17.604043964045559 43.860392256363866 0 43.860392256363866 -49.620209428959242 0 0 0 0 -5.8076209625578485 16.641642199399939 0 16.641642199399939 17.795542818777903 0 0 0 0 -0.26990673964701273 12.030842616574205 0 12.030842616574205 86.798991133747222 0 0 0 0 0.89859948391858779 16.382771499939963 0 16.382771499939963 101.34530333642579 0 0 0 0 -2.9541338974540849 36.463888944834252 0 36.463888944834252 83.872909766372743 0 0 0 0 2.4444270126878109 41.839016581772512 0 41.839016581772512 74.055188506367813 0 0 0 0 7.7495964483896387 8.517946769418586 0 8.517946769418586 31.561122770642669 0 0 0 0 -1.0583012367887932 88.130763471008777 0 88.130763471008777 88.647943366605546 0 0 0 0 -8.5199246282536478 40.251014534022033 0 40.251014534022033 112.17237068765508 0 0 0 0 -10.276280679534466 31.197485065266392 0 31.197485065266392 141.31870344602657 0 0 0 0 0.55536954891249479 104.80102243037493 0 104.80102243037493 167.23580925486999 0 0 0 0 27.875958995681685 124.18117870705885 0 124.18117870705885 59.091613251627678 0 0 0 0 28.597478701762157 119.9826787810465 0 119.9826787810465 68.795439942565054 0 0 0 0 33.915241672542834 111.41453490591641 0 111.41453490591641 79.61946056934903 0 0 0 0 8.2252258134976728 87.28470127527396 0 87.28470127527396 74.582646655306235 0 0 0 0 33.370583823352717 73.158874684310604 0 73.158874684310604 51.723505534102515 0 0 0 0 28.570424953481506 56.83256404878091 0 56.83256404878091 46.121259404317698 0 0 0 0 33.181116327410564 57.109356903309617 0 57.109356903309617 44.777513645518866 0 0 0 0 55.811952527769336 62.731682907730828 0 62.731682907730828 36.556126603777557 0 0 0 0 47.474130975164371 77.514143365835992 0 77.514143365835992 45.610956553034157 0 0 0 0 48.270219327031555 78.235054177571783 0 78.235054177571783 46.214560960851941 0 0 0 0 33.628881806014761 103.95126690336201 0 103.95126690336201 58.534815579882888 0 0 0 0 69.950535584299359 106.55430971590272 0 106.55430971590272 54.436853402548877 0 0 0 0 61.928764597845657 95.228896498351105 0 95.228896498351105 54.322754386062115 0 0 0 0 87.865339377725832 107.36748504043999 0 107.36748504043999 60.003702592121272 0 0 0 0 61.091103782685423 73.526581377824073 0 73.526581377824073 45.700388233789909 0 0 0 0 79.55291956034489 87.449562830725426 0 87.449562830725426 46.294645301905376 0 0 0 0 102.45082023583564 75.511041919664649 0 75.511041919664649 44.421433462173354 0 0 0 0 77.854080776858609 69.093889402124887 0 69.093889402124887 62.606646287150738 0 0 0 0 110.14046119050727 123.69536378922371 0 123.69536378922371 106.42913430991166 0 0 0 0 135.05095307365741 59.88008799125069 0 59.88008799125069 63.652080212510555 0 0 0 0 85.092477594540469 93.184129246990437 0 93.184129246990437 70.635042634715887 0 0 0 0 61.769732421508706 125.68804683600308 0 125.68804683600308 132.22363267298556 0 0 0 0 43.283120717816928 93.043781579244467 0 93.043781579244467 75.010883554321254 0 0 0 0 41.893329734027247 102.89951994787464 0 102.89951994787464 21.197022081975547 0 0 0 0 15.547240886868167 79.551931770928718 0 79.551931770928718 59.522805678913706 0 0 0 0 10.963508446819194 125.91942864081486 0 125.91942864081486 60.617016545390698 0 0 0 0 50.337393699379845 127.08442667573439 0 127.08442667573439 54.396452316228533 0 0 0 0 3.5542271084568711 24.787824740752626 0 24.787824740752626 27.551513097760107 0 0 0 0 19.020682896168864 30.941253545178796 0 30.941253545178796 22.824886098071147 0 0 0 0 4.6671232811622758 27.041696445058506 0 27.041696445058506 11.920743157606353 0 0 0 0 -2.4669266227942899 20.658940250375167 0 20.658940250375167 9.7600364508084567 0 0 0 0 -3.6515837288720832 46.539735479247042 0 46.539735479247042 2.7238429130582062 0 0 0 0 -9.4532340312825909 29.192721361204008 0 29.192721361204008 16.168112965181081 0 0 0 0 2.4408843941637315 36.106941296445029 0 36.106941296445029 20.229418093841502 0 0 0 0 9.7617360218137037 48.119340772283863 0 48.119340772283863 28.212667533737658 0 0 0 0 13.771925893302068 42.515934483843012 0 42.515934483843012 34.916377379089681 0 0 0 0 20.097799640267112 43.786693803401249 0 43.786693803401249 19.916620218730031 0 0 0 0 25.032451565449264 38.401881548294341 0 38.401881548294341 25.47701678887006 0 0 0 0 48.073191261446482 54.346825085549199 0 54.346825085549199 37.515556403701794 0 0 0 0 28.120157473048721 52.21260574675614 0 52.21260574675614 52.84489515719315 0 0 0 0 52.157175339907326 71.21411749976869 0 71.21411749976869 74.81960447067695 0 0 0 0 92.277624711505268 83.635145850805429 0 83.635145850805429 113.84517562893006 0 0 0 0 58.999089986109539 38.154897015204824 0 38.154897015204824 54.795793114854519 0 0 0 0 85.16843796937701 61.614736268489878 0 61.614736268489878 43.840419137366098 0 0 0 0 51.755775819666269 47.826211902428213 0 47.826211902428213 34.866908922426774 0 0 0 0 49.833462409158528 47.993196681515883 0 47.993196681515883 42.680943864471487 0 0 0 0 70.63068569310326 63.391416733005144 0 63.391416733005144 38.048796386428876 0 0 0 0 36.420463325099263 35.805652198207099 0 35.805652198207099 34.896736742218536 0 0 0 0 43.618012336182801 52.172890508291175 0 52.172890508291175 44.128528526058744 0 0 0 0 29.041982329910752 37.208738356260028 0 37.208738356260028 42.769748974421532 0 0 0 0 17.852834634769124 34.94986670305488 0 34.94986670305488 39.256926915426448 0 0 0 0 30.967076668204754 32.392049740295533 0 32.392049740295533 28.241141813232389 0 0 0 0 13.190279896482025 29.610375195966071 0 29.610375195966071 32.340132689318807 0 0 0 0 24.408879944971432 41.68525590549126 0 41.68525590549126 31.298443197133111 0 0 0 0 16.082370266305134 21.077616884965437 0 21.077616884965437 21.228265398206076 0 0 0 0 1.9421120251863613 16.51149147223714 0 16.51149147223714 25.772606822425132 0 0 0 0 42.427221003581508 55.498889178066747 0 55.498889178066747 38.880812317276195 0 0 0 0 30.175805536126063 36.615123488090603 0 36.615123488090603 34.978183223189262 0 0 0 0 45.789911348292662 53.163462223001716 0 53.163462223001716 35.855233591197248 0 0 0 0 23.364139943253576 39.856393906728499 0 39.856393906728499 31.783748777018445 0 0 0 0 -11.085117208978772 7.4296242820655607 0 7.4296242820655607 28.795208446955257 0 0 0 0 14.024218786509664 41.703243976802241 0 41.703243976802241 74.080526315396128 0 0 0 0 26.138222292323917 38.201482556737574 0 38.201482556737574 31.342847679209058 0 0 0 0 -16.006452824556618 0.42131460370910645 0 0.42131460370910645 6.5359027278752251 0 0 0 0 7.1541081915802351 13.64083492591476 0 13.64083492591476 8.0524646373482938 0 0 0 0 3.0536133285659162 10.761460292310403 0 10.761460292310403 15.891484666773977 0 0 0 0 -0.16843660860467935 26.820459302224663 0 26.820459302224663 31.397347774410377 0 0 0 0 0.2303300885414501 -2.8398847043770274 0 -2.8398847043770274 -10.051782515996422 0 0 0 0 -2.5061970043298061 5.3653771047362397 0 5.3653771047362397 9.3619307880662745 0 0 0 0 -2.4511667204278638 9.6277046626005358 0 9.6277046626005358 -4.4011890639685589 0 0 0 0 4.3497546997241443 16.897968677657218 0 16.897968677657218 14.795843402037008 0 0 0 0 1.1577876438068415 20.972707616004755 0 20.972707616004755 17.927700572990034 0 0 0 0 8.2117308654160297 15.44865688512391 0 15.44865688512391 21.630744791571232 0 0 0 0 -5.6020137960949796 12.75575989738968 0 12.75575989738968 0.73824514559919407 0 0 0 0 -2.5232046091946359 9.6486359784108799 0 9.6486359784108799 8.5876910045658406 0 0 0 0 -6.7668612443212623 14.90224094058317 0 14.90224094058317 17.704918340858967 0 0 0 0 -10.256235564529561 9.9480784411248351 0 9.9480784411248351 11.193519356964316 0 0 0 0 -7.4892620874652494 5.306126517846451 0 5.306126517846451 2.7591365594489616 0 0 0 0 -9.8962957362273301 5.7309725936077029 0 5.7309725936077029 5.3896666465288945 0 0 0 0 -16.261913722490135 3.3094869937967815 0 3.3094869937967815 4.8695914831212121 0 0 0 0 -5.5523404216746712 12.457138345677777 0 12.457138345677777 -6.4251290719103054 0 0 0 0 -14.358869963367397 11.173472116598077 0 11.173472116598077 -0.035535340230580914 0 0 0 0 -6.4418025230843341 4.4082802743887441 0 4.4082802743887441 5.6815577428842516 0 0 0 0 -0.75382681973590593 11.932817921755463 0 11.932817921755463 -0.30715528268486247 0 0 0 0 30.294669338512904 -19.743200416844047 0 -19.743200416844047 -44.37358849545177 0 0 0 0 -2.793924892205105 1.9594605872884658 0 1.9594605872884658 -0.20045021051919254 0 0 0 0 2.4956000386183401 1.012099093002695 0 1.012099093002695 -0.24630824615966695 0 0 0 0 0.72546322441030497 -20.396700327775392 0 -20.396700327775392 10.182109253215501 0 0 0 0 -8.4801050822622521 5.3345738295361755 0 5.3345738295361755 -2.6594715545248544 0 0 0 0 -0.61563854909491056 22.211339615758305 0 22.211339615758305 -1.8029961715495801 0 0 0 0 -1.4392727423872298 3.4305936930498571 0 3.4305936930498571 -1.7196812503999244 0 0 0 0 5.5719730020687166 13.322407470429866 0 13.322407470429866 34.153260078135645 0 0 0 0 9.973554309037354 17.665077527410517 0 17.665077527410517 35.718897453582912 0 0 0 0 -0.87337512935171979 0.906557099931661 0 0.906557099931661 0.14526813063160848 0 0 0 0 82.774871072391761 18.604656648128127 0 18.604656648128127 -4.8866891441768132 0 0 0 0 2.4121244527473209 13.976173011950408 0 13.976173011950408 51.880418025717631 0 0 0 0 18.541878858202836 36.864554826387973 0 36.864554826387973 44.136497172348527 0 0 0 0 8.9642434825645978 17.819761140274125 0 17.819761140274125 45.545090285311659 0 0 0 0 -0.036459162238891452 0.17615242070146442 0 0.17615242070146442 0.080110321862801648 0 0 0 0 28.076640663384751 29.443299713238957 0 29.443299713238957 -75.966708482053491 0 0 0 0 -9.486942126350641 24.233736878147852 0 24.233736878147852 25.11454359808522 0 0 0 0 -8.2369917624819209 9.198006686365261 0 9.198006686365261 13.316681002583209 0 0 0 0 -4.4055344122134557 -9.3478848633326379 0 -9.3478848633326379 -32.580380593419704 0 0 0 0 5.5922303388124419 20.677548234155438 0 20.677548234155438 -8.8129995302797397 0 0 0 0 -31.235342419995504 44.492836478031109 0 44.492836478031109 88.115878396336313 0 0 0 0 -9.697339887027681 26.456029018572352 0 26.456029018572352 -11.943742112935979 0 0 0 0 -9.9818972879614822 7.3684477340328867 0 7.3684477340328867 -3.7358572791862841 0 0 0 0 -1.0923374494748863 2.355113850324777 0 2.355113850324777 -2.1562478359423038 0 0 0 0 -0.77660633481433372 0.24397692802789939 0 0.24397692802789939 -0.056994094922443561 0 0 0 0 -408.98832503871381 -77.509259176325429 0 -77.509259176325429 75.022707801680099 0 0 0 0 -144.05451383503078 43.583591781271622 0 43.583591781271622 62.188278666613201 0 0 0 0 80.671690055937859 -21.920296289565478 0 -21.920296289565478 -70.700558003016738 0 0 0 0 129.14645753336754 -29.448808688421394 0 -29.448808688421394 -127.02265472870863 0 0 0 0 -6.0548119517825398 24.959136083528392 0 24.959136083528392 25.111099705995002 0 0 0 0 -9.7627072669710451 8.0004268779267331 0 8.0004268779267331 -4.1932348895396911 0 0 0 0 -2.0935280029815004 1.05354663181825 0 1.05354663181825 -0.89846217076209589 0 0 0 0 -75.981618047717348 9.6978440994499806 0 9.6978440994499806 34.803364812443988 0 0 0 0 -97.844136651549547 30.022337024175044 0 30.022337024175044 10.985449578757425 0 0 0 0 -84.379763884871863 -48.498790045116493 0 -48.498790045116493 8.0915156130083687 0 0 0 0 -30.4617942576715 -2.8526930109774185 0 -2.8526930109774185 -3.080025596089115 0 0 0 0 -4.9560216901618332 -71.301278338560223 0 -71.301278338560223 -22.202477903718545 0 0 0 0 -48.892003244170155 47.858448935245463 0 47.858448935245463 -1.045744726926273 0 0 0 0 -20.806248714880894 45.415022541841154 0 45.415022541841154 -9.5537158048533684 0 0 0 0 -5.3192762607623081 34.584992379124969 0 34.584992379124969 -0.65815672025519234 0 0 0 0 18.219487955118893 15.738797392552812 0 15.738797392552812 0.58330954278687841 0 0 0 0 2.3672893120051413 37.066731675394834 0 37.066731675394834 7.5974168222924163 0 0 0 0 -5.748729719005496 26.44841195786347 0 26.44841195786347 -4.8513374415210819 0 0 0 0 4.6659832797722629 39.046035872032689 0 39.046035872032689 -7.0846476648178083 0 0 0 0 -20.400194698986979 32.770888946543209 0 32.770888946543209 -12.545864342295999 0 0 0 0 -42.617197302485692 20.125729416721924 0 20.125729416721924 7.3492181061205883 0 0 0 0 -32.008406151758209 19.590227717409675 0 19.590227717409675 3.8577393934366455 0 0 0 0 -28.564717110150013 12.344096486042304 0 12.344096486042304 -16.441053199521093 0 0 0 0 20.070878177201394 38.201527237220461 0 38.201527237220461 33.170488953863241 0 0 0 0 37.737104092992013 52.753698700055054 0 52.753698700055054 27.663217256542822 0 0 0 0 23.322026219438158 39.475934302171879 0 39.475934302171879 14.082987160417812 0 0 0 0 12.92025544636499 23.135111352069316 0 23.135111352069316 14.977641663968598 0 0 0 0 20.854282067896747 31.908709899214188 0 31.908709899214188 -7.2147656278228851 0 0 0 0 5.7365456037036893 31.384567363730355 0 31.384567363730355 -3.9734932513399031 0 0 0 0 27.644778056328732 35.893743183232004 0 35.893743183232004 -0.25770966945037799 0 0 0 0 42.652097525279714 44.058115853643073 0 44.058115853643073 -11.095011969453253 0 0 0 0 36.419698189868541 38.962761747123011 0 38.962761747123011 -14.182110249296102 0 0 0 0 32.24583847183294 33.027515901297846 0 33.027515901297846 -19.561092005823639 0 0 0 0 29.766689707595106 35.990496856635701 0 35.990496856635701 -12.077953936091603 0 0 0 0 42.128900760070337 37.165342716340774 0 37.165342716340774 -19.526350273676069 0 0 0 0 33.343063537345188 22.704851642916196 0 22.704851642916196 -18.591582559542417 0 0 0 0 -11.341357687273103 25.696735119535788 0 25.696735119535788 8.9572747291572341 0 0 0 0 -18.746128971101712 27.235769335725777 0 27.235769335725777 -0.098222800037547131 0 0 0 0 -9.8616428802683913 27.271673310600306 0 27.271673310600306 -0.40286264904179347 0 0 0 0 5.1269483217590732 18.707203279353848 0 18.707203279353848 -15.824122827112888 0 0 0 0 0.88484419704059292 30.418788734286451 0 30.418788734286451 -36.845564730936644 0 0 0 0 3.4499021600389028 1.6612550018825019 0 1.6612550018825019 1.1695830246493077 0 0 0 0 -4.9449835344660187 10.640100284740342 0 10.640100284740342 -20.811615233118459 0 0 0 0 -14.603557782518692 6.029684612676192 0 6.029684612676192 131.83330425505267 0 0 0 0 1.0868766224125679 0.78428439412393924 0 0.78428439412393924 0.45088671649919343 0 0 0 0 -5.8442653869751666 8.6390412032985466 0 8.6390412032985466 42.371294878637627 0 0 0 0 6.6475422990761217 20.332470217007426 0 20.332470217007426 10.962762069005294 0 0 0 0 38.227491142454028 39.18999198602944 0 39.18999198602944 -14.447971009198227 0 0 0 0 45.89428709492995 46.810798328480985 0 46.810798328480985 -14.825995759849434 0 0 0 0 75.271896072233176 33.79472882830396 0 33.79472882830396 -50.180713647584128 0 0 0 0 65.707173702150612 82.733396716905929 0 82.733396716905929 36.376633091105759 0 0 0 0 15.939024494604382 41.793080737615014 0 41.793080737615014 88.198210306041346 0 0 0 0 29.747672997325026 -1.398269555568163 0 -1.398269555568163 62.239159464302588 0 0 0 0 21.331996451447367 16.199647895425414 0 16.199647895425414 26.464304183878085 0 0 0 0 46.705885908432691 9.6446274955280806 0 9.6446274955280806 -8.5035683421142494 0 0 0 0 49.112167271010406 71.901865781082194 0 71.901865781082194 31.360602548602856 0 0 0 0 0.3411694956912541 0.37658943503950537 0 0.37658943503950537 -0.11635002098955649 0 0 0 0 1.5363341234506152 41.992901175274483 0 41.992901175274483 152.57431456317323 0 0 0 0 107.90930331691015 4.7870404669224627 0 4.7870404669224627 -103.13260006849248 0 0 0 0 -2.3256637224621954 71.653068240975358 0 71.653068240975358 90.624351870055079 0 0 0 0 6.6343309338890322 66.117061364704455 0 66.117061364704455 10.065146460316328 0 0 0 0 -5.1145496567278315 51.66232945126103 0 51.66232945126103 54.969124500209091 0 0 0 0 2.335479919401223 46.675603206730443 0 46.675603206730443 30.311895823761688 0 0 0 0 10.15675333592435 25.866480366595624 0 25.866480366595624 36.731001133328846 0 0 0 0 0.73527899051857126 0.93043115755561967 0 0.93043115755561967 -0.33019215233186072 0 0 0 0 18.350868124379986 34.829429930299909 0 34.829429930299909 -23.948564711074368 0 0 0 0 -21.583524998970461 54.447786122194657 0 54.447786122194657 87.155398818320919 0 0 0 0 36.326903057086838 47.099554057396517 0 47.099554057396517 33.723407236183448 0 0 0 0 -3.7885640239296663 26.336700073956251 0 26.336700073956251 29.181465612700549 0 0 0 0 4.0598988989879672 40.749417379063857 0 40.749417379063857 17.90015751335568 0 0 0 0 16.282073073542961 41.63257247253398 0 41.63257247253398 8.1028049593821834 0 0 0 0 -73.66516129038655 41.190386415635999 0 41.190386415635999 32.701338928387941 0 0 0 0 -26.098472784976138 39.436731114762097 0 39.436731114762097 15.443058146541716 0 0 0 0 -37.831151706088349 23.725865283423218 0 23.725865283423218 62.230851754160312 0 0 0 0 -27.858187439187532 27.117204524886347 0 27.117204524886347 13.445120082641211 0 0 0 0 -13.737747687864612 21.090972885709903 0 21.090972885709903 -21.854810548266983 0 0 0 0 -37.932034362958348 10.53616542827109 0 10.53616542827109 -5.9247880655534573 0 0 0 0 1.4086455337819643 19.836126796041469 0 19.836126796041469 -16.696336927699122 0 0 0 0 3.5797584029296559 22.872605810547157 0 22.872605810547157 -22.09389506162961 0 0 0 0 -4.0490228924754774 32.91049834788555 0 32.91049834788555 -11.418429387930928 0 0 0 0 -4.4080250542765498 -0.68286919946638136 0 -0.68286919946638136 -24.528323177810535 0 0 0 0 -4.3111127201564052 8.9863806416936303 0 8.9863806416936303 -7.3038942384439594 0 0 0 0 16.397971122153194 -1.0510843976245496 0 -1.0510843976245496 -69.963201536279826 0 0 0 0 1.9569184505844532 16.340433452764046 0 16.340433452764046 20.662791711196405 0 0 0 0 -0.48298609144394455 11.711495284756147 0 11.711495284756147 -5.164647049782042 0 0 0 0 -56.104028581526677 -19.114316340329779 0 -19.114316340329779 -27.040260821259835 0 0 0 0 -56.851132957376251 -5.8139515135905526 0 -5.8139515135905526 -26.702645349272643 0 0 0 0 -31.803569127779042 -23.954363653352218 0 -23.954363653352218 -33.016354730269995 0 0 0 0 -33.234807907296272 4.7518757715106403 0 4.7518757715106403 -22.278855030595878 0 0 0 0 -28.219127380731152 21.551318765212272 0 21.551318765212272 -30.096245549202649 0 0 0 0 10.803977758776455 25.831513650018451 0 25.831513650018451 -31.217282938641347 0 0 0 0 -16.498093848818826 -13.914591613183575 0 -13.914591613183575 -11.142877918812246 0 0 0 0 4.0124674434109693 -6.3561131492156164 0 -6.3561131492156164 -24.499955212339955 0 0 0 0 -9.0117467544896499 8.2898196743751669 0 8.2898196743751669 0.68589178043316679 0 0 0 0 4.4442433955537126 12.036793853435256 0 12.036793853435256 18.612948292764258 0 0 0 0 38.843377972440067 14.743036362036264 0 14.743036362036264 -30.852795595685166 0 0 0 0 27.262881764970643 19.223604591227826 0 19.223604591227826 4.5890813509136024 0 0 0 0 -2.8394821762403808 50.629810037252469 0 50.629810037252469 12.508213403549007 0 0 0 0 3.1699800350147598 46.958428171486958 0 46.958428171486958 13.497776348071511 0 0 0 0 0.33845241692506534 37.079386042659621 0 37.079386042659621 10.38295475312384 0 0 0 0 7.8995221689549453 53.48269686350821 0 53.48269686350821 -31.26768828524655 0 0 0 0 14.102487595306229 28.103697874797717 0 28.103697874797717 5.8650264141283515 0 0 0 0 12.31082664414771 37.361580314592402 0 37.361580314592402 15.029294614021239 0 0 0 0 73.510756903743641 75.061150479823368 0 75.061150479823368 -9.574518194983284 0 0 0 0 -62.775318737604721 4.8342501693007307 0 4.8342501693007307 29.990842529727161 0 0 0 0 -97.162815798882548 66.637788701883665 0 66.637788701883665 71.106601831375201 0 0 0 0 139.48477217861455 -24.511735152428855 0 -24.511735152428855 -13.775889051540048 0 0 0 0 128.07357600644355 26.070810124457694 0 26.070810124457694 -23.275357898281527 0 0 0 0 0.050018243629669001 0.19049119396050074 0 0.19049119396050074 -0.28418579092696827 0 0 0 0 -53.670275345174559 29.362314294708312 0 29.362314294708312 70.717500103474322 0 0 0 0 101.57271015710103 2.4995954134940348 0 2.4995954134940348 12.826919663735907 0 0 0 0 0.2397441636698181 0.038760933844436352 0 0.038760933844436352 0.81867310191659559 0 0 0 0 116.53876648961705 92.849615370976267 0 92.849615370976267 -95.609348486704448 0 0 0 0 31.046965682387054 101.47226785644091 0 101.47226785644091 22.626874477195997 0 0 0 0 0.35926726723752012 0.37422987511331474 0 0.37422987511331474 -0.096827189425407578 0 0 0 0 -15.979094007241656 41.814934747389088 0 41.814934747389088 178.34859005124946 0 0 0 0 29.133749904995057 1.8621750760577243 0 1.8621750760577243 -99.800307867584934 0 0 0 0 -33.665230699288259 27.2361538263699 0 27.2361538263699 10.552037810129605 0 0 0 0 40.298570633661711 49.520121357559788 0 49.520121357559788 47.983078410462667 0 0 0 0 11.169846764190879 38.902392417764531 0 38.902392417764531 47.80789416390715 0 0 0 0 -3.2093953279400012 -13.666484380670227 0 -13.666484380670227 21.925990342136629 0 0 0 0 27.799376347120415 45.641506993873691 0 45.641506993873691 33.872738437297812 0 0 0 0 0.76166958116600725 0.94668586693628853 0 0.94668586693628853 -0.31717353230304357 0 0 0 0 6.7049254254779953 55.06319679328044 0 55.06319679328044 85.870994162117768 0 0 0 0 1.9641145408368175 27.087481528287753 0 27.087481528287753 69.762012020004136 0 0 0 0 11.241784625914988 38.09538963175919 0 38.09538963175919 17.178359378782034 0 0 0 0 10.300024762959765 28.817665231299742 0 28.817665231299742 29.96783034311693 0 0 0 0 9.0638285598679431 19.064476332729555 0 19.064476332729555 -29.230601772173259 0 0 0 0 27.539773409026111 26.061594767051133 0 26.061594767051133 56.504491687700011 0 0 0 0 0.07337382031182571 -0.022973620868983247 0 -0.022973620868983247 -0.075148619468444977 0 0 0 0 -8.6777932184104429 17.190701378266795 0 17.190701378266795 -14.409252540522857 0 0 0 0 -15.625459455287455 5.9720819283811579 0 5.9720819283811579 14.466325153143316 0 0 0 0 -2.2036924735642174 3.1010717617640711 0 3.1010717617640711 -2.1842082000221108 0 0 0 0 -21.9678491462073 27.504966269337046 0 27.504966269337046 0.88392928681821559 0 0 0 0 35.782043149730043 37.066449605678088 0 37.066449605678088 18.604954246905436 0 0 0 0 -23.541706653423716 92.488293847647356 0 92.488293847647356 98.352826322337478 0 0 0 0 -3.2270834659275351 22.847056660529574 0 22.847056660529574 -28.25348576438796 0 0 0 0 -0.63096592787338679 1.5428980187322867 0 1.5428980187322867 -1.2545827566929992 0 0 0 0 22.612640739378548 29.276576217866705 0 29.276576217866705 32.147803031715966 0 0 0 0 -2.654871499248225 0.34526345792751556 0 0.34526345792751556 0.73501377571736626 0 0 0 0 -8.8849162536289441 11.023376792573004 0 11.023376792573004 21.902998745443256 0 0 0 0 -9.1683417194390131 13.11813123670575 0 13.11813123670575 -11.551330883231003 0 0 0 0 -7.9771682483079402 8.1881932779882085 0 8.1881932779882085 -7.0179883713767843 0 0 0 0 -5.3534858319726482 10.511990334673101 0 10.511990334673101 -14.57999990568328 0 0 0 0 1.1049666285289277 33.04198799512767 0 33.04198799512767 21.046476683941137 0 0 0 0 -13.834799146635305 18.351229547345127 0 18.351229547345127 54.876043218215273 0 0 0 0 -14.153283276156799 23.204153482100708 0 23.204153482100708 -16.827559280054288 0 0 0 0 -1.4060233376549753 2.4481678987861395 0 2.4481678987861395 -1.6082462085057649 0 0 0 0 -3.5545479430211344 10.781332797083792 0 10.781332797083792 -10.27490020427058 0 0 0 0 -6.3339534873833525 8.8125545765269173 0 8.8125545765269173 -9.2828181312664491 0 0 0 0 -5.9436932428152431 9.9925813930934737 0 9.9925813930934737 -8.5895941894391399 0 0 0 0 77.717152905566763 35.680830174982816 0 35.680830174982816 -4.5105274609340995 0 0 0 0 -4.8972653659484706 9.6993100457829566 0 9.6993100457829566 -10.025236265775332 0 0 0 0 -5.0985440885942808 9.0017594457863197 0 9.0017594457863197 -8.4533748505807296 0 0 0 0 58.503534873543686 74.938791187454171 0 74.938791187454171 -1.2010518248864628 0 0 0 0 7.4263345499002753 36.172136169379314 0 36.172136169379314 20.650522972807337 0 0 0 0 -44.146858761425392 36.3514809332531 0 36.3514809332531 16.595626863801613 0 0 0 0 -52.371221214467369 41.482725884950469 0 41.482725884950469 41.158582350092502 0 0 0 0 -7.6761251314928813 49.890614224792159 0 49.890614224792159 14.413095431458032 0 0 0 0 -0.46574748975808689 9.6008647540153333 0 9.6008647540153333 3.3582074077156108 0 0 0 0 3.5962356865677521 10.874775805296451 0 10.874775805296451 -11.133918500841901 0 0 0 0 -7.2020887535272777 10.658144353963962 0 10.658144353963962 -4.9992295108081635 0 0 0 0 -2.599404526962644 6.1752028192643138 0 6.1752028192643138 -6.2388975966356384 0 0 0 0 -3.4535932383914769 25.420351250550624 0 25.420351250550624 -17.723189655827923 0 0 0 0 -2.4667249301664924 12.184815963532856 0 12.184815963532856 -11.375203362978482 0 0 0 0 3.7117088861047645 4.6912283450021857 0 4.6912283450021857 -0.35215040519798579 0 0 0 0 -12.532054658774086 15.833257165018495 0 15.833257165018495 -9.1152403848868744 0 0 0 0 -7.9858015740292103 18.000774366816358 0 18.000774366816358 1.2260138660506072 0 0 0 0 -3.9139931072559193 15.950147973279172 0 15.950147973279172 -9.1169200117807563 0 0 0 0 -9.5338068200076247 11.158866941395948 0 11.158866941395948 -6.1488512413348868 0 0 0 0 53.688709531788845 50.712066706393671 0 50.712066706393671 -5.6016912968561883 0 0 0 0 1.3559307969003385 18.478983968974035 0 18.478983968974035 -14.828980275632176 0 0 0 0 -5.9583344695492153 10.370573477340944 0 10.370573477340944 -5.985593795234097 0 0 0 0 37.258247526762716 23.298583026163328 0 23.298583026163328 -16.579246556420912 0 0 0 0 50.142949935147044 42.564715948103071 0 42.564715948103071 5.8878109688826044 0 0 0 0 39.725059392438197 5.8577085561015565 0 5.8577085561015565 -23.250957720466886 0 0 0 0 29.960090988929096 6.1336670519114591 0 6.1336670519114591 -11.315423022051391 0 0 0 0 -0.90766490671333067 0.98064694127408192 0 0.98064694127408192 -0.53637966258652892 0 0 0 0 -3.2157500182509011 8.5968331736839332 0 8.5968331736839332 3.0553173001706 0 0 0 0 -9.9000785804810221 4.7756253180971271 0 4.7756253180971271 16.47849941384618 0 0 0 0 -114.08466049671915 106.20249291171973 0 106.20249291171973 -53.165234905376792 0 0 0 0 13.350227360100689 10.139829341492259 0 10.139829341492259 -39.400299594463405 0 0 0 0 0.64582827804224507 29.406855954584898 0 29.406855954584898 -66.686403785398625 0 0 0 0 0.83311193924510007 16.414428876294835 0 16.414428876294835 -154.07550190273514 0 0 0 0 13.367143380186462 57.716128027244622 0 57.716128027244622 40.608371493792902 0 0 0 0 9.4969077643945639 75.881107264667207 0 75.881107264667207 -35.990113684998505 0 0 0 0 70.31061311769372 88.868905656141237 0 88.868905656141237 62.005441544737778 0 0 0 0 95.196179439897151 21.841648073378451 0 21.841648073378451 -28.342088467605663 0 0 0 0 -3.8029426730446438 4.5116875858891037 0 4.5116875858891037 0.34734830296585351 0 0 0 0 39.231448539874691 26.202217197365599 0 26.202217197365599 -22.464607896774169 0 0 0 0 44.100661087326444 22.241156874367448 0 22.241156874367448 -59.763404214447746 0 0 0 0 9.9589815878207446 -6.6862714408214288 0 -6.6862714408214288 -43.763578700162952 0 0 0 0 16.384041807119502 6.302382770302529 0 6.302382770302529 -46.345303021366135 0 0 0 0 39.016559138896127 3.151553006430369 0 3.151553006430369 -61.009385004770138 0 0 0 0 57.458332375983446 16.009919043848186 0 16.009919043848186 -45.125869408941298 0 0 0 0 38.548729244013657 12.335634629256869 0 12.335634629256869 -31.198990762551148 0 0 0 0 32.858026379290095 -11.028409842826022 0 -11.028409842826022 -36.334094870625194 0 0 0 0 30.408329408532154 -5.780949608517858 0 -5.780949608517858 -45.424051005350975 0 0 0 0 -20.010768767091122 -72.463379081057411 0 -72.463379081057411 11.109429412133977 0 0 0 0 -1.0968908002360109 0.75488240705824161 0 0.75488240705824161 -0.84956976158882469 0 0 0 0 -13.530996409213003 -56.134283765145597 0 -56.134283765145597 -115.05948314599004 0 0 0 0 -130.19426697637391 53.66893281137277 0 53.66893281137277 11.112065919912219 0 0 0 0 -19.023359471490039 -40.01962860229537 0 -40.01962860229537 -77.436173735692819 0 0 0 0 23.082707278432281 1.2457628730138026 0 1.2457628730138026 -97.615359045444166 0 0 0 0 -160.22375010158248 64.622645455359248 0 64.622645455359248 2.3670163126037096 0 0 0 0 -138.982754115131 81.542509998282611 0 81.542509998282611 -29.712221565345089 0 0 0 0 -133.27277189205779 -43.167033948821313 0 -43.167033948821313 12.241538724142288 0 0 0 0 -42.407441031236885 -30.784274570121056 0 -30.784274570121056 -91.580890905730712 0 0 0 0 -41.585558221791814 -18.260499664652553 0 -18.260499664652553 -9.8953006604617713 0 0 0 0 -7.9092785436023405 -25.676179823145162 0 -25.676179823145162 -32.932023692537882 0 0 0 0 24.295570627184134 14.990690913744061 0 14.990690913744061 -48.926878207648087 0 0 0 0 -100.20916956610654 -12.305257413824052 0 -12.305257413824052 31.660302781605651 0 0 0 0 -2.5381380753592104 1.4854614965377291 0 1.4854614965377291 -0.62133273533678901 0 0 0 0 2.8826652769166685 27.748738352153055 0 27.748738352153055 17.357853205099218 0 0 0 0 -6.7746290487739316 3.1828696548528796 0 3.1828696548528796 6.0922689344297396 0 0 0 0 -0.95354823514497866 0.16007556934252065 0 0.16007556934252065 0.61535078907287311 0 0 0 0 4.9819136689366132 3.2125597775038841 0 3.2125597775038841 12.210125269990755 0 0 0 0 12.092149078845978 28.362095972890302 0 28.362095972890302 4.1086747188746813 0 0 0 0 28.328083482934744 49.132185753129306 0 49.132185753129306 51.905928889073948 0 0 0 0 22.123709266565129 51.026990345045078 0 51.026990345045078 69.832484132246464 0 0 0 0 28.972539590134147 52.533639333204462 0 52.533639333204462 66.587753511858864 0 0 0 0 24.691294605871008 50.844842846783536 0 50.844842846783536 46.121134222575165 0 0 0 0 25.786544601302012 32.942896720542876 0 32.942896720542876 47.307839905986611 0 0 0 0 26.682727197478016 35.216720445074657 0 35.216720445074657 31.391515716289177 0 0 0 0 14.175795720781025 38.595932194316447 0 38.595932194316447 56.322303956049154 0 0 0 0 -0.26864049790310673 1.1051634512498367 0 1.1051634512498367 0.35862433782381231 0 0 0 0 -1.103103125987797 1.1438650212614903 0 1.1438650212614903 -0.26352051103445895 0 0 0 0 2.7809597637024126 2.0023114140490179 0 2.0023114140490179 -1.9882827184360394 0 0 0 0 27.495924640465091 30.494619998286453 0 30.494619998286453 29.933799767389246 0 0 0 0 25.259922104698489 34.484538276808053 0 34.484538276808053 39.374276100020325 0 0 0 0 1.8821548476836938 40.610437657862903 0 40.610437657862903 39.342218651328949 0 0 0 0 20.302532248431817 41.289972012044473 0 41.289972012044473 54.038224416030971 0 0 0 0 -0.92625056921306559 1.19004753403315 0 1.19004753403315 -0.52380409234361824 0 0 0 0 -0.35493377081456856 1.2230296770265454 0 1.2230296770265454 -0.89145125256641222 0 0 0 0 -1.6583457321872492 0.88045365924397956 0 0.88045365924397956 0.14852968174656223 0 0 0 0 -1.7213532903066486 1.4859408545091402 0 1.4859408545091402 -0.32093256463166764 0 0 0 0 13.346125634208875 6.8741799049661267 0 6.8741799049661267 -1.6781126930986829 0 0 0 0 1.2237490868919849 0.12901316220120407 0 0.12901316220120407 -1.2787931524075589 0 0 0 0 -0.39535886875392734 0.81570742136873875 0 0.81570742136873875 -0.88623398822628419 0 0 0 0 11.206663764436598 6.886927488943229 0 6.886927488943229 -21.145888871253646 0 0 0 0 -0.32289909654900839 -2.549461107649222 0 -2.549461107649222 -8.0616920694702685 0 0 0 0 2.7997855982212059 -8.8644356892724545 0 -8.8644356892724545 -14.604561570591727 0 0 0 0 -16.467647439990287 -16.865167877587623 0 -16.865167877587623 0.88535651017014061 0 0 0 0 -15.379593450952029 -10.527866898318557 0 -10.527866898318557 7.9156073438748535 0 0 0 0 0.0097640208077791613 1.658460825447321 0 1.658460825447321 -0.20688937742534108 0 0 0 0 5.5059169173664486 2.1137040041577393 0 2.1137040041577393 -3.1479949961096736 0 0 0 0 -13.701504616112288 -0.78487847339067685 0 -0.78487847339067685 1.676344207604302 0 0 0 0 0.65755326629277988 1.2827336787791523 0 1.2827336787791523 -2.581680172737606 0 0 0 0 -0.34189069390507143 0.17857336907548493 0 0.17857336907548493 -0.43447732941483252 0 0 0 0 -0.30983964001134012 1.207834727998792 0 1.207834727998792 -1.0919543512745449 0 0 0 0 -0.92323891717660445 1.1956630824587364 0 1.1956630824587364 -0.85821288989154709 0 0 0 0 -16.808978892891901 4.6401541248279159 0 4.6401541248279159 -2.1708972656859373 0 0 0 0 -21.546442891203696 -6.9265871510125407 0 -6.9265871510125407 -0.87512437499333373 0 0 0 0 -36.960719895829243 -6.0083213954083021 0 -6.0083213954083021 6.9712738055188765 0 0 0 0 -46.74383166417465 0.76170353728787177 0 0.76170353728787177 6.4092903568440533 0 0 0 0 -37.754915993056784 41.968768916031195 0 41.968768916031195 -40.332325439827684 0 0 0 0 0.24545274535348227 -0.22973891466059015 0 -0.22973891466059015 0.062433923117250156 0 0 0 0 -26.017795176531536 -47.211803589157952 0 -47.211803589157952 79.057090911076216 0 0 0 0 -59.639242201776142 5.7147033104955653 0 5.7147033104955653 39.303106902739671 0 0 0 0 -20.758902451972972 -25.9370240976736 0 -25.9370240976736 -14.890579783012811 0 0 0 0 21.140506354990066 80.150403750148371 0 80.150403750148371 152.29955292470709 0 0 0 0 25.511663459696649 82.846739438765781 0 82.846739438765781 145.84678978018201 0 0 0 0 27.089857623099306 48.423685282250062 0 48.423685282250062 86.176756460170964 0 0 0 0 76.126920299609992 163.90566312049862 0 163.90566312049862 193.01331118880807 0 0 0 0 36.967277393008629 126.05431048678275 0 126.05431048678275 208.35565976941552 0 0 0 0 81.704177140961747 163.49549688048944 0 163.49549688048944 184.50177404022725 0 0 0 0 68.998916037575327 132.35296933946103 0 132.35296933946103 166.36355815278466 0 0 0 0 37.35931222995228 86.688299291960419 0 86.688299291960419 144.74549125283875 0 0 0 0 68.686535950349935 131.90284396454581 0 131.90284396454581 167.66540761778981 0 0 0 0 55.191521179527626 94.990346392484696 0 94.990346392484696 131.50149123586743 0 0 0 0 59.78825592395151 109.62053292862424 0 109.62053292862424 148.87872372265355 0 0 0 0 33.80127948963127 83.277362397275738 0 83.277362397275738 137.11997093073876 0 0 0 0 49.323281324303025 73.985782831432061 0 73.985782831432061 100.97119302538931 0 0 0 0 31.256539850015542 76.387236665722639 0 76.387236665722639 111.34480749894692 0 0 0 0 19.928706001188402 51.655413810607342 0 51.655413810607342 103.05550624186344 0 0 0 0 41.818809364558547 71.199512544895697 0 71.199512544895697 113.24907539043761 0 0 0 0 42.096049317369761 92.213016404860355 0 92.213016404860355 127.19006748999482 0 0 0 0 24.003588832701325 50.537964799467233 0 50.537964799467233 93.529165853922677 0 0 0 0 26.815940914919338 69.929718816250215 0 69.929718816250215 125.77858355419609 0 0 0 0 -5.7497493166192726 21.628048633833941 0 21.628048633833941 78.724397411937844 0 0 0 0 0.9809369612376031 62.1385044697372 0 62.1385044697372 88.684531765426982 0 0 0 0 19.179618037909677 18.60959706424137 0 18.60959706424137 54.30046630260108 0 0 0 0 0.094834739016818048 0.39117308530788364 0 0.39117308530788364 -0.34708458046378965 0 0 0 0 20.091844104368647 23.671908358570818 0 23.671908358570818 57.568386505226499 0 0 0 0 16.024241225160949 39.626454067418763 0 39.626454067418763 90.010825094173015 0 0 0 0 27.774643928423757 34.497286677345073 0 34.497286677345073 46.167735895600345 0 0 0 0 23.0188801865188 54.392972368601932 0 54.392972368601932 93.226373462537595 0 0 0 0 29.444353888509795 44.246374079748875 0 44.246374079748875 64.146706656886636 0 0 0 0 12.3764903436022 48.917161814034444 0 48.917161814034444 46.255935981711445 0 0 0 0 22.539461428728828 45.128363443295257 0 45.128363443295257 47.259509630479442 0 0 0 0 22.773987378517631 39.854682330307014 0 39.854682330307014 68.643833199455912 0 0 0 0 28.663457781454781 53.122035155521189 0 53.122035155521189 67.070329328037303 0 0 0 0 29.977565892884741 52.754730954404749 0 52.754730954404749 82.230228204272407 0 0 0 0 25.709624205457658 38.629335943317301 0 38.629335943317301 76.164672873373547 0 0 0 0 40.910013390581298 61.618988890914352 0 61.618988890914352 85.584332808291947 0 0 0 0 29.729114986545028 64.174756720992491 0 64.174756720992491 111.86090493796746 0 0 0 0 47.967072705917417 79.856742754911011 0 79.856742754911011 130.0032015429415 0 0 0 0 53.300206863063067 84.516287024608118 0 84.516287024608118 109.14296308509051 0 0 0 0 38.665862741312594 65.197841228076754 0 65.197841228076754 110.6141177011018 0 0 0 0 38.475067635670712 71.626914821346418 0 71.626914821346418 98.386769198717502 0 0 0 0 31.900719384164404 56.396652731028894 0 56.396652731028894 91.790944510620648 0 0 0 0 24.794919372106961 55.409705055466475 0 55.409705055466475 97.106583634942524 0 0 0 0 28.863534331161645 58.183372809847242 0 58.183372809847242 83.317620789199282 0 0 0 0 16.968869408228784 46.087754351287458 0 46.087754351287458 79.987257734485866 0 0 0 0 18.649440557495836 49.552875739361298 0 49.552875739361298 76.660248666733423 0 0 0 0 16.428146907637711 33.266572685620304 0 33.266572685620304 64.761151939602314 0 0 0 0 26.983259608234221 50.227464802812392 0 50.227464802812392 74.454217300715754 0 0 0 0 30.332432184557547 59.706168978243568 0 59.706168978243568 86.97095227428008 0 0 0 0 23.763581394654466 45.823847146950698 0 45.823847146950698 78.949392753890606 0 0 0 0 24.047091599033593 48.069641306240555 0 48.069641306240555 82.630447305630696 0 0 0 0 35.664885664915346 62.164839360208248 0 62.164839360208248 85.506410989499273 0 0 0 0 30.183476685619098 68.298015464628861 0 68.298015464628861 105.87935684182867 0 0 0 0 32.069095771385037 64.546247210403408 0 64.546247210403408 80.521435675417706 0 0 0 0 26.619795257178339 54.60872303965607 0 54.60872303965607 88.163220947139052 0 0 0 0 30.728653538360959 57.952028447249177 0 57.952028447249177 74.10546089158106 0 0 0 0 24.575642635110853 48.047450842457692 0 48.047450842457692 70.269449233931482 0 0 0 0 24.532150751314475 41.226307056971109 0 41.226307056971109 59.664544930900774 0 0 0 0 27.200412011887238 35.450238158597585 0 35.450238158597585 39.089400818239483 0 0 0 0 22.802007182079251 39.380444118295145 0 39.380444118295145 63.876248697321898 0 0 0 0 15.027238553077041 26.066624618793412 0 26.066624618793412 55.146374256964236 0 0 0 0 19.517134769635959 34.641709237096734 0 34.641709237096734 59.232779895442036 0 0 0 0 22.068961850411142 22.788447820641977 0 22.788447820641977 44.011530120748148 0 0 0 0 -0.19507976788554515 1.489781479853832 0 1.489781479853832 -0.92199632598271819 0 0 0 0 -1.1056455231142515 1.0496846883319559 0 1.0496846883319559 -0.57037933881692338 0 0 0 0 20.244052084613941 12.969356122007412 0 12.969356122007412 39.209544952045007 0 0 0 0 6.7952340947449557 20.272717404402101 0 20.272717404402101 55.821837364144812 0 0 0 0 12.159112680576072 34.318198002941244 0 34.318198002941244 60.126288752033361 0 0 0 0 1.6039191643867525 41.881955788501728 0 41.881955788501728 68.858794443838633 0 0 0 0 21.994806256792799 41.041846816360021 0 41.041846816360021 65.792965303254277 0 0 0 0 -16.992512137316226 34.604906458201185 0 34.604906458201185 63.440444387280877 0 0 0 0 12.913115571456729 36.905860458198731 0 36.905860458198731 60.514069255233153 0 0 0 0 -8.0826927529924433 47.885464819309618 0 47.885464819309618 55.07852244048081 0 0 0 0 -5.9680810309946537 32.456411245409072 0 32.456411245409072 35.105350637604715 0 0 0 0 -4.1658631536047324 19.300672841660344 0 19.300672841660344 58.973765654413 0 0 0 0 0.27325595427684846 0.91339750540283582 0 0.91339750540283582 -0.87053409862379594 0 0 0 0 0.71814614854156389 -0.28285249186251349 0 -0.28285249186251349 0.4446786683602113 0 0 0 0 -0.18746813130928786 1.6400668610773437 0 1.6400668610773437 -3.1463995251169763 0 0 0 0 -0.68064876061816904 1.0558498083847212 0 1.0558498083847212 -0.66819168216534308 0 0 0 0 -0.31801163586271741 0.78031278342960775 0 0.78031278342960775 -1.4476663559279475 0 0 0 0 -0.24033711387892254 1.0650194931272381 0 1.0650194931272381 -1.2946731797328539 0 0 0 0 -0.60316040315233721 1.0781491623116288 0 1.0781491623116288 -0.98807714286925652 0 0 0 0 0.38059072801127058 1.815805090092887 0 1.815805090092887 -1.2821279761242295 0 0 0 0 0.46340242876976845 0.59327096923652789 0 0.59327096923652789 -1.2229052516755701 0 0 0 0 -0.46674187944154255 1.8869050196287276 0 1.8869050196287276 -1.038519688949691 0 0 0 0 -1.0813288124105043 1.6637338705916243 0 1.6637338705916243 -0.11636509612130419 0 0 0 0 -3.993151790338743 1.9893320795251839 0 1.9893320795251839 -0.033981701198243286 0 0 0 0 -12.369681652759027 6.5767802459890845 0 6.5767802459890845 0.34547407965146704 0 0 0 0 0.70334982957501779 8.1807248536697443 0 8.1807248536697443 -8.4414075788597529 0 0 0 0 -0.90947489284166494 1.5944006954168886 0 1.5944006954168886 -0.63295640742155312 0 0 0 0 -5.7402492983383127 2.7117830537158625 0 2.7117830537158625 1.251955219048341 0 0 0 0 -2.6598489110355779 5.3324830592009587 0 5.3324830592009587 1.2989682267091389 0 0 0 0 -0.022163552490383154 6.8306854857298731 0 6.8306854857298731 -7.9188104214007922 0 0 0 0 -0.19024215665325883 3.1881454511204161 0 3.1881454511204161 -1.3133847100757161 0 0 0 0 1.204469508746115 2.4017015596844544 0 2.4017015596844544 -0.23630915266585362 0 0 0 0 -0.053528098018500447 2.4018250823695091 0 2.4018250823695091 -2.8568568590731029 0 0 0 0 -0.62611430484633956 3.064806678176379 0 3.064806678176379 -3.8807803991157011 0 0 0 0 0.83579463466958259 1.7513250272943424 0 1.7513250272943424 -9.3849090527914996 0 0 0 0 -0.63787105027552116 6.1742944925861991 0 6.1742944925861991 -10.428363414551768 0 0 0 0 1.3578020458876949 3.6907351144457117 0 3.6907351144457117 0.56211438379012479 0 0 0 0 2.2020424793445272 5.5821130467500097 0 5.5821130467500097 -1.4398939607075363 0 0 0 0 4.3570457225941936 2.7657161552152729 0 2.7657161552152729 0.31015563195205686 0 0 0 0 0.1220871263594745 4.321044691942916 0 4.321044691942916 -1.1840849461661946 0 0 0 0 -0.25582279114360063 0.89258610964896912 0 0.89258610964896912 -0.37181204208415286 0 0 0 0 -0.92230550874319306 1.9559936645487142 0 1.9559936645487142 -2.2551214853911006 0 0 0 0 -0.43819900680682622 0.96670810053069545 0 0.96670810053069545 -5.39463464651908 0 0 0 0 0.09377921012310253 1.9317377032542709 0 1.9317377032542709 -3.996572447284052 0 0 0 0 -2.3367528812159435 -0.23523979338369827 0 -0.23523979338369827 -3.115944661557478 0 0 0 0 -2.2338798517048417 0.16869057267285825 0 0.16869057267285825 -2.6584395322959153 0 0 0 0 -0.17352706959388797 0.29580694137796915 0 0.29580694137796915 0.40407032301740786 0 0 0 0 -0.5673941897766781 11.985119343585211 0 11.985119343585211 -16.307587330012666 0 0 0 0 16.275941043957573 35.213161304330242 0 35.213161304330242 97.631321686414594 0 0 0 0 -8.7225419640490145 -13.647417175201781 0 -13.647417175201781 -9.0259958187243114 0 0 0 0 -2.3507640705865924 -1.210670092766577 0 -1.210670092766577 32.590832305806998 0 0 0 0 0.97194658473805617 3.2159478112122191 0 3.2159478112122191 1.9124986350851174 0 0 0 0 -0.14332288628065726 5.4759392688714286 0 5.4759392688714286 -4.4884908459571307 0 0 0 0 1.4891282370990666 7.3876258225209881 0 7.3876258225209881 -8.2845735358166621 0 0 0 0 4.0910581625412306 11.625371613757068 0 11.625371613757068 -16.720807833890376 0 0 0 0 3.9056404780188139 2.3919585213021115 0 2.3919585213021115 -0.19383329386196668 0 0 0 0 -23.191471922385972 36.436002986447193 0 36.436002986447193 -30.32728799880104 0 0 0 0 -7.8779380159649008 20.269958376835007 0 20.269958376835007 -22.124588926268643 0 0 0 0 -12.81024668740065 14.407283577961607 0 14.407283577961607 -3.5925644122719405 0 0 0 0 -30.640897507997579 20.607485316961402 0 20.607485316961402 -4.4664056016442828 0 0 0 0 4.8268349128574926 3.5696101059379046 0 3.5696101059379046 1.3751885767823602 0 0 0 0 6.5632559787645732 -1.3844670948773228 0 -1.3844670948773228 39.760382252892214 0 0 0 0 1.9469952546452234 0.44033663494841235 0 0.44033663494841235 -2.1030590089187431 0 0 0 0 11.357928419713517 55.227567664943621 0 55.227567664943621 131.26086209429195 0 0 0 0 -6.2385488874065231 1.9814897855464153 0 1.9814897855464153 8.5387470773259793 0 0 0 0 -2.2725832092173732 -1.9338919614239387 0 -1.9338919614239387 5.5579032830916049 0 0 0 0 -1.8564609353798005 8.2704005277410033 0 8.2704005277410033 -5.6693617868202182 0 0 0 0 -5.0111005743849546 11.361527931082868 0 11.361527931082868 -10.173596106607761 0 0 0 0 -9.1442156491102651 8.7141879666542081 0 8.7141879666542081 -4.3419288263189628 0 0 0 0 -5.8212678034101373 6.8056255677064712 0 6.8056255677064712 0.11872309809132275 0 0 0 0 -2.3613715783940279 10.824192823599333 0 10.824192823599333 -6.6485513997963324 0 0 0 0 -6.9723929452429729 13.913570070174728 0 13.913570070174728 -6.6142964516714073 0 0 0 0 -11.602242834469507 9.0149403067366052 0 9.0149403067366052 -6.8542467809543268 0 0 0 0 -11.761891389469383 14.926365003630792 0 14.926365003630792 -6.2689527079126037 0 0 0 0 -9.9716007638780866 16.467728835205435 0 16.467728835205435 -8.7894068310262128 0 0 0 0 -10.974981639712496 15.926417225992282 0 15.926417225992282 -5.4159316235591461 0 0 0 0 -4.4513496095123628 6.9951429057232417 0 6.9951429057232417 2.5771985798207879 0 0 0 0 -0.1522315401843386 1.1456441600093288 0 1.1456441600093288 -0.23096612923677559 0 0 0 0 -11.060301370023808 16.617700601726369 0 16.617700601726369 -6.1686362902701148 0 0 0 0 -8.4945866433008632 16.65912353339013 0 16.65912353339013 -19.505985080951064 0 0 0 0 -10.34570699306596 19.459960029878893 0 19.459960029878893 -13.346912196130233 0 0 0 0 -6.3744421862174931 8.2414255426328964 0 8.2414255426328964 -6.9580424516925632 0 0 0 0 -0.75831622406454535 6.9215906513276639 0 6.9215906513276639 -5.1379753262082168 0 0 0 0 7.0409248947726155 12.59589783947041 0 12.59589783947041 -6.5922866288141293 0 0 0 0 8.1411180883569614 15.672483465417997 0 15.672483465417997 -20.101553712939676 0 0 0 0 1.1410753555189679 4.5347969125772529 0 4.5347969125772529 -3.2293526957633985 0 0 0 0 -2.2986220184611739 5.0025220964702157 0 5.0025220964702157 -1.4902090350467461 0 0 0 0 9.5998265392408939 -0.5146614462710204 0 -0.5146614462710204 -5.3159693607263847 0 0 0 0 0.17304226420403879 5.7282507988410014 0 5.7282507988410014 -2.5413916415738269 0 0 0 0 1.7150770976803251 0.11765154376613651 0 0.11765154376613651 -0.53753754310673774 0 0 0 0 8.1834426959248958 1.5893008039456618 0 1.5893008039456618 -4.1823682144590748 0 0 0 0 7.8668242076746537 1.520959838661156 0 1.520959838661156 3.6281494355152972 0 0 0 0 -1.7660826172612119 3.0664243246617371 0 3.0664243246617371 0.11194763748779524 0 0 0 0 -1.7119000073871575 6.9925558618970172 0 6.9925558618970172 -3.8405112757918687 0 0 0 0 0.8485416184689818 2.5101495089716011 0 2.5101495089716011 -1.1870620136480508 0 0 0 0 2.744052847243438 6.1822633232245607 0 6.1822633232245607 -1.1211233832767675 0 0 0 0 3.1705013726659672 5.1068687876574188 0 5.1068687876574188 -0.097971232067038727 0 0 0 0 0.74840130546363071 3.369125079366313 0 3.369125079366313 -1.9432117093087982 0 0 0 0 4.0511022559977334 4.7638074535268453 0 4.7638074535268453 -3.8062740128708965 0 0 0 0 -0.6482592698275198 4.0582734927339086 0 4.0582734927339086 -1.4807791572136142 0 0 0 0 4.8448652578790075 4.0300356343530161 0 4.0300356343530161 -2.2943853552125466 0 0 0 0 2.5088776053527972 3.0365867781676759 0 3.0365867781676759 0.51844849960676509 0 0 0 0 2.8227685101719544 4.9932878692250142 0 4.9932878692250142 -1.2283739163168406 0 0 0 0 1.9850036131610977 4.8984173821925765 0 4.8984173821925765 -0.11396066815291306 0 0 0 0 -0.50617150746275286 5.4670395742092079 0 5.4670395742092079 -2.1352553502378293 0 0 0 0 -7.475605560141048 5.5839990379503774 0 5.5839990379503774 0.7173992895212109 0 0 0 0 -3.6115967264422579 5.1817877241951322 0 5.1817877241951322 -0.7204555052780961 0 0 0 0 -6.7551094905666105 7.268414208677342 0 7.268414208677342 -1.4448101489665817 0 0 0 0 -5.2221086571007618 6.0785500686143905 0 6.0785500686143905 -0.78957213973376383 0 0 0 0 -3.1246545280381595 1.9815648035885722 0 1.9815648035885722 1.2389216105648038 0 0 0 0 -5.5149414329425781 3.7158451515279012 0 3.7158451515279012 1.4524993251897342 0 0 0 0 -4.0047375161677863 4.028441266758076 0 4.028441266758076 -0.96850101088585516 0 0 0 0 -7.0677628618486779 7.1364196234693082 0 7.1364196234693082 -2.7627135002204284 0 0 0 0 -5.8248854573914741 5.3132966356185847 0 5.3132966356185847 -1.9449888020254775 0 0 0 0 -2.6563831430362335 3.7376809760006164 0 3.7376809760006164 -0.54329917298334784 0 0 0 0 -3.3270163738443319 6.1392225340859801 0 6.1392225340859801 -3.5203130926270081 0 0 0 0 -3.14171077930901 1.3906328174203235 0 1.3906328174203235 -0.51035290131319133 0 0 0 0 -51.981293020382509 -3.6842866390688869 0 -3.6842866390688869 5.623016649757119 0 0 0 0 -1.7447638714446247 7.7043428033608707 0 7.7043428033608707 -4.061478761190493 0 0 0 0 -5.4128972333501224 9.1763618625654146 0 9.1763618625654146 -3.1868812560282436 0 0 0 0 -29.408784237550663 -7.2186460892005471 0 -7.2186460892005471 -14.99221057678551 0 0 0 0 -3.5307550227123912 5.8433993798006174 0 5.8433993798006174 0.60639426427345811 0 0 0 0 0.27141679052636025 8.3877421407718096 0 8.3877421407718096 -5.3113194993958448 0 0 0 0 -1.0862195611343664 7.6637883796942621 0 7.6637883796942621 -4.9144168766569312 0 0 0 0 -1.4992682391784911 8.4221716882552755 0 8.4221716882552755 -4.8083586684161901 0 0 0 0 -5.3572005222358712 8.9446719802607788 0 8.9446719802607788 -4.8157426356060569 0 0 0 0 -5.410331798945208 10.564956767851243 0 10.564956767851243 -1.4170776905898492 0 0 0 0 -7.4328301780151378 9.8218849426565953 0 9.8218849426565953 -1.5166217948108169 0 0 0 0 -6.5587233802434639 9.5629053907019284 0 9.5629053907019284 -0.51377029132743246 0 0 0 0 -4.5271412011552457 11.969184177807279 0 11.969184177807279 -1.380940769785866 0 0 0 0 -4.4916324366462277 8.4274413501251217 0 8.4274413501251217 2.9260751994568182 0 0 0 0 -10.726385302838025 23.218268381363103 0 23.218268381363103 -5.5936678533337734 0 0 0 0 -7.6277839243630297 12.954522814140688 0 12.954522814140688 -10.452624644069658 0 0 0 0 2.6106891305388018 5.0475020123653618 0 5.0475020123653618 2.3691384255042167 0 0 0 0 1.2203709559907949 3.6585852877334872 0 3.6585852877334872 0.97793037461468613 0 0 0 0 -4.7660312976940986 5.5533249252882797 0 5.5533249252882797 -4.5953134595627034 0 0 0 0 3.9199049951239431 12.045999425771811 0 12.045999425771811 0.17852494720864343 0 0 0 0 6.4007434823579388 9.8903169972974183 0 9.8903169972974183 -9.4645820505882057 0 0 0 0 -7.2405534045215063 9.7121221153097572 0 9.7121221153097572 -29.83130255495675 0 0 0 0 3.3497032019315895 2.3223519429513164 0 2.3223519429513164 1.9743834397608899 0 0 0 0 3.2031805576391079 1.9458319205734718 0 1.9458319205734718 1.4836154147738121 0 0 0 0 2.2080553111518384 13.594926735543595 0 13.594926735543595 -5.8212868398672981 0 0 0 0 4.7452691328253422 2.7160403059625651 0 2.7160403059625651 -4.2398609200372448 0 0 0 0 -4.2836085939206896 3.0425709751212935 0 3.0425709751212935 -17.62852796526181 0 0 0 0 -14.22000006199746 2.9702887345460711 0 2.9702887345460711 0.32046553289538843 0 0 0 0 -9.5018829984854847 18.808455755138226 0 18.808455755138226 -15.892508155842279 0 0 0 0 -14.460660256308493 4.1111312855482938 0 4.1111312855482938 -0.46440642625829653 0 0 0 0 -33.466400428830639 10.38214966829014 0 10.38214966829014 -0.44443936498689851 0 0 0 0 -17.416698993200498 10.682734332540761 0 10.682734332540761 -12.308290830713645 0 0 0 0 -20.154874260995712 13.285863705002953 0 13.285863705002953 11.069283756020774 0 0 0 0 -11.13500563852358 21.441958018270952 0 21.441958018270952 -8.2416494706396861 0 0 0 0 -30.109587188510432 -1.11791600974 0 -1.11791600974 30.344231416762796 0 0 0 0 -17.890557842240014 16.534597415324924 0 16.534597415324924 -6.7852316774572614 0 0 0 0 -32.027750061719416 0.87230052087261356 0 0.87230052087261356 -2.3962776119142291 0 0 0 0 -10.699542368023685 -22.629709038420117 0 -22.629709038420117 4.9895853414786302 0 0 0 0 -14.376760165716405 -10.836168509607603 0 -10.836168509607603 24.57215238151548 0 0 0 0 -4.19715025557025 0.48846783419388373 0 0.48846783419388373 7.6596387253041485 0 0 0 0 -0.88252566566188761 -3.0003708239130447 0 -3.0003708239130447 -10.928174831807155 0 0 0 0 -13.774785293969199 3.802342246792112 0 3.802342246792112 0.20866703191514374 0 0 0 0 -21.897172044157742 1.3013924059373494 0 1.3013924059373494 -8.6280736987558342 0 0 0 0 -19.238707369951385 4.3116350261403511 0 4.3116350261403511 -5.2725377678868881 0 0 0 0 -14.106891268344043 -3.0669496081882244 0 -3.0669496081882244 -11.921500953644909 0 0 0 0 -6.6435009098613591 4.4216742752555547 0 4.4216742752555547 -18.380357221136194 0 0 0 0 -11.595773607994943 -4.1409214783146808 0 -4.1409214783146808 -11.748753170136297 0 0 0 0 -2.7236887890603612 -9.9596753426043279 0 -9.9596753426043279 -14.536134672039225 0 0 0 0 -30.463029565582474 -16.056331816809006 0 -16.056331816809006 -12.891457782884345 0 0 0 0 -48.431024714279374 5.6481337271994789 0 5.6481337271994789 -2.9797945918203368 0 0 0 0 -7.3283681938100926 -10.207530532162082 0 -10.207530532162082 -22.689433539247375 0 0 0 0 -39.297160356298264 7.4095713333495041 0 7.4095713333495041 -3.4679975666108476 0 0 0 0 -49.577252201386273 -8.0091356895748049 0 -8.0091356895748049 10.040604308000184 0 0 0 0 20.737817142618951 -15.440279423555126 0 -15.440279423555126 -7.6918975660905744 0 0 0 0 -8.8517935809359187 -1.4027640999411233 0 -1.4027640999411233 -11.086368087964161 0 0 0 0 30.354134872277427 16.939346742336966 0 16.939346742336966 -11.947196413595037 0 0 0 0 7.0787322513031086 22.861019076083664 0 22.861019076083664 11.136640831658724 0 0 0 0 0.83105710008840106 6.777063348633078 0 6.777063348633078 -13.662895144417689 0 0 0 0 6.0661017274467213 6.1286480694154761 0 6.1286480694154761 -16.708332121513649 0 0 0 0 12.530999662964859 18.606415056114088 0 18.606415056114088 -15.927914976047532 0 0 0 0 -23.425585069510817 23.51797952696495 0 23.51797952696495 4.4554350722402205 0 0 0 0 17.090443041064646 43.768921457661691 0 43.768921457661691 14.257756693912143 0 0 0 0 -0.010818841332365992 34.74984575697863 0 34.74984575697863 25.952611446993615 0 0 0 0 21.675207351478775 65.27771031207169 0 65.27771031207169 66.773243172966886 0 0 0 0 -12.04363557517263 7.773310232945505 0 7.773310232945505 89.934688740734146 0 0 0 0 0.60759312156179135 0.48169165982687545 0 0.48169165982687545 1.1293543547385179 0 0 0 0 86.004077139292349 37.835825682190716 0 37.835825682190716 6.5015545301100701 0 0 0 0 61.73401837580559 -29.655090775182316 0 -29.655090775182316 27.75019009162429 0 0 0 0 -11.328897863420025 -1.7171211254221816 0 -1.7171211254221816 17.718545248091232 0 0 0 0 -10.589253545787528 -6.0687476673186467 0 -6.0687476673186467 1.1942570449364212 0 0 0 0 -49.30402325268642 2.1371876366956712 0 2.1371876366956712 7.1936987371254872 0 0 0 0 -39.326822026731861 -10.380503959150246 0 -10.380503959150246 22.344230755812987 0 0 0 0 -51.490433493630917 12.818703661254403 0 12.818703661254403 26.16917053920713 0 0 0 0 -23.346460391800065 12.723206609914996 0 12.723206609914996 14.69649120272652 0 0 0 0 -72.281948445465787 45.855362430716013 0 45.855362430716013 54.482908485321559 0 0 0 0 51.203057324603833 82.312987387822659 0 82.312987387822659 42.513169492682778 0 0 0 0 -27.633320090631969 7.4255655054032559 0 7.4255655054032559 93.107700185242038 0 0 0 0 7.6846811303494178 26.1422551800365 0 26.1422551800365 -21.916927448701699 0 0 0 0 -29.506065867553389 52.044211232611815 0 52.044211232611815 -2.4355782563236517 0 0 0 0 13.211863409759644 34.945905983707462 0 34.945905983707462 4.1546800794051251 0 0 0 0 18.558323040054802 28.559243686214359 0 28.559243686214359 -5.3031456475878258 0 0 0 0 5.9817047947835817 17.352846035845005 0 17.352846035845005 -13.382757933657217 0 0 0 0 -0.079845153550802905 14.395725991782138 0 14.395725991782138 -8.1428961252148788 0 0 0 0 9.7794395319699561 10.920664119574838 0 10.920664119574838 -15.577309029530625 0 0 0 0 -0.11313021122714417 22.372266074879008 0 22.372266074879008 20.918295030040099 0 0 0 0 2.0754913020095902 3.6998533083467784 0 3.6998533083467784 -1.7469661384522261 0 0 0 0 88.970129975912414 3.7334039019568763 0 3.7334039019568763 -14.831206498883603 0 0 0 0 -8.6150809970522459 3.2179817923477572 0 3.2179817923477572 -8.784739179056487 0 0 0 0 -14.744540105863507 18.671476918346656 0 18.671476918346656 -2.4470109127876185 0 0 0 0 6.2787395905324956 16.011529096279105 0 16.011529096279105 -2.1794955516616028 0 0 0 0 -6.0006629967538174 11.667269470962765 0 11.667269470962765 0.56858158537198733 0 0 0 0 -5.8344613539047714 9.5682600038927816 0 9.5682600038927816 3.9066079096139674 0 0 0 0 2.0780411559298955 13.967856148571116 0 13.967856148571116 2.0087347282768633 0 0 0 0 14.97861408782228 15.025551174280281 0 15.025551174280281 -13.532163478339271 0 0 0 0 9.7978126090765727 7.8789825568278502 0 7.8789825568278502 -22.143252160968132 0 0 0 0 -3.6975254942822993 11.112104152951083 0 11.112104152951083 0.0076079255426648729 0 0 0 0 -16.308496659752564 5.6820869216104484 0 5.6820869216104484 3.6011410532553327 0 0 0 0 -10.60997485585176 11.767589911296767 0 11.767589911296767 -3.6796313516082506 0 0 0 0 -8.4449351120042593 12.277447004452355 0 12.277447004452355 -3.8827545122549054 0 0 0 0 -4.3486385348211307 5.7736187850101253 0 5.7736187850101253 0.45011226873781118 0 0 0 0 -3.1570349065533643 8.28933034624621 0 8.28933034624621 -3.8966299935821889 0 0 0 0 -48.792288244036627 4.689232268771093 0 4.689232268771093 -5.6926971977736684 0 0 0 0 -65.146097543924043 -10.365076765053345 0 -10.365076765053345 -0.84147642513562459 0 0 0 0 -3.682153685558939 2.1912299606857193 0 2.1912299606857193 1.3360894541193868 0 0 0 0 -69.193938003947551 0.74756197083661391 0 0.74756197083661391 4.5493810465459319 0 0 0 0 -49.919418465639865 -0.47831959274685687 0 -0.47831959274685687 -1.2867729446929843 0 0 0 0 -50.291221235094326 15.406291772025781 0 15.406291772025781 -3.7448720753145608 0 0 0 0 -56.25471491573262 9.3586385393391538 0 9.3586385393391538 5.3003543082556916 0 0 0 0 -50.821714436890943 8.7402825399728954 0 8.7402825399728954 -11.056964285761069 0 0 0 0 -3.0210774461044014 12.326121289957667 0 12.326121289957667 0.56874454214530434 0 0 0 0 -58.945886654397782 60.800011396903756 0 60.800011396903756 -18.261284458239516 0 0 0 0 -2.7229200741989601 1.3734820798326473 0 1.3734820798326473 -0.85592739991024391 0 0 0 0 -9.955212954357421 14.650571576356157 0 14.650571576356157 4.8537083585631535 0 0 0 0 -18.902597015703122 3.5549673896556442 0 3.5549673896556442 9.4208586715831188 0 0 0 0 -17.914566208611177 15.42617536409557 0 15.42617536409557 10.071366405433082 0 0 0 0 -3.694742313226433 11.038978813733397 0 11.038978813733397 3.2269130449228101 0 0 0 0 25.495058792832424 10.400719519856921 0 10.400719519856921 -3.389436660319916 0 0 0 0 11.469709253047768 -7.2310459754944532 0 -7.2310459754944532 6.5962094826513749 0 0 0 0 10.453505960721259 9.0338526971506781 0 9.0338526971506781 -14.682217954405587 0 0 0 0 -9.9849618077123523 23.745825185661374 0 23.745825185661374 11.249575288114556 0 0 0 0 -11.174860172566696 29.679513895286618 0 29.679513895286618 -3.9376150152387481 0 0 0 0 -14.609169780163029 23.637346214416766 0 23.637346214416766 6.4991645025374964 0 0 0 0 -28.652665275473737 -2.4265574899851572 0 -2.4265574899851572 15.866191524993155 0 0 0 0 -4.2669263266576403 11.721929352746219 0 11.721929352746219 -3.6735644548761819 0 0 0 0 10.484627706795436 3.3472259754378229 0 3.3472259754378229 -4.7603566191594382 0 0 0 0 -15.906189335510135 24.639424721576916 0 24.639424721576916 13.747123087771797 0 0 0 0 -0.31789382840210934 0.40176454089549907 0 0.40176454089549907 -0.049622545937594964 0 0 0 0 -11.62404958313391 30.425953852283271 0 30.425953852283271 7.7547730525525367 0 0 0 0 6.418065346104413 10.680309821566425 0 10.680309821566425 -24.106782955761219 0 0 0 0 19.086049310756607 55.180583703057891 0 55.180583703057891 -33.008213947165132 0 0 0 0 -29.787083101511598 1.7140591479051182 0 1.7140591479051182 12.203150546487905 0 0 0 0 -4.0806042594759111 12.974939427799486 0 12.974939427799486 -7.5490969332579834 0 0 0 0 13.855789390578138 20.966696921480889 0 20.966696921480889 -10.990072921174942 0 0 0 0 40.326322703098413 25.0525339795131 0 25.0525339795131 1.0514774605835555 0 0 0 0 -44.09372026528581 2.580544497445544 0 2.580544497445544 21.101648166208179 0 0 0 0 -2.186185778667566 2.6088773582162545 0 2.6088773582162545 1.6462352732513779 0 0 0 0 5.6886068004354726 4.3772099736087213 0 4.3772099736087213 -4.1429485178643919 0 0 0 0 32.255110448964842 37.192720203853241 0 37.192720203853241 9.4895114736173127 0 0 0 0 -6.2903442941957337 25.324540107576667 0 25.324540107576667 26.180521463296827 0 0 0 0 -6.5808431317475184 13.549720147360702 0 13.549720147360702 7.6565470802899487 0 0 0 0 0.80632472849993064 60.601104540383858 0 60.601104540383858 -43.152516464499968 0 0 0 0 -43.886304744341032 15.629599474593533 0 15.629599474593533 32.946030865396096 0 0 0 0 3.7157309186491148 16.134302087426931 0 16.134302087426931 6.5094638600787675 0 0 0 0 0.415856108147171 14.643858528896441 0 14.643858528896441 -10.909079566126055 0 0 0 0 8.9237076522676944 26.343808416937463 0 26.343808416937463 -3.5990377189691571 0 0 0 0 22.397548788620043 34.906274287366614 0 34.906274287366614 -0.11092570373148192 0 0 0 0 7.0042213611823172 40.826826470342894 0 40.826826470342894 5.7141990606251056 0 0 0 0 20.77047620108965 46.504045334146667 0 46.504045334146667 4.5299434656990343 0 0 0 0 16.51650194911781 42.229321475315373 0 42.229321475315373 5.9115065119935934 0 0 0 0 33.311851737561483 27.480220449030185 0 27.480220449030185 5.2110022309716442 0 0 0 0 19.395114994574669 34.027903078786949 0 34.027903078786949 2.1380874104452232 0 0 0 0 -2.0973663947985424 6.4942428423072167 0 6.4942428423072167 -5.7588403222125351 0 0 0 0 12.464047629746347 12.495969676097957 0 12.495969676097957 2.2893852506549592 0 0 0 0 -28.737339152062532 15.055376603545028 0 15.055376603545028 8.8659624606279976 0 0 0 0 -11.710267815070345 11.988783943025943 0 11.988783943025943 -3.8491916606804786 0 0 0 0 20.687369020339247 18.326169885567651 0 18.326169885567651 10.317721876723226 0 0 0 0 -5.432032648707775 12.17430502672978 0 12.17430502672978 4.9296384890417038 0 0 0 0 10.566677460917717 12.109254775726587 0 12.109254775726587 -2.3407054188385104 0 0 0 0 -5.0948095553796726 11.751805546299002 0 11.751805546299002 -0.87229095366791398 0 0 0 0 -7.0310362588152202 32.751945413134308 0 32.751945413134308 -0.25802564119840099 0 0 0 0 -5.3857761605215186 8.0050187011516627 0 8.0050187011516627 4.9221742564636486 0 0 0 0 -0.49330381301024318 18.777429186179916 0 18.777429186179916 11.875282009363218 0 0 0 0 -1.0158729081905591 8.9351150209489738 0 8.9351150209489738 -4.7586579983768171 0 0 0 0 -4.8083715432553831 9.3500572508796047 0 9.3500572508796047 -6.5654267044802204 0 0 0 0 3.3581082765690553 16.47180093906934 0 16.47180093906934 8.7554369070185203 0 0 0 0 -2.5495303006791801 27.283421479814933 0 27.283421479814933 8.3117638645038596 0 0 0 0 -8.6146827109087099 19.300221910806613 0 19.300221910806613 21.243248513825733 0 0 0 0 -9.3147384263304502 12.273436524118097 0 12.273436524118097 16.822930338110382 0 0 0 0 -1.5020474358157117 17.321832893453575 0 17.321832893453575 18.845730430228286 0 0 0 0 -0.54386312479891785 16.943994647051113 0 16.943994647051113 16.938023082608197 0 0 0 0 -0.52473406481075102 13.556944699616171 0 13.556944699616171 -11.113588767677703 0 0 0 0 3.261000286077433 25.521007229663155 0 25.521007229663155 21.496711209371483 0 0 0 0 -1.8327656423502958 28.073552341756113 0 28.073552341756113 28.937333605232197 0 0 0 0 -0.77625369608210626 13.47585937286391 0 13.47585937286391 -10.673835996788679 0 0 0 0 -7.3622604282833208 39.051138708568715 0 39.051138708568715 24.014958592407311 0 0 0 0 2.1285470920465741 34.51330502898054 0 34.51330502898054 19.963445370455702 0 0 0 0 9.7006608546356006 32.220725217506242 0 32.220725217506242 12.855281795098563 0 0 0 0 5.071391723277884 24.783022981963768 0 24.783022981963768 20.49528580104834 0 0 0 0 -0.70929207981771469 28.43749044498054 0 28.43749044498054 18.462270265063125 0 0 0 0 2.1300378145497234 37.784263795632796 0 37.784263795632796 11.987032431729858 0 0 0 0 -6.7424006943874701 40.328982413710037 0 40.328982413710037 12.45274894092654 0 0 0 0 0.71988470118503756 50.950327288887365 0 50.950327288887365 9.6085675632384664 0 0 0 0 -4.7881021087118825 42.174735684699499 0 42.174735684699499 13.448308530003487 0 0 0 0 -11.657776042592559 28.786442043520992 0 28.786442043520992 17.949204411526807 0 0 0 0 -27.115927666871357 11.451161827536453 0 11.451161827536453 16.122200836962293 0 0 0 0 -30.05960008375132 30.680078788314859 0 30.680078788314859 18.672048800924131 0 0 0 0 -12.767035201835427 14.994461019701362 0 14.994461019701362 16.433627604797948 0 0 0 0 -14.341497189242546 28.115779665962691 0 28.115779665962691 18.488461046872544 0 0 0 0 -5.7652950945889643 18.455507030585977 0 18.455507030585977 18.043687886285625 0 0 0 0 -14.610604831407443 5.49072375094687 0 5.49072375094687 11.17255412157283 0 0 0 0 -16.237664286771178 15.640752570603581 0 15.640752570603581 17.189965953170031 0 0 0 0 -5.6879354302682259 5.1162580935742881 0 5.1162580935742881 8.5145558437106956 0 0 0 0 -4.0435071431293181 5.9500231127622101 0 5.9500231127622101 6.7414856477362264 0 0 0 0 -5.3314525206587859 4.6691246859418243 0 4.6691246859418243 5.509292797634771 0 0 0 0 -2.2176745578144619 4.9409319841947763 0 4.9409319841947763 4.5114858952747454 0 0 0 0 -0.78780243703477026 7.3715321681856949 0 7.3715321681856949 6.1327353044102892 0 0 0 0 -5.6954888276409292 9.3621253026849445 0 9.3621253026849445 11.989639278586765 0 0 0 0 -4.9271288889431162 10.959010776145078 0 10.959010776145078 14.018822246815034 0 0 0 0 -0.091866418189965771 14.342843002383233 0 14.342843002383233 15.27909618562262 0 0 0 0 -5.3059626116191794 13.127538509501392 0 13.127538509501392 17.143292581440619 0 0 0 0 1.8917014360549729 10.39940084432601 0 10.39940084432601 7.1739210349533096 0 0 0 0 -2.5308285945875468 9.1822960512549798 0 9.1822960512549798 12.460353480022604 0 0 0 0 -0.078072584652545629 -1.4418873566664843 0 -1.4418873566664843 28.498004205300617 0 0 0 0 15.357128625605583 13.869149737062799 0 13.869149737062799 13.556991134693817 0 0 0 0 -4.5931773572629027 9.1928133666096983 0 9.1928133666096983 17.726000241175825 0 0 0 0 -2.6042443445767276 17.112597129026199 0 17.112597129026199 21.262558219968923 0 0 0 0 -7.2893284003803274 23.090150835640088 0 23.090150835640088 30.391216735715716 0 0 0 0 2.9283589211736398 14.404357436552345 0 14.404357436552345 -3.1576196601563424 0 0 0 0 22.012603340268925 4.3092446006562568 0 4.3092446006562568 -19.228977119426418 0 0 0 0 1.2524325348950036 0.77777034712495663 0 0.77777034712495663 -2.1885843777368592 0 0 0 0 3.1520727761618303 7.0134509770911677 0 7.0134509770911677 6.3328464703177074 0 0 0 0 -6.3015608652312949 3.0092180140254641 0 3.0092180140254641 1.6841516776730714 0 0 0 0 2.5576775055887992 16.815650532675136 0 16.815650532675136 -18.991086520061799 0 0 0 0 -4.8735244149738719 12.953965832809445 0 12.953965832809445 14.293765982398327 0 0 0 0 4.1588479471156461 25.171701220229806 0 25.171701220229806 11.202373496560767 0 0 0 0 -4.8745104459776485 11.50828404499407 0 11.50828404499407 12.772277154575704 0 0 0 0 -4.1116563878003944 12.049557284100047 0 12.049557284100047 15.06491879922396 0 0 0 0 -4.7968415586183255 12.720736584531551 0 12.720736584531551 14.687326945899258 0 0 0 0 -5.6428610458096955 7.0039694782426523 0 7.0039694782426523 5.6197557148320811 0 0 0 0 0.48977085473748816 5.3392610429061875 0 5.3392610429061875 3.3678386197774977 0 0 0 0 -2.0547703978009686 6.4967321264605884 0 6.4967321264605884 0.20123592768506882 0 0 0 0 -3.4360993704499485 2.4181468032722542 0 2.4181468032722542 2.8232839244175665 0 0 0 0 1.6314565813898021 8.1125380617225069 0 8.1125380617225069 4.2352186346373806 0 0 0 0 2.3738313106296118 12.044447598418628 0 12.044447598418628 -7.2866224847452941 0 0 0 0 -2.3773782556181686 23.454227842037199 0 23.454227842037199 2.7904218510302599 0 0 0 0 -2.9240697513402494 5.7384221045912476 0 5.7384221045912476 7.3005649645120911 0 0 0 0 -4.9160889392878744 6.3030733162240722 0 6.3030733162240722 14.464040598377323 0 0 0 0 -8.9715423087077397 6.263679903504908 0 6.263679903504908 14.286733163164172 0 0 0 0 -2.0773946432891535 5.7608634878306475 0 5.7608634878306475 12.461819866611222 0 0 0 0 -3.1417135110245908 -1.3342216124610786 0 -1.3342216124610786 12.419210889613169 0 0 0 0 -7.2496690030184254 5.6374389373431768 0 5.6374389373431768 0.82141368566044548 0 0 0 0 -16.955470866850646 11.690937507677518 0 11.690937507677518 10.654578850950202 0 0 0 0 -19.338380689575388 2.7056867028696843 0 2.7056867028696843 31.191185690204293 0 0 0 0 21.011272072076281 6.2233648612627803 0 6.2233648612627803 -10.125960263973866 0 0 0 0 -3.1892368482731639 4.8466868190928762 0 4.8466868190928762 6.1778236933691133 0 0 0 0 4.4788672439035508 11.799658198332054 0 11.799658198332054 0.012629510578335612 0 0 0 0 -4.9966432014671227 4.3928021154451926 0 4.3928021154451926 6.500001659776899 0 0 0 0 0.41367736153564749 1.1648429801257887 0 1.1648429801257887 1.5384918674588093 0 0 0 0 -12.648475526808738 4.0570884088399453 0 4.0570884088399453 7.554211672180827 0 0 0 0 3.0780511917478748 5.0401619854755779 0 5.0401619854755779 4.8742189511503966 0 0 0 0 -17.013635207719744 16.88029901236132 0 16.88029901236132 -0.40029339503780648 0 0 0 0 -1.029484375914155 0.42502207000483061 0 0.42502207000483061 0.20490324260084947 0 0 0 0 3.1293756083205153 6.0598840708389616 0 6.0598840708389616 -2.60647902300434 0 0 0 0 13.220829347965264 -1.4066901087135193 0 -1.4066901087135193 -0.17759510828636849 0 0 0 0 16.595956700387433 17.575806434494552 0 17.575806434494552 9.5156720499417133 0 0 0 0 10.540442359719236 10.307564407557948 0 10.307564407557948 8.5799734883189558 0 0 0 0 0.50008781771655819 2.1900431326919021 0 2.1900431326919021 1.3505588318145492 0 0 0 0 0.34169712169887134 6.1165485250030542 0 6.1165485250030542 14.789286718154472 0 0 0 0 0.36904708730116909 6.6834336922261173 0 6.6834336922261173 10.083883712261013 0 0 0 0 4.4747113436269501 14.743665035891354 0 14.743665035891354 11.273488926215578 0 0 0 0 0.63200395897001727 12.353575651219217 0 12.353575651219217 12.601375148050465 0 0 0 0 3.537436669199451 15.135299656620191 0 15.135299656620191 21.162154520252443 0 0 0 0 15.594350804076385 -7.8757982793749761 0 -7.8757982793749761 13.853150211372849 0 0 0 0 0.30458118622345864 6.2069900054757454 0 6.2069900054757454 16.308907703081786 0 0 0 0 2.1591164810452028 0.636692754638716 0 0.636692754638716 30.347659717963325 0 0 0 0 -8.2658834278545328 0.91317183994669904 0 0.91317183994669904 18.512334693513367 0 0 0 0 -8.2928285292971395 8.495094662875772 0 8.495094662875772 13.30028216791743 0 0 0 0 -4.8489518316564499 4.7310800762197687 0 4.7310800762197687 26.353658205694956 0 0 0 0 -5.8453886448169214 3.0257098818406121 0 3.0257098818406121 25.152674915261741 0 0 0 0 -3.0562966976858661 3.6709507927898812 0 3.6709507927898812 22.714005355999689 0 0 0 0 -4.2011518103699927 -0.12377360220580158 0 -0.12377360220580158 12.279814848258411 0 0 0 0 2.3361047114914379 6.3421179700081982 0 6.3421179700081982 11.279590386674997 0 0 0 0 -11.082177317406149 6.5371004654216449 0 6.5371004654216449 12.609067530407629 0 0 0 0 -9.4051446355065309 2.3778177196118122 0 2.3778177196118122 16.62937169570796 0 0 0 0 0.52506216462006705 2.5215816361596808 0 2.5215816361596808 7.4478399313857153 0 0 0 0 -4.2935171135168275 1.3590552981081601 0 1.3590552981081601 11.869476709061018 0 0 0 0 -2.2304531981967557 -0.54681994502516318 0 -0.54681994502516318 13.380300240142788 0 0 0 0 -0.59394732958450192 0.85827599666002818 0 0.85827599666002818 0.20267821050039281 0 0 0 0 15.40331800535705 -10.245935490433112 0 -10.245935490433112 2.8555797469234676 0 0 0 0 9.2972893280721109 13.736908807612963 0 13.736908807612963 -14.736745623626121 0 0 0 0 1.4723614474837632 10.045855353565003 0 10.045855353565003 4.7201424184695497 0 0 0 0 42.213427835782795 -14.32308297839927 0 -14.32308297839927 -29.982481167957303 0 0 0 0 17.828857706421047 34.698683108394562 0 34.698683108394562 -50.448452990996884 0 0 0 0 19.071518965066701 8.2190739668946264 0 8.2190739668946264 -12.079697826335178 0 0 0 0 54.632762310353428 8.6739977605038803 0 8.6739977605038803 -68.229266868576815 0 0 0 0 13.339969714023027 4.685811172827016 0 4.685811172827016 -2.3885427310920022 0 0 0 0 1.7844656909217571 3.9024781173151215 0 3.9024781173151215 -4.598120163774702 0 0 0 0 -1.5846620540205549 5.9114460241326015 0 5.9114460241326015 0.4888027043425609 0 0 0 0 2.1907039132347563 5.3941657703635428 0 5.3941657703635428 5.4434900676969846 0 0 0 0 3.9827219705657626 5.8013485944284184 0 5.8013485944284184 1.1623111999106186 0 0 0 0 2.547017093839731 5.461175322950985 0 5.461175322950985 4.1924049299730655 0 0 0 0 2.0585383299903661 4.1870314564640836 0 4.1870314564640836 -1.4659664778797588 0 0 0 0 8.0380128897577379 8.3825835208617718 0 8.3825835208617718 12.949653798114014 0 0 0 0 8.6324125467381236 8.1486790712742732 0 8.1486790712742732 6.8789405564239132 0 0 0 0 3.9152419041516708 4.8259544908621175 0 4.8259544908621175 -0.059204404342297678 0 0 0 0 1.5023865145174993 4.5128125174876725 0 4.5128125174876725 1.491141594302789 0 0 0 0 9.4310913305785107 9.6371906459789898 0 9.6371906459789898 1.5343538634015204 0 0 0 0 4.9613349930577897 15.127154386957955 0 15.127154386957955 7.0184522770759941 0 0 0 0 8.5799327225865909 16.680165803032651 0 16.680165803032651 5.0236783868367638 0 0 0 0 20.002243527691917 12.959480656111282 0 12.959480656111282 4.7896261334553856 0 0 0 0 11.512337633527295 22.644865266447141 0 22.644865266447141 8.5370870250317239 0 0 0 0 0.23529642208742274 1.4302027641957622 0 1.4302027641957622 0.78805016556857055 0 0 0 0 3.0616989985783221 8.6075418585351144 0 8.6075418585351144 0.50088323098316323 0 0 0 0 -16.405179337894879 -5.6756621837594139 0 -5.6756621837594139 56.876033998829371 0 0 0 0 2.6997778878940153 22.009993790694352 0 22.009993790694352 14.846281977457693 0 0 0 0 5.9854642348182097 20.930226158430742 0 20.930226158430742 11.44363334906302 0 0 0 0 3.8100926820523568 5.1687188247586278 0 5.1687188247586278 -10.062101105536385 0 0 0 0 15.650420860594522 12.019149870893898 0 12.019149870893898 1.892290145620791 0 0 0 0 0.24539176145828501 1.7651336153941042 0 1.7651336153941042 -0.12115191050619956 0 0 0 0 10.059014079100962 4.4863710681638622 0 4.4863710681638622 -8.0138030599791819 0 0 0 0 2.1569075645901776 4.0682769429107566 0 4.0682769429107566 2.8422022899535433 0 0 0 0 -2.7373642924630985 12.103348058861229 0 12.103348058861229 9.3506242551338801 0 0 0 0 3.2787313237322451 11.237917530473169 0 11.237917530473169 9.2480573649518192 0 0 0 0 1.9862594884962164 14.299391053515137 0 14.299391053515137 4.7007951329251227 0 0 0 0 -4.331132050972883 8.3600967865959319 0 8.3600967865959319 4.0242225976428472 0 0 0 0 4.5694992934804759 8.6989616157516139 0 8.6989616157516139 8.7649623035613331 0 0 0 0 1.6847323269639674 12.317382408731191 0 12.317382408731191 7.5115278662451601 0 0 0 0 4.5816468403645558 10.287048873449748 0 10.287048873449748 8.4875844534344651 0 0 0 0 4.1292679704938564 4.435285621229923 0 4.435285621229923 -0.61941857579222415 0 0 0 0 3.6214989144747696 7.1162473220977809 0 7.1162473220977809 4.4580963449822093 0 0 0 0 0.4520338868730418 7.4056888178817957 0 7.4056888178817957 6.2125597729597288 0 0 0 0 0.14808631830237573 4.1671506511775078 0 4.1671506511775078 -0.61037108717937372 0 0 0 0 4.1969064502145592 8.0738271173970357 0 8.0738271173970357 1.1294268243034216 0 0 0 0 2.4475439577892466 5.5068832848444398 0 5.5068832848444398 3.2573581525687132 0 0 0 0 1.3500911206708111 5.2599068432729652 0 5.2599068432729652 4.7195461667622238 0 0 0 0 0.041781206251016556 5.3846034661355588 0 5.3846034661355588 1.7019713408681127 0 0 0 0 3.5397150641754398 6.5280772206035653 0 6.5280772206035653 4.2487896116762194 0 0 0 0 3.8595255149991772 11.872034775015663 0 11.872034775015663 8.8552256231678257 0 0 0 0 -0.46106924639843783 5.1826531086680916 0 5.1826531086680916 8.3511124958458822 0 0 0 0 2.2318545581515536 6.8312801192946608 0 6.8312801192946608 1.6393514113442507 0 0 0 0 -0.52330748548615702 5.2013504048036339 0 5.2013504048036339 0.71866408812820737 0 0 0 0 -2.7056187336313542 7.4631799754963595 0 7.4631799754963595 3.3478633887734759 0 0 0 0 -3.1613204679970295 8.2935332833699249 0 8.2935332833699249 2.0904393667001955 0 0 0 0 2.3043176425478773 4.2324456655953746 0 4.2324456655953746 1.9703763719071752 0 0 0 0 -2.0010035741674983 7.2049823634838503 0 7.2049823634838503 1.7800470083147957 0 0 0 0 -4.5394616364028479 5.4993142686953433 0 5.4993142686953433 0.64932092635990557 0 0 0 0 -6.8589803625909553 8.3258840726557537 0 8.3258840726557537 -0.47956868817732357 0 0 0 0 -2.9190283400473618 3.646640296895157 0 3.646640296895157 -6.5110743192235532 0 0 0 0 -6.0334803020405161 8.0553056643611853 0 8.0553056643611853 -5.362882973104206 0 0 0 0 0.75512417991717484 5.6785796069286789 0 5.6785796069286789 -3.0088815347762647 0 0 0 0 -1.2015738091267849 7.2117579265468521 0 7.2117579265468521 -0.89026245819354699 0 0 0 0 1.772366514117067 4.4553675966911621 0 4.4553675966911621 -1.8564693772533545 0 0 0 0 6.2589110426806656 10.573383220146752 0 10.573383220146752 -2.1418847733621078 0 0 0 0 4.2731101439676422 12.832596906210711 0 12.832596906210711 -4.6366596263123938 0 0 0 0 2.4869133595697974 11.87419389137807 0 11.87419389137807 0.52610790133985574 0 0 0 0 2.4174259631281529 13.575688951254961 0 13.575688951254961 -1.353630898429401 0 0 0 0 2.4377534188732852 11.021794777162825 0 11.021794777162825 -1.7440087016439065 0 0 0 0 13.33642409436743 10.022971630810389 0 10.022971630810389 -5.8651715871292254 0 0 0 0 19.73954585374554 128.05623929032242 0 128.05623929032242 -39.483875752093809 0 0 0 0 3.5055327366767415 1.7727103920760783 0 1.7727103920760783 -12.772708991313266 0 0 0 0 -5.7437174939332181 6.1428241371904733 0 6.1428241371904733 4.8091795239524799 0 0 0 0 -0.33659822948902729 11.350585476749984 0 11.350585476749984 0.62043324159822077 0 0 0 0 1.258991260536277 14.305699124384773 0 14.305699124384773 5.7860239855890541 0 0 0 0 -4.4152302600832627 9.1269581975948313 0 9.1269581975948313 10.697185830660601 0 0 0 0 -1.3931487937152269 17.040664379388545 0 17.040664379388545 18.006550867457008 0 0 0 0 2.8082949084582651 15.788554817954719 0 15.788554817954719 6.8746320422233111 0 0 0 0 1.4921542486881663 15.33700468788993 0 15.33700468788993 8.1144010428797628 0 0 0 0 2.8224922245235575 12.511950210442592 0 12.511950210442592 3.3523890053347714 0 0 0 0 1.9293308272524428 14.705666164993545 0 14.705666164993545 1.7008771524197073 0 0 0 0 2.5602345421721111 12.925133749514316 0 12.925133749514316 -1.1189352358414908 0 0 0 0 2.1056782184041367 14.787097939830346 0 14.787097939830346 -3.505441409879495 0 0 0 0 1.0524007358326344 11.782442229552544 0 11.782442229552544 -1.2506447471164392 0 0 0 0 3.2727767651142585 12.414690786779374 0 12.414690786779374 -1.1137422637439158 0 0 0 0 2.8168561187204739 11.998484350157817 0 11.998484350157817 5.1948970861485577 0 0 0 0 1.5391386228643569 13.744582953801 0 13.744582953801 3.3652483753121487 0 0 0 0 2.3490613392423256 8.3080842522194871 0 8.3080842522194871 0.85681869378913689 0 0 0 0 -3.3289697804872276 10.228469973605115 0 10.228469973605115 0.21846106879456784 0 0 0 0 -9.2611475396352034 11.945023554555519 0 11.945023554555519 -2.3108811991869516 0 0 0 0 -3.9410819572740365 8.9753347949244926 0 8.9753347949244926 -0.85395984875322029 0 0 0 0 -3.9770425532060472 13.805567830262135 0 13.805567830262135 -8.9417735285405797 0 0 0 0 -0.17827680863911155 17.464887122502432 0 17.464887122502432 -12.978915200343181 0 0 0 0 -4.1907893050238272 13.199193357880176 0 13.199193357880176 -5.2875845681774081 0 0 0 0 -0.48168679386935764 13.327386847179241 0 13.327386847179241 -5.3217387659442466 0 0 0 0 -1.2764413342006264 13.428329623541686 0 13.428329623541686 -2.3440056531326263 0 0 0 0 3.0811384760936562 13.035331324256731 0 13.035331324256731 -4.3383487844371302 0 0 0 0 2.237605009978779 15.057866846620982 0 15.057866846620982 -7.9429762531508459 0 0 0 0 3.0930427076264095 13.317303192607142 0 13.317303192607142 -7.8293610602360104 0 0 0 0 6.0496017930745438 12.49601395731861 0 12.49601395731861 -7.9442432578925946 0 0 0 0 3.6913655666730847 15.840534135192343 0 15.840534135192343 -12.20289746142771 0 0 0 0 3.9952189450605147 14.732979024247925 0 14.732979024247925 -7.8272709982884408 0 0 0 0 5.5705761694707689 12.358350061020246 0 12.358350061020246 -4.6287764098255195 0 0 0 0 8.138659563913734 12.2418227013261 0 12.2418227013261 -18.808967949160433 0 0 0 0 5.8243721427661512 13.196887726395289 0 13.196887726395289 -12.407549286299854 0 0 0 0 8.3835178173345639 11.240228709483972 0 11.240228709483972 -14.784676010280236 0 0 0 0 6.6198730236044412 14.443752307395926 0 14.443752307395926 -12.608514097737498 0 0 0 0 3.1362721134146341 13.653256398940357 0 13.653256398940357 -14.123113789770741 0 0 0 0 3.6090423853975153 15.433933702765898 0 15.433933702765898 -14.650274462879679 0 0 0 0 6.1686580144159961 10.614378660750845 0 10.614378660750845 -24.861413719372194 0 0 0 0 6.1672732425358845 11.225363037729949 0 11.225363037729949 -16.100870630780264 0 0 0 0 0.41934803339518112 11.882983081521161 0 11.882983081521161 -23.494342853224225 0 0 0 0 0.90246806138657121 13.70447939767746 0 13.70447939767746 -44.520412614954694 0 0 0 0 -2.7952278559029082 14.41482871941912 0 14.41482871941912 -18.81482241892445 0 0 0 0 -2.3350271826097924 18.902040531779676 0 18.902040531779676 -19.12009142302486 0 0 0 0 -11.353400001364207 17.112865475864965 0 17.112865475864965 -10.042148070213443 0 0 0 0 -9.7718612217754526 16.15686690928078 0 16.15686690928078 -14.913288031890261 0 0 0 0 -14.711112067653175 16.509686285284715 0 16.509686285284715 -14.886398566268326 0 0 0 0 -5.2983221863196377 15.550764098587024 0 15.550764098587024 -29.310223834630278 0 0 0 0 -8.2373141340553957 29.054131141472681 0 29.054131141472681 -59.659371084831946 0 0 0 0 -8.5809304684908057 22.054282758209411 0 22.054282758209411 -28.281624661552996 0 0 0 0 -0.37487341500533056 -0.0088705619030911009 0 -0.0088705619030911009 -0.050576158834864771 0 0 0 0 3.735761003054904 3.4011016594854482 0 3.4011016594854482 -64.206560095613895 0 0 0 0 2.5605060765683447 12.604130643565441 0 12.604130643565441 25.996158524596467 0 0 0 0 7.2996657106150451 10.31575818170586 0 10.31575818170586 25.681790088535081 0 0 0 0 0.73638554072363149 -6.0856272657149475 0 -6.0856272657149475 -26.358970127834255 0 0 0 0 1.0893222553613668 -5.9014073875987378 0 -5.9014073875987378 -38.605479071942682 0 0 0 0 8.1461229068065677 7.159568493302686 0 7.159568493302686 -9.2837901860202692 0 0 0 0 3.1584456173345643 7.322214840624838 0 7.322214840624838 -2.2213155367967374 0 0 0 0 0.67395573172419265 2.0944132412943857 0 2.0944132412943857 0.20836779329889943 0 0 0 0 2.0747334633151695 1.0357363436778542 0 1.0357363436778542 -5.4491557480582742 0 0 0 0 7.5976301710093139 3.2714330094449906 0 3.2714330094449906 -18.445897879271797 0 0 0 0 -1.8261330565196285 5.9013012010105221 0 5.9013012010105221 -4.3442919949955154 0 0 0 0 -1.7031911228950776 13.500913804988159 0 13.500913804988159 -8.265729924641164 0 0 0 0 -21.576089008392501 23.476573197735433 0 23.476573197735433 24.45292160045301 0 0 0 0 2.3824189378719893 7.502375777803536 0 7.502375777803536 -14.837220882055817 0 0 0 0 2.8599223772302302 4.9674771780281288 0 4.9674771780281288 -13.884861089311347 0 0 0 0 21.09322951062245 -11.752466774653385 0 -11.752466774653385 -11.056136213106583 0 0 0 0 1.2610619012800193 1.1080790349221243 0 1.1080790349221243 -1.49494954558552 0 0 0 0 5.9710529230223983 12.84535218079418 0 12.84535218079418 -8.590259761669131 0 0 0 0 -5.1240181017110444 -2.3742406744922846 0 -2.3742406744922846 -1.7054809034498248 0 0 0 0 1.47126924946439 1.2765708553566846 0 1.2765708553566846 -2.7106076928109299 0 0 0 0 -12.057846040493132 4.8378336350201607 0 4.8378336350201607 -3.6157598267723188 0 0 0 0 -19.466883250519459 15.304146151562236 0 15.304146151562236 -10.186393622976539 0 0 0 0 -15.401663002009627 9.6949914256583725 0 9.6949914256583725 -4.3651224507875668 0 0 0 0 -45.023033431928525 15.89687727899036 0 15.89687727899036 -7.7545615347537478 0 0 0 0 -13.842040519327838 17.542494422957134 0 17.542494422957134 -24.555668815115496 0 0 0 0 -32.923590961777336 37.64688959617979 0 37.64688959617979 -27.557716272541484 0 0 0 0 0.98638835786368873 0.94825127296098799 0 0.94825127296098799 -12.050901568931295 0 0 0 0 -5.4492494043567437 8.9734805178038002 0 8.9734805178038002 -7.149835081308817 0 0 0 0 -17.261107888873084 42.654367196855674 0 42.654367196855674 -14.293263918176308 0 0 0 0 -9.151389192237275 19.123218409644437 0 19.123218409644437 -23.007975956760959 0 0 0 0 -17.178197161428216 25.532588130618706 0 25.532588130618706 -18.925484943214997 0 0 0 0 -0.98816430209000039 2.860592539680443 0 2.860592539680443 1.4653693878604992 0 0 0 0 34.503631791337284 -5.6375385420212751 0 -5.6375385420212751 -64.018454649286468 0 0 0 0 -5.3374428850102049 39.870376954316953 0 39.870376954316953 40.979200412563841 0 0 0 0 2.3543815974794597 13.464361030204032 0 13.464361030204032 -41.210024601880264 0 0 0 0 -14.230482146697796 10.171351890328651 0 10.171351890328651 -41.836852807868127 0 0 0 0 -1.215871348960718 41.645679265457147 0 41.645679265457147 11.268824652169769 0 0 0 0 20.312818782435897 13.613255016181142 0 13.613255016181142 9.828329126634344 0 0 0 0 -28.557869759628375 5.06177825493819 0 5.06177825493819 6.8601285555178038 0 0 0 0 0.44681845416817989 1.0924225440757063 0 1.0924225440757063 -1.1769732648969109 0 0 0 0 22.243303373018534 11.650724058216724 0 11.650724058216724 2.223589761286803 0 0 0 0 0.38402941238433908 0.7163529081782114 0 0.7163529081782114 -0.050953968025548413 0 0 0 0 19.35044704513939 7.2530158259219206 0 7.2530158259219206 -4.4262470752255467 0 0 0 0 12.875118732903502 12.810031106167116 0 12.810031106167116 -5.7120290173179455 0 0 0 0 -7.4154746003550827 -1.3475852969154403 0 -1.3475852969154403 -7.0563274512774115 0 0 0 0 0.31065672843760694 9.8167173843576165 0 9.8167173843576165 -2.8177994483744442 0 0 0 0 16.539316838693594 20.152578158205188 0 20.152578158205188 4.4432383373271023 0 0 0 0 11.494137297284396 10.953314651026858 0 10.953314651026858 -2.6549455819572358 0 0 0 0 17.08665063993908 17.382554030518946 0 17.382554030518946 3.0075419473064358 0 0 0 0 13.917644388283861 30.803512242917236 0 30.803512242917236 15.303602610198595 0 0 0 0 26.554901540829633 15.697702966706629 0 15.697702966706629 3.2889634415068372 0 0 0 0 45.21278434568103 46.532867794690446 0 46.532867794690446 10.40371672990625 0 0 0 0 54.59842681430564 4.7547481022800184 0 4.7547481022800184 11.712826266886168 0 0 0 0 21.886318087749714 30.568111426896053 0 30.568111426896053 15.309792033117901 0 0 0 0 11.651591770274536 30.694046384466219 0 30.694046384466219 20.884484728488815 0 0 0 0 1.9625434134418356 33.01483480442289 0 33.01483480442289 20.35783257382036 0 0 0 0 12.419664388836281 42.120284487179788 0 42.120284487179788 11.996769622914144 0 0 0 0 -3.765268396948386 40.908968799417067 0 40.908968799417067 30.686225414181763 0 0 0 0 -3.4646628068294376 18.526761809335426 0 18.526761809335426 39.043939131822583 0 0 0 0 -2.288643021394364 6.7891274988029977 0 6.7891274988029977 10.333923111102649 0 0 0 0 -0.9008168935829417 17.246460059203173 0 17.246460059203173 10.103164280378223 0 0 0 0 1.8887197372378068 20.815068025293385 0 20.815068025293385 14.326420013418328 0 0 0 0 3.1177340854879958 16.685374043302403 0 16.685374043302403 10.087286086509266 0 0 0 0 3.3755203152732065 10.559452576639728 0 10.559452576639728 1.8171158148612676 0 0 0 0 0.2839596320200144 15.865234462267495 0 15.865234462267495 6.4064240926251728 0 0 0 0 2.8593599184850973 12.410804019389616 0 12.410804019389616 -0.79975416022170975 0 0 0 0 3.7373383841040777 23.313484569682259 0 23.313484569682259 25.763106022419379 0 0 0 0 -0.24547346090294297 0.10241608819048409 0 0.10241608819048409 2.249941795458545 0 0 0 0 3.9801165522173747 11.454406399835364 0 11.454406399835364 1.8233688176236456 0 0 0 0 3.762282995170608 21.991258028554512 0 21.991258028554512 15.632469630872947 0 0 0 0 0.68412647109269997 7.5569146874731246 0 7.5569146874731246 -4.1648552192284676 0 0 0 0 3.0464049498368695 14.052434233419262 0 14.052434233419262 -0.042361581718068919 0 0 0 0 5.6111122586085003 11.21551736339552 0 11.21551736339552 -1.3308380003545608 0 0 0 0 -1.1896246194773994 11.492506106122619 0 11.492506106122619 -1.143524821884057 0 0 0 0 -0.35607992573386582 12.040188788294927 0 12.040188788294927 -0.35447405043123581 0 0 0 0 1.0853332554938788 7.3489884362932116 0 7.3489884362932116 4.0346387680874614 0 0 0 0 4.116345055702368 4.0813173242415814 0 4.0813173242415814 -1.3535870859268471 0 0 0 0 -1.4728267922037048 10.796249354075371 0 10.796249354075371 1.9688933470193888 0 0 0 0 0.37359719999983554 4.6993490880390976 0 4.6993490880390976 -0.94188003126701147 0 0 0 0 -4.0859329355307636 5.087437839390077 0 5.087437839390077 1.5050031341670547 0 0 0 0 -1.3755256425632689 5.0413139460715453 0 5.0413139460715453 2.932031597968443 0 0 0 0 7.0774158903250282 7.761936078029521 0 7.761936078029521 -0.21002001872693654 0 0 0 0 -0.25748049081213908 7.7448630262180309 0 7.7448630262180309 2.403328569827659 0 0 0 0 3.5034030736432911 5.9226220730503991 0 5.9226220730503991 -4.0790625687168909 0 0 0 0 4.1173684246938649 5.3084126983353439 0 5.3084126983353439 -1.8695470941527148 0 0 0 0 5.9289614051476747 11.268584646449199 0 11.268584646449199 6.669443961298839 0 0 0 0 1.2015170989589024 10.375371582876738 0 10.375371582876738 0.43560167105670189 0 0 0 0 4.2488621357740151 5.5580893555280184 0 5.5580893555280184 -5.8258185889790806 0 0 0 0 11.462231318506383 7.0536715960263336 0 7.0536715960263336 -8.6590116943807516 0 0 0 0 2.5827415828280209 11.130566506614286 0 11.130566506614286 6.666954327451549 0 0 0 0 -1.2408315931975622 1.1716760787317817 0 1.1716760787317817 -1.4708520466285187 0 0 0 0 7.0536144440957287 12.054925878503582 0 12.054925878503582 5.7430533752444717 0 0 0 0 1.4567758723133011 5.8371352056619799 0 5.8371352056619799 5.3943915340128115 0 0 0 0 5.8110667731307331 7.1646728597825131 0 7.1646728597825131 4.9953980516758065 0 0 0 0 -0.58632112829261018 0.44489268284682382 0 0.44489268284682382 -0.29726325518222119 0 0 0 0 0.01064358767689555 6.0556612295911236 0 6.0556612295911236 6.7628064113839628 0 0 0 0 2.9293122297694936 -3.9887212960127272 0 -3.9887212960127272 -39.579293723693354 0 0 0 0 41.834342969958016 49.344692188733234 0 49.344692188733234 -32.65310031506084 0 0 0 0 20.553223334929498 38.298769748643053 0 38.298769748643053 -2.4753323404461298 0 0 0 0 27.624679324930185 59.020077484480908 0 59.020077484480908 49.840441455356995 0 0 0 0 15.438640732598287 3.6753467786468264 0 3.6753467786468264 17.682956321642109 0 0 0 0 23.053268870511602 30.237103396626594 0 30.237103396626594 11.0736939102826 0 0 0 0 6.077381722242535 3.8151144632777134 0 3.8151144632777134 0.38840843972772432 0 0 0 0 -0.24098042827736776 3.2997219555577448 0 3.2997219555577448 -1.4149318014267926 0 0 0 0 4.4055700753997371 -0.076780107029435385 0 -0.076780107029435385 0.0033147788996075178 0 0 0 0 7.796605156001533 11.727543610946668 0 11.727543610946668 -0.12847130793466022 0 0 0 0 6.5751463187270787 4.7945228388829388 0 4.7945228388829388 1.2326532388172264 0 0 0 0 16.083446153994373 15.019702561821077 0 15.019702561821077 -0.45451950295182542 0 0 0 0 -31.956676067158696 31.423814433825669 0 31.423814433825669 -11.020112118600764 0 0 0 0 -35.980333214602069 19.247252930662171 0 19.247252930662171 -3.23677154737004 0 0 0 0 0.91479736117348409 1.7443931920450861 0 1.7443931920450861 0.12426229946826828 0 0 0 0 9.2396170564952627 -11.042829227312097 0 -11.042829227312097 -0.40191456996171837 0 0 0 0 10.209066759181951 8.8552778276645085 0 8.8552778276645085 -6.2308748199666297 0 0 0 0 11.590179041553711 46.878920266045156 0 46.878920266045156 45.447140091753113 0 0 0 0 -2.9760938088311377 5.5234408953757566 0 5.5234408953757566 24.311723856422304 0 0 0 0 3.3288163007865705 2.5708527487049189 0 2.5708527487049189 1.4519940028925975 0 0 0 0 -4.5263089887339447 25.422941907062295 0 25.422941907062295 55.008488032306104 0 0 0 0 -3.62118732500889 -0.47972847667262908 0 -0.47972847667262908 1.3691563454023017 0 0 0 0 1.1636761240015403 11.389317663986162 0 11.389317663986162 14.027016899546197 0 0 0 0 6.5677864400859107 7.7287422009974307 0 7.7287422009974307 -8.7427101987921105 0 0 0 0 6.5271882538095269 5.1282250006668164 0 5.1282250006668164 -6.0228373690529224 0 0 0 0 2.9431511152870371 6.6862246182142826 0 6.6862246182142826 3.6623187441648497 0 0 0 0 -0.0044717600794683676 9.3012002095574644 0 9.3012002095574644 -0.19743925491707159 0 0 0 0 4.2158952113977648 8.3426334742396762 0 8.3426334742396762 -11.522697582981436 0 0 0 0 0.11229396221477828 -0.19893691218859466 0 -0.19893691218859466 0.9558068091094909 0 0 0 0 0.0020484566048253328 3.0995267140779106 0 3.0995267140779106 3.5113877211961153 0 0 0 0 -0.10394863549768729 0.15139910941624102 0 0.15139910941624102 1.4164255623582962 0 0 0 0 1.2347400605212897 0.91180678953514871 0 0.91180678953514871 -16.790500037690663 0 0 0 0 -5.1230268751933181 5.9909128087199406 0 5.9909128087199406 84.180174033407184 0 0 0 0 13.548177030299485 17.424216806907452 0 17.424216806907452 -12.694150065512531 0 0 0 0 -0.0070930838210188085 23.67497251801467 0 23.67497251801467 30.895665488001896 0 0 0 0 -10.096816551122174 3.9393758068048328 0 3.9393758068048328 43.741560168173692 0 0 0 0 -0.045883001906830145 -0.23852751419788465 0 -0.23852751419788465 0.035389588942173478 0 0 0 0 7.0098564240097403 12.906608168368507 0 12.906608168368507 4.2362287087901223 0 0 0 0 0.018692933362298193 17.954793714524278 0 17.954793714524278 8.1560532824013308 0 0 0 0 0.012029025245524849 -0.36847670192707893 0 -0.36847670192707893 -0.0075510149646320635 0 0 0 0 -5.5740436136602511 -3.8551462428442846 0 -3.8551462428442846 53.763342870293485 0 0 0 0 1.1777598634816968 5.7118195443164268 0 5.7118195443164268 -8.901021360447146 0 0 0 0 1.2185233138443436 23.488406085993972 0 23.488406085993972 -18.270585747499211 0 0 0 0 -14.514705121819134 8.4053342383522249 0 8.4053342383522249 3.561221263228731 0 0 0 0 -14.763096094186039 15.101906120050558 0 15.101906120050558 -20.411489243387678 0 0 0 0 -3.626416199399273 21.50401463032405 0 21.50401463032405 -26.990980610128531 0 0 0 0 -17.469702630332904 24.70621111491235 0 24.70621111491235 -19.047170440792446 0 0 0 0 -28.43983387360413 15.684760731216723 0 15.684760731216723 -24.949237988209177 0 0 0 0 -19.889650604894996 26.321287663933646 0 26.321287663933646 -24.311380590093393 0 0 0 0 -14.241911534700193 17.230162149255733 0 17.230162149255733 -18.347364197827517 0 0 0 0 0.0030512969260598766 18.657625773675932 0 18.657625773675932 -19.767308394657164 0 0 0 0 -3.2892909265938215 16.299727396894156 0 16.299727396894156 -20.738972529035578 0 0 0 0 0.83249908607103862 1.527483825415004 0 1.527483825415004 -11.425794545903614 0 0 0 0 3.3900559077592334 4.1959955147660821 0 4.1959955147660821 -8.9042486328878567 0 0 0 0 1.530264213852206 4.6515305203749335 0 4.6515305203749335 -3.6546182352495293 0 0 0 0 11.578049436746369 8.6357515638493396 0 8.6357515638493396 -10.208512924616116 0 0 0 0 0.38342820063856209 -0.08939849920096421 0 -0.08939849920096421 -0.46294733480639205 0 0 0 0 14.110131525194447 1.1123374073628156 0 1.1123374073628156 -0.96914534433437893 0 0 0 0 0.39224294179439312 1.2213972129291619 0 1.2213972129291619 0.71239416144953793 0 0 0 0 1.6090468829679736 1.3698481586073932 0 1.3698481586073932 -0.26446895479311672 0 0 0 0 -0.098553218127278797 0.094780051226912576 0 0.094780051226912576 0.31768430709257256 0 0 0 0 -10.921143698767992 -11.994060051924293 0 -11.994060051924293 24.113926965532073 0 0 0 0 -0.094393319680492027 0.50767882005526133 0 0.50767882005526133 0.72261919957694309 0 0 0 0 -1.1683015149119456 9.1109846030685162 0 9.1109846030685162 -22.570406205813015 0 0 0 0 0.57874543382990851 -1.858723535892981 0 -1.858723535892981 -10.233098292724435 0 0 0 0 5.7443859917402733 5.0380503165806658 0 5.0380503165806658 -2.8040445918590535 0 0 0 0 10.341672526836192 -9.3973221248448908 0 -9.3973221248448908 -30.89229147178321 0 0 0 0 -60.681467622896889 40.529141511836428 0 40.529141511836428 -12.843570662024604 0 0 0 0 -30.861941951615336 26.894855055797532 0 26.894855055797532 -7.032660579764979 0 0 0 0 3.65111151439487 1.1453991225496338 0 1.1453991225496338 -12.623213942940083 0 0 0 0 13.659221139414512 -0.046296275971030809 0 -0.046296275971030809 -16.615044933960462 0 0 0 0 0.13004698971824347 0.21321323734857955 0 0.21321323734857955 -0.49420307710585454 0 0 0 0 -24.791418671464726 45.787189535585739 0 45.787189535585739 -31.185939845315261 0 0 0 0 0.56952635099150939 20.445141084110674 0 20.445141084110674 -39.581733113405562 0 0 0 0 4.5358403308782727 22.207801608893305 0 22.207801608893305 -36.60726504950344 0 0 0 0 10.362990239416831 4.9281646992200194 0 4.9281646992200194 -23.714475717154755 0 0 0 0 4.0314903759935987 8.9750823211408033 0 8.9750823211408033 -12.369953999582322 0 0 0 0 4.7052985042550972 5.3459437113813664 0 5.3459437113813664 -10.969400602150927 0 0 0 0 7.0035987083410873 12.432525427855751 0 12.432525427855751 -12.586614351159142 0 0 0 0 7.5991074610319629 12.81877003360205 0 12.81877003360205 -12.506430757451199 0 0 0 0 -15.353100343139886 28.223137924782122 0 28.223137924782122 -7.91361849357952 0 0 0 0 -6.6898782324478816 26.064008527873199 0 26.064008527873199 -0.85640973293948264 0 0 0 0 -1.8507599648182804 26.875499345945968 0 26.875499345945968 -9.8926584266979205 0 0 0 0 -9.9528696584602585 37.000914572482429 0 37.000914572482429 -21.880811487978121 0 0 0 0 -6.8710401328862645 38.180543114022385 0 38.180543114022385 3.7199096040637301 0 0 0 0 -25.520570184155076 4.2520185397746673 0 4.2520185397746673 46.627351774670615 0 0 0 0 -43.708107170179574 15.70536918985016 0 15.70536918985016 1.2401344244705115 0 0 0 0 8.3135952355441987 14.263936914174451 0 14.263936914174451 -1.0095233138921458 0 0 0 0 -7.3198593973042705 0.77319895371593006 0 0.77319895371593006 0.53055576154475981 0 0 0 0 9.8976965026322432 13.898100295665017 0 13.898100295665017 29.443875811644602 0 0 0 0 -6.6814394344328321 17.674500987604176 0 17.674500987604176 82.201893612427511 0 0 0 0 10.717282158024318 19.505100427077195 0 19.505100427077195 78.646706089489101 0 0 0 0 -0.01079473786786167 -0.20809258632265504 0 -0.20809258632265504 0.018965850371187309 0 0 0 0 79.445503690752957 68.043395083783025 0 68.043395083783025 -102.78503023668281 0 0 0 0 -78.932685918407515 -102.82711169953893 0 -102.82711169953893 40.713482050903394 0 0 0 0 -9.7938649707382126 1.3643354043402649 0 1.3643354043402649 0.32113983727308759 0 0 0 0 -14.643408692889352 47.715340949158872 0 47.715340949158872 47.545094545367419 0 0 0 0 -50.134086760568607 12.458910198049921 0 12.458910198049921 92.767924489709515 0 0 0 0 8.3659427981510817 12.147632538386915 0 12.147632538386915 9.187463622400351 0 0 0 0 -13.942293585296284 0.49998802259733566 0 0.49998802259733566 3.4065943692717155 0 0 0 0 -7.9218215528981091 -9.7255545657927911 0 -9.7255545657927911 18.012376727112041 0 0 0 0 -4.0349820016199374 10.853151849872916 0 10.853151849872916 13.738698608435243 0 0 0 0 -10.330241240668563 2.2610646540773933 0 2.2610646540773933 1.110063994317072 0 0 0 0 2.2246196326623249 16.980570743453399 0 16.980570743453399 16.335562050292197 0 0 0 0 -8.7970072103453276 21.400956967236652 0 21.400956967236652 51.529394053882442 0 0 0 0 -7.2783476408808383 36.608461460457335 0 36.608461460457335 14.005466257058288 0 0 0 0 8.1758697022469278 8.8851721384377811 0 8.8851721384377811 16.018615963721459 0 0 0 0 6.5720342710555997 17.967250695027246 0 17.967250695027246 10.137118141530379 0 0 0 0 8.2901451351026481 15.854508114429336 0 15.854508114429336 -3.8194223025366227 0 0 0 0 0.52140008834248874 18.203187429016936 0 18.203187429016936 16.545015526384304 0 0 0 0 7.8486739965260313 10.816359979392978 0 10.816359979392978 -2.1457857864158996 0 0 0 0 10.722814873751759 3.6643222117736798 0 3.6643222117736798 -5.1970831030630507 0 0 0 0 7.6113729468779638 7.8747759726803679 0 7.8747759726803679 -7.5557589565137278 0 0 0 0 7.425793259545685 11.025810666009907 0 11.025810666009907 1.6852416187641666 0 0 0 0 5.5414535760137369 10.527080538882501 0 10.527080538882501 2.0334661509767784 0 0 0 0 -1.1132682859097258 10.132215551048944 0 10.132215551048944 4.1116306180074389 0 0 0 0 4.4860411334318542 9.5130348224916794 0 9.5130348224916794 -2.8982986415734331 0 0 0 0 6.0532274501799748 15.334830686402739 0 15.334830686402739 5.9697598752238719 0 0 0 0 4.224953056043887 7.4929561002344371 0 7.4929561002344371 -1.9730194686160303 0 0 0 0 4.4203027832445514 5.9390441670518044 0 5.9390441670518044 -4.6017834793576071 0 0 0 0 1.8762874938383902 3.9428113216307281 0 3.9428113216307281 3.3149826716695543 0 0 0 0 3.331745238703661 9.7324737459377673 0 9.7324737459377673 -2.9096065547452099 0 0 0 0 4.0553544861243083 3.669437541835471 0 3.669437541835471 2.1327441523893591 0 0 0 0 0.98788077950414532 1.113852801008882 0 1.113852801008882 0.99876178572512497 0 0 0 0 -1.5448329990940692 7.2337853257714642 0 7.2337853257714642 3.0291692223465461 0 0 0 0 3.0621625430776476 9.8901932991105923 0 9.8901932991105923 -4.1347266950061794 0 0 0 0 6.751565735656186 5.2134843880082826 0 5.2134843880082826 0.1083528896128314 0 0 0 0 5.5381752352259355 4.4366758161763755 0 4.4366758161763755 -1.4901212892858666 0 0 0 0 5.6957753003844118 4.1419983795146038 0 4.1419983795146038 -4.2109145641261421 0 0 0 0 1.375778451871156 8.0359440740340347 0 8.0359440740340347 -2.0696162731048844 0 0 0 0 -3.6703727115145739 5.4859109533613974 0 5.4859109533613974 6.0448733857440402 0 0 0 0 -0.93849007620150893 3.053260404215937 0 3.053260404215937 2.1400361180849892 0 0 0 0 -1.3739078204598627 1.5710340442295774 0 1.5710340442295774 6.6424539162649126 0 0 0 0 -11.162971987017954 5.6032853440721055 0 5.6032853440721055 7.6807898616627881 0 0 0 0 8.5087830374905025 1.9273442529757858 0 1.9273442529757858 -5.8300462221576481 0 0 0 0 -1.2728375038905586 -0.0006014459241150405 0 -0.0006014459241150405 0.049438883170649373 0 0 0 0 -0.83737183337143506 2.8552074394620846 0 2.8552074394620846 2.551832977496332 0 0 0 0 -1.1644782702951488 11.28869172153324 0 11.28869172153324 3.8160587737575042 0 0 0 0 2.2577079277360852 3.4583553261844351 0 3.4583553261844351 3.0436487518517388 0 0 0 0 -5.712771598045947 7.5879723680047846 0 7.5879723680047846 7.5089391897278119 0 0 0 0 -0.49977948712859543 2.9484411000035049 0 2.9484411000035049 3.7848249239966334 0 0 0 0 0.24339646365478984 5.2544328855093454 0 5.2544328855093454 4.7163756834166293 0 0 0 0 0.66304540945566259 2.7862860574375645 0 2.7862860574375645 5.8989030301140701 0 0 0 0 1.4539336213698597 2.1779031150486468 0 2.1779031150486468 1.9074670164381167 0 0 0 0 0.25319118070729019 2.2973600718242153 0 2.2973600718242153 1.941655671641854 0 0 0 0 -3.4590815654875353 3.6317533246220748 0 3.6317533246220748 3.9252891813407054 0 0 0 0 -1.4580647113004233 1.8947555119995156 0 1.8947555119995156 2.3016344918989846 0 0 0 0 -2.8406035706921102 2.3503418586666456 0 2.3503418586666456 3.7218377915981193 0 0 0 0 -1.2453780502431258 -0.86869059561308859 0 -0.86869059561308859 3.1419457312438248 0 0 0 0 -2.1841365190903161 0.77586213959673955 0 0.77586213959673955 4.4508825612044802 0 0 0 0 -0.39847028242410687 -0.14464418621045638 0 -0.14464418621045638 0.73059343389316989 0 0 0 0 53.807944316420617 -34.021151869226571 0 -34.021151869226571 -32.908010019708229 0 0 0 0 0.48021450620427686 0.30071899898846244 0 0.30071899898846244 0.45844399246738032 0 0 0 0 0.19709863246453097 2.3758082114316075 0 2.3758082114316075 2.5764472479637561 0 0 0 0 138.98218117442229 24.197205105590058 0 24.197205105590058 -13.058866050997608 0 0 0 0 -30.203751329936495 -9.9052589297810982 0 -9.9052589297810982 125.02438740755747 0 0 0 0 -4.5742995229011285 41.423166849952963 0 41.423166849952963 131.06671162579676 0 0 0 0 195.11732185689419 38.506746397414972 0 38.506746397414972 30.369522012356811 0 0 0 0 20.84643225535001 -53.470179657271501 0 -53.470179657271501 -15.469377169662152 0 0 0 0 -111.44347813655986 -20.543793997625244 0 -20.543793997625244 88.799651412435708 0 0 0 0 -97.107028874272146 -8.3428559699893867 0 -8.3428559699893867 163.07046940114833 0 0 0 0 -37.922021398502693 -25.346566437326146 0 -25.346566437326146 88.648862819781016 0 0 0 0 -11.517877547139506 -36.190769735522935 0 -36.190769735522935 25.240072597921085 0 0 0 0 3.2188815138270002 67.934416820309252 0 67.934416820309252 141.15239481985122 0 0 0 0 -4.8366845512282453 -5.1691295200243985 0 -5.1691295200243985 100.92942920464066 0 0 0 0 -21.704414643918426 25.123535507538008 0 25.123535507538008 67.958317626183657 0 0 0 0 2.1937198628656915 -23.08771454533553 0 -23.08771454533553 -17.209006517482123 0 0 0 0 2.3559635317528773 -13.527813289393038 0 -13.527813289393038 76.192543606767003 0 0 0 0 -0.056389787897380472 -0.17477383406754043 0 -0.17477383406754043 0.5706407034664156 0 0 0 0 -0.027335960010695715 0.045077935736554053 0 0.045077935736554053 0.81903843919853836 0 0 0 0 -55.226391171785508 64.87151455788171 0 64.87151455788171 107.78906573281711 0 0 0 0 -22.388415261182672 6.1387317405842623 0 6.1387317405842623 -7.3471885698018013 0 0 0 0 -37.171616096462913 16.450231912303423 0 16.450231912303423 17.130452324317503 0 0 0 0 -29.935365061919583 -18.104451584832191 0 -18.104451584832191 10.199238899377377 0 0 0 0 -37.104307931387666 33.599276190138312 0 33.599276190138312 5.3561288557411899 0 0 0 0 -24.659659575428577 -3.6624450173729315 0 -3.6624450173729315 -37.36750734340535 0 0 0 0 32.797237343698725 130.54654636454143 0 130.54654636454143 -152.55943955350619 0 0 0 0 6.2975049712176769 3.9551334109855318 0 3.9551334109855318 1.5986236246648229 0 0 0 0 106.70482211958188 26.14135451525101 0 26.14135451525101 18.988006430248106 0 0 0 0 -113.686781188233 132.29935563615834 0 132.29935563615834 0.84527813972911758 0 0 0 0 13.269374742027139 38.349851203815888 0 38.349851203815888 79.102228885047225 0 0 0 0 17.994563614996878 11.145212041736158 0 11.145212041736158 119.63872176327254 0 0 0 0 0.45549060528446716 17.956030911426865 0 17.956030911426865 69.243998405884668 0 0 0 0 33.763008983425607 108.10848493197159 0 108.10848493197159 38.351541415006523 0 0 0 0 10.134795420833143 71.64523990381042 0 71.64523990381042 99.397787083258663 0 0 0 0 59.163315977604725 133.38072568132441 0 133.38072568132441 115.42020414797025 0 0 0 0 41.630227365410974 142.11660042235553 0 142.11660042235553 152.68957581849406 0 0 0 0 148.87457518884366 243.41168837757868 0 243.41168837757868 250.16260631531304 0 0 0 0 182.10029669625146 118.25573506973433 0 118.25573506973433 121.05457987590194 0 0 0 0 248.33133794291643 140.95394344735757 0 140.95394344735757 73.132214870880944 0 0 0 0 618.27514039028028 366.18521033329034 0 366.18521033329034 225.33487694915698 0 0 0 0 397.58727805267358 285.83878322628283 0 285.83878322628283 -209.14928575387057 0 0 0 0 -2.9996423376578605 40.081947724590464 0 40.081947724590464 333.09117180360386 0 0 0 0 3.0497778614020774 1.4684058942316742 0 1.4684058942316742 0.63890576606566363 0 0 0 0 32.164999451095355 168.50114001128031 0 168.50114001128031 584.49844763707006 0 0 0 0 0.23304412576501932 0.3161693602866098 0 0.3161693602866098 0.09029432975627294 0 0 0 0 -31.596299439339418 79.1185568232778 0 79.1185568232778 79.183429735079727 0 0 0 0 -219.86337455002877 -64.824831253394606 0 -64.824831253394606 -296.03934814884042 0 0 0 0 -140.08914640408875 69.856004123215882 0 69.856004123215882 -72.490007218486312 0 0 0 0 397.25259770796777 292.93255308350712 0 292.93255308350712 219.36804491966177 0 0 0 0 329.50654845995086 -39.31276392359905 0 -39.31276392359905 5.3696576725531031 0 0 0 0 -332.34017933638552 137.72244873829476 0 137.72244873829476 333.0651008491343 0 0 0 0 0.81332631306460179 2.2839446218038013 0 2.2839446218038013 3.4827976575155151 0 0 0 0 269.88179318376206 66.524825939296761 0 66.524825939296761 4.777699019362899 0 0 0 0 32.725821527976223 -23.42163484267121 0 -23.42163484267121 91.892509263023385 0 0 0 0 -182.34015734209788 110.18624496855489 0 110.18624496855489 -43.814876789619234 0 0 0 0 1.3385270604039263 4.5343095317922923 0 4.5343095317922923 7.7861749786147723 0 0 0 0 -15.432430351112998 78.241277796586814 0 78.241277796586814 -101.56715418695012 0 0 0 0 44.445457986834299 66.26177324132513 0 66.26177324132513 -97.929833953393995 0 0 0 0 -12.120407229102057 19.692852544426614 0 19.692852544426614 -27.560535989373989 0 0 0 0 0.82622125924411449 0.40903496087250524 0 0.40903496087250524 0.013201227180936748 0 0 0 0 19.259701112290713 23.748132233349025 0 23.748132233349025 -30.902722659037892 0 0 0 0 -26.957115661623448 98.345909492344589 0 98.345909492344589 133.25763680474944 0 0 0 0 6.7239684002215654 128.08410537597638 0 128.08410537597638 125.62162858711918 0 0 0 0 31.109006117141689 68.639807725214112 0 68.639807725214112 87.667266465041649 0 0 0 0 106.57355067004028 101.5334465740231 0 101.5334465740231 65.939292493456264 0 0 0 0 76.621181624042947 170.47782055787007 0 170.47782055787007 221.82202651312298 0 0 0 0 38.097039898073035 187.58808064119057 0 187.58808064119057 220.76049007006375 0 0 0 0 -66.12194855027883 214.7201514123791 0 214.7201514123791 281.04950236202762 0 0 0 0 82.461896672706644 253.45345724922004 0 253.45345724922004 232.70844386328457 0 0 0 0 90.627161726402846 226.93404539108627 0 226.93404539108627 140.36003317389589 0 0 0 0 -321.44011956601571 145.27368973948796 0 145.27368973948796 278.37490030219078 0 0 0 0 31.872759791878707 321.6767834225306 0 321.6767834225306 345.83591535752805 0 0 0 0 629.30478750208385 379.54777944777663 0 379.54777944777663 115.74335048522391 0 0 0 0 192.87476254890993 195.64803830240518 0 195.64803830240518 450.14571003328251 0 0 0 0 323.62906393681806 91.605636099974845 0 91.605636099974845 91.524588705118617 0 0 0 0 299.31247068411903 338.93232100712606 0 338.93232100712606 200.36151543768131 0 0 0 0 67.821194201467733 85.108778796032198 0 85.108778796032198 104.39229620999612 0 0 0 0 81.955937758994878 108.3602535636422 0 108.3602535636422 143.46918171767334 0 0 0 0 115.34075294294962 66.615138881523194 0 66.615138881523194 44.269659236668417 0 0 0 0 -33.89552888281105 106.17472465201411 0 106.17472465201411 42.956356114501148 0 0 0 0 144.00176330488443 205.77431191018943 0 205.77431191018943 148.16175504068883 0 0 0 0 1.1230310650615962 0.17438060838146541 0 0.17438060838146541 -1.2573650174791167 0 0 0 0 78.889996812140453 131.44622073862078 0 131.44622073862078 111.28894177083359 0 0 0 0 56.689288504627257 146.03403076154484 0 146.03403076154484 241.43118462989349 0 0 0 0 40.115979744732613 202.39761787722364 0 202.39761787722364 181.62887802687911 0 0 0 0 3.4893730600779236 3.2008500321601332 0 3.2008500321601332 3.7099062899484352 0 0 0 0 2.5652960429718519 1.9077770187809824 0 1.9077770187809824 -1.0605754321633536 0 0 0 0 2.5860397868345899 4.3384378057796766 0 4.3384378057796766 4.9141497278015436 0 0 0 0 2.654842861717043 3.6304660664681023 0 3.6304660664681023 3.9741713148546864 0 0 0 0 2.1807605490030255 3.9010738448582742 0 3.9010738448582742 4.0473001553207268 0 0 0 0 2.3653309820656432 3.5473655720645638 0 3.5473655720645638 4.1126147610891621 0 0 0 0 3.3179359784990083 3.1790864543277166 0 3.1790864543277166 4.1288568732531346 0 0 0 0 0.71591757497475328 0.95575660318168154 0 0.95575660318168154 -0.039263280389102428 0 0 0 0 3.8724116041948946 2.3156778403966882 0 2.3156778403966882 4.5268869843938546 0 0 0 0 25.788328299971909 2.9443328224239167 0 2.9443328224239167 3.1174339549530714 0 0 0 0 -12.645368088873511 3.3431631567689237 0 3.3431631567689237 87.447237598633365 0 0 0 0 1.1691655108770433 0.46136420790847232 0 0.46136420790847232 -0.55487824954734521 0 0 0 0 1.0349682933992881 6.7901446881462562 0 6.7901446881462562 9.3435341865629198 0 0 0 0 3.246479052599625 2.318366701763324 0 2.318366701763324 6.8142747877150214 0 0 0 0 -4.3880602991130218 8.7425555776665647 0 8.7425555776665647 15.542313060946526 0 0 0 0 -12.313100332291924 2.3700050365904843 0 2.3700050365904843 50.530921218450203 0 0 0 0 17.164754067711328 34.869561314379553 0 34.869561314379553 12.772876168876849 0 0 0 0 -0.56988462944673302 39.430583990613229 0 39.430583990613229 15.480136089499865 0 0 0 0 9.1771249387202261 11.811558107679161 0 11.811558107679161 5.9527677753508215 0 0 0 0 9.4082740420599293 16.251119293076556 0 16.251119293076556 -28.467592798021087 0 0 0 0 43.280368921781701 29.543353418563072 0 29.543353418563072 -75.482569169640101 0 0 0 0 21.394996707927021 -11.613435603738353 0 -11.613435603738353 -70.213786538379054 0 0 0 0 15.417503873941314 -122.33903979769912 0 -122.33903979769912 -195.18913245381918 0 0 0 0 -12.854524051886983 11.35203062915798 0 11.35203062915798 6.5587539067564649 0 0 0 0 0.1919897303885314 0.26141077087381248 0 0.26141077087381248 0.51429537955967897 0 0 0 0 -5.0799307204033539 9.106402693781547 0 9.106402693781547 2.5578197516524597 0 0 0 0 57.522942795902054 78.698563774707964 0 78.698563774707964 -2.5861794228378585 0 0 0 0 0.45799119527509902 48.18925079681685 0 48.18925079681685 88.669954244837328 0 0 0 0 4.0707217412009413 9.9517865446331939 0 9.9517865446331939 -6.8524189702179683 0 0 0 0 1.67746318803718 0.31905350179871483 0 0.31905350179871483 -0.38342394127222679 0 0 0 0 16.125594600071054 7.6108346572268033 0 7.6108346572268033 15.529032306521685 0 0 0 0 2.6026942605967633 6.175714837305577 0 6.175714837305577 14.529681971400294 0 0 0 0 6.7879533266514045 6.5639774515166209 0 6.5639774515166209 -2.9072535699278603 0 0 0 0 6.0681725155395725 3.8551668602633811 0 3.8551668602633811 5.8291384867720808 0 0 0 0 10.114236635385168 6.9157302403380072 0 6.9157302403380072 -11.782630360561214 0 0 0 0 2.6178309676161007 8.5529852600003551 0 8.5529852600003551 3.1306505245570406 0 0 0 0 -5.0966451951007912 4.7404924548108056 0 4.7404924548108056 15.257980420211027 0 0 0 0 101.28516603773323 107.33649405927909 0 107.33649405927909 317.24507853230415 0 0 0 0 2.0404978617777942 1.2986057644794222 0 1.2986057644794222 -0.85851629343540914 0 0 0 0 3.4383421203961007 3.5479412274141282 0 3.5479412274141282 1.6358865847674906 0 0 0 0 73.97753881744211 152.56005944710151 0 152.56005944710151 293.14552818374796 0 0 0 0 39.506759784071619 130.62847432608504 0 130.62847432608504 279.22855295819818 0 0 0 0 37.140614432899383 177.49660888538952 0 177.49660888538952 267.83928296031985 0 0 0 0 70.717490534659191 185.41990923302615 0 185.41990923302615 332.54033640500438 0 0 0 0 30.870682620148727 63.332592111587473 0 63.332592111587473 188.05416251058739 0 0 0 0 112.11936491119559 200.77697375155594 0 200.77697375155594 240.89739340028959 0 0 0 0 2.0351821376337327 1.20131924131889 0 1.20131924131889 0.84402175316683092 0 0 0 0 224.28931368085796 232.0449518316351 0 232.0449518316351 403.22432845133778 0 0 0 0 261.82013796406864 237.18017646037606 0 237.18017646037606 193.36727695472229 0 0 0 0 197.55677164077497 346.56331541283043 0 346.56331541283043 328.4431880161535 0 0 0 0 257.67377085581575 221.23296211671379 0 221.23296211671379 338.53896551354876 0 0 0 0 0.92500723119124473 0.5851428483030201 0 0.5851428483030201 -0.10290328952757999 0 0 0 0 17.812601596445347 -8.9207394863363447 0 -8.9207394863363447 1.9739536498397001 0 0 0 0 40.59965230297712 -5.2263828792248432 0 -5.2263828792248432 2.4444195140386284 0 0 0 0 214.80493609331825 258.12258290453877 0 258.12258290453877 364.63482123384483 0 0 0 0 189.10395961793984 194.75673861083288 0 194.75673861083288 206.96800889969722 0 0 0 0 319.43106259307024 167.80867435021091 0 167.80867435021091 205.64212997128345 0 0 0 0 211.89758669659386 153.06850959983205 0 153.06850959983205 157.58365895999714 0 0 0 0 219.34084678883846 164.07885371112718 0 164.07885371112718 122.47202432388076 0 0 0 0 191.85908528126129 208.79045102644514 0 208.79045102644514 150.80915059313236 0 0 0 0 1.0977552549028076 0.26629321840715825 0 0.26629321840715825 -0.16314800564457665 0 0 0 0 121.03724557802707 173.93590747283645 0 173.93590747283645 198.64236270301342 0 0 0 0 75.988481483725693 174.5713972134474 0 174.5713972134474 205.88084035543602 0 0 0 0 120.6619175611595 183.76498604997994 0 183.76498604997994 230.14046292466458 0 0 0 0 200.98416025183724 203.46240324255393 0 203.46240324255393 180.25212175831177 0 0 0 0 224.54102197243083 289.51357848912392 0 289.51357848912392 320.65700503684752 0 0 0 0 23.159183172809207 143.96731244731734 0 143.96731244731734 313.34597031314195 0 0 0 0 -14.039552190246468 17.610096071513453 0 17.610096071513453 184.47961347861406 0 0 0 0 46.897127342914246 32.773654176857463 0 32.773654176857463 51.162673011340075 0 0 0 0 26.560729143198841 137.3415521574816 0 137.3415521574816 535.67312998554598 0 0 0 0 1.9481847015796347 1.4958233839244111 0 1.4958233839244111 0.96330311932848967 0 0 0 0 180.45035984307208 160.75385444279647 0 160.75385444279647 -78.052500553778543 0 0 0 0 -6.4095619698637165 -15.514957488398181 0 -15.514957488398181 19.709062040957406 0 0 0 0 97.903953164125028 31.698882839846714 0 31.698882839846714 37.552831997417456 0 0 0 0 -20.381838708792202 -26.94235347288668 0 -26.94235347288668 26.488746333146054 0 0 0 0 -13.406115987607336 -26.194212118813084 0 -26.194212118813084 10.285129468556988 0 0 0 0 -27.12345220618954 -23.891742006631603 0 -23.891742006631603 88.444197445635609 0 0 0 0 -20.882532769996033 -72.827981182783333 0 -72.827981182783333 39.822513166907584 0 0 0 0 -53.700945576438244 33.458617704800417 0 33.458617704800417 -2.9601899111135026 0 0 0 0 -55.645627822921597 7.2876374073065335 0 7.2876374073065335 34.035249096812777 0 0 0 0 -29.771820961804224 -12.244912786923493 0 -12.244912786923493 6.5074676460033061 0 0 0 0 -26.660436207894236 10.319837125179902 0 10.319837125179902 9.9208524568990697 0 0 0 0 -24.754353080901637 3.5084676936368169 0 3.5084676936368169 2.4744193464409818 0 0 0 0 -6.4441613037342904 4.7316374383855191 0 4.7316374383855191 -3.906145199182987 0 0 0 0 -21.525539497668433 5.5370882168532489 0 5.5370882168532489 -3.6349809350144824 0 0 0 0 -6.518751995612547 -19.904970125580462 0 -19.904970125580462 -2.5866374526231084 0 0 0 0 -5.7103450529793918 -8.3197404249942224 0 -8.3197404249942224 -14.953041614858193 0 0 0 0 1.4862653036761913 -11.762333648487811 0 -11.762333648487811 -24.39542062485657 0 0 0 0 0.32009435206418857 4.6825006185308666 0 4.6825006185308666 -17.552446148181843 0 0 0 0 2.0654945805927127 2.4878654781269915 0 2.4878654781269915 -28.549319729533181 0 0 0 0 -10.367258600412242 -1.3115476937193762 0 -1.3115476937193762 -12.634231991601382 0 0 0 0 1.6098958188958932 7.4187340291216515 0 7.4187340291216515 -11.761209475764176 0 0 0 0 -7.0817463410603523 13.086244022486426 0 13.086244022486426 8.6590226507533998 0 0 0 0 2.3932911974989111 18.65020556904301 0 18.65020556904301 -3.5376854333450041 0 0 0 0 -18.496280243016372 45.543143465050903 0 45.543143465050903 -1.2721877119404041 0 0 0 0 -4.3577172644145321 8.8339380176016107 0 8.8339380176016107 -3.6964845322036126 0 0 0 0 2.2325951085040288 9.046433514116984 0 9.046433514116984 -18.336134890368612 0 0 0 0 5.1101317271604785 14.854251220665219 0 14.854251220665219 -10.003776936499321 0 0 0 0 27.501119196760555 -4.4069288234748001 0 -4.4069288234748001 6.653290545452343 0 0 0 0 0.98695073288747892 0.72050165682181699 0 0.72050165682181699 0.34856199610149574 0 0 0 0 -18.775600715874951 12.731426892516216 0 12.731426892516216 -76.087518525423974 0 0 0 0 32.919113508694863 -15.32561240313305 0 -15.32561240313305 5.6225470985967831 0 0 0 0 35.622227478899731 -14.685327000229677 0 -14.685327000229677 4.9530874502675317 0 0 0 0 18.773590308970597 -16.774341076231281 0 -16.774341076231281 -0.16157641624511143 0 0 0 0 29.204675321303512 3.8289123039011201 0 3.8289123039011201 32.196146101913428 0 0 0 0 13.666919046314433 -3.4261543349100521 0 -3.4261543349100521 -57.949140831437035 0 0 0 0 -32.608814167659148 115.81195522018865 0 115.81195522018865 39.391840110907935 0 0 0 0 3.5029451303363217 2.6480291089122314 0 2.6480291089122314 1.802971138336966 0 0 0 0 4.5368405686604092 5.7232288479283397 0 5.7232288479283397 -34.114215924696964 0 0 0 0 10.724894584389403 -20.508824017025063 0 -20.508824017025063 -51.491911914357729 0 0 0 0 2.3830171470162895 -15.332142457477943 0 -15.332142457477943 -19.289371534260681 0 0 0 0 -6.0896213551895926 -36.973171787790989 0 -36.973171787790989 9.5492626987802396 0 0 0 0 -7.343460148316808 -24.154809876394779 0 -24.154809876394779 -24.221356524178304 0 0 0 0 19.087120710242743 -40.944149579512327 0 -40.944149579512327 -82.323430219683132 0 0 0 0 2.1489433967981313 -73.656689204820168 0 -73.656689204820168 -49.939748392110005 0 0 0 0 13.130177656457818 -31.562706114771345 0 -31.562706114771345 -27.259374493460655 0 0 0 0 -1.4449407006795809 -45.04103472032034 0 -45.04103472032034 10.516643377600303 0 0 0 0 3.5305733654822689 -46.941689282630023 0 -46.941689282630023 -32.271629229649761 0 0 0 0 -8.864203428998735 -76.817727054247598 0 -76.817727054247598 5.9458067931345795 0 0 0 0 163.53746630943351 -53.780335306832995 0 -53.780335306832995 -28.866727177116132 0 0 0 0 -40.771951665672532 -92.442135907550892 0 -92.442135907550892 66.69620142756122 0 0 0 0 -152.23793102318632 -48.656373769231351 0 -48.656373769231351 229.70073634523385 0 0 0 0 267.82327809559592 56.136626689228393 0 56.136626689228393 5.3294677614115358 0 0 0 0 212.36842777028505 220.05667052325327 0 220.05667052325327 193.15333369774115 0 0 0 0 62.700205035933323 -13.295567036640989 0 -13.295567036640989 42.096081007790772 0 0 0 0 104.98324157215939 5.8546791080183311 0 5.8546791080183311 -12.67209671251635 0 0 0 0 78.332909147145983 -28.475445749716442 0 -28.475445749716442 9.172760005491682 0 0 0 0 26.952081475013983 16.604312395423847 0 16.604312395423847 101.29623197221832 0 0 0 0 21.098016049283615 -14.252157184944565 0 -14.252157184944565 34.732603985444257 0 0 0 0 31.016254858215689 -51.070081443980939 0 -51.070081443980939 77.883147930262467 0 0 0 0 38.22694671508907 -7.386783194092942 0 -7.386783194092942 22.44946370286732 0 0 0 0 44.76260768573411 -25.801576064951348 0 -25.801576064951348 3.1526837624671771 0 0 0 0 49.629478386171741 -6.8454956052450342 0 -6.8454956052450342 -6.1711704242961787 0 0 0 0 -6.7676182096402044 39.300668037746163 0 39.300668037746163 -22.509466635822378 0 0 0 0 31.62483649198839 -32.156122839076943 0 -32.156122839076943 -27.778986638183085 0 0 0 0 62.554554764381464 14.036566891360621 0 14.036566891360621 -76.032541249086194 0 0 0 0 54.138044948758761 -21.633055769367274 0 -21.633055769367274 -63.098067027100342 0 0 0 0 0.64501013405092067 0.033152760857461772 0 0.033152760857461772 -0.14557795390228501 0 0 0 0 25.874575537985947 4.5734844655773941 0 4.5734844655773941 -19.711021746680672 0 0 0 0 55.508828519537929 20.151617837532967 0 20.151617837532967 -16.465432201657109 0 0 0 0 5.2200552905878794 7.2667456867436329 0 7.2667456867436329 -3.94922678818034 0 0 0 0 7.1006534385160194 11.851877467497502 0 11.851877467497502 -4.5329301616400812 0 0 0 0 14.627342451293316 -2.284160861966221 0 -2.284160861966221 -7.6092682753683221 0 0 0 0 21.514224279526388 -3.5511222048722857 0 -3.5511222048722857 -7.4745745189625268 0 0 0 0 13.851986680260779 8.6708366204259626 0 8.6708366204259626 -5.4723332434878103 0 0 0 0 -5.3435063332369737 8.4819165017353058 0 8.4819165017353058 -2.0768403514196052 0 0 0 0 -3.8403786450039661 -9.7990650714132137 0 -9.7990650714132137 -0.77941315458201643 0 0 0 0 32.512547462793009 -11.876192789535594 0 -11.876192789535594 -9.0342889116504921 0 0 0 0 21.076633923774352 -12.3168074762267 0 -12.3168074762267 -9.032227998796202 0 0 0 0 43.652125671234899 -4.2685160221385416 0 -4.2685160221385416 -17.911785063414982 0 0 0 0 46.597407557876068 -12.683275059761797 0 -12.683275059761797 -22.478373372937199 0 0 0 0 44.729520228047477 -19.76261869172555 0 -19.76261869172555 -16.80546941040393 0 0 0 0 42.282097906632771 1.248174966264969 0 1.248174966264969 -11.23502264588393 0 0 0 0 27.15417932908349 18.913675714658325 0 18.913675714658325 -26.758753460719845 0 0 0 0 27.198722735016418 10.918031297716539 0 10.918031297716539 -15.025321767005607 0 0 0 0 17.051151525269233 10.046816338699841 0 10.046816338699841 -6.0922699928321435 0 0 0 0 18.136380216078805 15.314522413811851 0 15.314522413811851 4.1708740623153062 0 0 0 0 5.5782560827574343 38.598185923842721 0 38.598185923842721 11.512352388626823 0 0 0 0 -8.3109332585545417 19.646291549015075 0 19.646291549015075 -4.1168680781631792 0 0 0 0 6.1533660285340375 40.29082417001402 0 40.29082417001402 -17.631392464345026 0 0 0 0 48.779973616762618 30.073128005948774 0 30.073128005948774 -18.669802101923324 0 0 0 0 13.581794239184546 20.792380021772203 0 20.792380021772203 -11.80310251949868 0 0 0 0 19.128578407144232 22.085368994408327 0 22.085368994408327 -13.198583800693768 0 0 0 0 -11.578828937645085 32.620141412638787 0 32.620141412638787 -4.1004210998880808 0 0 0 0 -7.1615620530769775 21.154555161889959 0 21.154555161889959 2.7704641462676136 0 0 0 0 21.47092582632331 10.599949357313506 0 10.599949357313506 3.0694284475789573 0 0 0 0 38.810165547954966 21.149210529769334 0 21.149210529769334 -2.4380948626822487 0 0 0 0 34.828212159609393 8.9381739544369339 0 8.9381739544369339 -21.671532075353412 0 0 0 0 31.337959459528065 2.8402231845512915 0 2.8402231845512915 -12.769400599510732 0 0 0 0 34.215717629925166 31.891351580809612 0 31.891351580809612 -3.2096222991121977 0 0 0 0 -0.38074200581899476 0.61226702443822845 0 0.61226702443822845 -0.37009082679538174 0 0 0 0 4.7645572099791025 6.2850727930074299 0 6.2850727930074299 13.292029846743389 0 0 0 0 10.205052524986968 37.972873931119352 0 37.972873931119352 -3.4315470050482872 0 0 0 0 -0.2819059717368404 0.40788096589652412 0 0.40788096589652412 -0.082858566788912569 0 0 0 0 9.5274340599953575 -0.21224345870405159 0 -0.21224345870405159 12.669790929906924 0 0 0 0 37.468799061884056 26.042393079577209 0 26.042393079577209 -12.44256983846708 0 0 0 0 4.9497173007280253 5.6539442428191933 0 5.6539442428191933 19.422369156387504 0 0 0 0 32.51844089810038 66.948199779133574 0 66.948199779133574 -16.987241815308039 0 0 0 0 -5.1266223234376298 6.9745160642912101 0 6.9745160642912101 -5.9201698834837035 0 0 0 0 40.333977335838426 -4.1901364370212661 0 -4.1901364370212661 5.3859626940147791 0 0 0 0 -4.9580342730405391 36.501005639858704 0 36.501005639858704 10.155690254956426 0 0 0 0 -1.9588415942832285 7.3135461052800874 0 7.3135461052800874 -5.7384034711843093 0 0 0 0 2.3849115861085011 15.43140572997072 0 15.43140572997072 18.867733216308807 0 0 0 0 4.6993155687941908 12.664392909444359 0 12.664392909444359 2.3339055773758446 0 0 0 0 -0.23613233607193251 -2.8580656725509925 0 -2.8580656725509925 18.806664604916477 0 0 0 0 -31.449588803461666 59.779755822837615 0 59.779755822837615 99.792008608041215 0 0 0 0 -1.4003705569838729 7.3530570576413519 0 7.3530570576413519 -5.3343616618669056 0 0 0 0 6.5912687567906687 2.9146603063710472 0 2.9146603063710472 30.297969525588087 0 0 0 0 -0.24865337734809145 33.86626396650172 0 33.86626396650172 13.440297139330141 0 0 0 0 -20.425404504876497 76.371600690402374 0 76.371600690402374 32.157605242432055 0 0 0 0 -3.2777544458542707 6.2192516657260883 0 6.2192516657260883 -5.7664054043901283 0 0 0 0 17.987310126591183 38.21918646895756 0 38.21918646895756 -28.125310138446366 0 0 0 0 21.458143355366246 20.304473970414222 0 20.304473970414222 -58.047969107079552 0 0 0 0 -8.308645982759117 35.853188042385909 0 35.853188042385909 -47.661985614676269 0 0 0 0 -0.87286839487729395 -0.35256973430235905 0 -0.35256973430235905 0.024683001149993888 0 0 0 0 -45.363536252180893 34.444848785685508 0 34.444848785685508 -2.3993110813050862 0 0 0 0 4.953086058882036 9.2957589988504878 0 9.2957589988504878 -48.549240011496295 0 0 0 0 3.220519893868186 21.76431668723194 0 21.76431668723194 -40.914795749265295 0 0 0 0 -5.7696347974397213 30.664983990998621 0 30.664983990998621 0.18354031969300877 0 0 0 0 -16.414006730603433 24.326707099374914 0 24.326707099374914 -0.13222206033651673 0 0 0 0 -21.854493921860922 35.137212987206624 0 35.137212987206624 -1.4542326325613431 0 0 0 0 -29.1216754287816 24.868415663534051 0 24.868415663534051 0.8993181302685116 0 0 0 0 -14.563043968199054 15.819715114590281 0 15.819715114590281 6.0408877927661706 0 0 0 0 -14.647642865142188 31.301962371591799 0 31.301962371591799 -12.85002850432511 0 0 0 0 -0.32588655749168538 16.346398138274481 0 16.346398138274481 -3.3941012886200497 0 0 0 0 -1.3808022739673831 1.7422930447577014 0 1.7422930447577014 3.5132188114706953 0 0 0 0 -7.1256381769035215 15.043697007919945 0 15.043697007919945 7.4008221869466979 0 0 0 0 -1.985775279266818 12.280782655828034 0 12.280782655828034 0.0070442586736589874 0 0 0 0 1.2931293294015056 6.0922278729471699 0 6.0922278729471699 8.2714131529552599 0 0 0 0 -17.812681204166893 5.0553338607161322 0 5.0553338607161322 8.1447701699298705 0 0 0 0 -7.2610097836932255 14.90097849718245 0 14.90097849718245 36.402494927168846 0 0 0 0 -7.437060135514912 7.7328255647596507 0 7.7328255647596507 53.28729198450219 0 0 0 0 -2.1250069681009336 3.1247525282110473 0 3.1247525282110473 11.907376183612541 0 0 0 0 -7.7085286638794059 9.3895474656910665 0 9.3895474656910665 39.394404935368129 0 0 0 0 -10.75843649205126 1.5256299268203293 0 1.5256299268203293 0.91872301372131915 0 0 0 0 -4.3436825581911904 8.7013232385714563 0 8.7013232385714563 0.016468346911629794 0 0 0 0 -8.8543364777797251 -1.691687401788613 0 -1.691687401788613 6.2880189868119487 0 0 0 0 -5.7959246626273853 9.2508559891982145 0 9.2508559891982145 11.016884587028471 0 0 0 0 -15.903901574694828 1.8096729988849347 0 1.8096729988849347 13.606291371510451 0 0 0 0 -2.9370421533240005 8.1586916208884759 0 8.1586916208884759 9.3589411618005443 0 0 0 0 -21.856234128950746 10.400644438298741 0 10.400644438298741 20.4402163561831 0 0 0 0 1.76545995397802 5.3131472277635794 0 5.3131472277635794 8.8223438247208144 0 0 0 0 -1.3684645808464211 19.132037557162306 0 19.132037557162306 39.018840362728042 0 0 0 0 7.6626970682921183 25.941225387585064 0 25.941225387585064 14.857424611316674 0 0 0 0 15.371236139237226 19.544630836051965 0 19.544630836051965 9.0505824124213632 0 0 0 0 93.208522833690949 25.962871795584988 0 25.962871795584988 -3.4830746295531299 0 0 0 0 1.6993388145176382 5.4185256367215366 0 5.4185256367215366 8.8435313220039546 0 0 0 0 -32.639981604839704 33.187604850188336 0 33.187604850188336 -4.7166272685428794 0 0 0 0 -27.727171387427006 25.678157355051894 0 25.678157355051894 1.3583035925621516 0 0 0 0 -59.965428541004258 31.283188608585505 0 31.283188608585505 3.0209375765991808 0 0 0 0 -28.452220955101438 33.547495683675265 0 33.547495683675265 2.0869033864931907 0 0 0 0 -32.770302784356318 32.998851032120911 0 32.998851032120911 -2.2201828547971445 0 0 0 0 -60.881188687188114 28.439286139058595 0 28.439286139058595 -1.5333790100919487 0 0 0 0 -15.087676506953812 36.300327500906917 0 36.300327500906917 -42.948868731616699 0 0 0 0 -138.41599106651665 53.731272280528458 0 53.731272280528458 -10.403117446365741 0 0 0 0 144.40855534784896 -3.0463570181698287 0 -3.0463570181698287 -26.255391503669443 0 0 0 0 41.76358995955934 19.283669933656483 0 19.283669933656483 0.70366682982785278 0 0 0 0 1.5813773050669582 5.0999738566339197 0 5.0999738566339197 8.6349324408261836 0 0 0 0 -82.391773672389718 47.607539998367997 0 47.607539998367997 -10.405181603584197 0 0 0 0 167.19462754884444 88.306071858854921 0 88.306071858854921 -24.022477175648191 0 0 0 0 182.84693148185306 112.22919448183654 0 112.22919448183654 8.8376793279248886 0 0 0 0 143.30336749327398 115.85907294670687 0 115.85907294670687 69.218026744795338 0 0 0 0 120.18848576648634 83.570806701466381 0 83.570806701466381 26.646703884920498 0 0 0 0 92.456273896762468 138.75496495599214 0 138.75496495599214 -42.256046461542155 0 0 0 0 101.59715226374328 109.52391788271797 0 109.52391788271797 40.483348633777041 0 0 0 0 74.999984719132044 174.17946419577589 0 174.17946419577589 68.246804429616077 0 0 0 0 63.036206622597092 120.22255558568531 0 120.22255558568531 43.300958616543539 0 0 0 0 -0.53639174561619285 0.60170620525421192 0 0.60170620525421192 -0.10198624158527814 0 0 0 0 49.128855966500851 129.55336208922063 0 129.55336208922063 139.61959027960347 0 0 0 0 80.883101485406769 114.30105645432297 0 114.30105645432297 118.2953025325296 0 0 0 0 51.256779627330616 54.040895024061228 0 54.040895024061228 87.879226540720765 0 0 0 0 19.317666332795852 50.626002093591524 0 50.626002093591524 63.694132504562276 0 0 0 0 48.609757006290778 111.55292471888008 0 111.55292471888008 24.645259418407477 0 0 0 0 71.254530555652309 89.010869640348801 0 89.010869640348801 -21.271794519916284 0 0 0 0 43.959890574487872 68.288613154179757 0 68.288613154179757 63.915248692516798 0 0 0 0 32.926730596829657 37.483237491487102 0 37.483237491487102 17.647377587843039 0 0 0 0 6.5259253881058612 21.509507320166449 0 21.509507320166449 58.304160321655218 0 0 0 0 15.03309902638739 24.821681554789734 0 24.821681554789734 21.408166324655213 0 0 0 0 3.6019834486614855 3.0264217346830264 0 3.0264217346830264 15.13940473903358 0 0 0 0 -10.52125624389555 3.3630789748399366 0 3.3630789748399366 20.339847995182723 0 0 0 0 8.0469234307593069 1.6822631458223896 0 1.6822631458223896 -25.516192942426642 0 0 0 0 -4.2709592571892188 7.588023942884119 0 7.588023942884119 -4.0455248393894241 0 0 0 0 -0.95695450888706546 -6.6591186008897694 0 -6.6591186008897694 -16.461895752867804 0 0 0 0 -8.7213965485098015 14.012342694001291 0 14.012342694001291 23.528349172184789 0 0 0 0 14.909208920184028 6.5956086300639072 0 6.5956086300639072 24.130731764727443 0 0 0 0 12.132358633856711 43.569365254219605 0 43.569365254219605 42.856609066946476 0 0 0 0 18.488571809336463 74.286721041002863 0 74.286721041002863 107.20608845844617 0 0 0 0 36.286690151238872 41.763665922474047 0 41.763665922474047 44.627398505821702 0 0 0 0 70.72853361027046 74.983658010080944 0 74.983658010080944 94.243627158642994 0 0 0 0 -0.88780306881154303 0.90606929919046575 0 0.90606929919046575 -0.13868914469178151 0 0 0 0 84.835869980544885 109.17925963539039 0 109.17925963539039 100.04664341860598 0 0 0 0 146.13259013275456 111.08989783302695 0 111.08989783302695 99.284160050123319 0 0 0 0 18.342514221822057 95.006715768587128 0 95.006715768587128 159.34598328217544 0 0 0 0 3.7991488142542948 25.416950721271405 0 25.416950721271405 72.311000318726883 0 0 0 0 -65.665081577435558 -8.0716440589021659 0 -8.0716440589021659 66.141523286296433 0 0 0 0 0.10925658186815923 0.29793224288832931 0 0.29793224288832931 1.532928169534852 0 0 0 0 7.0458566097731818 28.451340772885487 0 28.451340772885487 0.02433050972649653 0 0 0 0 3.1108125251121237 5.9033909243901235 0 5.9033909243901235 16.415287704754292 0 0 0 0 -3.731930100986574 101.48638661919085 0 101.48638661919085 119.57884153799478 0 0 0 0 48.935903872858034 99.884329434824394 0 99.884329434824394 84.769406895283282 0 0 0 0 116.71529691631622 45.672460414273701 0 45.672460414273701 6.4064476896401175 0 0 0 0 52.786062746890821 108.7635473657806 0 108.7635473657806 93.698133643334018 0 0 0 0 136.96516934463034 178.51943249237775 0 178.51943249237775 173.24796246419828 0 0 0 0 62.40331779020562 71.587202231252832 0 71.587202231252832 128.91353063525085 0 0 0 0 95.086290825205651 99.607972144790438 0 99.607972144790438 94.799531554741179 0 0 0 0 268.30275901537834 139.64102695130123 0 139.64102695130123 58.89683974575928 0 0 0 0 40.446301928130197 131.42630223024025 0 131.42630223024025 127.8724486038509 0 0 0 0 -0.03891638257935405 81.035913088033823 0 81.035913088033823 104.78403886861634 0 0 0 0 1.4862549103754645 90.129173591333029 0 90.129173591333029 149.00398326341156 0 0 0 0 0.030285834440292092 83.932283054090021 0 83.932283054090021 154.98002163978254 0 0 0 0 -0.49733905718670002 0.26548156400849265 0 0.26548156400849265 0.37732088102834638 0 0 0 0 41.662371241412984 95.071871063005801 0 95.071871063005801 224.50383448601406 0 0 0 0 66.052664550317786 138.44156939526761 0 138.44156939526761 156.86559100324394 0 0 0 0 45.188589674631658 88.479456582004332 0 88.479456582004332 139.2087409373521 0 0 0 0 0.0050150080751336645 106.53257648398744 0 106.53257648398744 132.44981188493148 0 0 0 0 43.073788488558421 102.38382302762443 0 102.38382302762443 65.435969988609315 0 0 0 0 83.093123556717728 140.42818543366934 0 140.42818543366934 113.85413396439094 0 0 0 0 33.989330082809829 102.33124887334975 0 102.33124887334975 144.22763173930934 0 0 0 0 92.255349021621441 103.69824721861767 0 103.69824721861767 57.673685107840356 0 0 0 0 -1.0562513302199363 1.2048247459550065 0 1.2048247459550065 -0.50325978293441409 0 0 0 0 48.930378866234605 109.64856629413021 0 109.64856629413021 59.365822485827039 0 0 0 0 33.738552983326372 70.935957587944586 0 70.935957587944586 21.00610398867957 0 0 0 0 71.85701113200912 78.098144670738606 0 78.098144670738606 -2.4037732233477982 0 0 0 0 26.40579747911579 47.266419145281134 0 47.266419145281134 -13.30477674516851 0 0 0 0 28.483304903489625 18.339976130935611 0 18.339976130935611 -230.84583128898385 0 0 0 0 -0.02501042637163824 127.96024838611123 0 127.96024838611123 0.30061377809488476 0 0 0 0 -1.9110577855572046 103.88446560774946 0 103.88446560774946 65.976649332399063 0 0 0 0 57.208097071546945 101.4332245427268 0 101.4332245427268 -48.644994770271296 0 0 0 0 -86.226060597080505 179.88154381861659 0 179.88154381861659 -287.47158634690913 0 0 0 0 -58.341656197162592 213.44123873225863 0 213.44123873225863 -247.79148753966638 0 0 0 0 -0.10078077679645503 225.13900888082344 0 225.13900888082344 -309.2603423221608 0 0 0 0 -19.405091161537712 223.05491749414614 0 223.05491749414614 -247.94685330055472 0 0 0 0 -0.027267235080216778 259.28617039999017 0 259.28617039999017 -195.17839345460288 0 0 0 0 -46.317793084868754 287.67956738566545 0 287.67956738566545 -192.02993659228196 0 0 0 0 -62.165401695809123 264.38329007955508 0 264.38329007955508 -223.93673183134069 0 0 0 0 -71.585835082183621 300.78202905063654 0 300.78202905063654 -176.79415463579153 0 0 0 0 -71.785137905120791 241.82891065337208 0 241.82891065337208 -192.4603852283326 0 0 0 0 -92.842815651928163 275.068703529446 0 275.068703529446 -206.16010312014987 0 0 0 0 -114.44247817718679 255.67558501190797 0 255.67558501190797 -217.08290843597524 0 0 0 0 -69.961701522574913 204.54673522528765 0 204.54673522528765 -270.27727595822216 0 0 0 0 -74.227504228668295 258.70811498758121 0 258.70811498758121 -269.58262017063498 0 0 0 0 -82.626066610306225 235.61461328848236 0 235.61461328848236 -185.1922002967458 0 0 0 0 -10.867974396866884 161.4940818269597 0 161.4940818269597 -217.45304087650038 0 0 0 0 -49.432982269041531 216.43022600513996 0 216.43022600513996 -294.00807474784233 0 0 0 0 63.464624126845592 81.002954536153993 0 81.002954536153993 -304.34110837759141 0 0 0 0 -7.1232536410443572 65.34852593607684 0 65.34852593607684 -172.3352400623462 0 0 0 0 -146.30921182090242 277.12404081971454 0 277.12404081971454 -339.22276350182347 0 0 0 0 8.3590853072273603 177.70427464825207 0 177.70427464825207 -471.6613573610648 0 0 0 0 -184.28155700468096 97.253931521284358 0 97.253931521284358 -369.81529127649537 0 0 0 0 -22.978786589679657 197.040831779781 0 197.040831779781 -343.19781560390493 0 0 0 0 0.06100886371677916 144.58934064756295 0 144.58934064756295 -496.01641764150054 0 0 0 0 -73.034668936459639 249.12487313788188 0 249.12487313788188 -402.74565245530448 0 0 0 0 -289.47022171504568 178.22716328570999 0 178.22716328570999 -51.552440966814174 0 0 0 0 -0.26369853610661131 0.55711479523616703 0 0.55711479523616703 -3.4651628181627991 0 0 0 0 -13.678770179059939 -12.187735887756844 0 -12.187735887756844 -79.779918337490699 0 0 0 0 -0.11722655565790774 90.93746546778857 0 90.93746546778857 -145.84711022524516 0 0 0 0 24.937475682525474 52.938777310594105 0 52.938777310594105 66.514429522738055 0 0 0 0 -51.298606407561238 89.027883022609331 0 89.027883022609331 -88.000519251193509 0 0 0 0 -0.23908197336395176 -0.32595778579073631 0 -0.32595778579073631 0.2112465971203612 0 0 0 0 0.13494727612363633 2.8180005813703346 0 2.8180005813703346 -8.4486266394407039 0 0 0 0 27.338985413738101 23.867468764591848 0 23.867468764591848 17.273304784574066 0 0 0 0 -9.829699507321493 13.410564697471273 0 13.410564697471273 -15.884353194243886 0 0 0 0 0.29489276886540239 0.32315237096088456 0 0.32315237096088456 -0.77737639953305049 0 0 0 0 41.326013331263312 41.061271257765839 0 41.061271257765839 37.138720932910473 0 0 0 0 0.09373281215515776 69.209799503633548 0 69.209799503633548 67.295886894061368 0 0 0 0 -0.61184606958369514 1.9169107549937863 0 1.9169107549937863 4.3241342251005115 0 0 0 0 -15.847326466016966 19.424002463053512 0 19.424002463053512 -1.1787198128731688 0 0 0 0 46.261015094014738 23.886574393223782 0 23.886574393223782 -28.239639670104225 0 0 0 0 -1.2914055111753129 8.0213997342853887 0 8.0213997342853887 -4.4556797651952449 0 0 0 0 -10.641920692190979 41.315667862291775 0 41.315667862291775 24.333573151041037 0 0 0 0 17.905369149391845 5.8867599345626331 0 5.8867599345626331 1.1539526805845526 0 0 0 0 -18.62104655356751 -23.297971100016269 0 -23.297971100016269 -90.878916239003956 0 0 0 0 -17.696061995955461 43.590766425178117 0 43.590766425178117 -33.198901028006276 0 0 0 0 55.709093510362663 -111.76935468056513 0 -111.76935468056513 -286.09217834065475 0 0 0 0 7.4312679438207851 30.995855388045129 0 30.995855388045129 -183.81530860229327 0 0 0 0 -17.702747909126629 52.72917972090454 0 52.72917972090454 -150.05174123324741 0 0 0 0 9.4604036827113305 8.3706344918082323 0 8.3706344918082323 -118.17256602189718 0 0 0 0 -19.240693102181467 19.615496796628577 0 19.615496796628577 -108.61496324705331 0 0 0 0 -8.9600771252808045 22.261218961236409 0 22.261218961236409 -112.16210390413835 0 0 0 0 5.1420546620465757 4.4642274908242143 0 4.4642274908242143 -103.72675833196445 0 0 0 0 -5.4310833777562948 1.9304476091742799 0 1.9304476091742799 -25.67140517833468 0 0 0 0 -6.7803374653231003 8.9095898170307919 0 8.9095898170307919 -80.530369028038876 0 0 0 0 9.2418975007421977 13.919027598909452 0 13.919027598909452 -81.193293008494948 0 0 0 0 10.526905318991339 5.5471568195216605 0 5.5471568195216605 -76.339579308503062 0 0 0 0 -9.3160382852747716 21.175825566291678 0 21.175825566291678 -81.487656992034317 0 0 0 0 -19.62611483594992 34.151569354170078 0 34.151569354170078 -14.147414174689402 0 0 0 0 -4.1040726832397922 36.492972659507359 0 36.492972659507359 0.33400611271645175 0 0 0 0 24.422917205321937 12.876684267512701 0 12.876684267512701 15.134103362745009 0 0 0 0 -2.5867600412431742 8.109054443738632 0 8.109054443738632 -3.8387675510828405 0 0 0 0 16.423630352906002 13.470580265188801 0 13.470580265188801 -35.06517173886914 0 0 0 0 -17.057216764054829 46.144987415933883 0 46.144987415933883 64.304420769474746 0 0 0 0 5.8761763856609832 6.7302750789781385 0 6.7302750789781385 17.832837037134595 0 0 0 0 -13.810862513475513 -8.0954470582678368 0 -8.0954470582678368 38.326340141386027 0 0 0 0 -3.5541546992960136 7.9708824092549584 0 7.9708824092549584 -3.6897088683589159 0 0 0 0 -9.5781166098231552 42.741516483087253 0 42.741516483087253 42.447417904602844 0 0 0 0 -24.294213640860107 24.852623922867679 0 24.852623922867679 94.510129474944279 0 0 0 0 0.26576322598339175 -0.41859032358297554 0 -0.41859032358297554 0.27229633360548178 0 0 0 0 -17.224842169649492 31.251637208921238 0 31.251637208921238 -33.914165210213469 0 0 0 0 -9.999675793973438 11.228949245846707 0 11.228949245846707 -35.735083633075192 0 0 0 0 -53.933639117214625 16.929123865109432 0 16.929123865109432 -6.5626043109350576 0 0 0 0 -45.526154611305174 14.323193266419366 0 14.323193266419366 17.150408485180378 0 0 0 0 -20.597627750690663 -5.4828843853415492 0 -5.4828843853415492 16.847780047479318 0 0 0 0 -15.499655020401406 -1.8381461583185228 0 -1.8381461583185228 -1.3556479844482965 0 0 0 0 -32.240532526484458 47.748365499712236 0 47.748365499712236 -119.94983776549634 0 0 0 0 -34.582062215391488 0.67649879531745682 0 0.67649879531745682 -100.58766698726868 0 0 0 0 -32.630366789563595 -3.0075558068001556 0 -3.0075558068001556 -135.04353861868003 0 0 0 0 -14.649339093532035 8.3177753087193196 0 8.3177753087193196 -116.25022034675931 0 0 0 0 -43.540880242973799 -18.035366956622966 0 -18.035366956622966 -102.69204805178288 0 0 0 0 -17.431506299959437 23.798121611844181 0 23.798121611844181 -203.18621495055049 0 0 0 0 -86.221307442894613 50.997662902129377 0 50.997662902129377 -146.19695231554579 0 0 0 0 -122.00333140706789 -20.306400941226457 0 -20.306400941226457 -113.06417697057259 0 0 0 0 -1.6292437460251676 -1.5649808706311887 0 -1.5649808706311887 -61.175689808090283 0 0 0 0 -33.258872272879671 35.255309444702107 0 35.255309444702107 -55.275650040450273 0 0 0 0 -9.0334842911179294 0.65000370196503354 0 0.65000370196503354 -106.84079274702526 0 0 0 0 -6.6042026294653624 13.277150146399663 0 13.277150146399663 -82.328682411385671 0 0 0 0 -1.9628532109636581 -4.9754019139372758 0 -4.9754019139372758 -103.09398976588636 0 0 0 0 -18.714788008635594 -6.9891491833785011 0 -6.9891491833785011 -98.469281024827069 0 0 0 0 -18.758963368109107 -5.150286250785939 0 -5.150286250785939 -96.295279365544047 0 0 0 0 -23.027804670793557 -4.6973099370434284 0 -4.6973099370434284 -82.582440505673731 0 0 0 0 -9.29327664127959 7.5953280349003762 0 7.5953280349003762 -96.889338661112561 0 0 0 0 -20.716074541851413 -2.5470553481518436 0 -2.5470553481518436 -94.983809508275954 0 0 0 0 -76.467589106607193 12.687846545201865 0 12.687846545201865 -94.32223622199308 0 0 0 0 -21.336084587514051 1.2007268711113284 0 1.2007268711113284 -92.841572932742565 0 0 0 0 -30.946879197093949 6.5668130920075782 0 6.5668130920075782 -125.34931644053722 0 0 0 0 -35.356734418659471 -5.0671654698944621 0 -5.0671654698944621 -121.96170930309563 0 0 0 0 -26.955565345815558 -12.322230561203469 0 -12.322230561203469 -95.648344979663307 0 0 0 0 -48.498632452594393 -4.9130536120774195 0 -4.9130536120774195 -68.301279524965139 0 0 0 0 -18.864598354422924 -2.2188053116797164 0 -2.2188053116797164 -53.713845143718572 0 0 0 0 -35.823649846202898 1.3559583749965896 0 1.3559583749965896 -57.077201180989505 0 0 0 0 -23.887627235850232 7.6871773590864905 0 7.6871773590864905 -67.941508471787813 0 0 0 0 -34.649393347670411 18.333366135037977 0 18.333366135037977 -28.994611219663966 0 0 0 0 -32.279533379358327 20.021166649046336 0 20.021166649046336 -57.536920122118318 0 0 0 0 -8.8139651022167982 16.749328395423845 0 16.749328395423845 -33.929166695697859 0 0 0 0 -51.498017572041135 44.02797308756908 0 44.02797308756908 7.6812210637754106 0 0 0 0 -50.814612958291036 47.913847596002597 0 47.913847596002597 -35.840123139285424 0 0 0 0 -58.165832270909959 51.758004526030163 0 51.758004526030163 -37.573949135661678 0 0 0 0 -34.307429277178016 15.311717959299131 0 15.311717959299131 -68.414420987756785 0 0 0 0 -32.454832305735181 3.8385697639641876 0 3.8385697639641876 -84.734838613550892 0 0 0 0 -37.213732103155053 26.859790208429331 0 26.859790208429331 -97.76780773581612 0 0 0 0 -30.919508011633297 12.866113688059158 0 12.866113688059158 -66.963439317052689 0 0 0 0 -17.794148395183583 34.544243163813462 0 34.544243163813462 -124.60605290509193 0 0 0 0 -65.580749662483868 79.14588190041286 0 79.14588190041286 -102.93685004179724 0 0 0 0 -51.714525869383579 137.63193928275632 0 137.63193928275632 -192.38423150394738 0 0 0 0 -0.98906220186472638 55.972533548131196 0 55.972533548131196 -159.46471643924451 0 0 0 0 -39.481093997063908 102.74435265034754 0 102.74435265034754 -97.643111533379852 0 0 0 0 -96.425555736141177 155.8325627121967 0 155.8325627121967 -135.3817325544378 0 0 0 0 -122.36124237713193 110.78951408475405 0 110.78951408475405 -32.600294008578203 0 0 0 0 -51.679556106187192 61.815855432181479 0 61.815855432181479 -81.882895512893811 0 0 0 0 -112.95039703076509 195.6152924406897 0 195.6152924406897 -74.678518050322054 0 0 0 0 -92.861149489310264 272.95903573361619 0 272.95903573361619 -130.51349998528713 0 0 0 0 -102.00692560872994 236.04347499234609 0 236.04347499234609 -171.90945267627376 0 0 0 0 -144.89412140287277 307.07665799650295 0 307.07665799650295 -152.00437591089303 0 0 0 0 -164.90459425392146 268.74049565450878 0 268.74049565450878 -72.986745862433963 0 0 0 0 -152.30953363794015 176.33577853891984 0 176.33577853891984 3.0769432057677477 0 0 0 0 -179.58347951156065 294.59879732577883 0 294.59879732577883 -114.17692994673416 0 0 0 0 -175.63312187826159 241.13278350696146 0 241.13278350696146 -101.33546647080311 0 0 0 0 -268.40725506170565 269.00292338186773 0 269.00292338186773 2.8731212164747397 0 0 0 0 -66.525367419778377 8.5431618778957272 0 8.5431618778957272 98.965470391334748 0 0 0 0 -288.3966410839821 168.11857721956858 0 168.11857721956858 133.08227662703075 0 0 0 0 81.841315093643061 76.504667503018936 0 76.504667503018936 23.23995244715212 0 0 0 0 -17.299602724220676 13.724335999921095 0 13.724335999921095 29.515472149309062 0 0 0 0 -193.2797834333478 152.29630950968749 0 152.29630950968749 1.2128523408055116 0 0 0 0 -97.381252415642848 72.368787165476078 0 72.368787165476078 26.023235906834088 0 0 0 0 48.380967852703179 41.698870622056347 0 41.698870622056347 79.206772563972663 0 0 0 0 54.360170995301814 136.42755316706007 0 136.42755316706007 127.54893593590759 0 0 0 0 -1.498089922755625 1.8999487027133597 0 1.8999487027133597 -1.6746541666261159 0 0 0 0 13.864411247095632 -8.1259559947029629 0 -8.1259559947029629 8.356225213408834 0 0 0 0 2.7559746046308646 7.9372929052917698 0 7.9372929052917698 2.1049108954175608 0 0 0 0 -5.4678899037116935 4.9718303572999503 0 4.9718303572999503 3.8006410792004317 0 0 0 0 0.36391235801056609 4.5227604951774083 0 4.5227604951774083 0.52564590768452035 0 0 0 0 -0.55162988196740148 2.7257522344956016 0 2.7257522344956016 1.1460063700485321 0 0 0 0 -5.9597569716133876 1.9778905942694109 0 1.9778905942694109 1.7603550227471487 0 0 0 0 -0.32927461896626431 3.0031966852887244 0 3.0031966852887244 1.3356984702943748 0 0 0 0 -6.7255957558143109 1.1107709412444819 0 1.1107709412444819 -4.5417304429865908 0 0 0 0 0.67904849509613996 5.4167423322578543 0 5.4167423322578543 1.121462633131614 0 0 0 0 0.0018034724919075984 1.9025721844016008 0 1.9025721844016008 -2.0378657616900462 0 0 0 0 70.936745350993078 91.510107954854902 0 91.510107954854902 69.483553590664087 0 0 0 0 76.251135490643719 92.747049430879997 0 92.747049430879997 53.033893347179401 0 0 0 0 122.45402749502682 68.750366206118997 0 68.750366206118997 57.559248897558064 0 0 0 0 67.004751314146802 48.615954459633599 0 48.615954459633599 31.848770766471716 0 0 0 0 -2.2302635883101587 2.4265738449356791 0 2.4265738449356791 -0.96264155566264975 0 0 0 0 -1.3255495510936726 10.497231004633846 0 10.497231004633846 47.290426623620078 0 0 0 0 -22.470637684209578 4.1754288274278224 0 4.1754288274278224 2.2503596055303206 0 0 0 0 -0.40461013986695349 1.0187651373561373 0 1.0187651373561373 0.26091016747785289 0 0 0 0 35.05440388777788 65.444393110659803 0 65.444393110659803 35.567408334974971 0 0 0 0 92.407972525972582 55.264908198949797 0 55.264908198949797 -12.190237008890108 0 0 0 0 51.969236837343487 40.947906938466986 0 40.947906938466986 -16.252032147190221 0 0 0 0 54.934496414298337 63.008923475040319 0 63.008923475040319 16.08042889110493 0 0 0 0 64.758015512208658 79.150710882811836 0 79.150710882811836 72.075515558053667 0 0 0 0 74.605637533428308 19.214045854920187 0 19.214045854920187 30.190185700350412 0 0 0 0 71.124595093569951 51.526667340625863 0 51.526667340625863 -18.86185096288682 0 0 0 0 64.581912122943322 24.450410021983771 0 24.450410021983771 -13.145806773046388 0 0 0 0 52.720340690361013 44.41432068658537 0 44.41432068658537 -36.75223307867418 0 0 0 0 53.881766785994841 28.296556452969128 0 28.296556452969128 -51.862661145856691 0 0 0 0 35.548381180717115 22.834761926260398 0 22.834761926260398 -44.95741906893636 0 0 0 0 32.115008584674797 43.45665974097119 0 43.45665974097119 -13.609295210091659 0 0 0 0 54.457715543088852 37.389765394604183 0 37.389765394604183 -14.316956126947844 0 0 0 0 84.798493374624741 56.147139068776823 0 56.147139068776823 34.578888470601669 0 0 0 0 48.135369033752795 70.675156632233666 0 70.675156632233666 33.815893424760361 0 0 0 0 42.475133003070368 33.2169819667306 0 33.2169819667306 -15.434328362298402 0 0 0 0 36.656138252481469 64.410095180529424 0 64.410095180529424 51.271398276467153 0 0 0 0 51.736873396318515 42.65903646126776 0 42.65903646126776 -17.798147029436223 0 0 0 0 -11.744215090630405 35.471186665913933 0 35.471186665913933 0.13752098268014379 0 0 0 0 16.404604134564579 12.205443969005501 0 12.205443969005501 -35.856631873240985 0 0 0 0 14.720852522292262 38.990822466909776 0 38.990822466909776 -6.8761803925344793 0 0 0 0 -17.300873820588777 25.291240880773927 0 25.291240880773927 -39.733518062261282 0 0 0 0 -33.323518359429727 21.319291096131565 0 21.319291096131565 -72.478095918911094 0 0 0 0 7.1007066046768159 6.8560108382534963 0 6.8560108382534963 -67.303900356486338 0 0 0 0 3.8522264194325544 33.000447541099675 0 33.000447541099675 -47.297500633831078 0 0 0 0 7.8454810447037744 21.259649766207076 0 21.259649766207076 -100.20047592335322 0 0 0 0 7.4655812753917417 13.021215756261881 0 13.021215756261881 -72.476026190739503 0 0 0 0 3.5233282377012074 -1.3593730740503815 0 -1.3593730740503815 -99.169295195996028 0 0 0 0 -13.09819869959756 3.8624397297789983 0 3.8624397297789983 -104.70534103891714 0 0 0 0 1.7812136323882442 5.2754292685649489 0 5.2754292685649489 -105.52397599052347 0 0 0 0 -20.455363971366751 25.067953049360312 0 25.067953049360312 -143.37301187476623 0 0 0 0 34.610772625223035 23.137853306578108 0 23.137853306578108 -49.290888172297855 0 0 0 0 50.644785945787589 32.936357903818134 0 32.936357903818134 -69.266981846390991 0 0 0 0 36.694141497840974 29.723561542420612 0 29.723561542420612 -75.571429419967899 0 0 0 0 23.508057979735895 12.188384170247446 0 12.188384170247446 -73.213105236885895 0 0 0 0 20.135715503492975 15.562182893731006 0 15.562182893731006 -69.689527719317994 0 0 0 0 24.156414035336638 17.874373761731476 0 17.874373761731476 -98.006251159356907 0 0 0 0 40.709693652243004 18.703152137804864 0 18.703152137804864 -87.371236321876495 0 0 0 0 37.272307196948532 18.91281695903217 0 18.91281695903217 -68.683189177270833 0 0 0 0 33.830539334390778 8.0799786188745202 0 8.0799786188745202 -87.76999489769878 0 0 0 0 18.66145414638595 9.0982237887656083 0 9.0982237887656083 -78.823370650692596 0 0 0 0 3.9265210599696729 -12.159409669693559 0 -12.159409669693559 -94.410726644662645 0 0 0 0 24.495301781200396 7.4845164542548446 0 7.4845164542548446 -103.16114389949144 0 0 0 0 9.3760797868744703 2.9421855424807291 0 2.9421855424807291 -88.100395642952208 0 0 0 0 1.9007791494095727 -26.843673378673429 0 -26.843673378673429 -124.15925082634203 0 0 0 0 4.498700841471873 -11.726900176249273 0 -11.726900176249273 -96.592922115618421 0 0 0 0 -28.652001614162145 -59.031452022134545 0 -59.031452022134545 -103.26597814452725 0 0 0 0 -42.066063296893844 -41.323103282387819 0 -41.323103282387819 -66.163570722459554 0 0 0 0 -1.3254745240265038 -26.539402166123182 0 -26.539402166123182 -105.34330431320268 0 0 0 0 -16.075905397156021 -21.885560166956566 0 -21.885560166956566 -63.59144278216263 0 0 0 0 -7.0580933064920828 -16.99814123109536 0 -16.99814123109536 -78.15676254099526 0 0 0 0 15.260056712737423 -7.8565923926253163 0 -7.8565923926253163 -95.660504778534232 0 0 0 0 14.756246845065789 3.4121270909507189 0 3.4121270909507189 -72.754165925522102 0 0 0 0 8.808217063669872 -8.5304808276177937 0 -8.5304808276177937 -75.012685057277849 0 0 0 0 6.6470339397710632 -7.4185145528936118 0 -7.4185145528936118 -72.57593639598781 0 0 0 0 18.190930186156038 8.1207707622911585 0 8.1207707622911585 -51.520084633222723 0 0 0 0 16.507943520366098 -0.11616334754944546 0 -0.11616334754944546 -65.860332872704021 0 0 0 0 4.1655883488383552 -40.133176108756743 0 -40.133176108756743 -187.50295178217311 0 0 0 0 -14.236819468534122 47.240432591288027 0 47.240432591288027 -33.899489914933838 0 0 0 0 -14.738821690887562 1.9747900171132642 0 1.9747900171132642 28.567769047804177 0 0 0 0 -0.42707415792048664 0.44462149115979344 0 0.44462149115979344 -0.86649038963705749 0 0 0 0 4.9808314006895671 -3.9698445917738354 0 -3.9698445917738354 -160.99310264443193 0 0 0 0 -4.4372685847883986 -9.2470240983402618 0 -9.2470240983402618 -143.57693542321067 0 0 0 0 3.7595994829425763 8.510528648739637 0 8.510528648739637 -136.4237508641163 0 0 0 0 4.3461915203442913 -17.770290266700613 0 -17.770290266700613 -131.87997479399382 0 0 0 0 14.165430275621475 1.7882490611709727 0 1.7882490611709727 -118.06731835819664 0 0 0 0 8.0434256315202219 -26.155236582224461 0 -26.155236582224461 -143.17784562883753 0 0 0 0 4.0579411750950385 -10.424831646629173 0 -10.424831646629173 -122.95619877788704 0 0 0 0 -2.8685909819469089 -11.804150027739524 0 -11.804150027739524 -105.26025871101228 0 0 0 0 -5.7461673683283152 -60.924056396026572 0 -60.924056396026572 -149.16405095231448 0 0 0 0 -0.55794585570350108 -0.13261154401099695 0 -0.13261154401099695 -0.10825429005356035 0 0 0 0 -14.920332764253544 -3.9771112766757142 0 -3.9771112766757142 -3.9832865778098494 0 0 0 0 2.2977914965740638 -3.0968366824781697 0 -3.0968366824781697 -4.3643946982574562 0 0 0 0 -3.0547025214909809 -6.3950522172908677 0 -6.3950522172908677 -0.38502099993274896 0 0 0 0 -5.7438998395446106 7.4337342340277246 0 7.4337342340277246 20.808434923515961 0 0 0 0 3.5399490133022482 0.16425067779164237 0 0.16425067779164237 9.3230583321255835 0 0 0 0 2.9761119236172817 3.3938810201125307 0 3.3938810201125307 -0.50612926017129212 0 0 0 0 -1.4597720164019847 -0.64886179671520949 0 -0.64886179671520949 9.6296678294929734 0 0 0 0 -0.88269851117321707 1.1687308435826349 0 1.1687308435826349 1.1219143726726006 0 0 0 0 19.904821346789504 25.04172768254557 0 25.04172768254557 21.655962767996243 0 0 0 0 1.1412612424483086 0.61186429118401975 0 0.61186429118401975 10.999949144368657 0 0 0 0 -26.073732041098992 -14.600596974698419 0 -14.600596974698419 -37.908263195284235 0 0 0 0 -27.855399069689156 -18.469390331309114 0 -18.469390331309114 -42.324986178631661 0 0 0 0 -11.795955488028994 -4.6144176374364179 0 -4.6144176374364179 -34.22990345819926 0 0 0 0 7.9299407375510782 0.2982725754227431 0 0.2982725754227431 -46.663866795728609 0 0 0 0 8.6971668050173321 1.3509387792546477 0 1.3509387792546477 -54.255059046656243 0 0 0 0 -0.76907912937167566 -5.3040432756715745 0 -5.3040432756715745 -47.64234848527849 0 0 0 0 -0.97722180672280956 -6.6952943452852196 0 -6.6952943452852196 -50.778699670059723 0 0 0 0 -1.313446932061197 2.9861762484024439 0 2.9861762484024439 11.777239589300734 0 0 0 0 0.45935198049346582 4.4350328169307431 0 4.4350328169307431 11.167451907893337 0 0 0 0 -1.0672468908842347 4.9984554519433004 0 4.9984554519433004 23.480331810396819 0 0 0 0 -3.9220170280859747 3.2970520469971234 0 3.2970520469971234 25.554942848059 0 0 0 0 -8.1647652443607512 19.280671095137222 0 19.280671095137222 63.858669229869065 0 0 0 0 -0.96566475297004217 -3.5351060473440157 0 -3.5351060473440157 18.001975297200261 0 0 0 0 1.3708172487222328 28.158416355551708 0 28.158416355551708 23.517519867812553 0 0 0 0 3.3054567790504734 8.8690270234965283 0 8.8690270234965283 21.496272380591108 0 0 0 0 -3.4418277541080897 28.694279544496112 0 28.694279544496112 55.867824714539779 0 0 0 0 19.542459152995434 21.424672019456921 0 21.424672019456921 -0.39227283744912711 0 0 0 0 0.63801106898680615 12.367398555506504 0 12.367398555506504 -4.2627433330259681 0 0 0 0 0.026060191351689355 7.4781966183076598 0 7.4781966183076598 20.263312451230334 0 0 0 0 -3.8696093294947786 12.722977094625548 0 12.722977094625548 22.46423678283827 0 0 0 0 2.7682648654736113 3.4066557918031322 0 3.4066557918031322 -36.762498113412221 0 0 0 0 0.60471503419532624 3.4398704390775521 0 3.4398704390775521 -1.3113049741352185 0 0 0 0 34.435595753766393 17.61522497525948 0 17.61522497525948 -6.1730588050559163 0 0 0 0 -1.2403973692547794 2.147191907626385 0 2.147191907626385 0.54735139494959384 0 0 0 0 -6.6904393334034467 17.651659248149826 0 17.651659248149826 -4.1871160612936364 0 0 0 0 6.427108554111328 3.5764476739423117 0 3.5764476739423117 -39.661056735480088 0 0 0 0 14.008397527175475 10.633164872136149 0 10.633164872136149 -38.065388585033361 0 0 0 0 29.748623121191486 23.723523777440278 0 23.723523777440278 -43.497696330294275 0 0 0 0 31.078019980697718 31.963060752581441 0 31.963060752581441 -40.986978341252325 0 0 0 0 20.815475238176077 27.238855478385631 0 27.238855478385631 -9.2186861736026913 0 0 0 0 25.528337661595287 25.206809545784381 0 25.206809545784381 -8.4119585674234258 0 0 0 0 14.320293714336003 30.068025492432753 0 30.068025492432753 -3.8537477350728295 0 0 0 0 17.33865497349143 36.847529308630328 0 36.847529308630328 -30.524634614510433 0 0 0 0 10.4841599515903 27.639444200332946 0 27.639444200332946 3.1815362831039238 0 0 0 0 16.403793336161471 53.310154415814395 0 53.310154415814395 -48.460575281444108 0 0 0 0 31.045123282496206 37.758725828454772 0 37.758725828454772 -54.043855716190592 0 0 0 0 28.744567058187386 38.322800195470336 0 38.322800195470336 -30.410065327601842 0 0 0 0 48.8928265138602 43.638001072738916 0 43.638001072738916 -61.343805269576478 0 0 0 0 38.986965458894701 37.677690162416184 0 37.677690162416184 -55.868317148222559 0 0 0 0 37.380306069724611 55.342636130058509 0 55.342636130058509 -63.067796572377119 0 0 0 0 35.531001330955405 54.111361832487546 0 54.111361832487546 -50.43614284621799 0 0 0 0 22.455234299199219 8.7635481460711162 0 8.7635481460711162 -64.738827143301023 0 0 0 0 40.094741918786895 21.474792928815077 0 21.474792928815077 -69.383881855240816 0 0 0 0 28.772698914930515 19.303405052576636 0 19.303405052576636 -50.140512933136051 0 0 0 0 40.771229200603557 31.962234656239161 0 31.962234656239161 -57.336407683038715 0 0 0 0 26.736348825004825 23.710934704507963 0 23.710934704507963 -56.369794392572658 0 0 0 0 55.446204704901902 34.733256585730487 0 34.733256585730487 -69.981169073759702 0 0 0 0 37.851507228562696 26.914966742515389 0 26.914966742515389 -65.404893791932409 0 0 0 0 31.895390202847466 15.030964123290914 0 15.030964123290914 -73.289849452972703 0 0 0 0 50.248022601608682 28.730723675895206 0 28.730723675895206 -75.931899717459146 0 0 0 0 48.298176276937738 29.307536073855772 0 29.307536073855772 -64.943364281334652 0 0 0 0 50.622574433620684 43.0872103789834 0 43.0872103789834 -65.221823043066252 0 0 0 0 61.718568485030119 37.145801427581318 0 37.145801427581318 -62.054697158060662 0 0 0 0 60.746418290209476 45.415621256780923 0 45.415621256780923 -53.787040449806227 0 0 0 0 74.887439713809727 28.707677197087833 0 28.707677197087833 -40.214801716983857 0 0 0 0 68.578624813515489 35.067812688957929 0 35.067812688957929 -64.688200057003939 0 0 0 0 51.344428594673445 25.369999637793626 0 25.369999637793626 -44.130349268045393 0 0 0 0 8.3701047808099247 73.103033740901083 0 73.103033740901083 -57.641402331611971 0 0 0 0 59.476279788137617 53.254951852206432 0 53.254951852206432 -65.288484947291181 0 0 0 0 53.277519560157089 49.171099500941637 0 49.171099500941637 -56.879953407700668 0 0 0 0 72.485434721768115 54.661496127943451 0 54.661496127943451 -55.453887698644394 0 0 0 0 46.290389809295903 72.336041474584363 0 72.336041474584363 -77.62381968848058 0 0 0 0 55.453289654418768 43.720634881716478 0 43.720634881716478 -69.16739064414287 0 0 0 0 -68.037567589664832 116.80869419817009 0 116.80869419817009 -73.955871341919192 0 0 0 0 4.2590499098259897 65.240419336959349 0 65.240419336959349 -45.755972534341709 0 0 0 0 -44.256869146571262 15.665060384592834 0 15.665060384592834 -162.45456275988545 0 0 0 0 -154.9180937011779 25.18455549473947 0 25.18455549473947 -7.6193355436571437 0 0 0 0 -40.42546249559382 23.695052538030723 0 23.695052538030723 -9.4391254944557659 0 0 0 0 -47.734407706544516 22.69784650876818 0 22.69784650876818 -0.38521918184414972 0 0 0 0 -20.740310553941526 70.573419977756203 0 70.573419977756203 -40.166039833002287 0 0 0 0 -58.96457699361963 39.514843933063275 0 39.514843933063275 -4.6544579496876395 0 0 0 0 8.5958842936461224 45.972549782692113 0 45.972549782692113 -23.843055349665519 0 0 0 0 -4.3667552760343824 47.116851439697712 0 47.116851439697712 -22.362232954266801 0 0 0 0 -16.340023450937224 29.926163675504995 0 29.926163675504995 5.121997377513253 0 0 0 0 -20.467382789403928 36.631666382454569 0 36.631666382454569 -5.4774246460797258 0 0 0 0 -9.6291423913280596 13.919464333062024 0 13.919464333062024 12.564226233125737 0 0 0 0 -30.64783668515156 8.4568671335750878 0 8.4568671335750878 11.278064213973266 0 0 0 0 -4.2077662403098657 20.832044583466086 0 20.832044583466086 32.550552968573356 0 0 0 0 -8.5518730028015852 7.010983258254555 0 7.010983258254555 23.181457432734533 0 0 0 0 -1.3334008807802604 5.6331596436243636 0 5.6331596436243636 -1.851391968519188 0 0 0 0 -0.42882764067960011 6.6847764785629318 0 6.6847764785629318 -7.6658914785733856 0 0 0 0 7.2965408238669625 10.572550258471892 0 10.572550258471892 41.464841187957063 0 0 0 0 7.3964053329964372 26.826140403764839 0 26.826140403764839 5.4272437166461032 0 0 0 0 -0.93176037275406998 37.560968450651671 0 37.560968450651671 7.4204127162956866 0 0 0 0 4.1790285308998136 2.2237653157844761 0 2.2237653157844761 6.6395073393287021 0 0 0 0 2.2314922763816867 -0.32907808982963616 0 -0.32907808982963616 3.3825494481261558 0 0 0 0 3.5234079337787989 5.2757464004916983 0 5.2757464004916983 5.9789855160488514 0 0 0 0 -6.7276577107004414 1.6765810292108654 0 1.6765810292108654 14.433045887825642 0 0 0 0 0.68687321907600563 7.8241966829837111 0 7.8241966829837111 14.734266267814746 0 0 0 0 -0.45886118026464828 7.4667419546858582 0 7.4667419546858582 15.553000319457169 0 0 0 0 -13.746938552809297 -3.6641605091026577 0 -3.6641605091026577 10.52880355891466 0 0 0 0 -2.2814267222147464 -4.3697811118718164 0 -4.3697811118718164 2.69034728031329 0 0 0 0 -9.9909614875032275 -2.0570098786620292 0 -2.0570098786620292 2.850554167802045 0 0 0 0 18.299981538904831 -3.5692916284588136 0 -3.5692916284588136 -2.3753756977139346 0 0 0 0 7.9588984016481845 -3.8429080548758066 0 -3.8429080548758066 -2.0651537824451225 0 0 0 0 1.9509183803656924 -1.7146085613976538 0 -1.7146085613976538 3.5746374758891761 0 0 0 0 9.5637619975905181 3.4056792401261191 0 3.4056792401261191 -1.0549405638375902 0 0 0 0 3.6403465271232562 4.167805119759123 0 4.167805119759123 1.097230784534986 0 0 0 0 14.301938985546258 3.6237173383792651 0 3.6237173383792651 -1.5357860586263996 0 0 0 0 34.29903443489934 0.59169420654717442 0 0.59169420654717442 -11.356782349303103 0 0 0 0 31.686663767406571 -20.780360128341272 0 -20.780360128341272 -10.602321254500566 0 0 0 0 -0.63832912175803003 0.80582308849181494 0 0.80582308849181494 -3.066712198382902 0 0 0 0 78.824924504157934 -0.059261512124976434 0 -0.059261512124976434 -4.9728572544954659 0 0 0 0 -0.52733350719427108 -15.278555668586705 0 -15.278555668586705 -2.6936437228723662 0 0 0 0 -5.1284370849443803 -26.271107155354002 0 -26.271107155354002 15.754910652460239 0 0 0 0 -39.713931603687115 -20.404609094334546 0 -20.404609094334546 1.3367660707936011 0 0 0 0 -9.6232277905546653 -7.4106979545340437 0 -7.4106979545340437 -33.64815107188042 0 0 0 0 -0.70694558471950586 50.617623887730588 0 50.617623887730588 -36.460276714126849 0 0 0 0 -43.030624593255197 30.107061351124685 0 30.107061351124685 -30.480250458413138 0 0 0 0 -27.827409032524884 37.030056596524446 0 37.030056596524446 -31.482286278283141 0 0 0 0 -22.964195478771671 17.619989233680826 0 17.619989233680826 19.560647246951703 0 0 0 0 34.906211156539939 77.681705307051857 0 77.681705307051857 25.248968122643419 0 0 0 0 0.10046267688824706 0.22310559940001262 0 0.22310559940001262 -1.0963892030900553 0 0 0 0 11.740933932325788 -41.630138902545696 0 -41.630138902545696 -6.4413331097402988 0 0 0 0 158.26388555456288 23.22108411557565 0 23.22108411557565 -61.042101095681573 0 0 0 0 112.6759201851346 -62.543885227478995 0 -62.543885227478995 -71.179550339733396 0 0 0 0 -5.2637752335613559 16.584735406069264 0 16.584735406069264 -13.094038797793004 0 0 0 0 73.284175670494733 75.749312066972379 0 75.749312066972379 -20.002266480056733 0 0 0 0 -87.451548067638214 94.192711871910433 0 94.192711871910433 -6.4402003241193597 0 0 0 0 -35.023459829357307 51.34017845472863 0 51.34017845472863 -76.324129684937361 0 0 0 0 -3.446030332216651 36.943392101695053 0 36.943392101695053 -102.87775176945433 0 0 0 0 -135.06702235338344 82.615273694615098 0 82.615273694615098 -47.810593186092774 0 0 0 0 16.745565433109732 33.186814709657483 0 33.186814709657483 -0.054088408873212757 0 0 0 0 -1.0329775544235034 0.64709390059631744 0 0.64709390059631744 -0.55284026669961861 0 0 0 0 -128.01793262664069 -28.842726037614739 0 -28.842726037614739 -2.0944601456767487 0 0 0 0 16.683723714293592 41.483974932706587 0 41.483974932706587 -127.31704123453073 0 0 0 0 -23.849927947168908 -10.508550666791052 0 -10.508550666791052 -8.1840140471085761 0 0 0 0 -63.521851655224964 24.318584306568937 0 24.318584306568937 -1.9443477929307846 0 0 0 0 -67.795977197024968 -2.5918080426325787 0 -2.5918080426325787 10.587195321857507 0 0 0 0 -56.799509550535731 30.443586671617595 0 30.443586671617595 1.5598573685192605 0 0 0 0 -33.128347628047777 4.2159728273782093 0 4.2159728273782093 11.321223168791676 0 0 0 0 -31.382184989048255 9.6017104152660977 0 9.6017104152660977 2.9190864668926224 0 0 0 0 -38.557568252128476 3.8473187624767888 0 3.8473187624767888 6.7411650859207839 0 0 0 0 -41.468874880023577 8.5141750371385569 0 8.5141750371385569 9.7438429440589971 0 0 0 0 -27.946156531135784 33.486079242677988 0 33.486079242677988 15.750186410921742 0 0 0 0 10.448216491240601 38.063329444255942 0 38.063329444255942 -2.9234170129539052 0 0 0 0 39.511012224591354 7.3687523799255814 0 7.3687523799255814 -36.630860359853614 0 0 0 0 -6.8568890186956173 17.063758436438633 0 17.063758436438633 -13.141741808338821 0 0 0 0 -32.827875028535345 18.879875957851254 0 18.879875957851254 5.6412902687188762 0 0 0 0 -34.207403428836187 28.3905193280616 0 28.3905193280616 14.231619146477897 0 0 0 0 -22.853110903974084 25.525045563716958 0 25.525045563716958 8.4978272762382403 0 0 0 0 3.4350326753785794 12.087736717638109 0 12.087736717638109 -3.183659269943746 0 0 0 0 -7.356075150716606 9.5070983146315484 0 9.5070983146315484 -2.1060477722403448 0 0 0 0 22.166898770755665 22.135194668069971 0 22.135194668069971 -11.596702717144581 0 0 0 0 -5.0118409167718152 9.6723826952584187 0 9.6723826952584187 -3.2309339537080746 0 0 0 0 3.0916723725245863 2.2943521498845918 0 2.2943521498845918 -2.399428966715675 0 0 0 0 -3.6384186968361973 34.557253986748037 0 34.557253986748037 2.1634658631664934 0 0 0 0 -8.5000227145287255 10.150509868955222 0 10.150509868955222 -6.6886139165562177 0 0 0 0 1.2369011767768825 16.262825689892452 0 16.262825689892452 -20.650446954157815 0 0 0 0 -11.604859292307083 -9.7167838958484936 0 -9.7167838958484936 -7.3106432227777987 0 0 0 0 -0.37106641725360845 0.28058363875716807 0 0.28058363875716807 0.35069909230009522 0 0 0 0 -27.222015063513481 18.427822433577603 0 18.427822433577603 -5.6337880817891346 0 0 0 0 -21.282538817837121 -9.3074286616501922 0 -9.3074286616501922 2.4282098671465064 0 0 0 0 -15.982469618236792 1.4514643649581558 0 1.4514643649581558 23.365464847749536 0 0 0 0 -10.390353265305606 6.398543816300899 0 6.398543816300899 -3.9730317025776358 0 0 0 0 -33.331454974289954 30.897921930820303 0 30.897921930820303 32.585512610803562 0 0 0 0 -6.7536262415103465 7.9770314216802944 0 7.9770314216802944 -1.3417300770634029 0 0 0 0 -10.914672990609688 6.2433366590830701 0 6.2433366590830701 -2.0207509801111883 0 0 0 0 -7.5918640595524707 5.9358162204686504 0 5.9358162204686504 -3.8971488824038261 0 0 0 0 -11.028651801389827 11.592160333026115 0 11.592160333026115 -11.187839821915986 0 0 0 0 -15.626832083049521 7.7482199779242364 0 7.7482199779242364 -6.2469252563096234 0 0 0 0 -24.736348190233002 16.42133620299046 0 16.42133620299046 -6.0806083232273522 0 0 0 0 6.7462699498282745 8.6755891832599445 0 8.6755891832599445 -17.570708096246562 0 0 0 0 -7.1913251834876064 9.454999022557331 0 9.454999022557331 1.7736561082110711 0 0 0 0 0.84520954416393579 1.8027456477153834 0 1.8027456477153834 -1.4226917710693723 0 0 0 0 -8.3511886472442711 12.777214487809033 0 12.777214487809033 -7.2154917052375822 0 0 0 0 -1.5361899672625015 8.7846660640366565 0 8.7846660640366565 -5.6371726000123843 0 0 0 0 -0.035211266063924995 8.9534353690351054 0 8.9534353690351054 -3.0072394855205857 0 0 0 0 27.008037141336672 7.3233375232007347 0 7.3233375232007347 -27.113198497665508 0 0 0 0 12.56851706438556 16.588004043584988 0 16.588004043584988 -7.7825502811724618 0 0 0 0 18.500770822789946 8.151859404316383 0 8.151859404316383 -5.7381517068552057 0 0 0 0 10.914529442181975 -0.007089848507959573 0 -0.007089848507959573 -1.6590219428415338 0 0 0 0 21.797085451296198 -7.3557341490709405 0 -7.3557341490709405 -14.706345185342798 0 0 0 0 15.866696822261019 7.0131675713021195 0 7.0131675713021195 -6.4248667882347945 0 0 0 0 2.0114329624275342 2.3384260487364372 0 2.3384260487364372 2.6375699704894942 0 0 0 0 10.862250959160519 5.9017952531194169 0 5.9017952531194169 -16.04266804245708 0 0 0 0 0.7585822370262969 2.9276502195446863 0 2.9276502195446863 -5.4763565448898532 0 0 0 0 3.4299561578491193 3.9604797145457269 0 3.9604797145457269 -8.3924923501454032 0 0 0 0 -1.3228928311514672 2.77153503100363 0 2.77153503100363 -4.5182160062492898 0 0 0 0 1.4290738496579252 7.3835098103195378 0 7.3835098103195378 -3.5421748572262004 0 0 0 0 1.1918586646424956 2.6840743508000742 0 2.6840743508000742 -7.6459211768451496 0 0 0 0 0.83897347477872586 0.74309900211306967 0 0.74309900211306967 -1.2056556439671056 0 0 0 0 0.19755322768961037 0.18546824020761576 0 0.18546824020761576 -0.24410287309825307 0 0 0 0 9.508431067436959 -11.653623761695144 0 -11.653623761695144 -16.204093573313003 0 0 0 0 -14.925835987711253 -3.4263783627066005 0 -3.4263783627066005 9.6670721855025477 0 0 0 0 62.882138671749999 8.0821324185853882 0 8.0821324185853882 10.021178621357649 0 0 0 0 47.778521300981993 69.645142822676917 0 69.645142822676917 79.782584858319751 0 0 0 0 59.635536669304201 -18.34045067142506 0 -18.34045067142506 -7.5407056757176179 0 0 0 0 0.53735379246111847 0.41206747185866632 0 0.41206747185866632 -0.0011074672365207761 0 0 0 0 2.9122598933699919 3.6883270823163912 0 3.6883270823163912 19.192151180661313 0 0 0 0 19.665297947067302 5.3163667684711982 0 5.3163667684711982 -5.4060528672659984 0 0 0 0 2.7644491226092214 0.51975777228653897 0 0.51975777228653897 -6.8706572721021075 0 0 0 0 -9.2677852133438137 11.116224153176063 0 11.116224153176063 -5.8485800087528332 0 0 0 0 -7.7643278938221556 -1.2218902363183588 0 -1.2218902363183588 1.4907244222363261 0 0 0 0 1.2403706818804423 0.92334000302671626 0 0.92334000302671626 -0.54562723630401866 0 0 0 0 -1.3762900166574976 2.5734076905299084 0 2.5734076905299084 -0.40969940510942848 0 0 0 0 -0.1355505931385359 3.028019714926856 0 3.028019714926856 -2.5601794083431528 0 0 0 0 0.98401639746043656 2.7100748074662988 0 2.7100748074662988 0.56498934693809133 0 0 0 0 -1.4573936222082438 3.6247773745815977 0 3.6247773745815977 -1.9112577585212307 0 0 0 0 15.742876624910423 13.522024711754057 0 13.522024711754057 4.6687384494180151 0 0 0 0 0.084234010925940517 -0.23657662598133555 0 -0.23657662598133555 -0.12465958163208057 0 0 0 0 12.5405168352072 14.660818182696858 0 14.660818182696858 17.407878656797038 0 0 0 0 31.38008332413574 18.101813842321462 0 18.101813842321462 0.035936700869569904 0 0 0 0 65.896125511320861 44.366669283896499 0 44.366669283896499 17.69671950628981 0 0 0 0 65.426790917350445 41.630735698592616 0 41.630735698592616 16.03767541929119 0 0 0 0 10.523372342538096 22.467210198218254 0 22.467210198218254 34.727222818135488 0 0 0 0 -0.13568316719576146 0.49722074045924458 0 0.49722074045924458 -0.35970873002478854 0 0 0 0 -40.62874116571038 7.3478107130467833 0 7.3478107130467833 -7.3619552746786212 0 0 0 0 -21.341617693562512 28.477098203259629 0 28.477098203259629 -69.009286811771744 0 0 0 0 -47.405875630916853 34.703498121769371 0 34.703498121769371 -3.7913286912043986 0 0 0 0 21.866634621332196 -10.966836725920075 0 -10.966836725920075 -40.435885754939591 0 0 0 0 -139.94255823035928 110.44418510666219 0 110.44418510666219 -65.75566958955892 0 0 0 0 -1.558247052882507 18.786859106839984 0 18.786859106839984 -0.10870527881161252 0 0 0 0 -9.8053564625142826 11.733976432190502 0 11.733976432190502 -3.8808868108135357 0 0 0 0 -0.25640736264267616 1.2594853097243686 0 1.2594853097243686 -0.7162569709798845 0 0 0 0 -0.54522488644193778 -0.10184655968218337 0 -0.10184655968218337 0.19868589362230438 0 0 0 0 -1.9749593971140698 2.0720409199028005 0 2.0720409199028005 -0.91023713251983307 0 0 0 0 -4.5041350608880748 4.3052129628831608 0 4.3052129628831608 -2.1689395126284126 0 0 0 0 -0.66111837412245222 1.6453296496947587 0 1.6453296496947587 -0.64565601125468675 0 0 0 0 -0.88840713815660521 1.3598690072313495 0 1.3598690072313495 -0.6498181835312522 0 0 0 0 -3.5956613893631584 4.59007559400834 0 4.59007559400834 -3.8549035895885027 0 0 0 0 -7.1866645284717379 -9.0095573227772547 0 -9.0095573227772547 -2.5981899520920706 0 0 0 0 -24.860569189433591 1.359551272191311 0 1.359551272191311 17.82348575335709 0 0 0 0 0.084326845715622767 2.9632995433621545 0 2.9632995433621545 -0.55017555888298375 0 0 0 0 -2.1540245329054954 2.597824486100393 0 2.597824486100393 0.025401804075600554 0 0 0 0 -2.303517333803029 2.613907686114544 0 2.613907686114544 14.509577469791111 0 0 0 0 26.691466713054069 -1.5785754631715463 0 -1.5785754631715463 -0.98958343144477112 0 0 0 0 -1.9252322949841432 1.4299725210099616 0 1.4299725210099616 0.53205693510228969 0 0 0 0 -43.703820116192219 -10.520977766471333 0 -10.520977766471333 10.352863403340962 0 0 0 0 2.0516758956946433 3.3782745300886745 0 3.3782745300886745 -0.91540838825676474 0 0 0 0 -0.6383250087259853 0.52752536677122919 0 0.52752536677122919 0.23412103536660567 0 0 0 0 0.55452427611817257 4.6216957912693033 0 4.6216957912693033 -0.0056406116127618589 0 0 0 0 -7.3638504071554962 5.379682951875111 0 5.379682951875111 -0.72439848192152567 0 0 0 0 -7.7744042973936303 4.078388346315478 0 4.078388346315478 -1.778927232492606 0 0 0 0 -5.3631762706263544 9.0287124569867956 0 9.0287124569867956 -1.0560671398307022 0 0 0 0 2.2633735445360799 2.9847517719044845 0 2.9847517719044845 -3.4869086812377645 0 0 0 0 -10.366895211677729 12.670952654107623 0 12.670952654107623 -10.890187167566182 0 0 0 0 -14.390014671015706 7.0007649281474187 0 7.0007649281474187 -2.6235026607209875 0 0 0 0 -12.864444073027698 5.219639301103598 0 5.219639301103598 -5.3545510667099734 0 0 0 0 11.028392865837759 0.14794355032245221 0 0.14794355032245221 -8.1335501153007499 0 0 0 0 -0.041213593526425285 -0.095933410084647619 0 -0.095933410084647619 0.29987477741229185 0 0 0 0 -147.70004191451517 77.226833607717708 0 77.226833607717708 -8.2090822286099865 0 0 0 0 -162.00410872651537 20.885108090133144 0 20.885108090133144 38.41160878980736 0 0 0 0 -84.873452437495871 -44.718324526924334 0 -44.718324526924334 58.267058163565252 0 0 0 0 -209.57230213617549 58.517103062426031 0 58.517103062426031 83.809636310579435 0 0 0 0 -326.7327856280026 108.01441680253993 0 108.01441680253993 50.197290939926461 0 0 0 0 -203.13384357437144 76.684290975464364 0 76.684290975464364 -14.115128899564297 0 0 0 0 -588.07363512548818 109.52269489334049 0 109.52269489334049 70.520314721868999 0 0 0 0 -1.3861300865901285 4.9185078403315856 0 4.9185078403315856 0.27624605746132147 0 0 0 0 -0.78629742068874975 4.0155201327261452 0 4.0155201327261452 -0.43821471906303344 0 0 0 0 0.24444004405631858 9.9618583391579705 0 9.9618583391579705 -104.5210638314511 0 0 0 0 -2.4623803197710004 3.9977728272442619 0 3.9977728272442619 0.85337704527046299 0 0 0 0 -1.5679679040022165 3.1868807823502721 0 3.1868807823502721 0.15340199212550942 0 0 0 0 -12.526447251544596 4.0209519141717465 0 4.0209519141717465 18.38367037660646 0 0 0 0 63.524548304991185 27.869383524470322 0 27.869383524470322 -9.1991397329074971 0 0 0 0 -20.219345438526943 42.504295701040974 0 42.504295701040974 -9.2405068824227783 0 0 0 0 -67.403299963403697 5.8721150361270702 0 5.8721150361270702 21.540992042182552 0 0 0 0 -49.681166708185629 258.15117760308931 0 258.15117760308931 -220.93455990840084 0 0 0 0 82.671033256561827 -43.316922803449984 0 -43.316922803449984 -168.48154584929944 0 0 0 0 -1.4141442725438205 1.0764217077244247 0 1.0764217077244247 0.36315793624402914 0 0 0 0 -4.6606803697123738 1.3013708499013354 0 1.3013708499013354 0.46898487483253737 0 0 0 0 -184.18133441479222 252.04784568806281 0 252.04784568806281 -477.49788512485065 0 0 0 0 -288.22055901364456 -145.87031814509282 0 -145.87031814509282 7.4789495884197095 0 0 0 0 -430.5930071987168 412.77265748662285 0 412.77265748662285 -267.94982252472619 0 0 0 0 -715.75913971759746 310.42720781948049 0 310.42720781948049 -22.869005718992412 0 0 0 0 -384.97646805502609 186.1836082700911 0 186.1836082700911 -0.12025438881209993 0 0 0 0 -125.68733531897306 113.06890662406295 0 113.06890662406295 -111.44773668425773 0 0 0 0 91.093354710825224 6.0482565811289533 0 6.0482565811289533 -67.776559301204543 0 0 0 0 -129.36421475079806 146.16312086819562 0 146.16312086819562 -113.65676628413712 0 0 0 0 -386.52042582483637 247.76381108672012 0 247.76381108672012 -103.57587152508495 0 0 0 0 -103.46991478019845 161.42319425863025 0 161.42319425863025 -108.27231799434844 0 0 0 0 -381.2390393243204 273.26597449507608 0 273.26597449507608 -137.73703835185552 0 0 0 0 -711.61436137950432 153.22005116015913 0 153.22005116015913 -67.499370488298155 0 0 0 0 -573.66742041206817 249.67927048020283 0 249.67927048020283 -0.19569257614190502 0 0 0 0 -400.65116245611534 355.05398512965075 0 355.05398512965075 -237.05654627455533 0 0 0 0 -477.5316354900624 182.42574733646779 0 182.42574733646779 -275.00556614511879 0 0 0 0 -379.1594707677159 307.38154361930719 0 307.38154361930719 -124.6533229313045 0 0 0 0 -357.7868048807037 340.62979255668023 0 340.62979255668023 -134.22761795886254 0 0 0 0 -356.56052141160944 285.57332989408951 0 285.57332989408951 -141.05866996647637 0 0 0 0 -522.28873994926653 369.16200181261593 0 369.16200181261593 -102.10316531979151 0 0 0 0 -459.93712950269037 286.09784412874251 0 286.09784412874251 -17.38711876823254 0 0 0 0 -278.52828059346575 196.29296996034827 0 196.29296996034827 -11.776400368044051 0 0 0 0 -301.12392381692985 225.13413555794432 0 225.13413555794432 -37.852524093981629 0 0 0 0 -343.96794059026206 286.64899114563059 0 286.64899114563059 -87.342489141043188 0 0 0 0 -273.73866558228201 283.27626933723786 0 283.27626933723786 -142.99619796392653 0 0 0 0 -197.61792733528819 188.87456285908138 0 188.87456285908138 -61.879800533522939 0 0 0 0 -297.262034073412 228.94338069574951 0 228.94338069574951 -103.63471904351536 0 0 0 0 -95.16176254313541 116.7645287863179 0 116.7645287863179 -127.07317410964242 0 0 0 0 -37.06710157087582 14.69511487951786 0 14.69511487951786 -61.637163116245574 0 0 0 0 -210.03996137361355 158.23210883815591 0 158.23210883815591 -45.477945411774272 0 0 0 0 -192.26578641951122 170.10436484874546 0 170.10436484874546 -69.724086073754734 0 0 0 0 -191.8599067162919 85.804709283183882 0 85.804709283183882 5.9581802446955408 0 0 0 0 -37.110850014738389 43.01735525539334 0 43.01735525539334 -36.960178885328787 0 0 0 0 -59.151494944791921 21.523448404364899 0 21.523448404364899 -14.385012586360972 0 0 0 0 -18.060785833580439 43.006494118987803 0 43.006494118987803 -20.289319247232925 0 0 0 0 -72.074106026469963 78.104808980770031 0 78.104808980770031 -65.035882853941075 0 0 0 0 -0.2533067158759903 3.8335063618006622 0 3.8335063618006622 -4.0658497817197272 0 0 0 0 27.998363228085509 1.1920172104182711 0 1.1920172104182711 -6.0926217957385234 0 0 0 0 1.4598855223503051 4.9040616184420287 0 4.9040616184420287 6.1547582019848051 0 0 0 0 38.463731354399897 13.398937038165514 0 13.398937038165514 -39.729861679534224 0 0 0 0 -1.6550449982460123 -38.323425993048659 0 -38.323425993048659 -11.648299874821532 0 0 0 0 -0.091479930456484837 -0.12407177431161287 0 -0.12407177431161287 0.14391073825857603 0 0 0 0 5.3258682591640536 -5.8217841965006301 0 -5.8217841965006301 6.3095278223299829 0 0 0 0 -16.788570618598897 3.7474739666831738 0 3.7474739666831738 22.684562303100392 0 0 0 0 -1.0574142530895188 7.4735344061555224 0 7.4735344061555224 -10.306471319076081 0 0 0 0 17.336655499590051 21.622650153085488 0 21.622650153085488 -16.017747000187228 0 0 0 0 -27.975385476849624 -1.863116016760614 0 -1.863116016760614 38.31466086518958 0 0 0 0 -18.508144860756147 40.781202627751554 0 40.781202627751554 24.662436794329551 0 0 0 0 -54.723241680641877 20.990845552893006 0 20.990845552893006 -23.077729663509672 0 0 0 0 -25.1246288998409 -4.6057205624965718 0 -4.6057205624965718 4.048399156472442 0 0 0 0 1.2621781197813107 -28.152374816658266 0 -28.152374816658266 0.39823560283184634 0 0 0 0 -1.8259826592548052 1.9794808036185714 0 1.9794808036185714 -28.432305009576339 0 0 0 0 -51.712971193915109 26.812721435546337 0 26.812721435546337 -12.644540369645256 0 0 0 0 -6.8356049576750593 2.8694439716869056 0 2.8694439716869056 33.378397540718652 0 0 0 0 -23.043275267900754 -21.154841970982488 0 -21.154841970982488 5.8655590776725148 0 0 0 0 18.908228882409276 -14.806270690794918 0 -14.806270690794918 -5.1143759125625365 0 0 0 0 -7.4857496582571912 3.0192514858176764 0 3.0192514858176764 13.072279693932614 0 0 0 0 -11.230335717184062 -4.5417603793086982 0 -4.5417603793086982 -2.0013455788212013 0 0 0 0 -1.6192208955188971 0.65928552073656022 0 0.65928552073656022 3.1483150256594925 0 0 0 0 -6.0594069951190335 2.5632397211457629 0 2.5632397211457629 0.34827170746163105 0 0 0 0 -1.6489301532765239 6.0340885416317178 0 6.0340885416317178 3.2708006819266302 0 0 0 0 -1.6335487841006398 5.9176171219232856 0 5.9176171219232856 3.854278788470765 0 0 0 0 27.678716554041785 31.909904451798411 0 31.909904451798411 26.627847135989214 0 0 0 0 4.2655113904947939 -34.718707960973006 0 -34.718707960973006 -29.2014885629942 0 0 0 0 74.744180080519072 15.819858534634477 0 15.819858534634477 -69.569503482063737 0 0 0 0 -2.8020008581261209 152.38761406420417 0 152.38761406420417 -334.74585473544721 0 0 0 0 -70.994026258413214 29.04308382823865 0 29.04308382823865 -16.869737208824517 0 0 0 0 -48.900411340589926 52.41272375387598 0 52.41272375387598 3.3207667090009636 0 0 0 0 -7.9850657102251716 42.499513540810767 0 42.499513540810767 -39.648901731625301 0 0 0 0 -5.1390072704977356 2.0666571526682702 0 2.0666571526682702 -0.68224082959898347 0 0 0 0 -282.43404334500337 270.18618982780026 0 270.18618982780026 -271.05131533383519 0 0 0 0 -371.16546623503018 191.94355978210842 0 191.94355978210842 -240.81694239039552 0 0 0 0 -439.52301529193846 314.20490916819017 0 314.20490916819017 -192.44227864683307 0 0 0 0 -114.09816679843061 265.84598856256889 0 265.84598856256889 -439.46019583260113 0 0 0 0 -2.2078847886344377 1.0461508850794949 0 1.0461508850794949 -0.44070263309932756 0 0 0 0 -159.06123503440176 29.934955041730063 0 29.934955041730063 127.05041931982669 0 0 0 0 -548.18264219652974 325.3542952607113 0 325.3542952607113 -221.30299591951734 0 0 0 0 -1.1322573600638606 0.88214312960900632 0 0.88214312960900632 -0.50816134758784415 0 0 0 0 -471.63967342099932 306.59559064286259 0 306.59559064286259 -91.745382019586032 0 0 0 0 -43.791559228582628 50.982331767164851 0 50.982331767164851 -98.689390643658044 0 0 0 0 -255.64074628997696 299.40149338559513 0 299.40149338559513 -89.913642959225399 0 0 0 0 -241.76201913540172 253.58072196210742 0 253.58072196210742 -174.10979258017323 0 0 0 0 -259.81652746494547 319.04720847372903 0 319.04720847372903 -116.20081210224271 0 0 0 0 -168.18753318915878 315.12186538822516 0 315.12186538822516 -189.04829133797557 0 0 0 0 -95.025639240491728 317.63173548925442 0 317.63173548925442 -155.47212362842856 0 0 0 0 -183.78195527713751 347.02322869299383 0 347.02322869299383 -161.16174657465854 0 0 0 0 -174.50481884333021 293.29658527796983 0 293.29658527796983 -232.03194660755344 0 0 0 0 -317.94432427466018 316.82643629364975 0 316.82643629364975 -174.554506924419 0 0 0 0 -328.97399589833975 350.37959654022472 0 350.37959654022472 -239.52921973629782 0 0 0 0 -338.82716578073598 221.23513833970327 0 221.23513833970327 -216.99406548135994 0 0 0 0 -195.34640849418565 324.77412973504238 0 324.77412973504238 -139.82445028886468 0 0 0 0 -0.28846810897463526 1.9995800731263174 0 1.9995800731263174 -1.1813916171550147 0 0 0 0 -866.31875845191644 254.43541410203579 0 254.43541410203579 -40.272991234878646 0 0 0 0 -497.59024530625538 391.79422070860528 0 391.79422070860528 -224.17677601390005 0 0 0 0 -433.31225922289104 263.88543731416667 0 263.88543731416667 -149.85808194283709 0 0 0 0 -376.74926138002229 258.45996499484318 0 258.45996499484318 -155.38721738890308 0 0 0 0 -387.45408486504675 296.99081112537442 0 296.99081112537442 -104.36513875231867 0 0 0 0 -395.41890980874996 234.4580686376994 0 234.4580686376994 -216.16315248913816 0 0 0 0 -408.985990713413 277.86699785307633 0 277.86699785307633 -137.71404116047597 0 0 0 0 -307.91447906575922 262.96108061725045 0 262.96108061725045 -205.11849676352358 0 0 0 0 -336.35734047180995 274.12274161704772 0 274.12274161704772 -76.487232099460016 0 0 0 0 -338.82725416770518 288.02374798955498 0 288.02374798955498 -154.42386676729893 0 0 0 0 -331.15062923472851 308.75273999207684 0 308.75273999207684 -105.20718811272855 0 0 0 0 -341.67138586934198 314.02700876513518 0 314.02700876513518 -93.799304709501484 0 0 0 0 -331.96101459880265 299.88120580757732 0 299.88120580757732 -109.16010554687637 0 0 0 0 -380.59300531803274 281.91717673338326 0 281.91717673338326 -69.775593010066586 0 0 0 0 -305.71122869311239 262.94282190374224 0 262.94282190374224 -93.285331238588697 0 0 0 0 -264.67385852424559 234.98637269343089 0 234.98637269343089 -75.433476079897446 0 0 0 0 -337.67111853452116 311.52600064278067 0 311.52600064278067 -92.806409924291529 0 0 0 0 -319.18456168528246 308.2814118998067 0 308.2814118998067 -142.06095314483719 0 0 0 0 -305.82180219283146 295.4694319937098 0 295.4694319937098 -162.3970707061153 0 0 0 0 -263.22951061898607 271.11004947683512 0 271.11004947683512 -169.61192316262532 0 0 0 0 -308.05950406344346 288.81485131914906 0 288.81485131914906 -125.18845947789305 0 0 0 0 -219.3918798712275 252.01483004458896 0 252.01483004458896 -143.62235459648764 0 0 0 0 -259.98652576239328 254.34505503409855 0 254.34505503409855 -134.38796699732848 0 0 0 0 -167.57737191962769 299.97701149925706 0 299.97701149925706 -348.69089301357235 0 0 0 0 -11.11314384295838 26.335567555732268 0 26.335567555732268 67.232356609809358 0 0 0 0 0.060855698304813188 0.82680288713213557 0 0.82680288713213557 0.13053011253985858 0 0 0 0 -105.9948688286222 192.60300394524347 0 192.60300394524347 -255.85929943699375 0 0 0 0 -189.32443668405176 463.18256622980698 0 463.18256622980698 0.32366065393419774 0 0 0 0 -319.49277300192443 366.70892447813821 0 366.70892447813821 -16.312481463013 0 0 0 0 -234.37369713523185 311.72453983222476 0 311.72453983222476 -182.73606817362452 0 0 0 0 -1.5263502777335418 3.5995765279767937 0 3.5995765279767937 -4.5523608471030457 0 0 0 0 -1.6729402044813653 0.93315290691335306 0 0.93315290691335306 -0.035751640577160515 0 0 0 0 6.4425435050725355 -7.0642947991254914 0 -7.0642947991254914 0.12661004821623645 0 0 0 0 -97.712422846447225 43.694969946945093 0 43.694969946945093 -9.5723306579934615 0 0 0 0 -32.746447549461664 76.645939406019352 0 76.645939406019352 -143.86281074214639 0 0 0 0 0.89193336615358021 2.4892230098462527 0 2.4892230098462527 -0.066839996387322742 0 0 0 0 -216.83358321236778 185.56596781809358 0 185.56596781809358 -65.596416746895557 0 0 0 0 -35.632729164282864 66.948936314675848 0 66.948936314675848 -93.197180306260634 0 0 0 0 15.452159915473885 44.614281982096117 0 44.614281982096117 59.248365744148032 0 0 0 0 -0.64220934176837141 5.34001018592053 0 5.34001018592053 -2.0696662914198782 0 0 0 0 -0.21204467649308179 4.4542975855816778 0 4.4542975855816778 -2.4193654032563003 0 0 0 0 -305.2600221527282 151.28383409116577 0 151.28383409116577 -53.769211602766518 0 0 0 0 242.0511623036287 109.8017603300639 0 109.8017603300639 1.4973952724230912 0 0 0 0 -206.16875616409834 58.499335100051212 0 58.499335100051212 15.733426268850053 0 0 0 0 -269.07194802267622 225.00470702813345 0 225.00470702813345 -94.869314505562215 0 0 0 0 -403.76506056939274 135.37292062041877 0 135.37292062041877 -13.749220462628728 0 0 0 0 -376.2077822959327 299.17434666008467 0 299.17434666008467 -108.15061378324572 0 0 0 0 -176.18822293328049 153.30794700655997 0 153.30794700655997 -0.28926853658822438 0 0 0 0 85.513025357347942 175.60079549557486 0 175.60079549557486 66.627558300684314 0 0 0 0 -17.48662079232372 184.50463803439584 0 184.50463803439584 123.34349045787894 0 0 0 0 21.100115428165736 126.70988430384728 0 126.70988430384728 59.12597442711558 0 0 0 0 -26.087286102672806 170.34876432559304 0 170.34876432559304 56.889506657534753 0 0 0 0 38.696960423159908 76.99883886374937 0 76.99883886374937 0.47488363431511971 0 0 0 0 20.773431168287061 44.562608902365355 0 44.562608902365355 52.385654552999767 0 0 0 0 43.581273876730393 98.696454798602872 0 98.696454798602872 85.069150004197581 0 0 0 0 -0.054213085579711162 0.57054170619556288 0 0.57054170619556288 0.45756154648800873 0 0 0 0 -39.683067466971806 26.721273576508111 0 26.721273576508111 510.60919889041361 0 0 0 0 16.593793687719881 170.36909242232468 0 170.36909242232468 -56.231518216305631 0 0 0 0 11.379266321611794 24.413975144783763 0 24.413975144783763 85.44309734988525 0 0 0 0 -5.4952593076995981 2.2799865177063872 0 2.2799865177063872 0.95272612502489018 0 0 0 0 -45.812176835351153 76.00672344116191 0 76.00672344116191 -127.95605593290202 0 0 0 0 -201.94188371053133 484.18031657896972 0 484.18031657896972 -239.91598673595217 0 0 0 0 0.58512997221896512 357.47081062873485 0 357.47081062873485 -296.69070233987622 0 0 0 0 -64.953234886703285 -5.8363625543051967 0 -5.8363625543051967 476.08797302038511 0 0 0 0 -1.6133123844772399 0.96231698206529614 0 0.96231698206529614 0.43790374831897694 0 0 0 0 -0.10717489647738176 0.71694271016771793 0 0.71694271016771793 0.34341122794445766 0 0 0 0 -172.80732197348152 345.43065284086788 0 345.43065284086788 -162.19482249810426 0 0 0 0 -45.758858421948389 138.93665851885999 0 138.93665851885999 370.54545071826624 0 0 0 0 -44.840392659385543 120.35190745090313 0 120.35190745090313 54.294414699008485 0 0 0 0 -4.3972650131745468 222.86264345551217 0 222.86264345551217 94.46386034361467 0 0 0 0 0.041144908231217414 250.94936143002224 0 250.94936143002224 158.58375982660164 0 0 0 0 2.528241169939065 195.7260110695388 0 195.7260110695388 91.656154929330114 0 0 0 0 -0.0047690481196914275 253.02191387723988 0 253.02191387723988 13.876031003817843 0 0 0 0 4.7206504772238986 201.53098231772856 0 201.53098231772856 -39.484681523697873 0 0 0 0 33.326019679611818 242.76518755952338 0 242.76518755952338 -128.37112138572957 0 0 0 0 60.027747005855417 213.60662703487878 0 213.60662703487878 -7.4543015470098908 0 0 0 0 93.38231265361901 146.57828619191332 0 146.57828619191332 72.095015095168037 0 0 0 0 540.79846173736541 221.13514377918011 0 221.13514377918011 -119.2950845940195 0 0 0 0 -7.9072240840578161 373.85182245133728 0 373.85182245133728 -161.79085791783291 0 0 0 0 21.515569181823594 213.86618642236772 0 213.86618642236772 -7.3514937574196892 0 0 0 0 103.28478588424514 275.71271444042532 0 275.71271444042532 -196.32788579599401 0 0 0 0 -49.044236855948839 302.88437739585424 0 302.88437739585424 -156.35627593650179 0 0 0 0 -61.238758302679344 339.35106233308488 0 339.35106233308488 -197.47421047856642 0 0 0 0 -94.635815299989076 305.77532171059426 0 305.77532171059426 -176.09888067814609 0 0 0 0 -4.6282205066588631 256.81891328073084 0 256.81891328073084 -181.77229684690246 0 0 0 0 -25.823049864344284 324.28938254279183 0 324.28938254279183 -188.65621200921214 0 0 0 0 5.6475014171264775 226.17145559034088 0 226.17145559034088 -177.02809446200217 0 0 0 0 0.027930251487283186 255.8672737761257 0 255.8672737761257 -117.90813569685088 0 0 0 0 -17.69108898363811 269.11779240969599 0 269.11779240969599 -128.21050429037859 0 0 0 0 -3.6397158936004956 2.3724471838964902 0 2.3724471838964902 -1.4202965604336235 0 0 0 0 -16.010507060861073 19.518983932626725 0 19.518983932626725 26.448423005007498 0 0 0 0 3.9180657390074884 16.153547771347803 0 16.153547771347803 15.97636768438224 0 0 0 0 5.8962207501713237 23.065615893939139 0 23.065615893939139 22.485189802122477 0 0 0 0 43.724140730452746 22.443193792629245 0 22.443193792629245 14.40633925477232 0 0 0 0 24.019934098157592 25.298482290771062 0 25.298482290771062 14.033272510740744 0 0 0 0 -17.412144290983633 5.2213790187197446 0 5.2213790187197446 11.859935541180676 0 0 0 0 -60.274326035514605 8.7670687919671764 0 8.7670687919671764 13.250328331159835 0 0 0 0 -6.802796354160364 10.465908963469701 0 10.465908963469701 3.4363425619922054 0 0 0 0 73.820261322960505 55.795063285540891 0 55.795063285540891 13.725390804454946 0 0 0 0 -2.2472468419591545 4.63407391559746 0 4.63407391559746 1.3613036082505232 0 0 0 0 -17.635918154313913 2.1849815942059649 0 2.1849815942059649 14.806283556822564 0 0 0 0 1.9802125622272797 37.171281651879326 0 37.171281651879326 45.922074873833481 0 0 0 0 12.857488371154886 42.106033003749872 0 42.106033003749872 -90.979275213748679 0 0 0 0 39.162185692630601 0.3318141060221933 0 0.3318141060221933 3.1316216937739227 0 0 0 0 -1.312112511696073 0.75049324336460543 0 0.75049324336460543 -0.39069519677047282 0 0 0 0 171.17208082767479 100.74629976741653 0 100.74629976741653 -204.90763816417893 0 0 0 0 -1.6461392864354671 4.0468532273408551 0 4.0468532273408551 0.50942317627120559 0 0 0 0 29.586041247921457 -7.41572644536609 0 -7.41572644536609 128.92290138768658 0 0 0 0 -11.672807210759856 -5.5104410788471796 0 -5.5104410788471796 -1.5727601409125782 0 0 0 0 30.322905390810888 43.798249976953684 0 43.798249976953684 71.300256385980902 0 0 0 0 89.28500158881252 -43.162719787893366 0 -43.162719787893366 90.107024953716518 0 0 0 0 0.11848494069791293 -0.50392895309137042 0 -0.50392895309137042 -0.26555004093884804 0 0 0 0 -310.74975900854042 80.797299409721745 0 80.797299409721745 -31.504251115988154 0 0 0 0 14.574261179723408 94.475280720992941 0 94.475280720992941 -63.286377936548888 0 0 0 0 45.137573201055886 105.86794899836923 0 105.86794899836923 -59.67298264180863 0 0 0 0 49.731963034419095 44.484217970311875 0 44.484217970311875 -5.8415653751253558 0 0 0 0 72.973164426882249 41.849850890728703 0 41.849850890728703 -20.339651757207321 0 0 0 0 -58.027028721789065 83.695046713385636 0 83.695046713385636 -25.576065815736001 0 0 0 0 15.300916139776518 23.203202809672348 0 23.203202809672348 3.9436473550122173 0 0 0 0 -16.023035405153678 19.535769670927493 0 19.535769670927493 26.506991490537985 0 0 0 0 -19.627573353675189 18.148148794080498 0 18.148148794080498 67.617886857944541 0 0 0 0 3.9864421441698141 22.977433946021847 0 22.977433946021847 24.939599635834384 0 0 0 0 8.4295125091084628 13.882025088617411 0 13.882025088617411 8.7452382972624036 0 0 0 0 5.6835336337908302 8.2828662210786206 0 8.2828662210786206 -2.3162337531684898 0 0 0 0 -7.2647090616387686 -0.57535166669731552 0 -0.57535166669731552 9.4136150845442899 0 0 0 0 29.587421856333094 27.686467925469515 0 27.686467925469515 6.6125075839727288 0 0 0 0 9.156781357269665 -18.408204909942469 0 -18.408204909942469 39.373078855778658 0 0 0 0 0.32839612053913925 0.23138971579519563 0 0.23138971579519563 1.147215296218377 0 0 0 0 -8.5416794618955691 0.76261179330685991 0 0.76261179330685991 1.9682001031105756 0 0 0 0 -11.217201800925594 4.0993313009357735 0 4.0993313009357735 1.6764003614334797 0 0 0 0 -1.0241618227942189 1.6213353614404369 0 1.6213353614404369 2.7496133435897718 0 0 0 0 -10.572411778762671 -0.70916697054144606 0 -0.70916697054144606 5.2388874074040359 0 0 0 0 -4.6011427303205892 -1.5295043067244478 0 -1.5295043067244478 3.2450187074709902 0 0 0 0 2.9374454312301168 -3.6465649400070106 0 -3.6465649400070106 5.0588877401305581 0 0 0 0 -32.555490272791531 3.5592564886064793 0 3.5592564886064793 16.993868513713096 0 0 0 0 -26.203275153898403 22.356914505014629 0 22.356914505014629 21.114794025550509 0 0 0 0 -17.979498495687899 10.985628778143422 0 10.985628778143422 -3.1750892758354894 0 0 0 0 -11.529696873031298 20.902785876503913 0 20.902785876503913 14.087028068606742 0 0 0 0 -17.937279749888731 9.0859311217790264 0 9.0859311217790264 40.994542216230911 0 0 0 0 -15.533273886620464 24.715979292532211 0 24.715979292532211 19.486423991518677 0 0 0 0 -17.623717818063255 17.855280666387898 0 17.855280666387898 7.7672256274963729 0 0 0 0 0.26580118675622511 3.4119359981019257 0 3.4119359981019257 6.8561940629565399 0 0 0 0 2.6684623169468527 5.0050528886098142 0 5.0050528886098142 6.9488959947230668 0 0 0 0 -7.9238911403039083 4.6915165708824134 0 4.6915165708824134 -1.0771499716029211 0 0 0 0 -2.8619957925266135 39.341523494395915 0 39.341523494395915 50.535995071148136 0 0 0 0 -12.007969640132274 25.997830961895261 0 25.997830961895261 80.695265218188069 0 0 0 0 39.311695501188296 51.756972383054745 0 51.756972383054745 1.795356454251305 0 0 0 0 -5.8560715908197807 4.0786580940517076 0 4.0786580940517076 -3.1585208501174193 0 0 0 0 1.7445088839449454 -44.008448768107883 0 -44.008448768107883 17.661375835983108 0 0 0 0 9.2156100613919989 17.03130330226395 0 17.03130330226395 9.4215022232465344 0 0 0 0 -0.71952796679693165 11.682834360150537 0 11.682834360150537 6.8304960565255897 0 0 0 0 -8.6423146989538111 6.9311634165869656 0 6.9311634165869656 -2.6031021857390613 0 0 0 0 -3.397624602585438 16.634331682108041 0 16.634331682108041 3.3715335784145282 0 0 0 0 3.1536636945943428 10.459745806361752 0 10.459745806361752 -24.871336220917328 0 0 0 0 -9.4490167523590571 7.4307497579393385 0 7.4307497579393385 39.237347610481265 0 0 0 0 -0.35448164443459973 16.928437844067048 0 16.928437844067048 83.567688322503273 0 0 0 0 -0.52271849198106324 1.8507671792080629 0 1.8507671792080629 0.14802970059093568 0 0 0 0 0.88314418310000775 -0.41800107317395785 0 -0.41800107317395785 -0.56316763463174269 0 0 0 0 33.893155109450163 29.132621885587469 0 29.132621885587469 -18.894378325664547 0 0 0 0 -2.3197261945567988 8.5087805265304333 0 8.5087805265304333 8.9848667063979626 0 0 0 0 1.3866125592440994 19.571582290872584 0 19.571582290872584 16.690293150815705 0 0 0 0 5.4422073063211318 14.542128969919867 0 14.542128969919867 9.7809002803956488 0 0 0 0 -6.4113950981118251 27.963460021621358 0 27.963460021621358 10.398550793193863 0 0 0 0 1.9831514995913246 12.560681960783189 0 12.560681960783189 9.668324590831002 0 0 0 0 -2.4877637040244736 28.77097518719529 0 28.77097518719529 7.6090885457647914 0 0 0 0 -3.3515135926771791 9.9385143883382625 0 9.9385143883382625 7.0417833995197725 0 0 0 0 -2.3064174468947947 8.2312163463051284 0 8.2312163463051284 8.9695796006584132 0 0 0 0 -5.7630072882699892 26.94518009305375 0 26.94518009305375 -4.4677397363448108 0 0 0 0 -1.0911742889989 34.163287614133878 0 34.163287614133878 6.4637046571897372 0 0 0 0 -3.3849817097439674 10.274428862814421 0 10.274428862814421 10.031915157116007 0 0 0 0 -2.7714342439280699 9.6104099542208132 0 9.6104099542208132 15.985341493412307 0 0 0 0 -9.3073618897549864 8.0406590318902431 0 8.0406590318902431 23.53131559148278 0 0 0 0 -7.6495401708635846 3.6319684697610217 0 3.6319684697610217 10.415831965613926 0 0 0 0 3.0877691714085813 7.6210104475358094 0 7.6210104475358094 18.683997249442623 0 0 0 0 -2.4618581313634422 8.5905921025159842 0 8.5905921025159842 13.146844648648766 0 0 0 0 -13.220825841604892 15.081080889249279 0 15.081080889249279 23.010800515694427 0 0 0 0 -2.7268776008150502 7.280909616908394 0 7.280909616908394 12.816364346322146 0 0 0 0 17.037480608620172 16.986520398313587 0 16.986520398313587 20.164919040355016 0 0 0 0 1.6582294711124632 26.42964407260115 0 26.42964407260115 18.591008819618281 0 0 0 0 1.1706466349984586 3.4833981935132821 0 3.4833981935132821 -1.3309503039866399 0 0 0 0 -3.9808189513953494 20.132701986067559 0 20.132701986067559 25.993557166751998 0 0 0 0 1.0846846357799018 9.3429925725686509 0 9.3429925725686509 21.362098854419017 0 0 0 0 -6.5339897032081353 24.06590442997458 0 24.06590442997458 21.263141729468771 0 0 0 0 -3.2225369674127418 5.2225161876174369 0 5.2225161876174369 1.6126698499982517 0 0 0 0 -9.09592744015481 7.1520761446049619 0 7.1520761446049619 24.245555263671122 0 0 0 0 -18.775700013520691 14.062978820484204 0 14.062978820484204 28.457759536025605 0 0 0 0 3.3603824570984639 7.8326421215438771 0 7.8326421215438771 16.362914732350152 0 0 0 0 -21.822544426025615 14.997592467299455 0 14.997592467299455 22.115584355591182 0 0 0 0 -14.040614557824028 16.058133309722962 0 16.058133309722962 16.897873289095514 0 0 0 0 -13.208506786837233 6.5220157182584444 0 6.5220157182584444 21.915422129257422 0 0 0 0 -1.9344885312320912 14.863678209541831 0 14.863678209541831 14.241437712670177 0 0 0 0 -3.473330637591971 13.889986655352914 0 13.889986655352914 21.793360339157516 0 0 0 0 -2.2904456887519018 17.514090359428792 0 17.514090359428792 26.927847837323498 0 0 0 0 35.553537098023895 30.593011251874415 0 30.593011251874415 15.938540615998136 0 0 0 0 35.796539028757387 15.364633704559552 0 15.364633704559552 7.3685577855012525 0 0 0 0 0.33080270843311155 12.508281937480206 0 12.508281937480206 25.406072321954525 0 0 0 0 10.931780486115599 13.320670105033969 0 13.320670105033969 10.110556438618005 0 0 0 0 7.388229359556135 22.42465759915649 0 22.42465759915649 16.863281804199687 0 0 0 0 20.361769626439127 21.511964868291216 0 21.511964868291216 17.22552984312108 0 0 0 0 17.560578251827678 6.2438567866797712 0 6.2438567866797712 9.2918854316576471 0 0 0 0 -0.67974342326731474 0.2965882224921268 0 0.2965882224921268 0.48681818634619134 0 0 0 0 -14.427103317290857 8.6864284263701848 0 8.6864284263701848 7.4755258755885734 0 0 0 0 -15.572279543727745 4.1245892677643496 0 4.1245892677643496 4.8626363144978768 0 0 0 0 0.56048428375652293 5.4896078215260786 0 5.4896078215260786 3.8959782475903921 0 0 0 0 -4.110831603369661 2.434266848515108 0 2.434266848515108 7.1538804353235719 0 0 0 0 -0.25491861714516517 3.4286234184167483 0 3.4286234184167483 6.5874709424988396 0 0 0 0 -0.77814096281326783 8.4403237776068636 0 8.4403237776068636 4.9249328681380575 0 0 0 0 -9.6665856790679214 2.3611321662324372 0 2.3611321662324372 18.29037028086168 0 0 0 0 2.8719565869441794 27.788293379704555 0 27.788293379704555 18.024346403581148 0 0 0 0 11.477760123331791 42.49528311519316 0 42.49528311519316 42.16079117014192 0 0 0 0 -10.08194228209959 14.492556411014448 0 14.492556411014448 47.725746446001722 0 0 0 0 3.1148493578457419 20.693634740649941 0 20.693634740649941 30.341819276507522 0 0 0 0 0.46506005305883491 12.082068759986214 0 12.082068759986214 13.409574518540467 0 0 0 0 9.2091160184768341 26.690883566412822 0 26.690883566412822 16.695873787790333 0 0 0 0 14.797298704290597 18.675490557363446 0 18.675490557363446 12.164911362093335 0 0 0 0 -56.832296534339548 24.64564352799789 0 24.64564352799789 4.7434703161484322 0 0 0 0 0.85188110544436313 16.838150521471562 0 16.838150521471562 -7.7048073084388307 0 0 0 0 -2.2585537629983818 4.4220532730478448 0 4.4220532730478448 2.7492106328871273 0 0 0 0 -2.1039876458228108 3.9554080382086956 0 3.9554080382086956 4.3615840602730671 0 0 0 0 17.19938726609098 0.61560319273212372 0 0.61560319273212372 4.033629943485721 0 0 0 0 5.4425397255017742 10.564200678362795 0 10.564200678362795 12.352305573735066 0 0 0 0 -30.953435088767947 -4.9772107714616141 0 -4.9772107714616141 6.2009352581078474 0 0 0 0 13.75085371069963 -8.8925569001203257 0 -8.8925569001203257 -22.172828725406362 0 0 0 0 -42.703367514833189 35.580181795698536 0 35.580181795698536 -19.197763405914884 0 0 0 0 -2.8029259829341218 0.90979068910673533 0 0.90979068910673533 -0.19139361061160898 0 0 0 0 -23.558650457843214 -15.472789192154778 0 -15.472789192154778 35.720909436922739 0 0 0 0 -1.2941772674570871 14.969010407845417 0 14.969010407845417 44.681956242537126 0 0 0 0 -10.081620474408737 4.5774861677218723 0 4.5774861677218723 5.6966127822615817 0 0 0 0 0.92128042984040803 0.99089650441783306 0 0.99089650441783306 4.6930657602438259 0 0 0 0 -1.937908441821925 2.837836904763412 0 2.837836904763412 1.0268063419088449 0 0 0 0 -0.40258742283913307 5.8288804988806078 0 5.8288804988806078 5.6164922427160491 0 0 0 0 1.6521592113795123 6.2069472882069476 0 6.2069472882069476 13.912074060655868 0 0 0 0 -2.53168991224058 3.6768708010514071 0 3.6768708010514071 6.306957787519913 0 0 0 0 -14.160670370751177 3.3987710328201501 0 3.3987710328201501 8.1912850544654248 0 0 0 0 -4.3605838319726899 -0.0048172285883083532 0 -0.0048172285883083532 3.5303057533528772 0 0 0 0 -38.582549949109307 11.874003466279191 0 11.874003466279191 17.084811740402074 0 0 0 0 -24.553979273832283 -6.2964818028049194 0 -6.2964818028049194 3.6252453088018228 0 0 0 0 -1.2030946744481064 0.408429770257424 0 0.408429770257424 0.017460939319580149 0 0 0 0 -108.04737495654081 -33.911117473053309 0 -33.911117473053309 -7.7411808553233641 0 0 0 0 -8.210531395234284 1.8201880898359377 0 1.8201880898359377 0.74018212266901173 0 0 0 0 -43.925762067656251 -26.214860778112779 0 -26.214860778112779 -6.9692134462202375 0 0 0 0 -149.76783549800348 47.712904574476852 0 47.712904574476852 3.2930228094182894 0 0 0 0 -88.948542466181607 14.836854731534004 0 14.836854731534004 18.869259802060697 0 0 0 0 -61.349571723230838 35.003075370830629 0 35.003075370830629 4.7246483516264561 0 0 0 0 -50.807149680479483 35.730425639923794 0 35.730425639923794 16.069196962893329 0 0 0 0 -49.201995786520456 8.2752911462212069 0 8.2752911462212069 19.613409502635477 0 0 0 0 -29.694444447930437 29.574311892307378 0 29.574311892307378 17.234444359388362 0 0 0 0 -22.355197244443616 47.262039799618606 0 47.262039799618606 13.625128829749883 0 0 0 0 -23.881956024044484 40.13396253270912 0 40.13396253270912 10.053960447943609 0 0 0 0 12.577844613479101 42.490754579148415 0 42.490754579148415 5.8251543232454424 0 0 0 0 -9.0031645632930122 58.105824652084266 0 58.105824652084266 2.7233724764628278 0 0 0 0 -11.794832478122771 40.561147945911216 0 40.561147945911216 0.11770172434989945 0 0 0 0 9.284238967352394 48.666708641477271 0 48.666708641477271 -8.7267273359284445 0 0 0 0 -49.145197809743422 57.985334223868449 0 57.985334223868449 2.4051789020886645 0 0 0 0 -56.000145773707118 29.386707846309037 0 29.386707846309037 10.271171462851271 0 0 0 0 -17.884836431870099 53.626687222485089 0 53.626687222485089 -26.153909177715832 0 0 0 0 -48.429234596317656 31.567581630838504 0 31.567581630838504 -7.0408441619219957 0 0 0 0 -30.785575673840867 25.001601654399565 0 25.001601654399565 -19.043178800108763 0 0 0 0 -29.84323773916185 31.03348708588419 0 31.03348708588419 -22.84011128930797 0 0 0 0 17.829838717172606 43.184653709005033 0 43.184653709005033 -5.4900657315993158 0 0 0 0 -6.1708240414400279 30.569752405446707 0 30.569752405446707 0.5046579688678321 0 0 0 0 -12.528793117477107 41.197005867071312 0 41.197005867071312 -10.754894090365269 0 0 0 0 -28.081820732403685 24.553188993193544 0 24.553188993193544 -3.3120315030082565 0 0 0 0 -6.6572170698109403 33.065834968969739 0 33.065834968969739 -7.1884325609280495 0 0 0 0 -6.0744345089763101 30.282065760779687 0 30.282065760779687 5.4987309082061984 0 0 0 0 18.027044386086345 28.421236602831414 0 28.421236602831414 -6.8608223527171504 0 0 0 0 -27.004298615762309 18.845444047249657 0 18.845444047249657 -1.7946698711566569 0 0 0 0 -8.5933145353124019 35.15084784343162 0 35.15084784343162 0.71877329952258151 0 0 0 0 -66.183898036080336 16.173392647742276 0 16.173392647742276 20.216858959895035 0 0 0 0 -56.133732787508052 5.6555074089410482 0 5.6555074089410482 -9.1338338601362921 0 0 0 0 -33.750511768334491 25.322561563802992 0 25.322561563802992 6.7184623342982377 0 0 0 0 -61.849938031640704 16.071320215158266 0 16.071320215158266 19.345532126666512 0 0 0 0 -4.4192805473139742 30.474815454832424 0 30.474815454832424 9.5485554972656246 0 0 0 0 -62.018889096621024 12.1043347323739 0 12.1043347323739 36.729139042010502 0 0 0 0 11.924330427100358 -7.846940808841282 0 -7.846940808841282 11.698980446766654 0 0 0 0 -24.957481175666544 -7.8690531621214177 0 -7.8690531621214177 33.623425502766622 0 0 0 0 -0.27010999799184354 0.70615723133987984 0 0.70615723133987984 -0.36271646874480012 0 0 0 0 -183.48249898184622 20.820645461213644 0 20.820645461213644 34.183596229093382 0 0 0 0 71.56759437057508 65.22502996922276 0 65.22502996922276 -44.57125109777553 0 0 0 0 -52.789468939290145 16.470206074662201 0 16.470206074662201 -4.7022496673453134 0 0 0 0 -106.45838392470978 -27.780047415202716 0 -27.780047415202716 13.845271187990875 0 0 0 0 -138.90047221292116 -19.471727507261676 0 -19.471727507261676 26.351142698709737 0 0 0 0 -133.23020478212857 46.020337993972134 0 46.020337993972134 -1.0919810841405706 0 0 0 0 -32.97237639199875 88.804212862990425 0 88.804212862990425 -8.9651673637308704 0 0 0 0 -120.19780451343195 88.072634608411136 0 88.072634608411136 -41.247209034499974 0 0 0 0 61.403186176165036 4.8474217345701618 0 4.8474217345701618 -71.126656245192862 0 0 0 0 -48.334102986466689 35.379609190541629 0 35.379609190541629 -100.67681676118809 0 0 0 0 -87.825804087206052 -8.5976969380499213 0 -8.5976969380499213 -0.90694813691516174 0 0 0 0 -102.60860514602609 40.869430483549877 0 40.869430483549877 15.911340989596283 0 0 0 0 -17.538197327822672 130.89765407754749 0 130.89765407754749 -23.456391956395237 0 0 0 0 -6.8031953274837944 13.548731568505513 0 13.548731568505513 1.3985651688813547 0 0 0 0 83.317739662032182 30.469696524379287 0 30.469696524379287 0.72384058476745849 0 0 0 0 3.1616860078656224 2.4221148707648332 0 2.4221148707648332 -4.9837249215230699 0 0 0 0 3.2752276983774209 4.3055141247959909 0 4.3055141247959909 4.0926360766006837 0 0 0 0 3.4722885156588745 4.5660414830472291 0 4.5660414830472291 3.5484988444345618 0 0 0 0 -65.794616822253829 -3.5943218731345041 0 -3.5943218731345041 10.738578032154464 0 0 0 0 -2.7125907043239295 38.846637609223762 0 38.846637609223762 -8.920217053802844 0 0 0 0 -0.78096613916520585 2.8129746813789436 0 2.8129746813789436 -4.3350005832718495 0 0 0 0 -114.31022399869289 -18.901082058697284 0 -18.901082058697284 20.926848737216005 0 0 0 0 59.7959289824812 28.518738149613455 0 28.518738149613455 13.908189096797287 0 0 0 0 53.779426490391415 24.270486147946031 0 24.270486147946031 0.64802208487253665 0 0 0 0 80.914279967013385 46.092498362272181 0 46.092498362272181 -0.067388519488304155 0 0 0 0 20.284624845396138 52.64622357182634 0 52.64622357182634 7.699345815581637 0 0 0 0 49.130945739175786 43.027280508547165 0 43.027280508547165 1.2737948892245186 0 0 0 0 41.490646041162108 39.461806141456691 0 39.461806141456691 3.2208673604400246 0 0 0 0 60.572055442438796 46.571934016753403 0 46.571934016753403 -3.4876707310086204 0 0 0 0 38.769015026416128 52.070975953627567 0 52.070975953627567 7.4511651245629764 0 0 0 0 9.8386392733006574 43.020754154167662 0 43.020754154167662 11.039125089282606 0 0 0 0 25.289179398057058 30.197387187335153 0 30.197387187335153 9.4958955085858179 0 0 0 0 65.320836872340351 37.603434599473985 0 37.603434599473985 -5.8663614295810476 0 0 0 0 19.674542397729169 37.027863638274198 0 37.027863638274198 9.6126063323099515 0 0 0 0 45.798058353911074 24.88910354330983 0 24.88910354330983 -6.563127314844678 0 0 0 0 112.06910722827979 12.06613547643974 0 12.06613547643974 5.8904386237863946 0 0 0 0 56.134021438074797 45.354250592098651 0 45.354250592098651 -2.9788792293093138 0 0 0 0 65.956096359285226 42.747549702624895 0 42.747549702624895 24.884643862622397 0 0 0 0 136.5613573898595 45.427824833193881 0 45.427824833193881 -3.903730444755638 0 0 0 0 -0.73607686033968012 2.4626815086332816 0 2.4626815086332816 -2.0681084018882459 0 0 0 0 195.73934687156532 63.657508860080952 0 63.657508860080952 -35.720518209043803 0 0 0 0 -0.28277455408292163 0.95390055187477474 0 0.95390055187477474 -0.57803288947776821 0 0 0 0 -184.26045116817795 -26.255727523097448 0 -26.255727523097448 39.960121608964073 0 0 0 0 15.793698199042183 54.61702193865176 0 54.61702193865176 -22.910423928298769 0 0 0 0 -4.8453252251716261 14.940475265659767 0 14.940475265659767 -5.7922172409794186 0 0 0 0 79.30945745984809 29.76077326501445 0 29.76077326501445 0.59870545633179972 0 0 0 0 22.935895299831827 -7.920516547025727 0 -7.920516547025727 -7.7756791428637371 0 0 0 0 56.538727247107317 74.848720344359208 0 74.848720344359208 -70.788711449082257 0 0 0 0 -5.3169290515876302 16.092701469498898 0 16.092701469498898 -10.925720454209717 0 0 0 0 59.433561851090872 84.568107096022686 0 84.568107096022686 -22.669599606333577 0 0 0 0 -15.204041878294902 45.230432513293181 0 45.230432513293181 -9.1779789457559673 0 0 0 0 58.515906985848233 45.588542404532745 0 45.588542404532745 -36.393023082149739 0 0 0 0 84.262525633520909 38.635605639156893 0 38.635605639156893 -36.436709460271231 0 0 0 0 62.940140524283834 23.149329775475053 0 23.149329775475053 -11.701065859619121 0 0 0 0 43.437879549266654 42.526019126888059 0 42.526019126888059 -29.17666064797595 0 0 0 0 11.824055198840142 40.663104509124423 0 40.663104509124423 -8.991766049504804 0 0 0 0 32.767210256368571 28.531935997158598 0 28.531935997158598 -17.83846840230035 0 0 0 0 39.992628155768216 44.972962548364194 0 44.972962548364194 -43.204811342626272 0 0 0 0 8.6029639863645571 37.04314782772326 0 37.04314782772326 -18.178893888358289 0 0 0 0 54.33444081050493 30.43375283957721 0 30.43375283957721 -31.269068012441721 0 0 0 0 38.367598112224186 34.230192330745922 0 34.230192330745922 -38.15581786126495 0 0 0 0 62.719076990846133 39.779524966911595 0 39.779524966911595 -44.472881494497415 0 0 0 0 20.092760501746852 4.8937172610239941 0 4.8937172610239941 -5.091673265569284 0 0 0 0 35.339962767611723 44.132493259302464 0 44.132493259302464 -6.765842848462853 0 0 0 0 46.70899547942372 15.521636569806105 0 15.521636569806105 -25.032152616922758 0 0 0 0 87.430920547034475 3.2976025104253495 0 3.2976025104253495 -21.38856232915623 0 0 0 0 59.533093169201265 21.245240574875311 0 21.245240574875311 -23.189752422151287 0 0 0 0 35.552626448401497 38.71255363212822 0 38.71255363212822 -35.497429920351351 0 0 0 0 34.039267144479709 15.193186529078957 0 15.193186529078957 -11.937197658795412 0 0 0 0 38.609250803624946 24.64745228744971 0 24.64745228744971 -3.2132874032868131 0 0 0 0 44.847043257482426 8.8505913115501471 0 8.8505913115501471 -10.87611665719669 0 0 0 0 71.829729963485875 17.801090307958702 0 17.801090307958702 -18.848865951815242 0 0 0 0 33.851256009260396 21.324727972788423 0 21.324727972788423 -7.4932134262726322 0 0 0 0 -76.429322086360116 19.223256247101745 0 19.223256247101745 -16.454255873869442 0 0 0 0 -95.870995572579886 41.762872445939138 0 41.762872445939138 6.3000671754089126 0 0 0 0 -122.45807042249635 6.239908933523111 0 6.239908933523111 -18.914331952395059 0 0 0 0 -0.092425528489969544 -0.035001763463752056 0 -0.035001763463752056 -0.27984948006420041 0 0 0 0 11.606396001044232 -21.591259052942405 0 -21.591259052942405 5.4912147821014514 0 0 0 0 -218.59215809858006 98.495995754672094 0 98.495995754672094 80.589714007990551 0 0 0 0 -0.55578682830131543 1.3226705770085196 0 1.3226705770085196 -1.0524894479418379 0 0 0 0 -140.21413464906391 -31.216177783754574 0 -31.216177783754574 -46.932998171585496 0 0 0 0 -36.367779463916804 -37.636351104521054 0 -37.636351104521054 18.736586617003923 0 0 0 0 -50.72976990643474 -34.501098431975606 0 -34.501098431975606 21.033662077432382 0 0 0 0 -127.25407603958956 -1.5796957469901827 0 -1.5796957469901827 10.839385369122283 0 0 0 0 -81.867071375899059 23.805791382685129 0 23.805791382685129 12.513697249694815 0 0 0 0 -69.901357603745055 8.0388501289635315 0 8.0388501289635315 31.924245940677793 0 0 0 0 -74.915127885684342 34.597839006986533 0 34.597839006986533 18.884516489873931 0 0 0 0 -65.378880287600623 24.336973937637595 0 24.336973937637595 27.078594087148304 0 0 0 0 -57.472065185911561 32.028853117411018 0 32.028853117411018 12.58322022343782 0 0 0 0 -48.457967338053095 23.529904803919635 0 23.529904803919635 8.5861626328751299 0 0 0 0 -41.124246604710152 47.255574849441473 0 47.255574849441473 -12.081176330702874 0 0 0 0 -63.778438874463973 33.662501224092921 0 33.662501224092921 7.9057497644043906 0 0 0 0 -66.816684381628875 37.503770549938054 0 37.503770549938054 10.131007037484778 0 0 0 0 -0.48820296894064086 25.860427669267665 0 25.860427669267665 -2.7944754398140503 0 0 0 0 -25.318790403786352 40.596034168182996 0 40.596034168182996 -3.6893793160415953 0 0 0 0 -33.184192399741733 37.12161802511946 0 37.12161802511946 -3.4903332260115576 0 0 0 0 -28.120770748021641 62.361429931468592 0 62.361429931468592 -35.488766235954245 0 0 0 0 6.7681915658745311 45.440816684067613 0 45.440816684067613 -28.874232454614685 0 0 0 0 -50.682533037391295 44.280750744737816 0 44.280750744737816 -10.679062333676029 0 0 0 0 -56.434711227801927 53.52758762481335 0 53.52758762481335 -22.414215234477524 0 0 0 0 -42.246392426057582 62.029561530922365 0 62.029561530922365 -70.111006317354622 0 0 0 0 -123.49510308941717 72.433759538791492 0 72.433759538791492 -26.994339222545022 0 0 0 0 -39.842158413514653 68.951983014779216 0 68.951983014779216 -56.202105622425734 0 0 0 0 -1.1500418258201535 30.36100822811386 0 30.36100822811386 -65.732006296739655 0 0 0 0 -109.97038403319402 64.258528143787771 0 64.258528143787771 -58.945992820375977 0 0 0 0 1.198142307008311 40.599201792963868 0 40.599201792963868 -44.683228955276263 0 0 0 0 17.87343599208225 55.432838535633891 0 55.432838535633891 -45.856335048629262 0 0 0 0 26.037898216548456 24.80114741635407 0 24.80114741635407 -46.59229920240972 0 0 0 0 4.0179195464697841 -8.3404465716321283 0 -8.3404465716321283 -41.692988835076903 0 0 0 0 6.6629589255026076 41.370517937971272 0 41.370517937971272 -50.314018422515801 0 0 0 0 -8.5841971548193214 -11.897715867215084 0 -11.897715867215084 -67.423464727418377 0 0 0 0 -21.676606236862654 8.6983360395011005 0 8.6983360395011005 11.360912315711175 0 0 0 0 -31.491517246268813 80.814125098491786 0 80.814125098491786 -99.05255361127638 0 0 0 0 0.98679950188761723 55.636620216155279 0 55.636620216155279 -173.97661203935604 0 0 0 0 -133.28137031160622 154.91821982416877 0 154.91821982416877 -106.4138284659648 0 0 0 0 -0.34586491535853092 0.68029564828358335 0 0.68029564828358335 -0.6714398027612134 0 0 0 0 -293.44216174707208 64.347647817704683 0 64.347647817704683 -1.3068485067960864 0 0 0 0 -1.3529676348648323 -0.95651689416678209 0 -0.95651689416678209 -1.2000401496127679 0 0 0 0 -102.57985139228094 -65.09339725413156 0 -65.09339725413156 -62.316792665455978 0 0 0 0 -168.35245025821314 66.094330107605856 0 66.094330107605856 -3.2985182858465123 0 0 0 0 40.630890129410204 91.815436057373518 0 91.815436057373518 -88.112441742243391 0 0 0 0 -214.42429026130776 135.4091903130502 0 135.4091903130502 -61.978382620156481 0 0 0 0 -161.52049843399618 130.62608074069249 0 130.62608074069249 -69.127699051692616 0 0 0 0 -155.39974255544234 90.658137343677254 0 90.658137343677254 -59.862424362647289 0 0 0 0 -238.77048035198823 93.224948726961884 0 93.224948726961884 -51.988058516268211 0 0 0 0 -195.89097393286647 43.616675935656531 0 43.616675935656531 -20.844568441018055 0 0 0 0 -237.09256352507782 87.895748103300321 0 87.895748103300321 -55.415044127039437 0 0 0 0 -222.96632391608102 109.57632564966389 0 109.57632564966389 36.812086507539789 0 0 0 0 -84.859704087606588 11.003554114340659 0 11.003554114340659 -18.404506300028515 0 0 0 0 -47.686320526712279 24.764294465324383 0 24.764294465324383 -2.9320123777106346 0 0 0 0 35.643955803413519 0.87534271545519005 0 0.87534271545519005 3.7726979359649704 0 0 0 0 -17.165616589843012 12.666771661093662 0 12.666771661093662 -24.203395372553132 0 0 0 0 -64.650344018950818 42.776402344748931 0 42.776402344748931 -18.033585676890652 0 0 0 0 -121.02053937124128 7.4775510827157632 0 7.4775510827157632 137.19095456805007 0 0 0 0 -130.31953978493539 144.56673388959189 0 144.56673388959189 -134.85661304530731 0 0 0 0 -0.72748775012184375 0.52938429711616664 0 0.52938429711616664 -0.0068625182675203789 0 0 0 0 -0.4995369174987303 0.80414449084974748 0 0.80414449084974748 -0.028147460267352153 0 0 0 0 -17.022496461690935 19.529131186060113 0 19.529131186060113 20.74105989382042 0 0 0 0 -31.959696942986739 86.052467557285127 0 86.052467557285127 -8.3225983543247821 0 0 0 0 27.445383959267019 16.508130941196214 0 16.508130941196214 -20.234355806831445 0 0 0 0 -98.712436493908626 61.449021767549311 0 61.449021767549311 72.746628829372639 0 0 0 0 99.938388241707798 149.85821362400202 0 149.85821362400202 57.49554618323964 0 0 0 0 0.27579950967164635 0.52131285173049235 0 0.52131285173049235 0.64483979346484688 0 0 0 0 -37.112094502903574 13.581313376765138 0 13.581313376765138 57.886495846709295 0 0 0 0 9.6070391870325693 62.555609827420994 0 62.555609827420994 3.8208796174913005 0 0 0 0 -30.563348471733661 38.846736255367432 0 38.846736255367432 -2.0640236431768244 0 0 0 0 -3.0109012325710864 37.566795233895391 0 37.566795233895391 -30.954679590104206 0 0 0 0 0.38495332947509553 0.98030578177100125 0 0.98030578177100125 1.3568459960681949 0 0 0 0 -22.928503092649407 25.535221571670263 0 25.535221571670263 -32.462289530634735 0 0 0 0 70.670251201813699 -83.075317209610148 0 -83.075317209610148 -6.4544096736390202 0 0 0 0 23.422178476076624 -85.16525391772393 0 -85.16525391772393 -43.902079808033704 0 0 0 0 -51.869669762347712 -20.760270587969899 0 -20.760270587969899 -9.0994803037410747 0 0 0 0 0.77114392170079249 -0.059200839000741468 0 -0.059200839000741468 -0.41670310128343857 0 0 0 0 -17.686437315550847 62.532986008366152 0 62.532986008366152 -13.242352545777976 0 0 0 0 19.296735897783037 -16.515411681988553 0 -16.515411681988553 -26.250508594876237 0 0 0 0 -45.649363936403915 21.707397743857655 0 21.707397743857655 -20.972845406595297 0 0 0 0 -22.432455876371023 31.947144347197536 0 31.947144347197536 -34.695124414080965 0 0 0 0 -87.887694368244865 42.715699563861563 0 42.715699563861563 -22.830341692141701 0 0 0 0 -41.353088283684883 42.288570269637603 0 42.288570269637603 -33.811438049823664 0 0 0 0 -180.62952234071849 49.179018274872988 0 49.179018274872988 -10.417739357475511 0 0 0 0 -67.202568343691382 44.428302877662645 0 44.428302877662645 -34.589119415306413 0 0 0 0 -32.272076311835008 28.877735446500083 0 28.877735446500083 -36.909959905546202 0 0 0 0 -65.781462661568156 21.90746476712809 0 21.90746476712809 -29.381561221973243 0 0 0 0 22.848424432292632 38.076750852895202 0 38.076750852895202 10.568827160180263 0 0 0 0 28.28782438452447 11.657273086885539 0 11.657273086885539 -16.130717735784856 0 0 0 0 30.478650123354782 15.295830690783077 0 15.295830690783077 -10.963911995908134 0 0 0 0 11.461960558804549 23.242205122903215 0 23.242205122903215 -23.170037423694339 0 0 0 0 54.745009632026267 8.3094580150300317 0 8.3094580150300317 -16.691519866615636 0 0 0 0 -3.6753601936916311 -22.73739946419937 0 -22.73739946419937 -33.146469624681231 0 0 0 0 36.376185604320881 -7.6380019516525408 0 -7.6380019516525408 0.47109802412524004 0 0 0 0 55.697390699963762 56.280101737118457 0 56.280101737118457 52.007906959868706 0 0 0 0 0.22591317483808915 0.20630834082594518 0 0.20630834082594518 -0.094507365133150389 0 0 0 0 193.44933147364463 -47.681316145139135 0 -47.681316145139135 -185.76843129116969 0 0 0 0 56.269293360630627 12.207662121966678 0 12.207662121966678 -81.506563271674167 0 0 0 0 179.06550130983578 -5.9507296803003555 0 -5.9507296803003555 -83.041938880698581 0 0 0 0 206.72284634100606 44.037317900626022 0 44.037317900626022 -40.110118729025999 0 0 0 0 -0.32532598556554149 13.469215630129838 0 13.469215630129838 6.0178877926364294 0 0 0 0 44.922834741557381 44.101008623399139 0 44.101008623399139 18.954663455442642 0 0 0 0 2.5135597526842979 0.032297250550762158 0 0.032297250550762158 -0.076935727986700897 0 0 0 0 82.417837135672926 130.18260379134699 0 130.18260379134699 159.56809960671126 0 0 0 0 59.166402179529996 -44.17126382486731 0 -44.17126382486731 -77.281752651590068 0 0 0 0 6.6935938256138119 -0.70187628107712996 0 -0.70187628107712996 0.10182598686367506 0 0 0 0 44.903239265015145 42.647676908010908 0 42.647676908010908 30.122925850512729 0 0 0 0 30.883407788086288 26.282448362131504 0 26.282448362131504 12.054085183681309 0 0 0 0 25.26071947404489 2.8916610534588472 0 2.8916610534588472 -4.9709056444371527 0 0 0 0 16.866386810138465 -4.1438696142904519 0 -4.1438696142904519 -61.714566100408774 0 0 0 0 91.081564084489401 -14.01857828122138 0 -14.01857828122138 -14.003421372584853 0 0 0 0 121.89727623568524 60.249006552663559 0 60.249006552663559 -6.0744144444197445 0 0 0 0 49.500393151483877 24.936274137878627 0 24.936274137878627 -7.3756262173246796 0 0 0 0 51.314778879976984 21.532436717665405 0 21.532436717665405 -1.0918182738969335 0 0 0 0 59.305977204814326 52.739276928034087 0 52.739276928034087 12.009575072341249 0 0 0 0 68.60637487335498 41.981687514389705 0 41.981687514389705 1.421436014923529 0 0 0 0 64.940005922191631 65.095761942434365 0 65.095761942434365 60.980432484766425 0 0 0 0 58.527950829498877 46.908037326601516 0 46.908037326601516 11.24172510660128 0 0 0 0 1.3500361986104981 0.0061227404740726854 0 0.0061227404740726854 -0.7194661169487091 0 0 0 0 53.708226802220906 50.54645627406444 0 50.54645627406444 13.791628485365891 0 0 0 0 63.032122368227022 2.5667980533254422 0 2.5667980533254422 -49.49390060969381 0 0 0 0 1.3959263614480655 -0.10495796196327234 0 -0.10495796196327234 -0.67233190048273173 0 0 0 0 27.251526337986434 24.143721661817835 0 24.143721661817835 15.313375299898325 0 0 0 0 21.467554878252827 14.376145653719675 0 14.376145653719675 4.0226894859351887 0 0 0 0 20.896592063005301 17.937708925159086 0 17.937708925159086 2.2904557796282461 0 0 0 0 21.568591971887145 19.029500741210541 0 19.029500741210541 -2.4652706589731679 0 0 0 0 16.610239709502821 19.17173153866861 0 19.17173153866861 0.01105020069735474 0 0 0 0 21.486878140238275 14.398972826635088 0 14.398972826635088 -0.090366840842762031 0 0 0 0 24.811253752298398 15.747604214933745 0 15.747604214933745 0.40804976001163595 0 0 0 0 6.6341593373540491 -7.1931907977204901 0 -7.1931907977204901 -16.145509669659077 0 0 0 0 0.8402923727550089 0.098316997313544263 0 0.098316997313544263 -0.52573058077722834 0 0 0 0 49.573239846155047 7.5249546807372099 0 7.5249546807372099 -17.242792697437835 0 0 0 0 102.44725155234846 38.525658087679403 0 38.525658087679403 -0.037605832070314739 0 0 0 0 140.38601335724434 54.045549265119917 0 54.045549265119917 16.84853250422384 0 0 0 0 143.51944807269774 70.205999037265428 0 70.205999037265428 61.309858073514988 0 0 0 0 -11.622788417734228 3.7270496108094449 0 3.7270496108094449 11.050998222161979 0 0 0 0 -18.465452010571767 9.1530514956784828 0 9.1530514956784828 44.641731280356908 0 0 0 0 -0.27089288959505886 0.25111953653538421 0 0.25111953653538421 0.69159633738237858 0 0 0 0 -58.010396844735169 56.7621777998379 0 56.7621777998379 -36.963491805703597 0 0 0 0 -38.86529509046386 20.026263996597663 0 20.026263996597663 7.4471305753741035 0 0 0 0 0.030521468676194985 0.70750055660784383 0 0.70750055660784383 1.2268171594255364 0 0 0 0 9.6235088741850632 10.069744605896631 0 10.069744605896631 0.28309637865777404 0 0 0 0 9.2853543167211683 12.725489011239915 0 12.725489011239915 19.30514994301268 0 0 0 0 71.468184192413901 47.003912654535725 0 47.003912654535725 14.408827007253421 0 0 0 0 24.85157673154572 9.8191062416981367 0 9.8191062416981367 8.2091855357393797 0 0 0 0 8.6197515153400346 13.954314254364434 0 13.954314254364434 15.248938795439244 0 0 0 0 8.5857060890557051 15.515350755706692 0 15.515350755706692 7.8621079528311384 0 0 0 0 20.985619279136245 18.579108453281151 0 18.579108453281151 -0.005188885601455695 0 0 0 0 15.998120034551448 14.933915101580169 0 14.933915101580169 6.7074877561362882 0 0 0 0 10.709917640721869 21.857695495993539 0 21.857695495993539 0.011980621256952872 0 0 0 0 -0.89866021947182162 21.336804498133461 0 21.336804498133461 10.496120740330298 0 0 0 0 -13.410608547409993 35.372222255552515 0 35.372222255552515 29.147475544333247 0 0 0 0 -3.5806410048426187 33.48348447753051 0 33.48348447753051 -0.0015474172305403044 0 0 0 0 -0.82026715837289288 25.770464939782897 0 25.770464939782897 12.500498535599036 0 0 0 0 -18.753851346338251 26.494687568995687 0 26.494687568995687 11.967432095684671 0 0 0 0 -37.616288261513319 42.656557097243422 0 42.656557097243422 0.021367547667978215 0 0 0 0 -6.7113208933169517 33.425886007294139 0 33.425886007294139 9.469390931457383 0 0 0 0 -37.35077331009802 44.674337405142069 0 44.674337405142069 -0.0040631678657518933 0 0 0 0 -37.516016478977235 43.408372576330294 0 43.408372576330294 2.7367082697742262 0 0 0 0 -37.727945205509968 49.475405613257863 0 49.475405613257863 6.2240564631811139 0 0 0 0 -37.651609837393067 50.43465810047087 0 50.43465810047087 -6.407419385483081 0 0 0 0 -61.902317491677422 70.455624997728592 0 70.455624997728592 -8.2934890621172599 0 0 0 0 -20.448161563074223 62.979985873446253 0 62.979985873446253 -20.006368697439029 0 0 0 0 -77.905676421164117 102.39380841743696 0 102.39380841743696 -45.491262353618367 0 0 0 0 -48.578971047812956 73.889585592486583 0 73.889585592486583 -1.420650388082322 0 0 0 0 -53.552230023959055 34.875058772701777 0 34.875058772701777 31.138356267988456 0 0 0 0 -74.121594642188938 36.51086903596206 0 36.51086903596206 -40.897028110259271 0 0 0 0 -28.871688732736402 38.521191238828578 0 38.521191238828578 -31.977941728591759 0 0 0 0 -42.609037262215224 66.980352634705014 0 66.980352634705014 -35.345752193781664 0 0 0 0 -89.688300040844652 85.755883565695996 0 85.755883565695996 -42.789885701869935 0 0 0 0 -60.740664055215348 89.098848970512336 0 89.098848970512336 -51.728997356007312 0 0 0 0 -148.90127506925228 149.11348939836648 0 149.11348939836648 -89.865812210573495 0 0 0 0 -3.3073483459520503 57.402822456850117 0 57.402822456850117 -10.819798930469915 0 0 0 0 -66.682067841949731 65.397200892518299 0 65.397200892518299 8.0747026404624194 0 0 0 0 -85.885647894887825 108.06645799746548 0 108.06645799746548 -31.89606622690917 0 0 0 0 -47.002443412620096 84.286573195653773 0 84.286573195653773 -93.440602823779045 0 0 0 0 -71.576424265121659 38.299175191806171 0 38.299175191806171 48.400336206046632 0 0 0 0 -0.36750373843823247 0.72410878147564262 0 0.72410878147564262 -0.7766257581456415 0 0 0 0 26.302964650244348 51.313623693454247 0 51.313623693454247 -85.954448390850303 0 0 0 0 14.046373834152632 9.2123632960982604 0 9.2123632960982604 0.535859086754499 0 0 0 0 -7.2913466948036501 72.14756115913724 0 72.14756115913724 60.510711664799601 0 0 0 0 -1.0917495368078951 1.4890897265278511 0 1.4890897265278511 -1.3553913369771422 0 0 0 0 8.4911509997064059 -23.782299282685017 0 -23.782299282685017 17.696139098168715 0 0 0 0 -0.44623153734612941 -4.36214799608004 0 -4.36214799608004 -7.8449914495467965 0 0 0 0 -0.95548053774806085 0.28835123856620015 0 0.28835123856620015 0.040837934363409545 0 0 0 0 -45.119285721910046 58.484899151962964 0 58.484899151962964 -61.426131882490154 0 0 0 0 -3.3507618920602908 53.142858717445961 0 53.142858717445961 -216.57296444678832 0 0 0 0 -25.209462626444292 -4.8941315351767116 0 -4.8941315351767116 15.789898610626551 0 0 0 0 -63.89480213909178 45.385763303684143 0 45.385763303684143 -1.775814946347964 0 0 0 0 61.578624161407788 18.889932912905351 0 18.889932912905351 -58.84842203041012 0 0 0 0 69.418697972615519 -13.854967944368582 0 -13.854967944368582 24.724888485616248 0 0 0 0 -0.37333200979930403 1.489231095039262 0 1.489231095039262 -1.1414396132780027 0 0 0 0 -249.23512334320617 111.7086931252361 0 111.7086931252361 -52.053440587435034 0 0 0 0 215.89408145139805 -60.745801942022808 0 -60.745801942022808 1.0963357017699309 0 0 0 0 -250.3923013212534 104.86879050149855 0 104.86879050149855 -76.864536806886463 0 0 0 0 -217.43488484486602 120.79169973578087 0 120.79169973578087 -69.195495013063919 0 0 0 0 128.64187692362111 17.68801487636938 0 17.68801487636938 -4.3863568483320705 0 0 0 0 0.19167662036228172 0.47529316946543965 0 0.47529316946543965 -0.40391457122478158 0 0 0 0 -390.25670711119255 157.76487737116076 0 157.76487737116076 0.65146915877630818 0 0 0 0 221.67180293466117 -59.408320669788736 0 -59.408320669788736 3.3985129357897677 0 0 0 0 149.5918890035382 32.764040405882042 0 32.764040405882042 -30.738930431223707 0 0 0 0 -2.6899733565663837 82.917778855942288 0 82.917778855942288 -27.231667946574817 0 0 0 0 -96.229718240494549 179.17373029115879 0 179.17373029115879 -105.54224956280086 0 0 0 0 -11.142779872411253 4.9648498463452597 0 4.9648498463452597 10.726098453793384 0 0 0 0 -0.97671040223058003 1.6016560164943563 0 1.6016560164943563 0.90479025729121787 0 0 0 0 -12.417728329876432 8.4336114823827302 0 8.4336114823827302 2.3719369795744569 0 0 0 0 -11.597345016603981 -0.38121415360683386 0 -0.38121415360683386 5.52694721718035 0 0 0 0 -7.7179874052146715 2.6907673097857696 0 2.6907673097857696 5.688719850142661 0 0 0 0 -10.362358665839338 1.6120613295506701 0 1.6120613295506701 8.6604139536138973 0 0 0 0 -8.0965168247504717 1.6875010954971259 0 1.6875010954971259 1.9146123546323697 0 0 0 0 -263.80236236245764 34.334729952606722 0 34.334729952606722 -136.4848529963183 0 0 0 0 -6.0622687197125664 0.55483582183821056 0 0.55483582183821056 0.92426221983585322 0 0 0 0 -12.782142578326784 6.9004976094793165 0 6.9004976094793165 6.4865738614844304 0 0 0 0 36.433325357881586 107.13823655275519 0 107.13823655275519 -220.945788932504 0 0 0 0 -3.1989712172662754 0.44896197277800454 0 0.44896197277800454 0.10925227713540053 0 0 0 0 -3.8736061577192231 6.7578034186562945 0 6.7578034186562945 25.255533822628422 0 0 0 0 66.092466350611858 29.371553024376226 0 29.371553024376226 -153.5245247498242 0 0 0 0 -8.7916905745873919 -23.991949925366498 0 -23.991949925366498 6.6126277343846596 0 0 0 0 -0.38654289396722596 0.84873605028604615 0 0.84873605028604615 -0.98726629051245141 0 0 0 0 -73.059378721441135 32.962451855604741 0 32.962451855604741 52.875579702067625 0 0 0 0 -139.1044447624453 62.391154764457042 0 62.391154764457042 44.0673096832179 0 0 0 0 37.221608467940996 57.728927955947256 0 57.728927955947256 -151.46989783577646 0 0 0 0 -21.320516980004868 -0.75563706064531289 0 -0.75563706064531289 34.558176858006846 0 0 0 0 -64.399062172037702 22.640622059838279 0 22.640622059838279 24.699719455071317 0 0 0 0 19.339825569881668 8.1716598049424647 0 8.1716598049424647 1.256525724524181 0 0 0 0 21.517779231359782 52.142843660948529 0 52.142843660948529 28.95000806913049 0 0 0 0 -16.930474419981238 28.83428676749736 0 28.83428676749736 -6.4411377015476319 0 0 0 0 -18.222615215041287 10.431048982049106 0 10.431048982049106 -9.113248102423313 0 0 0 0 -61.933233664008974 33.711866503292072 0 33.711866503292072 -12.21305009657226 0 0 0 0 -84.182869604428433 71.000268948773282 0 71.000268948773282 2.7830644007117371 0 0 0 0 8.9059038444279821 11.293083194852443 0 11.293083194852443 -12.229506126030174 0 0 0 0 -94.172632264478054 45.34177878236278 0 45.34177878236278 -3.6776594124057738 0 0 0 0 0.43359483405763377 0.57067818737429832 0 0.57067818737429832 0.91505656552983794 0 0 0 0 -100.00950043853113 38.15599865787226 0 38.15599865787226 -4.119775223567558 0 0 0 0 -50.054031898745791 24.321431943421885 0 24.321431943421885 -17.494945161301075 0 0 0 0 -42.982413483359494 31.605547259402101 0 31.605547259402101 -16.080062078659466 0 0 0 0 -47.677061452080579 24.528953542502677 0 24.528953542502677 -14.239325497578875 0 0 0 0 -50.739230476354095 47.415340747262803 0 47.415340747262803 -3.8385102517822816 0 0 0 0 -29.441600146069703 36.096701022675461 0 36.096701022675461 -7.142350844153043 0 0 0 0 0.13918772418219305 38.009138367518972 0 38.009138367518972 -37.027273209535451 0 0 0 0 -19.068312153824934 48.202228724782088 0 48.202228724782088 -26.467855727392816 0 0 0 0 -32.102905170793974 42.547241717509678 0 42.547241717509678 -18.99834062577338 0 0 0 0 -40.970781668518413 37.651865851790717 0 37.651865851790717 -7.2772550914996827 0 0 0 0 -37.652330593288298 43.168781835124719 0 43.168781835124719 -2.7501921601947288 0 0 0 0 -37.805229051426068 42.575280678610397 0 42.575280678610397 -0.0059422154827188933 0 0 0 0 -43.194341869857524 37.464504289113847 0 37.464504289113847 0.0028309140925557585 0 0 0 0 -39.384391547739511 40.908682162227251 0 40.908682162227251 -4.2945199365385633 0 0 0 0 -32.14063553545418 34.754706799766609 0 34.754706799766609 -0.016447182264528237 0 0 0 0 -24.355075411609533 42.755864947756891 0 42.755864947756891 -5.0595186914642909 0 0 0 0 -21.643468722427372 26.913750890475058 0 26.913750890475058 -6.9312439784458775 0 0 0 0 -51.863691438752241 12.556196949310561 0 12.556196949310561 0.49252256595445942 0 0 0 0 -46.559834224513224 22.577503930360763 0 22.577503930360763 -7.3310124420261218 0 0 0 0 -84.313412598014111 19.335050820518518 0 19.335050820518518 -1.9682732217333978 0 0 0 0 -74.266142425497492 20.528834515127528 0 20.528834515127528 -0.0051969080195704009 0 0 0 0 -55.041966916693923 29.103291710728172 0 29.103291710728172 -4.2247030654980335 0 0 0 0 -22.75735394453045 15.781242672263943 0 15.781242672263943 12.563665437255622 0 0 0 0 5.3408576076280383 1.2133464061637369 0 1.2133464061637369 -0.28063471323730482 0 0 0 0 3.7245536523042553 -0.26569324994960386 0 -0.26569324994960386 -0.16099671765888957 0 0 0 0 -37.821201160406417 34.346886465915304 0 34.346886465915304 -24.746397474242258 0 0 0 0 0.27378872795900211 0.92255387293599966 0 0.92255387293599966 -0.046189530101429455 0 0 0 0 26.112265923613904 -7.8540113515309713 0 -7.8540113515309713 -23.707888272605487 0 0 0 0 1.9348352237655579 3.1525414795141193 0 3.1525414795141193 1.8808352162185571 0 0 0 0 -71.432191850915729 28.587783581011536 0 28.587783581011536 4.608803787648867 0 0 0 0 1.8787762312026119 3.8748186153081381 0 3.8748186153081381 3.4261643523708187 0 0 0 0 -22.010631217424816 19.559692203024497 0 19.559692203024497 8.4160080638494037 0 0 0 0 4.9297621015919049 9.7248708128695398 0 9.7248708128695398 1.8940823881839606 0 0 0 0 -5.0768210578280559 9.6005129432287504 0 9.6005129432287504 3.0329829347438135 0 0 0 0 32.839632965430496 22.934482223716259 0 22.934482223716259 -16.754312719902146 0 0 0 0 -0.12157289344322142 0.079533533838406001 0 0.079533533838406001 0.47620095411172514 0 0 0 0 45.249331015095635 -11.136492646925262 0 -11.136492646925262 -5.5121206231997348 0 0 0 0 -50.021982378109954 40.823757199960255 0 40.823757199960255 15.235997968917218 0 0 0 0 37.374840199364826 6.4860734397507258 0 6.4860734397507258 -139.22125910279829 0 0 0 0 -12.798028926948973 2.4668663083957654 0 2.4668663083957654 -64.142603502715701 0 0 0 0 1.3694613502294786 0.56750127556302843 0 0.56750127556302843 -0.19292536813833028 0 0 0 0 -5.5233185001377478 -5.2962848250513161 0 -5.2962848250513161 -45.168970623260975 0 0 0 0 -4.2318693242714289 -3.2274700820034923 0 -3.2274700820034923 -73.390649712066761 0 0 0 0 -16.78076018113552 -13.093191030757225 0 -13.093191030757225 -75.044370984489888 0 0 0 0 27.879975848877621 51.886693478372763 0 51.886693478372763 106.39042831651932 0 0 0 0 56.117120359193905 115.05550612228217 0 115.05550612228217 136.18887493771581 0 0 0 0 85.546515676476702 59.250445550054792 0 59.250445550054792 0.06541367910176632 0 0 0 0 103.45997812882433 98.590292036480605 0 98.590292036480605 28.247458298817946 0 0 0 0 11.708050542275032 17.27812995435761 0 17.27812995435761 61.482511710211838 0 0 0 0 15.673654111988668 4.08761887550952 0 4.08761887550952 0.87805937242592336 0 0 0 0 -10.261057124869239 8.5787162316346439 0 8.5787162316346439 -46.801799826880597 0 0 0 0 -23.702420682109732 -6.2721515805169474 0 -6.2721515805169474 -62.412641418362909 0 0 0 0 27.665406993750366 38.244504216283531 0 38.244504216283531 -22.218267842167734 0 0 0 0 25.216157269075666 24.098326490149702 0 24.098326490149702 -63.672798116704143 0 0 0 0 18.300994993464883 5.7854347477486954 0 5.7854347477486954 -42.295407936132506 0 0 0 0 3.4752688365860269 0.73706969889137497 0 0.73706969889137497 -0.34153481046945799 0 0 0 0 4.7699763448749763 0.96066388642066158 0 0.96066388642066158 0.031979780562323867 0 0 0 0 15.101914894937181 11.018297284990695 0 11.018297284990695 -49.092057742714132 0 0 0 0 4.7706326627089766 0.93193733257430722 0 0.93193733257430722 -0.011756969679481699 0 0 0 0 5.2520995969617426 0.69688152858496721 0 0.69688152858496721 -0.39925950176299363 0 0 0 0 16.213187002912036 16.948484951511091 0 16.948484951511091 -11.631406425583009 0 0 0 0 16.21559747678748 21.33610961332397 0 21.33610961332397 -12.320620961796067 0 0 0 0 -25.85605723083421 -6.6397564724512677 0 -6.6397564724512677 0.91706291426089592 0 0 0 0 -0.14936752734859127 0.2239598880591771 0 0.2239598880591771 -0.28099737179312001 0 0 0 0 -5.7026503536208111 3.8883099502136247 0 3.8883099502136247 5.1693005525748958 0 0 0 0 -6.2369311678703525 3.1870453122555773 0 3.1870453122555773 5.8335045538651684 0 0 0 0 -0.61588329224915839 0.63967500776993802 0 0.63967500776993802 -0.56765079552716458 0 0 0 0 -6.0456927922716943 1.2625127787503061 0 1.2625127787503061 3.2184305175742338 0 0 0 0 15.904125015044968 14.901252367522204 0 14.901252367522204 16.701704813433025 0 0 0 0 18.665285624249009 18.892192224194332 0 18.892192224194332 21.199114810686297 0 0 0 0 0.39113525711241159 0.36724198640130012 0 0.36724198640130012 -0.17046671996610385 0 0 0 0 3.8330204345198808 37.765367817242804 0 37.765367817242804 79.65747438183098 0 0 0 0 2.5024133878805515 5.8814512351609665 0 5.8814512351609665 -78.250840516663629 0 0 0 0 19.373622619286834 29.435793121448683 0 29.435793121448683 37.342222776984272 0 0 0 0 15.150630242340867 9.9427688821224365 0 9.9427688821224365 23.931586836770236 0 0 0 0 -0.70454712641095263 2.32289291508377 0 2.32289291508377 -1.1103220228789681 0 0 0 0 1.5335203071250589 11.111864372743185 0 11.111864372743185 1.5783340604430123 0 0 0 0 3.7845492502106026 4.645036311464537 0 4.645036311464537 0.39721460975124501 0 0 0 0 0.74287405117138405 7.21709304651813 0 7.21709304651813 -1.7766146904541529 0 0 0 0 5.3797002338575339 18.85136248902927 0 18.85136248902927 15.893581657781397 0 0 0 0 -1.2540798890944256 0.99139452684905294 0 0.99139452684905294 -0.97065415495689678 0 0 0 0 1.4845359562896192 3.2536617544928959 0 3.2536617544928959 24.253301536201661 0 0 0 0 0.62107297962802477 6.0211565940708169 0 6.0211565940708169 5.3359095293744758 0 0 0 0 0.35930515750578707 2.9546986630780339 0 2.9546986630780339 4.869194659342611 0 0 0 0 -0.72515317949410019 4.7194830129719776 0 4.7194830129719776 3.195053904379165 0 0 0 0 1.4539449713274735 3.8558643039939398 0 3.8558643039939398 1.1029099360021064 0 0 0 0 -1.1593870424962915 5.5289608135226445 0 5.5289608135226445 1.730069115963488 0 0 0 0 -2.7823789358790236 4.643866421477469 0 4.643866421477469 4.7387730880013805 0 0 0 0 -4.4286652642065292 4.5570723788487157 0 4.5570723788487157 4.8060136033873277 0 0 0 0 -0.57128663245748612 2.5721042678787853 0 2.5721042678787853 3.3453459496387268 0 0 0 0 -4.3765277451955171 5.6858677477912352 0 5.6858677477912352 6.1556607954735227 0 0 0 0 -2.758508350612118 5.5968015208112512 0 5.5968015208112512 -2.4557160209799065 0 0 0 0 -6.4708865706403458 15.10629250655029 0 15.10629250655029 19.39038531326878 0 0 0 0 1.8492859794946526 15.212182308861884 0 15.212182308861884 7.7918011710205519 0 0 0 0 3.4494699296955105 10.194043806196873 0 10.194043806196873 4.07266926815646 0 0 0 0 2.7643486754095647 11.849943692950546 0 11.849943692950546 2.3210587154371751 0 0 0 0 -0.57937234934388471 5.4367388539976673 0 5.4367388539976673 1.5668298171331116 0 0 0 0 -2.1275194549409271 5.6558005241264198 0 5.6558005241264198 -1.5773429641736385 0 0 0 0 -1.4340571758302758 6.6235796450055204 0 6.6235796450055204 0.0090767444780794904 0 0 0 0 -0.11268605218991112 0.74475698811049007 0 0.74475698811049007 -2.3287133529286983 0 0 0 0 -3.5681440319249305 11.682290418309094 0 11.682290418309094 7.5851581560673367 0 0 0 0 0.64126736762000291 13.373225207314135 0 13.373225207314135 8.7731697776634974 0 0 0 0 0.73568971468506561 12.059606997642106 0 12.059606997642106 4.0372306735098391 0 0 0 0 -2.3410790768131164 9.5596288573879065 0 9.5596288573879065 -4.2464098186355841 0 0 0 0 -3.4072389737152662 13.148815921215828 0 13.148815921215828 3.2360684631312324 0 0 0 0 -2.42343825033063 4.6120104324062083 0 4.6120104324062083 -1.1394462387758466 0 0 0 0 -2.5327271969410461 4.565216441117137 0 4.565216441117137 -2.2449340611718203 0 0 0 0 0.034767715589623549 3.7565091711694549 0 3.7565091711694549 -2.1591335504945164 0 0 0 0 -6.0404355923637922 7.5739951433024544 0 7.5739951433024544 1.8539310913474765 0 0 0 0 -0.60298162588855853 4.6517630179230824 0 4.6517630179230824 -1.1543685229669123 0 0 0 0 -2.6178968354752215 9.6020335400626209 0 9.6020335400626209 -1.5805315749171314 0 0 0 0 0.6891884817607794 0.65772562768139764 0 0.65772562768139764 0.58684041151541066 0 0 0 0 4.5842013095020775 3.4205416909990163 0 3.4205416909990163 0.76323220394624514 0 0 0 0 -16.137140491179139 19.669153003475003 0 19.669153003475003 -16.240015934650728 0 0 0 0 0.44158068104271786 2.2506048452580707 0 2.2506048452580707 2.6457474962072762 0 0 0 0 -9.5790376986041679 20.441156339900772 0 20.441156339900772 -23.521884803336434 0 0 0 0 0.96370255973306485 12.411398549818841 0 12.411398549818841 19.320007595149946 0 0 0 0 -15.993764471569705 31.374911163973593 0 31.374911163973593 27.359381708852197 0 0 0 0 47.212705182921241 -30.116244976346934 0 -30.116244976346934 -6.5601726969889569 0 0 0 0 -47.595391024699893 17.594367313581643 0 17.594367313581643 66.663096549422335 0 0 0 0 -16.067521465730522 23.513081339337077 0 23.513081339337077 -5.8719752693605187 0 0 0 0 0.95425792287892364 8.0326193751643586 0 8.0326193751643586 -12.360396550348014 0 0 0 0 -4.4407318884768188 25.691119065659223 0 25.691119065659223 -18.177750084090803 0 0 0 0 -13.07144177762143 24.062617370560474 0 24.062617370560474 -10.34461846366321 0 0 0 0 0.15226699204967531 8.3211638678103554 0 8.3211638678103554 2.9574619394443289 0 0 0 0 15.876411704453744 19.759784206320546 0 19.759784206320546 -12.684172597233555 0 0 0 0 -9.0423646572551206 39.21529200961777 0 39.21529200961777 -12.805415649228053 0 0 0 0 -25.403896759268861 35.378741378631275 0 35.378741378631275 -5.9383740143093746 0 0 0 0 2.1168003758528169 5.0135168016591063 0 5.0135168016591063 4.4384342950598494 0 0 0 0 -3.3975124335636337 7.9239475845567995 0 7.9239475845567995 4.6697904664379166 0 0 0 0 -8.3828623349661484 6.946142219866033 0 6.946142219866033 5.3970382133720705 0 0 0 0 -2.9562745814714617 6.3345773871278652 0 6.3345773871278652 5.4212094309463055 0 0 0 0 -4.3305325983105831 8.5770582405912137 0 8.5770582405912137 5.8580165487283011 0 0 0 0 -5.9382209567020254 11.557622623584393 0 11.557622623584393 26.005688021216883 0 0 0 0 -3.0265880948763204 6.5167985223529783 0 6.5167985223529783 0.15889044310138445 0 0 0 0 -1.1718176074919029 10.902977435791399 0 10.902977435791399 19.587205712654395 0 0 0 0 -2.6937560895921706 6.3270520562095953 0 6.3270520562095953 10.815575905931837 0 0 0 0 -6.4327200866505336 5.9357676850868302 0 5.9357676850868302 22.183449724485854 0 0 0 0 -2.9157255032623652 8.2900076673213334 0 8.2900076673213334 17.469748823423288 0 0 0 0 -0.48677347158695738 12.740740333468239 0 12.740740333468239 9.9166130833636998 0 0 0 0 -18.326230096512518 19.394204817240279 0 19.394204817240279 8.3442979763287894 0 0 0 0 -7.3288998152136173 5.79245466826751 0 5.79245466826751 5.2104255531176022 0 0 0 0 -5.8289309762512858 8.6142986799377468 0 8.6142986799377468 10.328796735130709 0 0 0 0 -1.5654125576402294 3.7485720828117337 0 3.7485720828117337 3.3810744761212845 0 0 0 0 -0.29604519195777357 6.4640385682246233 0 6.4640385682246233 7.9412479391212401 0 0 0 0 2.1631524199360332 4.5828790415549792 0 4.5828790415549792 6.9441519340554407 0 0 0 0 -2.7471334426543876 4.4912338369150007 0 4.4912338369150007 13.891285733039695 0 0 0 0 -0.53485502153228159 6.578915383974465 0 6.578915383974465 14.554362958634385 0 0 0 0 3.0686973232673154 9.7355875838020438 0 9.7355875838020438 16.277068236915511 0 0 0 0 0.28501585981484823 7.1823249587687314 0 7.1823249587687314 14.110534334596423 0 0 0 0 -8.0855595998553618 1.8815070898280908 0 1.8815070898280908 2.6101426502028637 0 0 0 0 -12.249714165585885 3.5469478027316654 0 3.5469478027316654 8.9687970173545182 0 0 0 0 11.703309020729478 10.560636483568487 0 10.560636483568487 -5.8367321390178404 0 0 0 0 -1.3463686748826795 1.7836457666497676 0 1.7836457666497676 -0.1508992713475763 0 0 0 0 3.7884125061339091 -11.369938376494247 0 -11.369938376494247 19.700183144572293 0 0 0 0 -1.9700417297865767 5.2308213097681424 0 5.2308213097681424 7.6915543550121566 0 0 0 0 -5.1202644287542718 12.790094672204305 0 12.790094672204305 8.8278910296212416 0 0 0 0 0.45666213465798933 4.3148004567822351 0 4.3148004567822351 4.9610632084792243 0 0 0 0 -16.807840582013569 5.2324561269942933 0 5.2324561269942933 6.0037151329111111 0 0 0 0 -4.5491288659747067 5.0856535990960765 0 5.0856535990960765 4.5134989291341299 0 0 0 0 -12.427607570414967 0.23321139536710689 0 0.23321139536710689 3.4460415213293345 0 0 0 0 0.35800530675783193 6.6933891135386148 0 6.6933891135386148 3.5925554419554828 0 0 0 0 -8.0562193303052254 15.560759571893868 0 15.560759571893868 -2.8525557211451087 0 0 0 0 1.874499690232142 4.0810661883251971 0 4.0810661883251971 6.9485322593998617 0 0 0 0 1.1032214816842334 3.764704081421498 0 3.764704081421498 6.4790852428502745 0 0 0 0 -10.360264415421614 13.840671917084819 0 13.840671917084819 8.7157657784846378 0 0 0 0 29.422325934419405 16.882957688485476 0 16.882957688485476 -12.896931643892458 0 0 0 0 -22.147915300622955 2.7588701897293504 0 2.7588701897293504 4.2476755536918063 0 0 0 0 -29.864788519787453 -15.449161086498862 0 -15.449161086498862 47.765734249616798 0 0 0 0 47.315412020342137 -13.153642886039961 0 -13.153642886039961 -4.2795283350169484 0 0 0 0 2.6855595021374938 -11.398063423925123 0 -11.398063423925123 8.0662914738168183 0 0 0 0 50.981286183395241 52.230513638623961 0 52.230513638623961 26.849274076577785 0 0 0 0 34.219139684418678 15.962120846188554 0 15.962120846188554 3.2834622886016405 0 0 0 0 15.518729148377105 11.308395998317906 0 11.308395998317906 11.385283684798196 0 0 0 0 20.382627824509655 30.202230163906279 0 30.202230163906279 66.189238149498124 0 0 0 0 54.493236302445439 39.292339873005403 0 39.292339873005403 28.500689685926773 0 0 0 0 -0.94111630894294995 0.41908688027497121 0 0.41908688027497121 1.4467977932705409 0 0 0 0 77.736792759153104 33.295491301862057 0 33.295491301862057 0.43872587999430834 0 0 0 0 37.506552984923928 -2.5476359837402924 0 -2.5476359837402924 13.643243012942548 0 0 0 0 83.30946583707464 40.771851912308193 0 40.771851912308193 8.1217187582806218 0 0 0 0 69.086113074658897 67.097921134117314 0 67.097921134117314 73.914915410721733 0 0 0 0 82.648831090162275 39.681734066238278 0 39.681734066238278 6.2458004678210273 0 0 0 0 -0.34943375278578248 0.63785652751220923 0 0.63785652751220923 -0.5934432380657455 0 0 0 0 -14.830640105902376 4.9487599865533412 0 4.9487599865533412 4.3462663101454382 0 0 0 0 -16.533730793750692 3.0294951622236113 0 3.0294951622236113 5.0223627199557086 0 0 0 0 -37.817847858691266 8.3502240139700916 0 8.3502240139700916 18.012532388060208 0 0 0 0 -5.0778189902544639 5.3622172517181852 0 5.3622172517181852 5.4542679603705473 0 0 0 0 -1.0071064786217789 4.3202821591305565 0 4.3202821591305565 7.3008557244556869 0 0 0 0 0.042461032507683072 0.20289387416036675 0 0.20289387416036675 -0.76735313065790223 0 0 0 0 3.3492409760408464 19.530744148620215 0 19.530744148620215 -23.728533088527911 0 0 0 0 -100.8516012336122 -2.1435069352082792 0 -2.1435069352082792 12.307398680877213 0 0 0 0 -20.691667850905105 26.61332926376781 0 26.61332926376781 33.278505311365734 0 0 0 0 -4.9368646580153381 39.812608992196147 0 39.812608992196147 -26.078101952252837 0 0 0 0 -38.6471376756881 54.508190301148261 0 54.508190301148261 8.1159472093568183 0 0 0 0 -52.623401747082653 -16.883728900550523 0 -16.883728900550523 7.4867404055703446 0 0 0 0 13.369924977750159 -11.705826102815934 0 -11.705826102815934 -32.17616483990605 0 0 0 0 -42.472862041305689 26.774258718744022 0 26.774258718744022 6.5346394030184456 0 0 0 0 -11.65549017283638 12.158158581766202 0 12.158158581766202 5.4239059598066888 0 0 0 0 -7.5450926459122911 0.96040781129886454 0 0.96040781129886454 3.4523102917723349 0 0 0 0 -6.7961114384514758 -0.67346222205696904 0 -0.67346222205696904 3.5177366772768437 0 0 0 0 -18.577298213261429 11.220968645449375 0 11.220968645449375 5.0494803409837914 0 0 0 0 -20.092214614825707 9.2732039358888869 0 9.2732039358888869 4.5136970591847785 0 0 0 0 26.959391400313734 22.706087130515243 0 22.706087130515243 5.4855795527927285 0 0 0 0 -37.955120169747715 11.021677450607513 0 11.021677450607513 10.906489489600972 0 0 0 0 0.0099380134565640876 -0.030441806960445739 0 -0.030441806960445739 -0.062503275871087283 0 0 0 0 11.749595509097958 9.8197102286455902 0 9.8197102286455902 4.215733068609552 0 0 0 0 4.6774385387616348 16.649416707133241 0 16.649416707133241 6.3563252296507926 0 0 0 0 0.047383148629478455 12.403920815655511 0 12.403920815655511 3.5198005150614335 0 0 0 0 1.7185932616303035 10.042240964041412 0 10.042240964041412 5.570728275069996 0 0 0 0 0.00095419588279810341 0.0421392083411396 0 0.0421392083411396 -0.10828324564064218 0 0 0 0 -2.070692125603216 13.286844675812745 0 13.286844675812745 2.4263887025954318 0 0 0 0 -1.3676975133685119 15.412253574080751 0 15.412253574080751 4.7262208309984999 0 0 0 0 -1.582305583471225 15.627005571736845 0 15.627005571736845 5.7712116042621346 0 0 0 0 0.80688367905008818 13.859500968315842 0 13.859500968315842 6.0756597838499147 0 0 0 0 -0.6290844269376521 15.57703606099949 0 15.57703606099949 4.1868216792181556 0 0 0 0 0.38793742767711592 16.504476462385355 0 16.504476462385355 5.0225933919705312 0 0 0 0 -0.67829682349565701 15.58056158387717 0 15.58056158387717 4.5126794538809918 0 0 0 0 -1.2283137852372761 15.719379268408375 0 15.719379268408375 7.0873684405378299 0 0 0 0 -1.4021685811480893 14.800734984144583 0 14.800734984144583 4.1675417662281689 0 0 0 0 -1.6641859366141034 14.896549274748395 0 14.896549274748395 4.4802416603461097 0 0 0 0 -0.93139908016723894 15.405728200141766 0 15.405728200141766 1.4164221655300935 0 0 0 0 -2.7302994896767814 9.8761612304219852 0 9.8761612304219852 -0.0042240873317496153 0 0 0 0 -2.0071800454416007 9.4241538109472458 0 9.4241538109472458 6.5534132965121898 0 0 0 0 -1.8175881293541352 12.338749106499563 0 12.338749106499563 6.0387969520234037 0 0 0 0 -1.7744616060067528 12.377415924636807 0 12.377415924636807 5.6673730743641499 0 0 0 0 -5.3483419168387627 13.354059561223039 0 13.354059561223039 8.7862635395722464 0 0 0 0 -2.8270676234405983 12.907071458574137 0 12.907071458574137 8.8597597619427688 0 0 0 0 4.9124717324618814 19.357497926923315 0 19.357497926923315 -8.2697923423547763 0 0 0 0 -4.8947608318553648 8.7511016405378541 0 8.7511016405378541 0.88559361626357713 0 0 0 0 -13.901695359992118 20.512308494779973 0 20.512308494779973 4.2338700365435216 0 0 0 0 -32.527642402474612 4.6111613086031866 0 4.6111613086031866 6.3126929150726028 0 0 0 0 -12.587000735392394 10.516741091903896 0 10.516741091903896 7.1315329704520991 0 0 0 0 26.913063363087304 12.61116794282816 0 12.61116794282816 -2.2885941998838462 0 0 0 0 0.018906245484424655 -0.060585796222841104 0 -0.060585796222841104 -0.082119457217167735 0 0 0 0 -3.799870289937644 7.9899375927980145 0 7.9899375927980145 3.7953439730699756 0 0 0 0 -4.1921976546018414 7.7450978552633387 0 7.7450978552633387 3.6523590024071382 0 0 0 0 -3.0001842482005472 1.3510146236373828 0 1.3510146236373828 -2.1144501823299207 0 0 0 0 -5.3653045806488535 10.938978981470882 0 10.938978981470882 7.8937719715249841 0 0 0 0 -3.5608743300854258 17.608055093769508 0 17.608055093769508 -1.5088111495533667 0 0 0 0 5.1653182402274069 2.8847502716662348 0 2.8847502716662348 6.6506220194751222 0 0 0 0 0.02803275409314665 11.199646445915278 0 11.199646445915278 -1.2483206764452461 0 0 0 0 -0.76841532727610229 7.643084555283167 0 7.643084555283167 -5.0281490585657593 0 0 0 0 -19.000474753932679 41.297540908712563 0 41.297540908712563 -54.034739665567031 0 0 0 0 -3.5843112737691172 7.4498640614110627 0 7.4498640614110627 -2.0722665328914331 0 0 0 0 -2.2262025659835847 8.0925301604567377 0 8.0925301604567377 -2.0238670809342376 0 0 0 0 -0.70279085833499266 7.6357403640213306 0 7.6357403640213306 -65.326582347125623 0 0 0 0 -4.6475955530917759 6.1134216718755852 0 6.1134216718755852 -7.8445557899894993 0 0 0 0 -3.1604017211341509 5.5181611246661326 0 5.5181611246661326 -3.4937594932507778 0 0 0 0 10.803302521008447 -0.60677162870842949 0 -0.60677162870842949 -26.328902003252551 0 0 0 0 -9.4104080281889395 14.883017439455429 0 14.883017439455429 -3.5887729932535883 0 0 0 0 35.132764300627969 68.505643182528729 0 68.505643182528729 -145.78552888387048 0 0 0 0 -71.719983598585259 -86.080369098991468 0 -86.080369098991468 -57.831721806487622 0 0 0 0 -6.4031736943557007 22.53365973131622 0 22.53365973131622 2.081270877555653 0 0 0 0 -2.4344505002691221 19.801997808874148 0 19.801997808874148 -17.329469865388091 0 0 0 0 -5.9868014903483981 13.557463008909963 0 13.557463008909963 9.8220877624917193 0 0 0 0 -5.9887430359499376 20.222468833297626 0 20.222468833297626 14.005617212460493 0 0 0 0 -3.9092149761900146 10.332180278234773 0 10.332180278234773 14.664415733433998 0 0 0 0 -8.4071709748877765 15.527910016056921 0 15.527910016056921 23.774108291920129 0 0 0 0 -7.6254518050782281 1.4864325656635629 0 1.4864325656635629 33.475247649661924 0 0 0 0 -0.88889664585664008 0.4138533688449435 0 0.4138533688449435 0.23675294815905268 0 0 0 0 -2.7526639244338185 5.5876688676262347 0 5.5876688676262347 16.595126667085424 0 0 0 0 -0.74718536188629514 11.206295229087118 0 11.206295229087118 4.1163122400812426 0 0 0 0 -2.1772248851250104 7.7359885535304702 0 7.7359885535304702 0.7088091650447963 0 0 0 0 -4.0079980543232523 7.9123461310255152 0 7.9123461310255152 -2.0505155925129657 0 0 0 0 5.424770006230915 -26.339337923364269 0 -26.339337923364269 -128.50098387642356 0 0 0 0 -0.72941501017021437 8.4326683414738 0 8.4326683414738 -3.3434002814728956 0 0 0 0 -1.4569878070295985 6.2396148966062057 0 6.2396148966062057 2.7378564366366298 0 0 0 0 2.2693162881651006 -32.725996169047221 0 -32.725996169047221 91.630293767767398 0 0 0 0 -9.2756923199190169 -30.056020655762723 0 -30.056020655762723 118.25013906571439 0 0 0 0 -6.2468318491615946 -35.202082648708711 0 -35.202082648708711 126.46633635288799 0 0 0 0 1.0500296366367365 -7.7681319600292227 0 -7.7681319600292227 78.149888921207094 0 0 0 0 2.0328860179015464 12.346934344987403 0 12.346934344987403 128.66412194465011 0 0 0 0 -0.26779211705752459 4.6956224026662312 0 4.6956224026662312 56.934854398286916 0 0 0 0 29.727135027691247 4.7689422782605106 0 4.7689422782605106 -7.9209170552321666 0 0 0 0 1.1775578183062518 1.1337976012629625 0 1.1337976012629625 -0.39093722326248415 0 0 0 0 -32.583288191631482 -9.9273541223569737 0 -9.9273541223569737 90.557033755510929 0 0 0 0 18.744568118834877 0.11994230447271548 0 0.11994230447271548 -6.9329098443176917 0 0 0 0 23.120443298967814 59.193283826307834 0 59.193283826307834 172.90672456294396 0 0 0 0 43.89525932840354 -42.422927712190813 0 -42.422927712190813 48.55052094846792 0 0 0 0 -2.9395338576276182 6.0430546059571117 0 6.0430546059571117 1.5907356375079416 0 0 0 0 0.22733299121560224 0.096610417238541579 0 0.096610417238541579 1.2132892540562707 0 0 0 0 0.78549347930960067 30.865767364859494 0 30.865767364859494 57.974078502074917 0 0 0 0 97.142155139966746 -16.117242176343552 0 -16.117242176343552 74.44797516712697 0 0 0 0 -49.5464973754938 -29.721529803286103 0 -29.721529803286103 179.55824723154615 0 0 0 0 -37.621080576325042 -38.559179129689255 0 -38.559179129689255 111.1153260785336 0 0 0 0 -80.596130356196852 -37.674543751987812 0 -37.674543751987812 137.58975678249044 0 0 0 0 -52.659681736503956 -8.1908428135170652 0 -8.1908428135170652 130.30869925605111 0 0 0 0 18.133073127514308 -64.662149233348828 0 -64.662149233348828 185.07406474454137 0 0 0 0 149.89708476176475 186.73222977202295 0 186.73222977202295 61.996356364077656 0 0 0 0 -22.47066163954355 122.64939951096312 0 122.64939951096312 215.29534109644999 0 0 0 0 0.41685873921700123 -0.53271681205350152 0 -0.53271681205350152 0.98756864177604697 0 0 0 0 -0.42150976966877352 97.546657880359589 0 97.546657880359589 -3.3895135128313996 0 0 0 0 -135.37123213120526 52.7472076175236 0 52.7472076175236 78.318124649394576 0 0 0 0 9.8923507182289541 79.469892864048234 0 79.469892864048234 64.438504835514323 0 0 0 0 32.976130602733519 -169.23433639557061 0 -169.23433639557061 -22.763245664962596 0 0 0 0 148.9055740756456 13.910630608122297 0 13.910630608122297 12.75697390532514 0 0 0 0 -31.501759214898811 178.04943384882517 0 178.04943384882517 -0.90099828605383436 0 0 0 0 79.531349487126704 29.405502250488553 0 29.405502250488553 -20.923032665754363 0 0 0 0 0.14149860672540626 48.284875343104432 0 48.284875343104432 17.125392459292925 0 0 0 0 -30.617098046849222 17.491202972762494 0 17.491202972762494 44.274420340445431 0 0 0 0 -8.9472020330758824 34.935184106714587 0 34.935184106714587 108.59921040679001 0 0 0 0 35.719566190386558 -33.852509530584939 0 -33.852509530584939 83.059967241062623 0 0 0 0 -30.868236822287372 -30.708362802155534 0 -30.708362802155534 44.941437062972909 0 0 0 0 -6.0584363349792056 6.9754815506512386 0 6.9754815506512386 47.103672816559992 0 0 0 0 -0.40364824515566511 -9.7406874167259048 0 -9.7406874167259048 -74.825466609769137 0 0 0 0 16.027359100628473 70.009484946632256 0 70.009484946632256 -8.221643613411743 0 0 0 0 -113.65163490614782 -58.509571211174261 0 -58.509571211174261 67.033244520019252 0 0 0 0 -0.54600566017061425 0.57799966641565526 0 0.57799966641565526 -0.41611956633547109 0 0 0 0 -77.41836380108866 -124.88524783425919 0 -124.88524783425919 -32.611425076443993 0 0 0 0 -0.85788380440545975 0.3223241721910135 0 0.3223241721910135 0.0011287280209408834 0 0 0 0 -152.67703790507312 -43.432613218331426 0 -43.432613218331426 82.338770484489942 0 0 0 0 -19.72555225700421 -57.910483081059283 0 -57.910483081059283 24.687638416851769 0 0 0 0 25.328441499750625 31.442188782656103 0 31.442188782656103 46.070427345419375 0 0 0 0 -2.4722454829730065 1.4605042690300163 0 1.4605042690300163 -1.4404668068955964 0 0 0 0 12.838324951912 27.07952523678432 0 27.07952523678432 36.088213928679494 0 0 0 0 22.634281945432576 25.74168199019914 0 25.74168199019914 39.273159307787864 0 0 0 0 13.401315828963106 20.31535959674693 0 20.31535959674693 36.48250032312535 0 0 0 0 3.0359538407224136 15.271817871064741 0 15.271817871064741 32.925282013731703 0 0 0 0 -0.84552058636654692 9.8201390572567107 0 9.8201390572567107 27.749219135766907 0 0 0 0 6.8158574432027308 15.130134597019605 0 15.130134597019605 29.745232884728466 0 0 0 0 7.9436046085279486 20.391469457393214 0 20.391469457393214 41.302877022809298 0 0 0 0 16.70631445485742 24.309279169293404 0 24.309279169293404 24.871871346997068 0 0 0 0 5.1376994953307076 18.524816224149617 0 18.524816224149617 32.699297671552813 0 0 0 0 7.0521015313288444 16.547567541016178 0 16.547567541016178 22.696498632037219 0 0 0 0 19.450743974151692 48.163971989682068 0 48.163971989682068 17.615990858397254 0 0 0 0 9.9372790472311863 15.600258638202831 0 15.600258638202831 22.417387127617076 0 0 0 0 -2.6015873501569331 3.2897398792320018 0 3.2897398792320018 44.303505531483097 0 0 0 0 -2.5657636398487598 1.0528725665759477 0 1.0528725665759477 -0.32123556755166049 0 0 0 0 15.090792228232885 -14.828570090697212 0 -14.828570090697212 43.979917064390975 0 0 0 0 -42.36409741602931 -29.253226157158551 0 -29.253226157158551 13.64891012883345 0 0 0 0 -38.645729326746732 38.08826874828992 0 38.08826874828992 5.630906325525757 0 0 0 0 -14.04143219010632 14.195497227448413 0 14.195497227448413 72.647446137418228 0 0 0 0 24.870038660285388 8.8307756466861065 0 8.8307756466861065 10.373893574174872 0 0 0 0 0.54579634871815086 0.83287716781006971 0 0.83287716781006971 -0.77120316551191004 0 0 0 0 17.028714634921016 14.906428624904947 0 14.906428624904947 17.569747322319017 0 0 0 0 5.690251751218625 26.511248716325554 0 26.511248716325554 29.253362710511283 0 0 0 0 -43.821608578543305 7.5382404928423057 0 7.5382404928423057 118.49100682256721 0 0 0 0 -2.9415624951559556 3.6880592304199453 0 3.6880592304199453 1.056406141707221 0 0 0 0 0.17150496344925359 -0.6329987791851277 0 -0.6329987791851277 0.020121623647376907 0 0 0 0 -0.24525589582958673 33.396364895434999 0 33.396364895434999 -31.29282420146501 0 0 0 0 -5.4859436359163283 10.852018293331184 0 10.852018293331184 -6.7532045076627583 0 0 0 0 -4.8381426842605038 13.689324938768777 0 13.689324938768777 -9.0117166473128236 0 0 0 0 -5.7007003599982529 7.7505608352232533 0 7.7505608352232533 -7.9193434658264295 0 0 0 0 -5.0055901079872456 45.397794203422563 0 45.397794203422563 7.8799714313609002 0 0 0 0 -0.32915093354995406 12.045136681616896 0 12.045136681616896 2.7781261992349755 0 0 0 0 -2.2698527759518328 1.6338545391086505 0 1.6338545391086505 0.31712694812045328 0 0 0 0 -18.085670995210194 6.3962472133339361 0 6.3962472133339361 9.9411446130461627 0 0 0 0 -26.63174351571945 25.334041892480855 0 25.334041892480855 -8.7659845477264753 0 0 0 0 -116.65743825385486 19.551455820653473 0 19.551455820653473 24.782655966339007 0 0 0 0 -38.397291379784114 10.739553327018399 0 10.739553327018399 -4.4579462878691629 0 0 0 0 -8.1505671836730738 9.6891597404419656 0 9.6891597404419656 -2.1620731937557549 0 0 0 0 -0.042757977014816539 1.5648815001794034 0 1.5648815001794034 -4.4051485308011324 0 0 0 0 8.0501895252394888 21.406999688688757 0 21.406999688688757 9.4468690305629934 0 0 0 0 -33.558036320864971 52.370143736185128 0 52.370143736185128 -12.650751484410648 0 0 0 0 32.789193617958801 38.084816940694282 0 38.084816940694282 -20.126291506270718 0 0 0 0 -1.4960801953803533 -0.20286989905101738 0 -0.20286989905101738 4.8819354647012076 0 0 0 0 28.378120193137192 73.054816166792079 0 73.054816166792079 58.363666954972359 0 0 0 0 32.034695467683605 32.221912759677252 0 32.221912759677252 37.40159609538955 0 0 0 0 1.2769884621512571 3.0741740452942441 0 3.0741740452942441 5.152863456872705 0 0 0 0 1.1777759193246311 76.089658016299154 0 76.089658016299154 115.09925394335914 0 0 0 0 11.561340128944721 3.7567407675912818 0 3.7567407675912818 42.787088859400683 0 0 0 0 -6.9107398700607519 24.905109996208466 0 24.905109996208466 116.53927891382955 0 0 0 0 6.8178598559898091 17.113930196331694 0 17.113930196331694 20.662485365696284 0 0 0 0 7.0640004369076372 16.166733494358027 0 16.166733494358027 5.1282965721968932 0 0 0 0 -22.473831592680654 9.6059786043674649 0 9.6059786043674649 33.661242623427597 0 0 0 0 3.7996232019301601 19.632000564161121 0 19.632000564161121 7.1060291188529714 0 0 0 0 10.695270408952638 26.719136962493394 0 26.719136962493394 -4.8313979677659518 0 0 0 0 1.0484233070255868 38.735940667731029 0 38.735940667731029 16.609007921986631 0 0 0 0 9.2193048410163101 45.509389031042247 0 45.509389031042247 -1.376040366630491 0 0 0 0 7.8296862077883915 19.906531058550321 0 19.906531058550321 7.5660297536931038 0 0 0 0 -12.264134462333232 70.767848535099745 0 70.767848535099745 54.199565926605828 0 0 0 0 -11.154366271998697 64.921134839597698 0 64.921134839597698 84.087746030489598 0 0 0 0 -15.183485719566306 34.140407981034059 0 34.140407981034059 49.015688508531184 0 0 0 0 -25.618360057157588 87.223716052093778 0 87.223716052093778 69.371858781390983 0 0 0 0 2.5740877311400254 77.22493362313412 0 77.22493362313412 23.048408370228572 0 0 0 0 -19.890725551000287 54.791397187950679 0 54.791397187950679 27.418620689932141 0 0 0 0 -17.489526838958966 103.64365832018026 0 103.64365832018026 59.407035140900007 0 0 0 0 -48.810687729263009 30.233439055201416 0 30.233439055201416 7.4270895864947306 0 0 0 0 -3.4207837260164524 58.340269831933256 0 58.340269831933256 -67.568463742374661 0 0 0 0 -45.949833613555711 50.237497233010686 0 50.237497233010686 -83.986845432424161 0 0 0 0 -12.653550530230859 87.230808126366355 0 87.230808126366355 -49.806148061487875 0 0 0 0 -22.27629745303534 67.897837404883035 0 67.897837404883035 20.360797207297765 0 0 0 0 -17.426693995599635 93.757464444124253 0 93.757464444124253 -12.173248699575652 0 0 0 0 -36.871160551743742 115.21831126706252 0 115.21831126706252 -45.32760758411041 0 0 0 0 -97.856360649265298 64.859078763008711 0 64.859078763008711 45.585744301531349 0 0 0 0 -27.015092946030563 60.382257828652655 0 60.382257828652655 39.984044439191166 0 0 0 0 -37.548576372475054 39.288870608267644 0 39.288870608267644 101.4505432623655 0 0 0 0 -42.650693948637809 25.102610501704248 0 25.102610501704248 69.235723613398477 0 0 0 0 -26.605902797067756 50.030127950112274 0 50.030127950112274 90.5942670635377 0 0 0 0 -16.16937964813269 43.272398806097499 0 43.272398806097499 23.718044683581866 0 0 0 0 -28.461278458287779 -1.2025120870353021 0 -1.2025120870353021 2.3292901683091713 0 0 0 0 -0.45371085693814805 0.067986830067598092 0 0.067986830067598092 1.9562060250310207 0 0 0 0 -21.615291925386828 -39.615657148581022 0 -39.615657148581022 139.71938458598925 0 0 0 0 -9.2957524730259138 -52.056163756536534 0 -52.056163756536534 76.699746081569174 0 0 0 0 10.539544899243083 52.077869418751561 0 52.077869418751561 40.14505767433343 0 0 0 0 -31.925206615635261 48.391414402094938 0 48.391414402094938 184.6191872370182 0 0 0 0 -9.0502819843204634 9.7093258462095946 0 9.7093258462095946 0.89797299616043347 0 0 0 0 -48.013678336925295 33.787704756689436 0 33.787704756689436 23.712468941695079 0 0 0 0 -4.7734479531518446 -30.421500733372341 0 -30.421500733372341 46.108263194190386 0 0 0 0 -7.9081103093294587 -0.8109750274416001 0 -0.8109750274416001 116.4007571288796 0 0 0 0 -1.0381443741980547 -4.386680550584515 0 -4.386680550584515 89.329481405226034 0 0 0 0 -0.98196210731033595 7.8013423272452478 0 7.8013423272452478 0.13013827524141663 0 0 0 0 -1.7520465116826927 7.5529166284441089 0 7.5529166284441089 -1.714360322362154 0 0 0 0 0.8335491457637545 6.1637736490920361 0 6.1637736490920361 -1.009852541530563 0 0 0 0 0.3184698622826545 7.8890123564560781 0 7.8890123564560781 -1.9292995299620088 0 0 0 0 -0.020085308413737124 7.0902196754289966 0 7.0902196754289966 2.7860546951409102 0 0 0 0 -24.768085770516791 -24.303157652352184 0 -24.303157652352184 141.36279879283575 0 0 0 0 1.0707887554427309 8.0492903908847975 0 8.0492903908847975 3.1670178341166912 0 0 0 0 6.2995632859410762 14.67394592166238 0 14.67394592166238 4.7560531147955771 0 0 0 0 5.3684023691066614 11.137613461518413 0 11.137613461518413 12.165226916675238 0 0 0 0 5.3523350155752496 14.715640243621124 0 14.715640243621124 7.3331456302839797 0 0 0 0 -17.552514801162033 -2.6506980088088312 0 -2.6506980088088312 16.783552957551819 0 0 0 0 0.54494480741732332 17.748521170999993 0 17.748521170999993 4.9518255533694173 0 0 0 0 -7.4015825086822815 18.18307949509267 0 18.18307949509267 6.9202757333623595 0 0 0 0 -4.4429932950288276 13.781104829995456 0 13.781104829995456 4.4062604974915303 0 0 0 0 53.190821871772641 49.209253754689144 0 49.209253754689144 22.67152207108029 0 0 0 0 29.481114976149001 -52.314743581542189 0 -52.314743581542189 144.22948442601103 0 0 0 0 -26.754271841592072 5.3758047119563344 0 5.3758047119563344 176.36546311672009 0 0 0 0 -5.4559988585206156 51.573682285524683 0 51.573682285524683 137.2545340439583 0 0 0 0 1.7362909044180501 7.4973207967120858 0 7.4973207967120858 -1.5892112364645641 0 0 0 0 4.256734629489074 14.894280785216324 0 14.894280785216324 12.762809909292628 0 0 0 0 2.9180147813822259 13.081085981451906 0 13.081085981451906 16.550807506004105 0 0 0 0 5.1461621049074893 13.607134233163379 0 13.607134233163379 11.382236030747663 0 0 0 0 7.2620271819312165 16.931886936037245 0 16.931886936037245 10.307346061017597 0 0 0 0 4.2439796946501644 15.370768724484549 0 15.370768724484549 19.810115545049484 0 0 0 0 5.1384437740130977 15.055621379843323 0 15.055621379843323 5.9659852972685865 0 0 0 0 7.0869411645303444 15.041150133050905 0 15.041150133050905 7.1795092969914549 0 0 0 0 6.5083828988456389 16.360013717914626 0 16.360013717914626 8.5125637052879028 0 0 0 0 5.4977765177163747 14.703400800202871 0 14.703400800202871 5.8839875033627322 0 0 0 0 6.3162441322047016 16.887768245185725 0 16.887768245185725 5.2254620612889084 0 0 0 0 6.2708051791410071 16.245094682333729 0 16.245094682333729 6.9529271850642544 0 0 0 0 -4.6208069837094383 4.7536737631225385 0 4.7536737631225385 -6.3701158292933719 0 0 0 0 11.816201290278059 16.601326599401091 0 16.601326599401091 3.1810109125581221 0 0 0 0 -1.1161866171547672 17.146368659636437 0 17.146368659636437 8.1956026224252128 0 0 0 0 -3.8822014644722458 14.684539116120959 0 14.684539116120959 7.2991180251556216 0 0 0 0 -1.3593632634479036 15.866336614220018 0 15.866336614220018 7.5271134211316166 0 0 0 0 3.4703228315233901 16.279872285721467 0 16.279872285721467 5.9243788614439836 0 0 0 0 3.1693578331351091 15.980224011752398 0 15.980224011752398 8.210477347548931 0 0 0 0 1.3719616283410687 17.071133002806164 0 17.071133002806164 6.8419649264469626 0 0 0 0 4.2247765945817264 14.566308244263155 0 14.566308244263155 2.6490567730415933 0 0 0 0 0.55116407978039206 15.668064359880191 0 15.668064359880191 4.748750499759808 0 0 0 0 -1.078526034956667 15.299553156112324 0 15.299553156112324 4.6661816831147007 0 0 0 0 2.1747757605198785 15.283180773291861 0 15.283180773291861 2.714464158838382 0 0 0 0 1.8114837006621087 14.099583206662146 0 14.099583206662146 2.5652352645574865 0 0 0 0 -0.46962594335536778 12.885677252017558 0 12.885677252017558 0.54717281457851641 0 0 0 0 12.548188300617312 15.174597205501868 0 15.174597205501868 3.4415762815351627 0 0 0 0 8.0849999296890473 10.511239585308772 0 10.511239585308772 -0.82387730390109937 0 0 0 0 4.5520305657610152 23.549502739981108 0 23.549502739981108 -1.2020252041002095 0 0 0 0 -5.015345262098613 5.6658520702639485 0 5.6658520702639485 -6.1015024585365829 0 0 0 0 0.2942113209346644 11.984643198880804 0 11.984643198880804 -1.1025244726447454 0 0 0 0 18.785918043442507 14.517124102799244 0 14.517124102799244 -5.6556125119986973 0 0 0 0 27.848206389773623 18.035036058309743 0 18.035036058309743 -5.2058986637073303 0 0 0 0 27.208347090972893 27.602376363844087 0 27.602376363844087 -5.6156598440993548 0 0 0 0 20.739815423057735 21.326043682670388 0 21.326043682670388 1.6857143618744885 0 0 0 0 20.43701563349714 22.25458387814615 0 22.25458387814615 3.0298339626178858 0 0 0 0 13.84271187290733 18.471700615852114 0 18.471700615852114 3.8214660932735569 0 0 0 0 10.013526061487028 22.112950989640012 0 22.112950989640012 2.1937065715460449 0 0 0 0 6.5474810306136533 23.150123484408141 0 23.150123484408141 2.5670217553979455 0 0 0 0 -3.4383747277171466 7.6175811628488503 0 7.6175811628488503 -0.88278441185871515 0 0 0 0 7.3869003473550947 28.160524591369722 0 28.160524591369722 16.207225682788703 0 0 0 0 5.7530487073790937 30.720196085377211 0 30.720196085377211 12.298274275922267 0 0 0 0 4.375184335454378 26.817388607591511 0 26.817388607591511 1.4815882742750546 0 0 0 0 23.585984580120567 29.319945855045262 0 29.319945855045262 -0.67357855143927736 0 0 0 0 16.320470703729825 29.588523257359157 0 29.588523257359157 2.0651079273702635 0 0 0 0 -24.818292028335236 45.809126262484824 0 45.809126262484824 17.511461009675259 0 0 0 0 16.044272197557802 56.63080087418075 0 56.63080087418075 -18.816167751270768 0 0 0 0 -84.846742922225985 29.245522985300795 0 29.245522985300795 257.26737348658753 0 0 0 0 52.879988057265109 38.535635005747281 0 38.535635005747281 -16.044240775870094 0 0 0 0 19.993693463880334 27.087692310796228 0 27.087692310796228 -2.0606729357532458 0 0 0 0 38.887993345909308 8.5623620785763705 0 8.5623620785763705 15.601360744383783 0 0 0 0 13.361893418317777 41.826516827609339 0 41.826516827609339 33.293521899398911 0 0 0 0 24.807235668219619 34.711973510512507 0 34.711973510512507 -17.442162839171942 0 0 0 0 25.389568913982657 67.816915049919771 0 67.816915049919771 -28.137257936630704 0 0 0 0 29.000256371809883 20.910968021195004 0 20.910968021195004 -181.97427383964168 0 0 0 0 0.35132758467137037 0.67537626346726043 0 0.67537626346726043 0.017905046520420465 0 0 0 0 39.290876550507164 127.68261849649753 0 127.68261849649753 -93.808215929017933 0 0 0 0 -2.2885571565757346 98.807792202797714 0 98.807792202797714 -67.078271007587318 0 0 0 0 115.79599838072772 -14.081622997806335 0 -14.081622997806335 -3.2133319288968778 0 0 0 0 -15.681061498127974 46.678068834413125 0 46.678068834413125 150.57671050267527 0 0 0 0 0.24551504427427062 32.114154142946063 0 32.114154142946063 83.263500338398444 0 0 0 0 7.169393286311788 12.369845763276317 0 12.369845763276317 45.678185119119007 0 0 0 0 5.7936474178450226 22.226804023199293 0 22.226804023199293 38.100125311862939 0 0 0 0 7.9994355508986814 3.002601874578545 0 3.002601874578545 17.014710851268319 0 0 0 0 -33.462847703203693 -23.080309129157513 0 -23.080309129157513 -2.2139006755096489 0 0 0 0 36.49123132124987 16.29532184654272 0 16.29532184654272 -85.615269930405702 0 0 0 0 35.914172876839103 24.942765978282694 0 24.942765978282694 -11.560622987904935 0 0 0 0 30.960820512991631 20.703964813423227 0 20.703964813423227 -15.117213606983569 0 0 0 0 31.890266859092662 23.786073442537599 0 23.786073442537599 -11.08959265339945 0 0 0 0 30.987363950162944 20.162686437690354 0 20.162686437690354 -4.1436586119252752 0 0 0 0 28.842634596745256 17.392969798132526 0 17.392969798132526 -5.6802054935142223 0 0 0 0 36.692067355300424 24.610134261949497 0 24.610134261949497 -5.7542836935340063 0 0 0 0 31.677413172530578 24.092182724690247 0 24.092182724690247 4.3121140147304686 0 0 0 0 54.326016493004317 45.076685332096531 0 45.076685332096531 13.095861505469657 0 0 0 0 15.325388638596451 27.564608885079906 0 27.564608885079906 34.320957555240966 0 0 0 0 34.373815918865375 32.119771536062672 0 32.119771536062672 12.597804737080878 0 0 0 0 15.238198364566415 28.217209872311287 0 28.217209872311287 39.062347632003366 0 0 0 0 27.670516591201704 55.681324507550926 0 55.681324507550926 54.818851036880005 0 0 0 0 4.4914722725761749 53.633036401781283 0 53.633036401781283 69.069658145650465 0 0 0 0 26.761275914617727 48.636546255892426 0 48.636546255892426 34.716051898962178 0 0 0 0 35.074977327889428 61.862127432670604 0 61.862127432670604 51.71296094167883 0 0 0 0 50.062441030628179 77.990614198703952 0 77.990614198703952 50.953623923278428 0 0 0 0 11.539945930297108 72.474999941079659 0 72.474999941079659 117.81882292077535 0 0 0 0 11.669009914258822 54.097303175136403 0 54.097303175136403 73.089519212164305 0 0 0 0 7.6846041627627528 57.132810043862946 0 57.132810043862946 70.940326870297213 0 0 0 0 -3.2329826511486708 3.6320106488127912 0 3.6320106488127912 -1.839694834370075 0 0 0 0 10.422044115651261 26.979087990719563 0 26.979087990719563 31.106284940698515 0 0 0 0 56.972563808263658 66.244436396886158 0 66.244436396886158 38.787572965890831 0 0 0 0 -6.1886032611914743 -1.6460263447752368 0 -1.6460263447752368 20.051470050806529 0 0 0 0 -2.9351640996683273 3.1359912026673555 0 3.1359912026673555 1.2530070872671786 0 0 0 0 -3.5165640100082172 3.9840502844455425 0 3.9840502844455425 1.142036770227989 0 0 0 0 1.6472274636780639 -30.562852659394594 0 -30.562852659394594 -29.802419813066081 0 0 0 0 -3.2908514393133039 2.5676640567040145 0 2.5676640567040145 3.175466170545711 0 0 0 0 -0.94956426792326099 0.97428078805353557 0 0.97428078805353557 -0.44868370835206051 0 0 0 0 40.485842780678468 72.059403183763152 0 72.059403183763152 80.684337751343264 0 0 0 0 27.235393083346935 71.591707497562311 0 71.591707497562311 81.644911214149033 0 0 0 0 58.736543106045701 102.13975982627744 0 102.13975982627744 107.58503629469851 0 0 0 0 97.518305114632767 70.687428467769678 0 70.687428467769678 60.257899324424216 0 0 0 0 31.111204566199376 51.573901253728764 0 51.573901253728764 74.639364473622209 0 0 0 0 1.553229250784625 45.62634384815874 0 45.62634384815874 80.569767134624271 0 0 0 0 0.053732844171889838 1.2963922452432222 0 1.2963922452432222 -1.7165038603796923 0 0 0 0 -28.58631386475372 19.416378642657946 0 19.416378642657946 20.563325815190183 0 0 0 0 5.4607547380416879 3.7482476839060475 0 3.7482476839060475 -0.41883134431524027 0 0 0 0 16.537645313635949 14.597268458514009 0 14.597268458514009 -4.6700360256518252 0 0 0 0 8.2875368182321836 6.4314865055675909 0 6.4314865055675909 -2.2224731889582472 0 0 0 0 5.1809695605479646 -2.281513449313934 0 -2.281513449313934 -11.849707774242233 0 0 0 0 1.5390750372846735 0.96040092121725706 0 0.96040092121725706 0.064547153488504705 0 0 0 0 13.267592434469407 6.2324218031608325 0 6.2324218031608325 -13.044136069049273 0 0 0 0 -3.7792467324720747 10.000850909671499 0 10.000850909671499 0.65294618014337402 0 0 0 0 -5.4791758138136268 6.1280451314648374 0 6.1280451314648374 -6.2729753950730682 0 0 0 0 2.7183938523148754 0.32381083816198952 0 0.32381083816198952 -1.3366072037908623 0 0 0 0 4.2513999781449456 16.348704365443155 0 16.348704365443155 -12.801674773931154 0 0 0 0 14.399379078773563 2.662867855575314 0 2.662867855575314 -6.3580289891997381 0 0 0 0 -3.4501987278549677 4.1007473102508811 0 4.1007473102508811 26.219563592567283 0 0 0 0 7.7864879642588676 3.0920487208481973 0 3.0920487208481973 5.3287635348697222 0 0 0 0 6.6405198238144294 14.788203932295801 0 14.788203932295801 -44.207054809405236 0 0 0 0 -0.28039650166460461 -0.19461702415275184 0 -0.19461702415275184 0.14194977154607358 0 0 0 0 33.68887777879354 19.270644511416322 0 19.270644511416322 -15.759750645916469 0 0 0 0 16.624640332774106 4.4139893612818923 0 4.4139893612818923 -15.559550457195655 0 0 0 0 19.880982039658193 23.943144829399898 0 23.943144829399898 -0.81376044245371304 0 0 0 0 90.064514141700784 50.106960499697379 0 50.106960499697379 6.4801745719341852 0 0 0 0 38.665879491877604 21.251629050779229 0 21.251629050779229 -5.0318770204357861 0 0 0 0 101.50206222950914 46.886845303541691 0 46.886845303541691 -16.734450823876614 0 0 0 0 80.342318762769537 132.06656097102496 0 132.06656097102496 140.9262578457674 0 0 0 0 1.163363659194518 0.83631010644262105 0 0.83631010644262105 0.70777935200161934 0 0 0 0 -1.4743151677248534 14.953724214949943 0 14.953724214949943 132.54513130359464 0 0 0 0 34.944038227014971 -1.5252390884897977 0 -1.5252390884897977 -19.036901792209392 0 0 0 0 -9.7862670757422165 0.087039366434510157 0 0.087039366434510157 5.8787658073124476 0 0 0 0 -11.178143770973293 22.938786917607104 0 22.938786917607104 -4.6809138089226394 0 0 0 0 2.9727504670764038 2.4647801812970016 0 2.4647801812970016 1.2036893972669951 0 0 0 0 -13.741263545179208 18.563002304044858 0 18.563002304044858 -11.632043292549497 0 0 0 0 3.4996136516729166 2.5523530313766969 0 2.5523530313766969 16.943121343969324 0 0 0 0 -4.3250354379470082 -1.5466131042358029 0 -1.5466131042358029 50.85305075793076 0 0 0 0 4.625132577891236 -0.61415707159812882 0 -0.61415707159812882 3.4581285166514135 0 0 0 0 4.7865940979345396 10.501596826992682 0 10.501596826992682 10.892528942422359 0 0 0 0 23.603787801057479 31.392287990802288 0 31.392287990802288 -1.5799645293100184 0 0 0 0 1.1415970805796256 0.63162055674294848 0 0.63162055674294848 -0.26100822855091188 0 0 0 0 34.013371464744523 8.6104151717354398 0 8.6104151717354398 -14.898242007371664 0 0 0 0 -0.15808008900648929 30.130651801753629 0 30.130651801753629 61.95459417362872 0 0 0 0 4.1432079996820903 10.28965337779664 0 10.28965337779664 28.126962736003406 0 0 0 0 3.0916095716704035 20.548467084512765 0 20.548467084512765 43.371842861208279 0 0 0 0 -4.7986781052431979 15.858605231171168 0 15.858605231171168 48.065672344030645 0 0 0 0 -3.4053849114535524 20.949614205588887 0 20.949614205588887 49.547087340008147 0 0 0 0 -37.728366478439966 20.373538066888614 0 20.373538066888614 65.998302748106653 0 0 0 0 -10.676814824300891 106.5744343768315 0 106.5744343768315 210.75624872532353 0 0 0 0 66.175450620418815 164.87828804817764 0 164.87828804817764 226.7014483124367 0 0 0 0 192.14814659593867 136.17654843908531 0 136.17654843908531 103.74006421066395 0 0 0 0 15.381609406484131 -9.3977122753130971 0 -9.3977122753130971 5.2520462750617298 0 0 0 0 154.81854860107933 148.79518107828335 0 148.79518107828335 188.77175177308345 0 0 0 0 0.83951218170925657 0.45305073664815509 0 0.45305073664815509 -0.041643061322329089 0 0 0 0 32.968287127309395 22.185554945885087 0 22.185554945885087 -4.3361279395212478 0 0 0 0 0.89682201275251749 0.58184442874006237 0 0.58184442874006237 -0.10812943910802808 0 0 0 0 50.449301564692178 4.9888784929844405 0 4.9888784929844405 70.928322999674492 0 0 0 0 122.59861824793006 133.89703305076182 0 133.89703305076182 77.380976181106234 0 0 0 0 90.993799891741219 0.96087324218751746 0 0.96087324218751746 178.52730376886439 0 0 0 0 152.19239522863245 99.439386159527203 0 99.439386159527203 89.265828426199732 0 0 0 0 81.431236099840021 30.303453456027114 0 30.303453456027114 54.191582233012014 0 0 0 0 83.901583648184896 74.382642709464562 0 74.382642709464562 125.06533220390884 0 0 0 0 -1.3868808610832275 3.2818153174112012 0 3.2818153174112012 -0.48052306615136331 0 0 0 0 1.5838829021186847 0.38607734856691422 0 0.38607734856691422 -0.62127337823502771 0 0 0 0 0.44743186756993758 0.65076800575366178 0 0.65076800575366178 -0.54024530761319411 0 0 0 0 11.013767453497167 -5.6091834954022488 0 -5.6091834954022488 7.84803795618609 0 0 0 0 81.760357144707086 20.22741275557928 0 20.22741275557928 9.3990539361002448 0 0 0 0 0.68438931931268598 5.6054682689173205 0 5.6054682689173205 -8.9747202407452278 0 0 0 0 -2.3330078016524567 2.2910869309534974 0 2.2910869309534974 -4.1706262517836876 0 0 0 0 -7.6337824499128146 20.820633532855027 0 20.820633532855027 -0.022694333232720965 0 0 0 0 -2.14590768513699 13.440339903724634 0 13.440339903724634 -21.476957478764234 0 0 0 0 -4.9842616534197077 35.12746826851253 0 35.12746826851253 -28.355286278238054 0 0 0 0 -4.8889977312505835 37.493391295909532 0 37.493391295909532 -59.063301701160526 0 0 0 0 0.32661575932127462 0.33691512723045491 0 0.33691512723045491 -0.18194324477999402 0 0 0 0 0.53812036935732976 7.8472034744406756 0 7.8472034744406756 -25.578127132655936 0 0 0 0 -6.9726031094069185 40.528427118335458 0 40.528427118335458 12.547540383360911 0 0 0 0 -8.3653968593680474 6.2527297249071125 0 6.2527297249071125 -23.881779722898045 0 0 0 0 -0.67570829187264536 1.2474588797183301 0 1.2474588797183301 -0.87824643201043173 0 0 0 0 -8.4910052428726885 2.1937333538894563 0 2.1937333538894563 -52.169580275993212 0 0 0 0 13.603855622600349 -12.264612437631513 0 -12.264612437631513 89.569829098320042 0 0 0 0 -0.035388676342305914 0.63556385543252247 0 0.63556385543252247 -0.48871405612042196 0 0 0 0 24.6834221427589 -3.6262416261315593 0 -3.6262416261315593 -140.17060044157552 0 0 0 0 90.915188013237639 146.10851425390501 0 146.10851425390501 103.47005745461536 0 0 0 0 87.437227731821622 196.14793523373373 0 196.14793523373373 -10.555136684110039 0 0 0 0 76.250597884461968 119.72342858610136 0 119.72342858610136 91.702731311468597 0 0 0 0 101.61660725367938 143.47731883409415 0 143.47731883409415 50.948372863065742 0 0 0 0 84.612509116803267 149.7287622319418 0 149.7287622319418 83.511611910445936 0 0 0 0 93.168061962209322 142.45725812178716 0 142.45725812178716 84.361359488095331 0 0 0 0 -3.0982813104149045 58.066108030232954 0 58.066108030232954 -0.054253057505775359 0 0 0 0 77.308048715543009 103.41226014848507 0 103.41226014848507 -78.762734777219521 0 0 0 0 212.41945065125674 97.756273854318351 0 97.756273854318351 -66.829120731686999 0 0 0 0 90.79546282237277 65.380385500602188 0 65.380385500602188 24.188406649289391 0 0 0 0 95.679457224173348 103.67480461399282 0 103.67480461399282 50.715534954706527 0 0 0 0 140.45461063659059 145.47740389311912 0 145.47740389311912 43.03087010359377 0 0 0 0 75.049706672081811 75.447487054480007 0 75.447487054480007 -93.752902850384999 0 0 0 0 96.146519048086702 130.71177742083455 0 130.71177742083455 93.460788286887691 0 0 0 0 81.928835237969906 140.29940299132795 0 140.29940299132795 89.999910271179033 0 0 0 0 110.6029416104866 135.55598096667654 0 135.55598096667654 4.0289393708189891 0 0 0 0 40.749455737305652 41.030891007712398 0 41.030891007712398 -29.686865441515693 0 0 0 0 5.3364715885381884 -1.3116880879933888 0 -1.3116880879933888 6.5829922903358238 0 0 0 0 11.039230937307366 1.4495318422177661 0 1.4495318422177661 2.9127992635021656 0 0 0 0 1.0160856911807059 8.4623974259375245 0 8.4623974259375245 -0.5434283609411068 0 0 0 0 3.0919810585291998 10.183084345726456 0 10.183084345726456 -1.1753782034920732 0 0 0 0 1.3934132170943485 3.0026308208562114 0 3.0026308208562114 5.3730901811654803 0 0 0 0 -7.7475833424891789 11.650915498657014 0 11.650915498657014 0.59172396601388755 0 0 0 0 -29.359374923691576 5.352147459407206 0 5.352147459407206 9.5909881525985838 0 0 0 0 0.036005055791406004 -0.31457187159587541 0 -0.31457187159587541 -0.14688878140364636 0 0 0 0 -19.240385197894284 -0.62213572428117914 0 -0.62213572428117914 6.9514429623959586 0 0 0 0 -20.37771198589121 5.1903245045477888 0 5.1903245045477888 12.043826975110278 0 0 0 0 -0.36723076607603666 0.91988767082625778 0 0.91988767082625778 -0.12822140385580383 0 0 0 0 -8.5451098150464873 19.576683128481534 0 19.576683128481534 -7.1667761270291521 0 0 0 0 -4.6663709077838575 4.6718447205703342 0 4.6718447205703342 -21.09565434365868 0 0 0 0 -12.918231121848294 9.4050881219372968 0 9.4050881219372968 10.976249008484956 0 0 0 0 -9.9196254067810514 4.6104229644388397 0 4.6104229644388397 7.7095633784479105 0 0 0 0 3.1197572752153064 -9.1883565652242396 0 -9.1883565652242396 -15.941516462532491 0 0 0 0 0.0075711470530208658 0.39751820146381789 0 0.39751820146381789 -0.081077654643401331 0 0 0 0 -11.82729346636188 6.3021211360292 0 6.3021211360292 16.044763967873223 0 0 0 0 8.222777661908367 14.660759755882282 0 14.660759755882282 49.775459784464601 0 0 0 0 -0.1256903640121827 0.67695492503834487 0 0.67695492503834487 -0.94402463399695513 0 0 0 0 1.9776180584167093 7.4550801739194696 0 7.4550801739194696 -9.0715355234096933 0 0 0 0 -1.2476178557519937 2.3792179746150595 0 2.3792179746150595 -2.0593772224608706 0 0 0 0 -7.9704594913246183 24.748504607045106 0 24.748504607045106 101.77703967086018 0 0 0 0 24.449505179449261 66.147324807205223 0 66.147324807205223 121.34759792575278 0 0 0 0 15.755742468381868 25.550786613421224 0 25.550786613421224 92.928844842424041 0 0 0 0 -0.0035050233624867033 0.74572598934001544 0 0.74572598934001544 -0.65460384881080103 0 0 0 0 16.317052577671348 51.566992594154726 0 51.566992594154726 48.526368587965408 0 0 0 0 -11.075449152031069 50.064035214107207 0 50.064035214107207 54.628165548783727 0 0 0 0 -3.3816968033625017 26.981133880450216 0 26.981133880450216 122.14250212109664 0 0 0 0 -3.0485040090170514 4.1267373684058839 0 4.1267373684058839 -2.4417596531729941 0 0 0 0 -1.2162559118183545 1.7927812931744 0 1.7927812931744 -1.1613302127609586 0 0 0 0 -1.7110739624840789 3.9491559683028754 0 3.9491559683028754 0.82986968081604573 0 0 0 0 -51.671680656956596 -25.093323033619527 0 -25.093323033619527 -29.848614485876169 0 0 0 0 0.60671074867901797 1.4616586001057694 0 1.4616586001057694 -2.2813675358713112 0 0 0 0 2.2605113725955981 2.4337287174995339 0 2.4337287174995339 -2.729944193340188 0 0 0 0 1.6523807852754544 2.9952063002820069 0 2.9952063002820069 -3.0624648667817382 0 0 0 0 10.28324438421896 2.3506799618426157 0 2.3506799618426157 -1.6261931134158658 0 0 0 0 -2.6491035911021754 7.3981063574683503 0 7.3981063574683503 -0.53068996555884951 0 0 0 0 8.7322087175052729 9.4085835243108704 0 9.4085835243108704 -5.7159902516723378 0 0 0 0 0.5009676678928372 10.915588853158624 0 10.915588853158624 -0.43028409653925337 0 0 0 0 0.49430278698434549 0.53544245613502284 0 0.53544245613502284 -0.67938343850950389 0 0 0 0 1.6112016714405399 -0.49922377201073687 0 -0.49922377201073687 -0.37067925381052191 0 0 0 0 0.82267779271387553 2.9730983396602824 0 2.9730983396602824 0.78044338930521917 0 0 0 0 -0.43050188058862116 0.17045758730034688 0 0.17045758730034688 0.42034011338880362 0 0 0 0 6.8304755030681008 7.8602067407036884 0 7.8602067407036884 -3.0346000677345728 0 0 0 0 -2.609613229120896 4.3975153659403077 0 4.3975153659403077 -6.2583362259574642 0 0 0 0 -4.4959154232387846 9.6693085199358393 0 9.6693085199358393 -10.103289425483126 0 0 0 0 -3.9105246143863042 7.568648190188469 0 7.568648190188469 -3.4520206658726238 0 0 0 0 -10.929000632618681 9.4660946550511653 0 9.4660946550511653 -0.0109671535265079 0 0 0 0 -0.2429775503739382 -0.26817360279420743 0 -0.26817360279420743 0.41582115212071358 0 0 0 0 42.526575398708701 -0.40026362688331574 0 -0.40026362688331574 -8.3079619589698268 0 0 0 0 11.163328634774189 24.387918202623041 0 24.387918202623041 0.020038636399123979 0 0 0 0 -11.431233381683342 3.5692765183066513 0 3.5692765183066513 -4.2477722362527857 0 0 0 0 1.6853176874101337 20.207913052188587 0 20.207913052188587 -1.8082124575885246 0 0 0 0 4.713948534777046 4.7506848184948467 0 4.7506848184948467 1.1293250676126263 0 0 0 0 -20.303445235353138 6.8086285003573721 0 6.8086285003573721 3.339906026609242 0 0 0 0 -19.426363824040891 5.3088930130033987 0 5.3088930130033987 -14.398191726064397 0 0 0 0 -59.586537672024633 8.2462444924390184 0 8.2462444924390184 13.282632607992127 0 0 0 0 -30.344245118281833 22.173472363876499 0 22.173472363876499 -0.022968263036057798 0 0 0 0 0.0061275605562652879 -0.29103220876680425 0 -0.29103220876680425 -0.054634441867925432 0 0 0 0 20.92439781437588 16.723526528670845 0 16.723526528670845 -0.0021023935023549711 0 0 0 0 47.720120059854537 7.4083718743211193 0 7.4083718743211193 -8.8526494492398342 0 0 0 0 -1.2101634841378655 17.527392536329444 0 17.527392536329444 0.042185061287455028 0 0 0 0 8.4450750348760266 5.4781438661889297 0 5.4781438661889297 1.6779238546077977 0 0 0 0 2.5109261984552678 1.6669021770292289 0 1.6669021770292289 0.79347618661513764 0 0 0 0 -19.205800511737834 10.879260617573436 0 10.879260617573436 7.8055410840333934 0 0 0 0 6.3771950966429358 21.799693181645125 0 21.799693181645125 -8.1770307683354986 0 0 0 0 12.117558911125343 5.7106699515315995 0 5.7106699515315995 6.0938422128201637 0 0 0 0 21.48903802605895 10.036680814228987 0 10.036680814228987 -3.048232965880743 0 0 0 0 -2.7592779863734904 4.5014262365230024 0 4.5014262365230024 2.8885070244105009 0 0 0 0 -4.8322466742728238 11.928606857202453 0 11.928606857202453 5.3923008941073931 0 0 0 0 -3.249874900456831 3.0560511929404335 0 3.0560511929404335 5.1695358938331779 0 0 0 0 2.0828473477513398 9.3127514605803299 0 9.3127514605803299 -2.6953476170874637 0 0 0 0 -0.49759455471846081 3.029540562829375 0 3.029540562829375 4.5511872591313249 0 0 0 0 24.390587821646477 32.392923333853105 0 32.392923333853105 11.802006631255608 0 0 0 0 40.913170576147422 10.602814185739135 0 10.602814185739135 -10.942251989401484 0 0 0 0 47.023156231239227 23.038724595617168 0 23.038724595617168 5.1849061769844411 0 0 0 0 -8.0245646664545198 11.826249600822727 0 11.826249600822727 3.9724029792100453 0 0 0 0 -14.24154077167077 4.6266161422308869 0 4.6266161422308869 2.1881726097412866 0 0 0 0 16.705458066758233 11.670227668462179 0 11.670227668462179 5.467143942956028 0 0 0 0 31.68768726386952 16.336670070528271 0 16.336670070528271 6.3884499900909759 0 0 0 0 26.98783348708821 10.419245798242628 0 10.419245798242628 11.162320806289017 0 0 0 0 15.536945986467082 -3.9365483277731634 0 -3.9365483277731634 -7.3939044289510818 0 0 0 0 30.84858940033655 15.144289792293876 0 15.144289792293876 11.669506677031677 0 0 0 0 3.653088525264657 -1.5797497589386005 0 -1.5797497589386005 -2.1058300779013734 0 0 0 0 13.628496585629819 12.015415121892147 0 12.015415121892147 2.740365822071908 0 0 0 0 0.59535835890528688 18.983070897601465 0 18.983070897601465 0.61738539035059148 0 0 0 0 4.3966754000830406 -27.729986864420425 0 -27.729986864420425 0.12127829664357059 0 0 0 0 2.5893194926869256 1.013116789758012 0 1.013116789758012 -0.11406742355092092 0 0 0 0 6.3731659942232 -9.8655614255385444 0 -9.8655614255385444 -20.585134242657659 0 0 0 0 4.405894989467388 -29.64681824770452 0 -29.64681824770452 -35.791518873829773 0 0 0 0 1.795678050949391 -41.774816761745569 0 -41.774816761745569 -0.48176885805332859 0 0 0 0 23.942585865880574 -19.030679767496622 0 -19.030679767496622 -72.980056794986012 0 0 0 0 17.930528833949211 -3.054142440767464 0 -3.054142440767464 -9.3855733107625383 0 0 0 0 18.34351738766054 -25.513552025584431 0 -25.513552025584431 -39.506820967573731 0 0 0 0 17.859671044225252 -6.7870605941243412 0 -6.7870605941243412 -27.273720918152321 0 0 0 0 16.983055878683444 -25.165923999837105 0 -25.165923999837105 -4.7385004738534917 0 0 0 0 228.7785282287623 -101.50138796251576 0 -101.50138796251576 -118.6317428863731 0 0 0 0 24.978388629604524 -39.231780237197199 0 -39.231780237197199 -60.356250106171501 0 0 0 0 64.141828147477099 -90.213957676761311 0 -90.213957676761311 1.6012782010675437 0 0 0 0 -5.8850628727050207 -20.077444972521334 0 -20.077444972521334 -43.646328540336071 0 0 0 0 115.95590029947471 17.118067186983353 0 17.118067186983353 -237.39322699324021 0 0 0 0 15.862659050342828 6.0464937440018147 0 6.0464937440018147 2.0167384243163262 0 0 0 0 21.230519526922194 128.2255175831188 0 128.2255175831188 -142.63650948825125 0 0 0 0 24.071578693021365 40.878783764978834 0 40.878783764978834 -49.996960865664732 0 0 0 0 183.38403054526498 72.520700894958281 0 72.520700894958281 -47.083241344250837 0 0 0 0 136.76683256599972 -33.043293508499801 0 -33.043293508499801 82.757982585118953 0 0 0 0 20.398088829523797 7.0242752584745887 0 7.0242752584745887 1.084937068516151 0 0 0 0 -64.562091659190628 68.318004029400981 0 68.318004029400981 -31.917385820140225 0 0 0 0 -16.743950979996043 109.86053169333991 0 109.86053169333991 -38.008738796193938 0 0 0 0 3.3769596492293203 45.169195355702868 0 45.169195355702868 -62.583623936222466 0 0 0 0 -82.37816610338632 108.52329096083849 0 108.52329096083849 -17.554943774940512 0 0 0 0 -117.09335368874599 55.988505260472266 0 55.988505260472266 -18.433095236046029 0 0 0 0 10.02993316998618 69.007987908192263 0 69.007987908192263 -64.521167688078094 0 0 0 0 3.1077121832780996 2.3759117022531697 0 2.3759117022531697 -0.32637454275687361 0 0 0 0 34.701373950543712 12.309438213046633 0 12.309438213046633 -38.746879572599937 0 0 0 0 -86.156629720164347 84.593906846366735 0 84.593906846366735 12.02382788217983 0 0 0 0 -100.04607814487122 4.3974664831562222 0 4.3974664831562222 92.420617647829204 0 0 0 0 -11.819864635890553 -4.3054868270510269 0 -4.3054868270510269 40.988907927217042 0 0 0 0 -13.005144986560481 26.039527194266611 0 26.039527194266611 36.749426067932291 0 0 0 0 -19.815908816082811 37.438093002517235 0 37.438093002517235 38.268249934844789 0 0 0 0 14.609649799995168 93.698282912779177 0 93.698282912779177 143.80660954404811 0 0 0 0 0.87883273392148809 0.99935584397097976 0 0.99935584397097976 1.3676888805944785 0 0 0 0 18.65698154020356 -69.95285193898053 0 -69.95285193898053 150.24031894850739 0 0 0 0 163.96414907635676 109.46482222491045 0 109.46482222491045 42.545660778816455 0 0 0 0 182.20216421460646 39.753145665094053 0 39.753145665094053 4.6295418879872159 0 0 0 0 57.647012302282747 8.8026939384226353 0 8.8026939384226353 -9.2796769280066655 0 0 0 0 113.73067310250553 47.30263156061028 0 47.30263156061028 2.3236521509134036 0 0 0 0 -6.0044425661940295 42.451791358301762 0 42.451791358301762 -1.7455417687597219 0 0 0 0 2.7632049278123745 2.8569711886007276 0 2.8569711886007276 3.4691896239689655 0 0 0 0 21.468127929649199 -25.694094291608053 0 -25.694094291608053 -12.406865655666024 0 0 0 0 23.40066127837963 13.831626995752231 0 13.831626995752231 6.6344189360588643 0 0 0 0 18.344271018737345 2.3663325986622112 0 2.3663325986622112 -19.339547057848904 0 0 0 0 44.230080700195685 10.76684217237198 0 10.76684217237198 4.0968032039436366 0 0 0 0 -12.657488358612682 -4.9266112852483275 0 -4.9266112852483275 41.561463606813504 0 0 0 0 -21.127474665876434 12.315330659264873 0 12.315330659264873 13.562556614773712 0 0 0 0 -32.91791422075039 12.15956877338067 0 12.15956877338067 21.264196305170117 0 0 0 0 -1.9895042070625308 4.9243967638851771 0 4.9243967638851771 7.2750089666024493 0 0 0 0 -31.750599230654188 35.165204405350778 0 35.165204405350778 17.521146946744921 0 0 0 0 42.800133110191382 16.711401124641952 0 16.711401124641952 34.590031973490113 0 0 0 0 -8.8634609823218646 11.43619323697645 0 11.43619323697645 5.2646924486164863 0 0 0 0 -19.510055163100333 7.1638131615509337 0 7.1638131615509337 15.024028189323644 0 0 0 0 -8.4009414582233148 14.057535830579582 0 14.057535830579582 51.130858015982085 0 0 0 0 35.275265972170018 18.443238449759519 0 18.443238449759519 47.453140226278265 0 0 0 0 -2.7831657796068612 11.494145314614798 0 11.494145314614798 54.944735060752464 0 0 0 0 -20.110745410648178 44.547182212169901 0 44.547182212169901 40.970458263611363 0 0 0 0 -6.3045555730950582 46.464049422984317 0 46.464049422984317 29.956680609955811 0 0 0 0 30.79680699964365 -7.9997741905385737 0 -7.9997741905385737 57.62633256747722 0 0 0 0 -61.163827809305076 93.605647357942871 0 93.605647357942871 -107.91237923381414 0 0 0 0 6.6006613755725994 52.225184146953325 0 52.225184146953325 -40.228169556035482 0 0 0 0 -0.68705295563332669 0.5816467796135143 0 0.5816467796135143 -0.41468385769146465 0 0 0 0 -10.607829221064009 10.933032976676202 0 10.933032976676202 3.4322733829804761 0 0 0 0 -123.60363494008925 29.300096216651582 0 29.300096216651582 107.14512125908004 0 0 0 0 -13.908440960505686 62.473244043276281 0 62.473244043276281 31.83883957690341 0 0 0 0 -40.089773806437734 99.583154831027059 0 99.583154831027059 -15.703419450994261 0 0 0 0 19.092369834730562 27.123296985497291 0 27.123296985497291 10.122649820757488 0 0 0 0 -5.5777267009434581 62.605644480276169 0 62.605644480276169 -2.0619053029604402 0 0 0 0 -2.5047012280383569 54.208282416118891 0 54.208282416118891 14.365986835124204 0 0 0 0 -5.4795780065906001 56.044274265421336 0 56.044274265421336 14.233624875352689 0 0 0 0 -0.14565252498869086 22.360753722068694 0 22.360753722068694 10.823493339016977 0 0 0 0 -10.520534448066428 54.097054124879833 0 54.097054124879833 16.226572189920262 0 0 0 0 -10.813902853249601 55.419137790873719 0 55.419137790873719 -9.9416000853689184 0 0 0 0 3.3568577380010538 49.847096649928062 0 49.847096649928062 -7.8348166743198817 0 0 0 0 -9.7389200274656105 70.824337468007798 0 70.824337468007798 21.061204330904729 0 0 0 0 -0.37467765639257067 0.69852778198299603 0 0.69852778198299603 -0.30667274816833689 0 0 0 0 78.377971463101858 0.10331037077503424 0 0.10331037077503424 -187.19057935985438 0 0 0 0 4.1856918752582715 43.892925325635588 0 43.892925325635588 -21.93665576327021 0 0 0 0 -44.668419284917036 23.725044277796769 0 23.725044277796769 -9.4026005950399849 0 0 0 0 38.83275266691362 110.82616348290412 0 110.82616348290412 48.2419049715445 0 0 0 0 -21.386070211588958 23.101030569416253 0 23.101030569416253 122.56589354172183 0 0 0 0 -20.603852110639309 29.263697930310627 0 29.263697930310627 45.984311050247925 0 0 0 0 -9.6385010328951921 44.461694283977522 0 44.461694283977522 53.323243431132141 0 0 0 0 -2.4701727506696081 1.3088505253857576 0 1.3088505253857576 -0.72737793303855725 0 0 0 0 -17.50972006687789 0.83695417854232801 0 0.83695417854232801 7.4011941144153752 0 0 0 0 -10.92003617195769 18.837756148429435 0 18.837756148429435 55.353565963814617 0 0 0 0 7.4291624062075243 -16.20896741434899 0 -16.20896741434899 29.012721153043458 0 0 0 0 -1.0333247511691761 0.17031374174448644 0 0.17031374174448644 1.8274758249231553 0 0 0 0 -4.0796680078897225 7.8642075401112379 0 7.8642075401112379 4.364080539533461 0 0 0 0 -3.9971908140703221 2.4648343202985643 0 2.4648343202985643 -0.12986846876221847 0 0 0 0 -3.5801194279174524 8.3648802420975699 0 8.3648802420975699 7.4098132814488054 0 0 0 0 -0.81154266175144585 4.1672207655283273 0 4.1672207655283273 5.4325092934741406 0 0 0 0 -4.1425405546961285 4.0971060514769722 0 4.0971060514769722 3.0561318345709267 0 0 0 0 1.3095192265391233 4.1737508237060865 0 4.1737508237060865 3.8289036676196702 0 0 0 0 -6.3545912843803762 3.2966896061805073 0 3.2966896061805073 4.7985312779328524 0 0 0 0 -20.271713547800573 10.000836677531424 0 10.000836677531424 12.86086960213197 0 0 0 0 -9.317212570036645 7.0692611667091114 0 7.0692611667091114 0.066564101833137101 0 0 0 0 43.607878543352854 59.410564296996199 0 59.410564296996199 -10.133724411012736 0 0 0 0 -10.715451184383403 11.02703061863641 0 11.02703061863641 3.2509967561333042 0 0 0 0 -1.3216974365741407 -43.308538264181379 0 -43.308538264181379 -18.66524023621605 0 0 0 0 -21.815325821979059 3.0658688912935759 0 3.0658688912935759 19.860771648738591 0 0 0 0 72.308585815750121 174.65745790930578 0 174.65745790930578 141.57819694070167 0 0 0 0 -0.068702452839936257 0.33433663980948936 0 0.33433663980948936 -0.13404421230460173 0 0 0 0 61.612344891578687 145.20488087514968 0 145.20488087514968 227.85173600080998 0 0 0 0 -22.227570017972539 40.42369426411824 0 40.42369426411824 -51.961464940076439 0 0 0 0 -38.666856435695081 40.754518545554674 0 40.754518545554674 -47.128754583680347 0 0 0 0 98.776927327540761 117.11241311922004 0 117.11241311922004 90.393118399166269 0 0 0 0 0.32530034707203015 0.97089230589747899 0 0.97089230589747899 -1.0415728459426425 0 0 0 0 121.80996362270162 136.76640612306437 0 136.76640612306437 74.203768832601781 0 0 0 0 65.42749451254349 140.13768165559486 0 140.13768165559486 100.31998365128675 0 0 0 0 192.9032991063832 150.62013412741089 0 150.62013412741089 63.844728161093371 0 0 0 0 0.20463585141495955 1.2844962071785453 0 1.2844962071785453 -0.77361134449372315 0 0 0 0 186.27473447264856 106.93516025961981 0 106.93516025961981 74.633123412910209 0 0 0 0 0.31850162559885575 289.36974908788966 0 289.36974908788966 161.44685777437371 0 0 0 0 263.76358959454592 447.51793337034451 0 447.51793337034451 -0.11419926882081199 0 0 0 0 657.84166119389829 -19.425947035388617 0 -19.425947035388617 -32.824609592211345 0 0 0 0 541.40983041173422 284.43512904681847 0 284.43512904681847 -9.1375823360995128 0 0 0 0 156.74629538072804 63.17644661286522 0 63.17644661286522 -38.487112186405284 0 0 0 0 113.90447288834275 249.93053616416273 0 249.93053616416273 14.06638904661304 0 0 0 0 1.1037264391785584 4.0916997306605829 0 4.0916997306605829 4.654283138271694 0 0 0 0 0.21637505207218055 10.352044698231111 0 10.352044698231111 1.8324242908496871 0 0 0 0 -5.7386943761944167 8.8186779443262822 0 8.8186779443262822 0.0024059854968072614 0 0 0 0 0.98933539664753134 1.0513924117679636 0 1.0513924117679636 1.9161081610837414 0 0 0 0 2.6358774345635538 5.4364810016720639 0 5.4364810016720639 4.1138369936543313 0 0 0 0 3.0439322844831622 3.2931881319282184 0 3.2931881319282184 1.7045236688372825 0 0 0 0 1.457793325824241 7.3086881834606174 0 7.3086881834606174 8.9337218615619349 0 0 0 0 1.1062604172245614 3.526529979593974 0 3.526529979593974 -1.5998004137543838 0 0 0 0 36.774134008199326 3.4883166313393303 0 3.4883166313393303 -1.0112522452827761 0 0 0 0 132.5016355637008 72.491119520650045 0 72.491119520650045 30.346916556412907 0 0 0 0 -2.7386915401075385 2.1213185074211651 0 2.1213185074211651 11.336994902609149 0 0 0 0 -1.8081480008397861 4.2460558959976389 0 4.2460558959976389 0.015383535577043972 0 0 0 0 17.114151983787451 5.1641302919333611 0 5.1641302919333611 -8.7316742161956427 0 0 0 0 -15.558124444411078 29.075127107370008 0 29.075127107370008 -53.237639537308496 0 0 0 0 12.718909159479153 19.846999815648815 0 19.846999815648815 -12.85162171925549 0 0 0 0 -3.9466483943301682 5.1446912128146778 0 5.1446912128146778 1.5500578509418119 0 0 0 0 1.1033462822420184 2.1330534800992531 0 2.1330534800992531 -2.3498581207005316 0 0 0 0 -7.823975955149308 18.466777190527864 0 18.466777190527864 -0.80308399863497471 0 0 0 0 6.5647947967017899 14.867638916503438 0 14.867638916503438 17.505894291003642 0 0 0 0 91.62765110916007 3.4802209454965123 0 3.4802209454965123 -15.040124783894498 0 0 0 0 1.3268405591636814 3.6066806930687392 0 3.6066806930687392 2.7758838861062927 0 0 0 0 90.137036000229273 41.225645521333718 0 41.225645521333718 7.4233354797688662 0 0 0 0 135.04084207111373 64.197860074525124 0 64.197860074525124 -0.26804494258340128 0 0 0 0 134.74470068429036 63.657177910909923 0 63.657177910909923 6.7202492785563663 0 0 0 0 107.44502022842335 81.720295388164459 0 81.720295388164459 38.517019915563651 0 0 0 0 63.019277715132375 147.25141244058386 0 147.25141244058386 -5.7374085430965351 0 0 0 0 38.27393673739607 46.169298874056039 0 46.169298874056039 27.102175712297139 0 0 0 0 8.0702567543194164 5.6981329693380758 0 5.6981329693380758 0.00096325350023107603 0 0 0 0 5.4365532822839668 7.6039745326083903 0 7.6039745326083903 7.3104568076141732 0 0 0 0 7.2465108592423348 6.4205548548670777 0 6.4205548548670777 2.7232715783120511 0 0 0 0 4.2976859355470651 0.96015620057205453 0 0.96015620057205453 -1.9915842176916172 0 0 0 0 9.4217430098515251 2.928303833418795 0 2.928303833418795 2.6737896420681864 0 0 0 0 -36.066354285521811 53.642722064216287 0 53.642722064216287 34.069306129903453 0 0 0 0 -7.9920336301554471 254.26414443421811 0 254.26414443421811 127.98036616481113 0 0 0 0 340.19841421328238 398.56538430072942 0 398.56538430072942 187.40200499224738 0 0 0 0 307.26176260325519 199.67456916029005 0 199.67456916029005 -7.1105949683333165 0 0 0 0 314.83125815606036 201.7617151702907 0 201.7617151702907 -41.456236711351721 0 0 0 0 525.89942649278964 51.853093702600745 0 51.853093702600745 -158.92116865845401 0 0 0 0 629.03258183081743 109.20579847093632 0 109.20579847093632 -137.11608106625499 0 0 0 0 654.20032759842434 270.60179673799394 0 270.60179673799394 -54.019719803882936 0 0 0 0 6.5575807178972241 -0.066457044982058733 0 -0.066457044982058733 -0.92739547888670515 0 0 0 0 8.4261190154511496 3.5523313071780649 0 3.5523313071780649 3.5899265589214338 0 0 0 0 926.43343639255909 -288.54679182336258 0 -288.54679182336258 557.5502691609945 0 0 0 0 7.4922583669067535 1.3711437370566273 0 1.3711437370566273 0.0045593880077571857 0 0 0 0 309.85145739201334 607.36666314610159 0 607.36666314610159 430.19568599705781 0 0 0 0 4.2356230766636358 0.54208917781054566 0 0.54208917781054566 -0.48041995766857326 0 0 0 0 385.20366605306845 -30.581907341789702 0 -30.581907341789702 -141.48488700811322 0 0 0 0 -300.30113523844193 551.8119895546115 0 551.8119895546115 569.03358836950065 0 0 0 0 6.6265609000877603 2.7605335873874957 0 2.7605335873874957 1.083155059825371 0 0 0 0 242.26955807304239 13.975447718955365 0 13.975447718955365 -60.196061630924305 0 0 0 0 47.370769550785894 -123.90111610553248 0 -123.90111610553248 -78.982264166705136 0 0 0 0 260.2161772627951 95.293526034716706 0 95.293526034716706 -29.385601972304357 0 0 0 0 227.84841254875028 38.533879487667036 0 38.533879487667036 -95.594962811718688 0 0 0 0 167.92721665451427 80.064941727277983 0 80.064941727277983 -31.848786621842464 0 0 0 0 196.27189215489943 40.027290603917663 0 40.027290603917663 24.38701816835237 0 0 0 0 173.56043625244274 -5.279995240259268 0 -5.279995240259268 -55.583359108596596 0 0 0 0 116.78983286614857 72.416373072778697 0 72.416373072778697 128.86624868883609 0 0 0 0 148.35644384255829 81.258192233781301 0 81.258192233781301 35.830917687672809 0 0 0 0 120.36416575908152 84.6674254761665 0 84.6674254761665 49.280183446640876 0 0 0 0 131.39794553341198 85.668986324844809 0 85.668986324844809 49.160427391073426 0 0 0 0 97.58042189918342 52.615596457057109 0 52.615596457057109 32.049071490737333 0 0 0 0 120.84229923832845 70.861382814867738 0 70.861382814867738 17.432504664970111 0 0 0 0 101.5607199939559 47.298401005879441 0 47.298401005879441 -0.40160463798474666 0 0 0 0 88.634182395997414 43.585906729883391 0 43.585906729883391 27.897239569329031 0 0 0 0 40.074676824409835 42.84621885686829 0 42.84621885686829 2.3719314176341868 0 0 0 0 98.946400695905822 87.407223574588897 0 87.407223574588897 -2.8628593685771193 0 0 0 0 75.93641746209687 75.778873942013888 0 75.778873942013888 -2.0834562478277121 0 0 0 0 112.55584560313582 56.178066938625307 0 56.178066938625307 43.77511336674047 0 0 0 0 101.50623944330255 88.892979728346745 0 88.892979728346745 53.787980937066095 0 0 0 0 137.89679531185175 95.234080716248172 0 95.234080716248172 37.139031134755896 0 0 0 0 144.32265378574994 85.251248401260909 0 85.251248401260909 51.310987780083451 0 0 0 0 153.51587352080332 95.301940223730071 0 95.301940223730071 -33.044588524615392 0 0 0 0 208.67680641574407 28.67935300881345 0 28.67935300881345 64.523212863322442 0 0 0 0 124.27243521505079 117.15655195190539 0 117.15655195190539 -4.5394490304188366 0 0 0 0 249.93928182369609 175.88021698098294 0 175.88021698098294 -61.528482594352681 0 0 0 0 0.88201864010507514 1.127530973615638 0 1.127530973615638 0.73930830799120884 0 0 0 0 201.76396781382027 162.35195804632167 0 162.35195804632167 106.29404283489998 0 0 0 0 180.75200011780453 24.517637859390106 0 24.517637859390106 -3.280662048722661 0 0 0 0 414.93484203931621 56.349155729817994 0 56.349155729817994 -6.6099910650173115 0 0 0 0 136.00812943792425 105.31440586017914 0 105.31440586017914 67.652185094890228 0 0 0 0 185.85223707254772 121.0071951028749 0 121.0071951028749 45.323702438337023 0 0 0 0 226.24044782987949 83.808861433279162 0 83.808861433279162 -3.6081510315852938 0 0 0 0 148.47587363541788 89.592262045500433 0 89.592262045500433 20.137618351738638 0 0 0 0 171.76306695838321 84.847099802153025 0 84.847099802153025 7.8208449242229108 0 0 0 0 108.48359384650939 24.474805992722395 0 24.474805992722395 13.277899776840059 0 0 0 0 158.94915477612449 47.341638299356418 0 47.341638299356418 -1.4650839691748843 0 0 0 0 147.51332228316278 65.313737259025402 0 65.313737259025402 3.7270432824625459 0 0 0 0 1.4202640290104789 2.2362397517840176 0 2.2362397517840176 2.4236901344766082 0 0 0 0 -32.2428298502291 16.709267669018573 0 16.709267669018573 10.442925619294328 0 0 0 0 105.51395300303557 29.9969118237359 0 29.9969118237359 4.4994927241732512 0 0 0 0 -121.30601406495498 100.14485537718019 0 100.14485537718019 -56.393158428560128 0 0 0 0 1.1279914522099972 1.5179587019388769 0 1.5179587019388769 -1.6828001595180524 0 0 0 0 -139.06729594347144 125.17613705442136 0 125.17613705442136 -73.36109389172816 0 0 0 0 -140.39502110756439 112.4733382589684 0 112.4733382589684 -89.509414146832569 0 0 0 0 55.71545866535871 13.823983340921131 0 13.823983340921131 -35.886691010226059 0 0 0 0 -350.81382803558699 228.9881178589776 0 228.9881178589776 -29.418333168156096 0 0 0 0 -77.957618888209254 24.655337257141582 0 24.655337257141582 39.93441364435148 0 0 0 0 239.29237734093476 129.02457721836345 0 129.02457721836345 47.58669852965977 0 0 0 0 0.3829311746309898 0.81294377395695605 0 0.81294377395695605 -0.67139977155277109 0 0 0 0 -163.98318385962193 261.78602074143146 0 261.78602074143146 -66.025049827401745 0 0 0 0 68.297962733729946 208.7054764902723 0 208.7054764902723 -56.434789346979073 0 0 0 0 -193.45828556146807 147.79167240489005 0 147.79167240489005 -51.052118850720944 0 0 0 0 -182.58225232810582 159.93755487084309 0 159.93755487084309 -38.954370006196768 0 0 0 0 -158.12140372959766 166.41819596348978 0 166.41819596348978 -82.905989371060969 0 0 0 0 -276.27734362412502 113.85589285404194 0 113.85589285404194 -72.650466048789895 0 0 0 0 -99.385448501729115 176.26980383233467 0 176.26980383233467 -107.31366901971523 0 0 0 0 -157.18847399813626 161.89533600782966 0 161.89533600782966 -83.228887450906768 0 0 0 0 -96.60096215136582 171.91728001764659 0 171.91728001764659 -106.72226424005294 0 0 0 0 -114.51473770938901 189.87753089221678 0 189.87753089221678 -64.8976705484165 0 0 0 0 -181.75480469650574 176.10255933623739 0 176.10255933623739 -24.564609934348482 0 0 0 0 -118.52179707408254 205.20748872852073 0 205.20748872852073 -87.731864829045662 0 0 0 0 -0.1295291550377442 300.68929976885738 0 300.68929976885738 -20.284151784320784 0 0 0 0 -51.809469257936144 217.67637779286088 0 217.67637779286088 -90.132807011802697 0 0 0 0 -0.016190493006433826 203.03238915731527 0 203.03238915731527 -129.92990061092132 0 0 0 0 -41.490331301374681 178.68325708423527 0 178.68325708423527 -119.84919588576759 0 0 0 0 -41.559775188616186 176.73764459431914 0 176.73764459431914 -143.79005071380743 0 0 0 0 -55.614864651184689 125.20873839560409 0 125.20873839560409 -92.396905816061007 0 0 0 0 -53.279303590934433 154.49291359614227 0 154.49291359614227 -156.94806619023984 0 0 0 0 -143.4477449960641 151.18016909321221 0 151.18016909321221 -97.994899165209063 0 0 0 0 9.0784383032460028 77.449470377650414 0 77.449470377650414 -120.6685953971155 0 0 0 0 -28.666170337328367 28.305588590900697 0 28.305588590900697 -46.530370211388799 0 0 0 0 9.8887998371683352 102.931138638025 0 102.931138638025 -319.96853987836494 0 0 0 0 -0.030594643738764617 163.90090153782018 0 163.90090153782018 -157.68710773560088 0 0 0 0 -0.0039464886813220801 2.4278817756526223 0 2.4278817756526223 -1.5764275463216109 0 0 0 0 9.0620397071561456 -1.0133864700446793 0 -1.0133864700446793 -5.831329310120509 0 0 0 0 -0.071525171346245031 1.398429138931669 0 1.398429138931669 1.2551208523003794 0 0 0 0 -1.1131302600886102 5.2749064197156912 0 5.2749064197156912 -9.2176792756072246 0 0 0 0 0.083674709183755525 2.4823245934233711 0 2.4823245934233711 -2.1082236948207651 0 0 0 0 0.34346115360494878 2.7018401464829367 0 2.7018401464829367 -1.3949110232852036 0 0 0 0 0.00013299357851792593 2.7472811933598678 0 2.7472811933598678 -1.263854240533874 0 0 0 0 0.32045868792761212 1.0960728736662917 0 1.0960728736662917 0.22853935285088767 0 0 0 0 -0.12246601989921602 1.0381598524944096 0 1.0381598524944096 -0.80679382606508909 0 0 0 0 18.96039242361087 57.543523802977063 0 57.543523802977063 145.72643996009356 0 0 0 0 -338.1159274361342 119.25190367147493 0 119.25190367147493 -11.451565226352614 0 0 0 0 -238.17738617272516 179.74397438544474 0 179.74397438544474 -19.913675360518027 0 0 0 0 -147.30183672584099 129.26330464035345 0 129.26330464035345 -60.465157397985877 0 0 0 0 -209.1747409703039 108.73953539993363 0 108.73953539993363 -64.499283877772541 0 0 0 0 -147.50687168789409 132.46474698641032 0 132.46474698641032 -65.860445701453955 0 0 0 0 -89.812370343657676 130.16661073403702 0 130.16661073403702 -68.38054585230384 0 0 0 0 -151.17638976035414 156.69942165989596 0 156.69942165989596 -54.612389436388185 0 0 0 0 -170.31244883493491 123.30538533492108 0 123.30538533492108 -62.018934177970777 0 0 0 0 -92.734162822433973 175.37006739483218 0 175.37006739483218 -50.594474879366317 0 0 0 0 56.822285728527277 186.20034278961521 0 186.20034278961521 -87.208219096559333 0 0 0 0 -88.826590690911871 167.91688210148163 0 167.91688210148163 -61.612348358146846 0 0 0 0 59.178687536796133 141.70073824793371 0 141.70073824793371 -108.23485685140804 0 0 0 0 -5.871976792368514 184.27970072281641 0 184.27970072281641 -79.108384350696724 0 0 0 0 18.738089918449077 171.27623441293576 0 171.27623441293576 -100.6113154564664 0 0 0 0 -19.861066449432656 104.94518301385756 0 104.94518301385756 -114.34215110766308 0 0 0 0 34.486339735096408 160.2681719971356 0 160.2681719971356 -113.68246884987144 0 0 0 0 0.53418131298495553 0.55020268539990536 0 0.55020268539990536 0.38928077919452164 0 0 0 0 -1.9465670925910672 38.616328099951261 0 38.616328099951261 75.406244701115611 0 0 0 0 21.12380261459657 185.18993990968227 0 185.18993990968227 -40.508401969187616 0 0 0 0 34.185153574397191 130.54588867951452 0 130.54588867951452 15.807401116674555 0 0 0 0 63.908227759951842 144.05770498626839 0 144.05770498626839 -63.836435299770528 0 0 0 0 48.620429341277486 132.88983806424858 0 132.88983806424858 -68.886547077559953 0 0 0 0 55.937085991019558 129.33579796441518 0 129.33579796441518 -89.501415693281842 0 0 0 0 62.69885201625948 153.46461537761434 0 153.46461537761434 -91.007668767784708 0 0 0 0 58.876143056437286 144.80778855443623 0 144.80778855443623 -91.003702772123688 0 0 0 0 90.197791048552972 151.00759304361645 0 151.00759304361645 -105.80850114510486 0 0 0 0 61.031284578115901 147.97757084290879 0 147.97757084290879 -87.062407078998149 0 0 0 0 134.65095744855353 138.93615839430458 0 138.93615839430458 -102.20963199982634 0 0 0 0 159.72945228454228 95.322383188875392 0 95.322383188875392 -59.520922355534822 0 0 0 0 102.33654836381902 106.50734614151497 0 106.50734614151497 -35.497944578509305 0 0 0 0 121.04135083223628 82.257445299784649 0 82.257445299784649 -47.78969679256079 0 0 0 0 97.056777394527217 131.5695667327052 0 131.5695667327052 -90.628896975294992 0 0 0 0 67.737004981310747 112.21256345070833 0 112.21256345070833 -74.075755625369766 0 0 0 0 92.315215339123824 113.25324888290743 0 113.25324888290743 -75.46706596139029 0 0 0 0 94.777634028005195 72.664664982775321 0 72.664664982775321 -20.69699989057699 0 0 0 0 44.064499955170504 79.627632641458604 0 79.627632641458604 -19.751087883769287 0 0 0 0 -7.4616889406570408 56.533032181128419 0 56.533032181128419 15.462467237248347 0 0 0 0 -12.346536682431179 131.85149211548651 0 131.85149211548651 -53.584348246376521 0 0 0 0 42.618922045554427 84.531727443750697 0 84.531727443750697 -32.626525555990156 0 0 0 0 34.296405253529883 91.524675275978325 0 91.524675275978325 -111.75389692843783 0 0 0 0 -63.875649981089737 91.427172153645188 0 91.427172153645188 -77.230377940075414 0 0 0 0 57.613131774396606 115.87067758503645 0 115.87067758503645 -97.773668214623285 0 0 0 0 45.36207511361772 126.77052746905122 0 126.77052746905122 -82.427810550618233 0 0 0 0 5.3532958064060949 109.4309914871651 0 109.4309914871651 -65.479595784806406 0 0 0 0 -1.6555298822222539 92.185226504252228 0 92.185226504252228 -82.300659695873037 0 0 0 0 -0.6758706480377441 84.247762552701261 0 84.247762552701261 -46.190874976304258 0 0 0 0 29.529471195073711 108.04917598628344 0 108.04917598628344 -70.918090334595036 0 0 0 0 13.874788455959788 101.65281590116319 0 101.65281590116319 -25.595943090038418 0 0 0 0 -7.657238726163996 104.47077835650452 0 104.47077835650452 -69.235129181090997 0 0 0 0 0.55365584236415089 72.117703336501336 0 72.117703336501336 -57.637236302607562 0 0 0 0 26.129527136396064 61.919489258139947 0 61.919489258139947 -3.6759255336810384 0 0 0 0 -1.8926659268913681 70.238491949084278 0 70.238491949084278 1.7607535438801278 0 0 0 0 33.630290434375638 76.60097093708373 0 76.60097093708373 -33.564877580278335 0 0 0 0 31.53636207145064 77.410289309589189 0 77.410289309589189 16.025850585680018 0 0 0 0 24.120191073470778 61.79231901482126 0 61.79231901482126 49.905160798707584 0 0 0 0 55.899359249107874 70.879652793340028 0 70.879652793340028 9.8442407606369216 0 0 0 0 55.483369090388805 63.910243550522409 0 63.910243550522409 35.314251053920771 0 0 0 0 64.873291180152592 82.800678979048712 0 82.800678979048712 -13.358288444021127 0 0 0 0 35.818186822581993 101.68492015426909 0 101.68492015426909 -2.6154066832218632 0 0 0 0 30.367689231497025 115.91745160926166 0 115.91745160926166 -34.971727176854074 0 0 0 0 42.026085473489729 98.61562640065813 0 98.61562640065813 -44.67751512535142 0 0 0 0 68.454571834408853 85.817671937475097 0 85.817671937475097 -4.0225779730126305 0 0 0 0 87.394882249666807 98.905192747158708 0 98.905192747158708 -1.0096833989464358 0 0 0 0 83.630018073748033 99.318434893316862 0 99.318434893316862 43.487639917072556 0 0 0 0 109.92970886949843 73.222771444901355 0 73.222771444901355 16.740463748171351 0 0 0 0 64.808427740277693 75.724759031454596 0 75.724759031454596 16.967569276645406 0 0 0 0 63.689975071446042 81.173383851603717 0 81.173383851603717 15.122761974780587 0 0 0 0 90.515541905686405 83.745678294041682 0 83.745678294041682 12.154028591950919 0 0 0 0 74.645276584458315 81.703277501888522 0 81.703277501888522 51.744848913635906 0 0 0 0 127.91887086080351 88.832407290139599 0 88.832407290139599 36.761832107476494 0 0 0 0 74.964274811419955 80.879793091390695 0 80.879793091390695 41.234020475450961 0 0 0 0 120.64282722122516 82.593755591338777 0 82.593755591338777 23.546590601385105 0 0 0 0 87.310601997750382 82.957338928822992 0 82.957338928822992 28.477556312502202 0 0 0 0 117.07917876235501 50.289022635492785 0 50.289022635492785 40.90155037585555 0 0 0 0 97.116310092656931 68.251815958356929 0 68.251815958356929 36.147298350154415 0 0 0 0 301.26423247307287 176.67942096307416 0 176.67942096307416 28.502163082152038 0 0 0 0 175.16741216067931 52.732571630102484 0 52.732571630102484 21.214848625048035 0 0 0 0 -192.62233118123731 107.35573450830725 0 107.35573450830725 14.91616583629002 0 0 0 0 0.05047762456910343 1.065824901521534 0 1.065824901521534 -0.21603057036499962 0 0 0 0 -0.15259565878841386 21.839415981185539 0 21.839415981185539 -35.894118685097965 0 0 0 0 -19.253270296505434 20.527991285387543 0 20.527991285387543 -18.140607201320563 0 0 0 0 0.014485147123507236 2.0687154529410563 0 2.0687154529410563 -0.62237131411129809 0 0 0 0 123.46627508988058 61.810567197260752 0 61.810567197260752 9.3352406827953018 0 0 0 0 82.97948330879035 31.610995567195687 0 31.610995567195687 -10.869138042575287 0 0 0 0 3.8525534876480378 15.594895513785104 0 15.594895513785104 39.217727069963075 0 0 0 0 0.017966838003306704 2.2791125425216787 0 2.2791125425216787 -0.90126084986877686 0 0 0 0 -0.10627668418580916 2.1687533560682013 0 2.1687533560682013 -1.2147772332969247 0 0 0 0 0.15064485976836295 2.1811614867729077 0 2.1811614867729077 -1.2632590204038934 0 0 0 0 11.141059884655988 15.488598562496463 0 15.488598562496463 17.320177655024963 0 0 0 0 8.870763953601454 8.8454675649218188 0 8.8454675649218188 6.854962173372769 0 0 0 0 1.6461590106359836 16.491935186579212 0 16.491935186579212 1.6317151825996916 0 0 0 0 -1.3014183452596626 20.864153665144386 0 20.864153665144386 1.5039223755022704 0 0 0 0 4.6589433312892652 14.92216624776438 0 14.92216624776438 -0.65080116847639147 0 0 0 0 5.9192539338218921 19.124019600370957 0 19.124019600370957 3.9936365824510176 0 0 0 0 5.6366949813964311 17.832727036963661 0 17.832727036963661 6.445989039971721 0 0 0 0 12.671640956919873 16.768969491279677 0 16.768969491279677 2.9592510446636879 0 0 0 0 20.972778057565847 17.518233253548715 0 17.518233253548715 12.022441875257982 0 0 0 0 -1.6647870476706217 4.1188735068477396 0 4.1188735068477396 1.602205968108624 0 0 0 0 13.884915922661321 11.808667082740612 0 11.808667082740612 7.7281115235746256 0 0 0 0 11.199851294506004 21.46141057638642 0 21.46141057638642 7.3011524809293835 0 0 0 0 -0.88597455972194439 18.652085918955891 0 18.652085918955891 30.726581848428395 0 0 0 0 -9.2013186564445277 18.463137149851946 0 18.463137149851946 38.572489053756726 0 0 0 0 7.6447662230380047 19.658357618324771 0 19.658357618324771 22.673798840956806 0 0 0 0 -0.0093356495653867944 12.144456740256029 0 12.144456740256029 18.464860380355617 0 0 0 0 21.362075511451621 16.123155807552394 0 16.123155807552394 8.0341891682737696 0 0 0 0 -143.33869285576748 80.264700548230394 0 80.264700548230394 209.76967063267875 0 0 0 0 -25.007666824770268 -16.54766348528176 0 -16.54766348528176 68.224060618336807 0 0 0 0 3.3449713981999256 2.6189412823790033 0 2.6189412823790033 -0.27466665302876692 0 0 0 0 121.96534835571583 86.034024081152893 0 86.034024081152893 -55.282510913832994 0 0 0 0 -0.88577334155767673 2.7957668957170618 0 2.7957668957170618 2.4373657488917146 0 0 0 0 -5.2929405186841905 37.495452126546297 0 37.495452126546297 -73.773598446291089 0 0 0 0 -83.77666075164143 57.519162934501765 0 57.519162934501765 65.899831957340211 0 0 0 0 -99.161171781672238 -73.877426255664432 0 -73.877426255664432 7.0698836990759446 0 0 0 0 1.4969105220338541 2.1876670507256186 0 2.1876670507256186 -0.048133939316306273 0 0 0 0 107.26418055694967 29.572457388172552 0 29.572457388172552 -140.59134179483044 0 0 0 0 -0.65066438979793162 1.4086817738321464 0 1.4086817738321464 -0.52680838290785381 0 0 0 0 -54.305571296012204 18.490764165480869 0 18.490764165480869 -54.044075138981498 0 0 0 0 3.2443093402004912 2.4013866186441604 0 2.4013866186441604 -0.39105884436365734 0 0 0 0 47.778406233359419 -26.54043751930476 0 -26.54043751930476 -124.21168681213021 0 0 0 0 5.6550922386231832 36.673576018220047 0 36.673576018220047 -25.96768676758802 0 0 0 0 -14.56743784329683 16.638293838919708 0 16.638293838919708 87.345774895125942 0 0 0 0 12.305666674818049 9.1704294942171636 0 9.1704294942171636 0.21640272480394973 0 0 0 0 60.599858975499956 6.4316149455653431 0 6.4316149455653431 7.2709028762900516 0 0 0 0 10.911451154560382 29.302785290492466 0 29.302785290492466 32.671369799390959 0 0 0 0 -5.9493935548052832 20.124308319243937 0 20.124308319243937 73.32696565551305 0 0 0 0 8.5863738384578028 39.267395325590769 0 39.267395325590769 84.341429049042745 0 0 0 0 -0.18926361856885521 0.95459400037625031 0 0.95459400037625031 -0.3527333769363441 0 0 0 0 -4.0553175505174295 -1.5699714499351103 0 -1.5699714499351103 -135.36282493785438 0 0 0 0 5.4935780977620325 5.7903968766400773 0 5.7903968766400773 1.8437664986650639 0 0 0 0 55.757965240281919 63.775255825084969 0 63.775255825084969 13.065426936529548 0 0 0 0 28.639188985973306 24.483896086749155 0 24.483896086749155 86.792746095045004 0 0 0 0 14.242431001621298 62.515521884568443 0 62.515521884568443 -121.4645664933123 0 0 0 0 35.711622707422634 20.41862579702115 0 20.41862579702115 33.234856674862385 0 0 0 0 -23.981821589454739 27.514339296660182 0 27.514339296660182 -81.530148512989399 0 0 0 0 -13.75909559564348 9.7743392186740046 0 9.7743392186740046 14.164636019101152 0 0 0 0 -37.812251528634079 10.818561828193197 0 10.818561828193197 205.35923158864534 0 0 0 0 -11.377780818175204 -0.8852164138139873 0 -0.8852164138139873 7.1098779982701643 0 0 0 0 -7.853607696237809 2.8505905792091433 0 2.8505905792091433 5.1790067097080073 0 0 0 0 -22.967088711302495 7.2376940012018167 0 7.2376940012018167 9.4797997498412769 0 0 0 0 -11.129973381001037 3.0798166481272347 0 3.0798166481272347 20.410730395838982 0 0 0 0 -14.295839465896279 6.4971192544680889 0 6.4971192544680889 29.448345646058442 0 0 0 0 -24.447817972746634 14.336237220973089 0 14.336237220973089 33.222611592638714 0 0 0 0 1.0253436228613282 10.096051178841662 0 10.096051178841662 8.8325133625767194 0 0 0 0 -1.8496114698718884 6.9883367886159249 0 6.9883367886159249 7.1952412827595253 0 0 0 0 -2.8792642556803294 5.5362555343203965 0 5.5362555343203965 10.167661296333833 0 0 0 0 3.8360540587050025 4.861656270904021 0 4.861656270904021 36.136538248709257 0 0 0 0 4.027543143621358 26.336882137132079 0 26.336882137132079 39.39051627356821 0 0 0 0 31.43785494169515 28.359292668284979 0 28.359292668284979 -13.057795982247626 0 0 0 0 4.3262061709629549 5.8305741400967506 0 5.8305741400967506 -5.587072810174277 0 0 0 0 -1.0235147703497205 17.350524405210308 0 17.350524405210308 42.993987873622245 0 0 0 0 -2.2137784196311259 18.873121989015999 0 18.873121989015999 67.290920728300989 0 0 0 0 7.4771524181414861 20.038921974971345 0 20.038921974971345 23.951113946212899 0 0 0 0 0.46889682265828014 25.717241115064098 0 25.717241115064098 40.37176601391343 0 0 0 0 3.96333184526884 26.554933889903623 0 26.554933889903623 40.329674378306663 0 0 0 0 46.022754921916203 34.457847543046228 0 34.457847543046228 13.437744410248342 0 0 0 0 47.327191511718183 16.121205151362005 0 16.121205151362005 12.926151968524209 0 0 0 0 24.844224422815387 23.954587787545279 0 23.954587787545279 35.926006770430831 0 0 0 0 39.86775583457711 13.793266566221973 0 13.793266566221973 22.333403844922941 0 0 0 0 49.370521773664223 32.624102698653587 0 32.624102698653587 27.011959602989918 0 0 0 0 24.857497878441791 37.261084831356129 0 37.261084831356129 67.456972051619232 0 0 0 0 14.777364856454369 29.167445510644029 0 29.167445510644029 61.253075153510963 0 0 0 0 18.996907961205579 14.611309493664521 0 14.611309493664521 59.327636114885536 0 0 0 0 23.87152282606985 1.8762506166458479 0 1.8762506166458479 15.826327671797117 0 0 0 0 42.058086449127586 16.294600331998481 0 16.294600331998481 23.443374935628526 0 0 0 0 7.2794100840037572 23.484733915187462 0 23.484733915187462 21.204647204254798 0 0 0 0 4.2828730344263022 20.818719693923413 0 20.818719693923413 31.605055811622151 0 0 0 0 25.110850080636737 12.742496570994263 0 12.742496570994263 31.863118303208694 0 0 0 0 5.532535169932089 26.592479001761603 0 26.592479001761603 49.341589516923705 0 0 0 0 -0.14418092376326896 -0.13900868228596863 0 -0.13900868228596863 0.18760975994155871 0 0 0 0 -12.188052602738026 -13.604174574553326 0 -13.604174574553326 57.693643216652617 0 0 0 0 -2.7010374916535511 13.392352720162307 0 13.392352720162307 24.784945174615132 0 0 0 0 -5.8830728672928672 3.7485506823331889 0 3.7485506823331889 13.848545709668542 0 0 0 0 0.37920255447691176 4.7683042226687853 0 4.7683042226687853 4.9840231852939638 0 0 0 0 0.20494306629854009 -0.17188515861317555 0 -0.17188515861317555 0.53725380346599461 0 0 0 0 7.8685589752785745 7.1269862314611601 0 7.1269862314611601 -14.668072155092887 0 0 0 0 13.277402079273998 19.440262941293895 0 19.440262941293895 11.033932300279957 0 0 0 0 -47.337020818900783 74.370730165555869 0 74.370730165555869 14.861156633459814 0 0 0 0 -54.046867118926457 117.8160094571449 0 117.8160094571449 -99.729677974734841 0 0 0 0 -25.461328514662455 76.305114101023719 0 76.305114101023719 -145.68357972982812 0 0 0 0 -1.0826559120848813 0.92489584060645669 0 0.92489584060645669 1.4406895521874821 0 0 0 0 -63.427950368764868 97.640737735744551 0 97.640737735744551 -79.962653486221825 0 0 0 0 -24.545293645329366 19.661257329345972 0 19.661257329345972 -70.738784501919326 0 0 0 0 -42.093034970239387 81.737150876608212 0 81.737150876608212 -98.250297819507068 0 0 0 0 -31.305378086493874 64.941895548552566 0 64.941895548552566 -72.470068249691394 0 0 0 0 -53.669608055432036 82.987565521105353 0 82.987565521105353 -80.047050994723577 0 0 0 0 -65.470634472757411 88.255028747236338 0 88.255028747236338 -63.960565521840181 0 0 0 0 -57.335494644357823 87.674108279403299 0 87.674108279403299 -64.273494243445384 0 0 0 0 -68.729340503876301 74.73012884651871 0 74.73012884651871 -57.145914870838169 0 0 0 0 -81.704582755988667 92.928179709470896 0 92.928179709470896 -57.847042730838439 0 0 0 0 -82.318978868162958 90.230018940081209 0 90.230018940081209 -51.289777387053618 0 0 0 0 -70.94584304270029 106.10462963081227 0 106.10462963081227 -57.983269197358823 0 0 0 0 -63.799531925883002 97.592696617998627 0 97.592696617998627 -72.207864700336359 0 0 0 0 -51.734399243363441 112.15045325549272 0 112.15045325549272 -62.583207653556201 0 0 0 0 -60.00223326026935 102.87135077029598 0 102.87135077029598 -71.376471521320127 0 0 0 0 1.4504805353128951 10.158060531599226 0 10.158060531599226 0.71713323724659084 0 0 0 0 -7.7026308389395126 15.898804124550225 0 15.898804124550225 3.9121196016776594 0 0 0 0 6.3548726099611486 37.588047110950015 0 37.588047110950015 -4.7558313437966717 0 0 0 0 9.1804384880030607 11.759045817387616 0 11.759045817387616 2.3633018590972981 0 0 0 0 21.899734838574659 19.319875495450106 0 19.319875495450106 -10.169403910622577 0 0 0 0 13.648936476128299 15.52500262884816 0 15.52500262884816 -2.2556317536202766 0 0 0 0 10.850322927264642 11.421351263717952 0 11.421351263717952 7.9590409411302971 0 0 0 0 18.961930176694295 9.4100591485475888 0 9.4100591485475888 0.46152713482661056 0 0 0 0 1.1107548888248857 9.5502344649394217 0 9.5502344649394217 3.4841043128596993 0 0 0 0 0.76380810616426231 9.1334814414721279 0 9.1334814414721279 8.0927636762517583 0 0 0 0 0.30236985335068312 15.380930097137934 0 15.380930097137934 24.842399815825047 0 0 0 0 6.1544421261741853 9.9703111034606806 0 9.9703111034606806 -2.9235280009270781 0 0 0 0 18.693467103032162 -7.4567048019052891 0 -7.4567048019052891 36.613530114897003 0 0 0 0 24.700098689063452 -53.998332316830783 0 -53.998332316830783 34.673336853884393 0 0 0 0 -1.5085685961380122 8.3280999249070184 0 8.3280999249070184 1.9746353493597439 0 0 0 0 -57.976013469742611 63.968588713580175 0 63.968588713580175 -53.60812181606525 0 0 0 0 36.475243228138424 -18.300729676171613 0 -18.300729676171613 22.464964352595416 0 0 0 0 -49.415775811939966 48.998205438141667 0 48.998205438141667 -27.699239963985747 0 0 0 0 31.237553329677212 25.779008504005787 0 25.779008504005787 -22.744398803431977 0 0 0 0 42.121129790422856 -8.1179090967088996 0 -8.1179090967088996 14.701452166319086 0 0 0 0 16.311516909054262 11.158162382141654 0 11.158162382141654 8.6012975946578081 0 0 0 0 -65.61875585559244 52.086214052521257 0 52.086214052521257 -50.582765096951334 0 0 0 0 92.569312828367401 16.435919413386728 0 16.435919413386728 -44.477548473673323 0 0 0 0 86.199988909807871 -4.7857908646560645 0 -4.7857908646560645 -32.857474964466746 0 0 0 0 -58.469045401458288 58.606976729963378 0 58.606976729963378 -55.415117515291058 0 0 0 0 71.686038080613798 81.293889335314816 0 81.293889335314816 -83.298765573890705 0 0 0 0 2.8696568238381577 3.1311766950790734 0 3.1311766950790734 -5.5121500375626411 0 0 0 0 -64.508562413298932 72.159519517946137 0 72.159519517946137 -58.287361602484452 0 0 0 0 -46.901140373818635 64.798256940610827 0 64.798256940610827 -59.172575100128597 0 0 0 0 -64.694657510408433 73.60531299178183 0 73.60531299178183 -63.104153903319457 0 0 0 0 -67.599376389691315 71.771282849485942 0 71.771282849485942 -51.195762051749625 0 0 0 0 -86.760223203925307 48.614945031017214 0 48.614945031017214 -32.625349729984009 0 0 0 0 -97.748920212827215 75.124580313980914 0 75.124580313980914 -46.799941328697969 0 0 0 0 44.333896501531854 25.334347912694284 0 25.334347912694284 -26.665238767207484 0 0 0 0 -33.488053209461214 13.588596718863982 0 13.588596718863982 29.07441865170631 0 0 0 0 -63.398930216450935 87.599673299919232 0 87.599673299919232 45.600503545150332 0 0 0 0 164.74072080694714 -0.24741738710554273 0 -0.24741738710554273 -87.388622257246425 0 0 0 0 9.054259880783583 9.9693477970826176 0 9.9693477970826176 2.8138541720099361 0 0 0 0 -2.0596955500927763 1.0291834847486321 0 1.0291834847486321 -0.62504482056762356 0 0 0 0 -111.3073870452472 106.00679702987259 0 106.00679702987259 -51.441705482147881 0 0 0 0 -136.5162376799708 51.380286344045089 0 51.380286344045089 -26.206374436590522 0 0 0 0 -189.97125752024658 68.979946385319636 0 68.979946385319636 -28.581184448779823 0 0 0 0 -161.97109303339676 112.09255928008406 0 112.09255928008406 -51.933983704675484 0 0 0 0 -224.9963905428649 126.48952330273505 0 126.48952330273505 -45.524292788036291 0 0 0 0 -172.74358015399775 127.73470493891273 0 127.73470493891273 -70.448261942211502 0 0 0 0 -172.10985807907127 118.32058878452608 0 118.32058878452608 -104.6147078861386 0 0 0 0 1.4080085839460246 1.6923930160537317 0 1.6923930160537317 -4.8691357837733769 0 0 0 0 -50.840957729662478 96.72269125670482 0 96.72269125670482 -56.780420852395764 0 0 0 0 -59.349808391829356 113.76912530929894 0 113.76912530929894 -71.099394588060022 0 0 0 0 -91.665098787409079 110.40704903031838 0 110.40704903031838 -58.845579139366691 0 0 0 0 -94.906681027685408 95.001604459735063 0 95.001604459735063 -48.791849948514937 0 0 0 0 -99.265650206439659 114.68242306814366 0 114.68242306814366 -63.243179781662548 0 0 0 0 -99.201442734058219 114.38651924741043 0 114.38651924741043 -78.649851921601112 0 0 0 0 -36.613821596763955 98.656659626825331 0 98.656659626825331 -92.026235512983021 0 0 0 0 -37.57827354962501 83.776288586699138 0 83.776288586699138 -42.046201871272842 0 0 0 0 -25.144559440213925 61.339518057320674 0 61.339518057320674 -96.237665042314802 0 0 0 0 -81.259036826055308 97.149848548333011 0 97.149848548333011 -64.399164243033738 0 0 0 0 -75.023966057760845 109.90858112431829 0 109.90858112431829 -128.3876559993696 0 0 0 0 -72.892889837710754 38.58152804874544 0 38.58152804874544 -8.8739182330709809 0 0 0 0 -34.906588686706527 51.727408293652843 0 51.727408293652843 -3.4400992027258326 0 0 0 0 -14.196114088344984 46.219252242944549 0 46.219252242944549 -7.4942904109270785 0 0 0 0 0.37056595834556916 0.55126187504741964 0 0.55126187504741964 -2.047508262042264 0 0 0 0 351.53408150841278 -28.06247971846733 0 -28.06247971846733 -191.87508477504707 0 0 0 0 -429.91727067956981 274.53137472648359 0 274.53137472648359 -81.712221506931201 0 0 0 0 -186.46358460028205 170.99711715650028 0 170.99711715650028 -118.53613208742991 0 0 0 0 -285.4727868750133 84.938578633216821 0 84.938578633216821 -87.704874656144966 0 0 0 0 -7.9368127642283071 69.863897497349626 0 69.863897497349626 -165.09289994091432 0 0 0 0 -175.71893270797773 249.23245237714764 0 249.23245237714764 -227.27132933829489 0 0 0 0 -71.837776825444962 102.98092825440472 0 102.98092825440472 -175.74782881672536 0 0 0 0 -54.796584880012233 181.16300864244477 0 181.16300864244477 -154.34574097054974 0 0 0 0 1.5179181362400413 -57.467352296304398 0 -57.467352296304398 -0.11470310220784086 0 0 0 0 264.557646134268 -38.320846408892976 0 -38.320846408892976 -112.84512082819037 0 0 0 0 -0.41538018397992005 -0.38762948880708237 0 -0.38762948880708237 -0.69355762525734121 0 0 0 0 10.931795239170924 79.024809169481614 0 79.024809169481614 -32.654353711708609 0 0 0 0 54.695392276238636 -62.301076655715633 0 -62.301076655715633 -22.520604163923053 0 0 0 0 -193.29079093285327 195.47738605720087 0 195.47738605720087 -42.092615406660116 0 0 0 0 -0.081655848287280008 -0.37124765295217799 0 -0.37124765295217799 -3.3233867830881216 0 0 0 0 -24.550813303827454 -100.6233984547066 0 -100.6233984547066 -4.1963061086335074 0 0 0 0 2.5155056480148517 -0.074321959140142724 0 -0.074321959140142724 -7.5992416795803752 0 0 0 0 7.8842329463048699 8.772541853296719 0 8.772541853296719 5.7128036015812764 0 0 0 0 32.344810023543687 45.918169587490411 0 45.918169587490411 -47.899834770082236 0 0 0 0 -109.48246903973813 106.70421518385228 0 106.70421518385228 61.102745249465897 0 0 0 0 2.7373200213737618 20.57597442842075 0 20.57597442842075 -1.5461865503775698 0 0 0 0 7.2757030692973785 17.466297051984384 0 17.466297051984384 -0.71391973506479189 0 0 0 0 11.235823312150387 19.616335580436044 0 19.616335580436044 0.44422102540738706 0 0 0 0 4.0300829212878853 16.596260578356578 0 16.596260578356578 1.552251677683671 0 0 0 0 36.847009602382968 22.68586606740314 0 22.68586606740314 -37.48805800445075 0 0 0 0 38.213265447554477 35.698416333638534 0 35.698416333638534 -4.6888016956568208 0 0 0 0 2.8643970438561608 5.7349972123479755 0 5.7349972123479755 -14.340032012553145 0 0 0 0 20.255557279024288 16.618983545542051 0 16.618983545542051 -3.3587396329553485 0 0 0 0 10.431422095751259 18.260389849297098 0 18.260389849297098 6.8942253583604725 0 0 0 0 31.417103243597012 13.677489462494123 0 13.677489462494123 -6.016461806301777 0 0 0 0 10.132267589952335 8.8805249985551882 0 8.8805249985551882 -8.6780171051768775 0 0 0 0 42.463054275534887 65.526730433131888 0 65.526730433131888 29.223744627898213 0 0 0 0 43.000013989036233 27.376435875128664 0 27.376435875128664 3.0127581338620075 0 0 0 0 69.163769715298258 114.71822596699531 0 114.71822596699531 61.228091710243461 0 0 0 0 183.03012818727893 74.052484312069282 0 74.052484312069282 4.7219486789126677 0 0 0 0 66.775952230023904 83.430965315711092 0 83.430965315711092 46.61112415967682 0 0 0 0 0.13570500803440466 2.0390318000387673 0 2.0390318000387673 -6.0703177841113831 0 0 0 0 3.1717148643929249 7.4604395834430761 0 7.4604395834430761 -6.502619259969606 0 0 0 0 3.2296997323660435 3.1624625502334673 0 3.1624625502334673 2.1128614366790206 0 0 0 0 527.883099800526 100.59552712363211 0 100.59552712363211 15.017517371645226 0 0 0 0 -1.3146372031381475 1.12796452016023 0 1.12796452016023 0.40970049260707242 0 0 0 0 -5.7944565165998938 143.0418172966647 0 143.0418172966647 137.03450666030767 0 0 0 0 746.87086130629177 369.40161343430555 0 369.40161343430555 212.72128778881779 0 0 0 0 176.29399449755147 75.259807116035518 0 75.259807116035518 70.256291918730312 0 0 0 0 -19.432065833494562 -84.383284404878395 0 -84.383284404878395 196.00903542474867 0 0 0 0 -29.84882954233035 159.76874513240273 0 159.76874513240273 -288.29853093271322 0 0 0 0 -19.937515296673496 -96.695242873039945 0 -96.695242873039945 -70.136624704111455 0 0 0 0 434.03061054430555 71.724497349130388 0 71.724497349130388 -21.334335015693796 0 0 0 0 -232.5473360745309 203.47441088418418 0 203.47441088418418 -99.015713409434284 0 0 0 0 -0.31598538333320381 -1.2851266622412165 0 -1.2851266622412165 -1.3408714881146118 0 0 0 0 -126.09467524952379 91.879146591200197 0 91.879146591200197 -60.46125614167795 0 0 0 0 0.27736836437520984 -0.1762969116909332 0 -0.1762969116909332 -1.5968269997214399 0 0 0 0 -24.951754928853916 265.1614190892119 0 265.1614190892119 -133.03269052107134 0 0 0 0 566.23519895034224 25.681090543602295 0 25.681090543602295 -266.60916143590839 0 0 0 0 -267.30059430976053 87.138369545133173 0 87.138369545133173 54.983360256043852 0 0 0 0 12.283972522513068 268.21417693601961 0 268.21417693601961 -139.64278210092107 0 0 0 0 -41.497886562789063 109.79890765501477 0 109.79890765501477 162.02613506434591 0 0 0 0 7.3985903886969027 16.107820922150495 0 16.107820922150495 -8.3613259076360009 0 0 0 0 16.279975946271783 6.7995903598111447 0 6.7995903598111447 -0.41623439686618191 0 0 0 0 153.09817727219342 53.919454346438215 0 53.919454346438215 9.3656778093800312 0 0 0 0 -26.963267460091629 53.509197410511206 0 53.509197410511206 -59.449854806351141 0 0 0 0 4.2364343928506294 -0.46928185334705397 0 -0.46928185334705397 -5.9755493138148736 0 0 0 0 20.616475650654138 11.8979168136525 0 11.8979168136525 -1.1073803604831483 0 0 0 0 6.9778837929109736 11.247709214491969 0 11.247709214491969 3.632275931959029 0 0 0 0 13.770673298928159 23.862698912645556 0 23.862698912645556 -14.093765165362129 0 0 0 0 12.873936884265277 24.978134947737999 0 24.978134947737999 -15.426286285372953 0 0 0 0 9.984310449073746 28.993236785650652 0 28.993236785650652 -38.982259244396118 0 0 0 0 6.9467967336713627 27.041717416635947 0 27.041717416635947 -11.444739714293974 0 0 0 0 9.3315949954230746 23.419038364428616 0 23.419038364428616 -6.0440323658785928 0 0 0 0 0.011854353298986098 37.418169574174499 0 37.418169574174499 -9.030278905041996 0 0 0 0 2.0586748168170743 30.264523516927056 0 30.264523516927056 -2.3621048304739816 0 0 0 0 -7.8745431530696806 33.270066332838269 0 33.270066332838269 -1.1076492404522469 0 0 0 0 -18.544358636698234 52.101354231261212 0 52.101354231261212 -36.146888217659352 0 0 0 0 -7.9352622509761659 35.99373841913058 0 35.99373841913058 -12.321818930805421 0 0 0 0 -7.1955946040197887 42.954680461225962 0 42.954680461225962 -11.843260559484406 0 0 0 0 9.3651070749765495 17.620385798624739 0 17.620385798624739 -20.458282689261068 0 0 0 0 8.1551271622902277 24.770015855407564 0 24.770015855407564 -53.705617750951205 0 0 0 0 -22.317245662296045 38.601172716033034 0 38.601172716033034 -31.181693244216149 0 0 0 0 6.3606121061363723 3.7141980178530947 0 3.7141980178530947 0.93793722312964833 0 0 0 0 -8.9599307095277254 35.780732925357825 0 35.780732925357825 -60.662273469635693 0 0 0 0 -104.35980700618347 -51.984263140571784 0 -51.984263140571784 330.71877424689524 0 0 0 0 -369.68792992950421 252.64047471355434 0 252.64047471355434 4.8983557079691309 0 0 0 0 -73.179622738283797 255.11919016007505 0 255.11919016007505 -21.929287525435939 0 0 0 0 141.36808593608475 -25.797908104499811 0 -25.797908104499811 48.870089249273406 0 0 0 0 63.665282526435476 -36.813938112910364 0 -36.813938112910364 -106.32586321964527 0 0 0 0 -158.18891759950384 195.34499252234582 0 195.34499252234582 -44.781164522613835 0 0 0 0 -42.986558314081776 167.20408190314856 0 167.20408190314856 175.93296481672587 0 0 0 0 -127.77877844306659 -69.400201133069004 0 -69.400201133069004 562.18096533744028 0 0 0 0 -5.2164220045342518 94.416876726690134 0 94.416876726690134 -213.8230702744579 0 0 0 0 1.2116843385889595 1.4360197561438834 0 1.4360197561438834 0.43268243555829278 0 0 0 0 -52.890049855109282 35.002006021666261 0 35.002006021666261 61.092268641540613 0 0 0 0 0.62697083571674739 -4.9915874516630083 0 -4.9915874516630083 47.973749917659006 0 0 0 0 -34.404105943078321 46.447245498016855 0 46.447245498016855 -7.278738366154812 0 0 0 0 -76.895932213265041 29.016939600717251 0 29.016939600717251 160.74699072539352 0 0 0 0 -62.208404002969473 135.98646619343344 0 135.98646619343344 77.58577344805235 0 0 0 0 -83.206215371226335 58.076440071966942 0 58.076440071966942 58.578677151323973 0 0 0 0 -0.41750755816362783 0.095318513323249476 0 0.095318513323249476 0.13315678363733596 0 0 0 0 -20.487060999226742 64.039093034418784 0 64.039093034418784 28.250313332826863 0 0 0 0 -35.423197970508227 46.979166782110951 0 46.979166782110951 81.940458765665426 0 0 0 0 -16.013195089668443 11.605809104192303 0 11.605809104192303 129.65713817181927 0 0 0 0 -38.354355509212837 74.15643234033746 0 74.15643234033746 9.6496535090245743 0 0 0 0 -43.784505159374021 69.784862348124534 0 69.784862348124534 21.449106832772486 0 0 0 0 -34.001970382967102 52.564677571530012 0 52.564677571530012 -9.5355855972011341 0 0 0 0 -9.4499713599034294 12.974910762973195 0 12.974910762973195 20.355217051800537 0 0 0 0 -12.346980531561712 10.956837213783729 0 10.956837213783729 22.785097640085041 0 0 0 0 -33.776467413940395 38.593875000983424 0 38.593875000983424 50.384896491457766 0 0 0 0 -11.092919179627643 9.0455520886180238 0 9.0455520886180238 42.625448828785011 0 0 0 0 3.273811195496819 -1.2450380140107882 0 -1.2450380140107882 49.991362487015067 0 0 0 0 -27.431898392573203 57.527710669938642 0 57.527710669938642 -69.712615986246419 0 0 0 0 -22.285994431204017 22.81827243150974 0 22.81827243150974 -70.498983923006563 0 0 0 0 -63.293802603926451 148.07411019931715 0 148.07411019931715 -51.308825186898503 0 0 0 0 -44.00627746133614 68.553014267425169 0 68.553014267425169 -59.698664083071947 0 0 0 0 -43.681545691393694 76.524403509753483 0 76.524403509753483 10.122741599299843 0 0 0 0 -51.417191637410724 51.018204208236966 0 51.018204208236966 4.0108315634743121 0 0 0 0 -50.188246236048144 53.047378296936131 0 53.047378296936131 -18.010792515741741 0 0 0 0 -64.625038690710426 52.864560028851429 0 52.864560028851429 -13.846024164476148 0 0 0 0 -64.25518020911295 63.325585429753573 0 63.325585429753573 -32.640836966971619 0 0 0 0 -39.914099070952943 39.137082171544989 0 39.137082171544989 -12.780062967090544 0 0 0 0 -61.740172540481581 60.390772842938986 0 60.390772842938986 -22.001343946249108 0 0 0 0 -66.026975295961165 52.815717043141376 0 52.815717043141376 -0.47062926103899372 0 0 0 0 -30.805197998008225 46.612709955167247 0 46.612709955167247 -49.077423321160495 0 0 0 0 -15.47481203645475 -10.239119288846268 0 -10.239119288846268 121.34902699784425 0 0 0 0 -0.48836568965683114 0.096754436150835232 0 0.096754436150835232 0.079350896421848782 0 0 0 0 -2.3349552596773719 -8.0084594956856563 0 -8.0084594956856563 87.716202167944175 0 0 0 0 -22.19023507500242 -1.327918977810441 0 -1.327918977810441 114.13398077430475 0 0 0 0 -53.033711713017055 56.373287760868038 0 56.373287760868038 42.086607955588988 0 0 0 0 4.1757725697461865 -5.0409443372509486 0 -5.0409443372509486 30.011631012381258 0 0 0 0 5.7139972468780797 -12.785705088181203 0 -12.785705088181203 156.57935826674247 0 0 0 0 -1.2184397824701421 0.47789798291230845 0 0.47789798291230845 0.22864992626731695 0 0 0 0 -3.632457022626113 -4.3764861876393297 0 -4.3764861876393297 30.956146548091056 0 0 0 0 3.6682611133292085 -11.053970114276126 0 -11.053970114276126 14.093741622600191 0 0 0 0 7.5126365615506074 1.2516366677473343 0 1.2516366677473343 -6.4085107045367522 0 0 0 0 -11.278418690591934 35.155349924174516 0 35.155349924174516 -25.280842669781123 0 0 0 0 -2.2168194078622037 16.062966752653665 0 16.062966752653665 -26.109181357151044 0 0 0 0 -19.539685916359304 28.757578676102639 0 28.757578676102639 -3.5746098556519428 0 0 0 0 -0.42196687674004352 -17.05192068689712 0 -17.05192068689712 107.75110607657575 0 0 0 0 4.6366693020299863 -13.959998222761442 0 -13.959998222761442 77.808479113099565 0 0 0 0 7.0144341193117725 -5.5360751723137582 0 -5.5360751723137582 112.36630956628323 0 0 0 0 2.0213497809418186 -6.4519323397730659 0 -6.4519323397730659 64.138643343515469 0 0 0 0 -1.8315523344717803 -2.5438679327980935 0 -2.5438679327980935 163.93985698285178 0 0 0 0 -0.003582061429533212 -0.3010994690031108 0 -0.3010994690031108 0.25023220183178241 0 0 0 0 -4.9671583517720137 -3.0507478074900973 0 -3.0507478074900973 81.104526341792166 0 0 0 0 -6.2250440286443336 0.20710730965674884 0 0.20710730965674884 75.188742672941771 0 0 0 0 0.84601634981845564 -4.1744501922571544 0 -4.1744501922571544 79.823446907359994 0 0 0 0 -15.493540526664219 -30.781927438622688 0 -30.781927438622688 -36.619995095457398 0 0 0 0 -4.0080899413360669 4.5198470105364681 0 4.5198470105364681 0.19525631436312046 0 0 0 0 14.185933949407627 -17.361709486627433 0 -17.361709486627433 -74.633839685519348 0 0 0 0 13.528210825781571 -13.464134663955292 0 -13.464134663955292 -59.749039367028672 0 0 0 0 -4.6496421492347508 5.5370489688144744 0 5.5370489688144744 70.322560628454994 0 0 0 0 -2.2932424839345913 -6.6181641218690856 0 -6.6181641218690856 87.387335100861492 0 0 0 0 -24.937755231241681 0.24006791191277443 0 0.24006791191277443 102.38813578670761 0 0 0 0 -5.1910820750389917 5.0969041564781286 0 5.0969041564781286 0.1913004490106909 0 0 0 0 18.04412527941895 41.831822386326394 0 41.831822386326394 -59.365781822928511 0 0 0 0 -26.542662027884944 18.003334216778285 0 18.003334216778285 -10.852951960110659 0 0 0 0 -26.207214857005965 -11.7654322402243 0 -11.7654322402243 1.8555620206470849 0 0 0 0 47.954070345418586 -11.920634114253062 0 -11.920634114253062 -133.25134423991315 0 0 0 0 0.87353603785413725 44.418884020861242 0 44.418884020861242 -66.834786781900334 0 0 0 0 -7.3627560634122986 5.8697969969806465 0 5.8697969969806465 0.26914877320093972 0 0 0 0 -24.814192899177215 16.28273694402742 0 16.28273694402742 86.694479850487426 0 0 0 0 -7.6864767653214585 32.16450245913552 0 32.16450245913552 20.653569071875609 0 0 0 0 -10.022442590400075 5.571043564315163 0 5.571043564315163 0.15571370798660844 0 0 0 0 -4.4031560465318762 7.1589801714619625 0 7.1589801714619625 -51.205618679561425 0 0 0 0 -9.8544851046654003 25.08828404340602 0 25.08828404340602 1.9405711868512299 0 0 0 0 -8.1222539137015701 19.789415668031779 0 19.789415668031779 12.894987896356724 0 0 0 0 -13.234581924358281 25.463577884655933 0 25.463577884655933 53.692977827402743 0 0 0 0 -6.4269106683714199 40.443272987948149 0 40.443272987948149 1.7666404291812796 0 0 0 0 -10.39359423220958 36.424927813019167 0 36.424927813019167 15.831568567811246 0 0 0 0 -12.036883813225359 30.524210858443212 0 30.524210858443212 -1.3172103300557865 0 0 0 0 -10.54060958577611 41.042855395007791 0 41.042855395007791 -3.3878799267786235 0 0 0 0 -3.7431819336513854 35.843403415864202 0 35.843403415864202 0.4602709313712694 0 0 0 0 0.41071258855470205 38.028483477504921 0 38.028483477504921 -8.8530423944230279 0 0 0 0 0.57983507343487872 40.14792586492058 0 40.14792586492058 -4.4280833085285849 0 0 0 0 -3.5924138144255267 39.354137186498605 0 39.354137186498605 -0.98682935332180932 0 0 0 0 -10.376447861268389 48.853209049867019 0 48.853209049867019 6.8751472991098126 0 0 0 0 -9.5024982793074741 53.230178777570927 0 53.230178777570927 -12.38096563201119 0 0 0 0 -25.56212135520218 27.578598327839245 0 27.578598327839245 15.261968265487212 0 0 0 0 -6.5842637318390871 33.903032226426824 0 33.903032226426824 21.445982538406497 0 0 0 0 -43.402115145721837 72.247782032673967 0 72.247782032673967 426.68536687303595 0 0 0 0 0.11102491356905375 139.74725328392606 0 139.74725328392606 287.45581052759826 0 0 0 0 24.815970054007266 27.623929342658812 0 27.623929342658812 274.80822823684366 0 0 0 0 0.84849215866779559 118.01725375462183 0 118.01725375462183 237.05781201877971 0 0 0 0 37.091751780259074 102.50107424903899 0 102.50107424903899 161.87861045496265 0 0 0 0 20.564394978492146 96.019710140434313 0 96.019710140434313 161.86933293125549 0 0 0 0 20.092485768038841 73.61537381617029 0 73.61537381617029 203.57307533977018 0 0 0 0 -0.082331717236229451 148.82374656957927 0 148.82374656957927 157.18773115969839 0 0 0 0 45.125299788651319 73.779947666303087 0 73.779947666303087 -2.7595799607252047 0 0 0 0 -1.4973530216120707 159.7118561532393 0 159.7118561532393 227.83737510095398 0 0 0 0 0.22816967748733674 0.18956671952339121 0 0.18956671952339121 0.22760715364596562 0 0 0 0 -0.040783513792106173 225.42430211550209 0 225.42430211550209 59.072558310173918 0 0 0 0 47.428563975929137 106.30646736885683 0 106.30646736885683 45.162340099822586 0 0 0 0 0.22395372387574497 0.1667158192563658 0 0.1667158192563658 0.10647463220080056 0 0 0 0 43.288199385644475 120.70274991443102 0 120.70274991443102 187.84219378321995 0 0 0 0 85.358572380983787 31.215548678693267 0 31.215548678693267 -42.451396906661103 0 0 0 0 76.313569666786861 104.27704573036863 0 104.27704573036863 32.174820739730421 0 0 0 0 79.596557722784155 85.337626211359691 0 85.337626211359691 52.435307956467113 0 0 0 0 25.569797054318769 56.242696234809273 0 56.242696234809273 100.11602381874491 0 0 0 0 65.339925871742707 101.72964768145914 0 101.72964768145914 132.89914228465022 0 0 0 0 35.155894142876605 53.828932081694575 0 53.828932081694575 113.41614467103591 0 0 0 0 25.337114604952149 41.082050123104182 0 41.082050123104182 178.1120576338833 0 0 0 0 45.414032514041537 83.407659839035205 0 83.407659839035205 197.10531595630255 0 0 0 0 -3.2693204176557629 18.695397702813352 0 18.695397702813352 167.86328456383535 0 0 0 0 -5.4654039498745988 31.968917403739397 0 31.968917403739397 97.264971257362049 0 0 0 0 7.4895903939195705 23.520748419441588 0 23.520748419441588 85.680263579153234 0 0 0 0 -1.0850255221266707 13.684198660592301 0 13.684198660592301 91.051028392111675 0 0 0 0 4.726495430300929 28.828738172501517 0 28.828738172501517 76.415971211980832 0 0 0 0 14.490866053800346 50.79435131821765 0 50.79435131821765 147.28300617337277 0 0 0 0 -0.29910735006423295 0.077180799341675765 0 0.077180799341675765 0.18526516437237195 0 0 0 0 36.763427963398499 60.806758203950722 0 60.806758203950722 101.55461032176481 0 0 0 0 35.361416345619091 49.935154355654731 0 49.935154355654731 48.836813297774825 0 0 0 0 10.03850295754637 43.121719128263521 0 43.121719128263521 87.118650584432984 0 0 0 0 18.642208441982802 29.463387164212463 0 29.463387164212463 86.962269640993327 0 0 0 0 16.531329895794897 50.042547994346819 0 50.042547994346819 36.788375447030376 0 0 0 0 -16.909551795795778 46.664881708695248 0 46.664881708695248 38.367846436095988 0 0 0 0 4.4754965904776327 14.305881564285755 0 14.305881564285755 71.38030585258457 0 0 0 0 14.788679853012582 37.494983140647491 0 37.494983140647491 63.53228768012923 0 0 0 0 0.25797061629600648 37.437133841967807 0 37.437133841967807 106.70951663507003 0 0 0 0 -0.67962208893994358 0.25540265074362978 0 0.25540265074362978 0.17426627212821177 0 0 0 0 -0.53312395793909673 31.966577668726131 0 31.966577668726131 106.94925855808242 0 0 0 0 7.6112839371679968 17.972927602196783 0 17.972927602196783 75.615397399768881 0 0 0 0 -1.0956899933626119 8.0907528857756006 0 8.0907528857756006 81.002944391774918 0 0 0 0 12.125146385174958 9.7776718211227944 0 9.7776718211227944 51.644695241746831 0 0 0 0 2.8376495379507105 14.928132118663598 0 14.928132118663598 72.857324385862739 0 0 0 0 15.054136664606631 16.688183611022396 0 16.688183611022396 49.186499411537284 0 0 0 0 -6.7598471294950286 0.078390539293650363 0 0.078390539293650363 51.288912569450304 0 0 0 0 -1.6595760585210044 0.82089838084699807 0 0.82089838084699807 0.27337011276427714 0 0 0 0 8.7356406576391237 12.364995321585184 0 12.364995321585184 49.978457525144222 0 0 0 0 -12.86524994816682 -4.849903142284802 0 -4.849903142284802 135.97232994406022 0 0 0 0 -11.01499445018635 3.9514713436310558 0 3.9514713436310558 102.19403782869335 0 0 0 0 7.9781602028924681 -7.3359962994122725 0 -7.3359962994122725 89.501372517721393 0 0 0 0 -8.1682099654371996 -23.054629439503515 0 -23.054629439503515 116.46191853863866 0 0 0 0 0.028511836168014781 -0.39137205903986505 0 -0.39137205903986505 0.30327148739590193 0 0 0 0 -1.1104725907630382 7.745878357714389 0 7.745878357714389 84.914459466688641 0 0 0 0 3.0557648940448416 15.625328645771788 0 15.625328645771788 105.23141397806103 0 0 0 0 0.085434936781894066 0.060036128595129412 0 0.060036128595129412 74.582805270979406 0 0 0 0 -4.013973703236843 -9.2021632391843013 0 -9.2021632391843013 73.581417234910987 0 0 0 0 1.7267188297100802 -1.8530673347877382 0 -1.8530673347877382 60.379695975845607 0 0 0 0 -81.089624477237521 21.023491449911944 0 21.023491449911944 -30.617147367531743 0 0 0 0 -3.1464029301495557 4.2487244541981273 0 4.2487244541981273 0.20024113699361273 0 0 0 0 43.202705381110718 -3.0284370004139873 0 -3.0284370004139873 -165.2282777329433 0 0 0 0 9.0315601865377175 18.392672901513833 0 18.392672901513833 83.516793209179014 0 0 0 0 -8.785968428986962 -6.2686435403084033 0 -6.2686435403084033 89.497475076232149 0 0 0 0 11.42981228021381 -10.10422728693402 0 -10.10422728693402 43.786847546087301 0 0 0 0 -1.7303006669561682 4.1300338491143727 0 4.1300338491143727 0.15466555382418504 0 0 0 0 -15.43840382651797 9.7834986242696687 0 9.7834986242696687 -69.119042797640716 0 0 0 0 -3.0604931886068698 12.232330140701833 0 12.232330140701833 -80.904682937513371 0 0 0 0 7.3627303852426849 17.879204073472692 0 17.879204073472692 -97.595203896468774 0 0 0 0 -2.4537178544705966 9.7611072342288026 0 9.7611072342288026 -78.317677227892545 0 0 0 0 -11.065367563231121 -15.831639014337725 0 -15.831639014337725 111.37152084288755 0 0 0 0 9.3022220105963243 2.542464297333936 0 2.542464297333936 41.222600982467611 0 0 0 0 16.883533171498129 2.9958874535936957 0 2.9958874535936957 50.665145472081463 0 0 0 0 0.0069556583106376024 -0.18017902646414186 0 -0.18017902646414186 0.19388945596827778 0 0 0 0 -21.849398332167766 6.4403176507530588 0 6.4403176507530588 135.89224508007192 0 0 0 0 -14.479836161155617 -16.173696664922772 0 -16.173696664922772 119.72743521102393 0 0 0 0 -1.8192130054406661 1.0248196591589931 0 1.0248196591589931 0.33673602139623482 0 0 0 0 -9.5781664577680203 22.551232716570667 0 22.551232716570667 112.53578916369179 0 0 0 0 -16.153590744044777 -1.2534809651378964 0 -1.2534809651378964 132.84422237164245 0 0 0 0 -1.4474562006499099 0.99105183883698444 0 0.99105183883698444 0.43118429784163881 0 0 0 0 9.0321307710128167 38.433886954508807 0 38.433886954508807 195.27832511801307 0 0 0 0 -14.597621596481986 -20.512008121419058 0 -20.512008121419058 93.13956955354297 0 0 0 0 8.12034039666014 0.34842386073410125 0 0.34842386073410125 85.430532865947498 0 0 0 0 -8.2662170358962612 -10.89614801194034 0 -10.89614801194034 81.040495842917949 0 0 0 0 -0.21898951675019873 3.8616327428453445 0 3.8616327428453445 0.069827059762619603 0 0 0 0 -18.882980913071151 10.832481065992852 0 10.832481065992852 -50.628961708367569 0 0 0 0 -7.857972876761778 27.541289722377769 0 27.541289722377769 -75.153566003244123 0 0 0 0 19.609387963864719 9.8737685245669127 0 9.8737685245669127 -123.88326457145286 0 0 0 0 14.211187039629294 34.870826599074917 0 34.870826599074917 -141.83997226124524 0 0 0 0 3.444744610475027 30.622806516274068 0 30.622806516274068 -57.031800017026399 0 0 0 0 -3.4142102770492784 10.389567307376637 0 10.389567307376637 -37.090996791657744 0 0 0 0 1.43846369485982 -6.3266087587999209 0 -6.3266087587999209 -84.241721932406108 0 0 0 0 -6.1482835895534436 6.8753129263243125 0 6.8753129263243125 78.997228566043304 0 0 0 0 0.54811843264009497 3.4659694260635545 0 3.4659694260635545 0.27947795506949208 0 0 0 0 11.748573073968146 -9.7590196470373485 0 -9.7590196470373485 25.908871797378339 0 0 0 0 1.477687534071265 -2.9011963283567184 0 -2.9011963283567184 52.81559371313142 0 0 0 0 0.74613163667512339 2.1764734220543644 0 2.1764734220543644 3.1315510723874826 0 0 0 0 -47.760789293446578 22.939527498680036 0 22.939527498680036 -85.003166520315062 0 0 0 0 -37.367998700464341 -6.9285683441266883 0 -6.9285683441266883 -95.917823894749745 0 0 0 0 -16.092526388332772 36.004902109883915 0 36.004902109883915 -80.548393799449059 0 0 0 0 -10.945636903282775 -1.6963813238579064 0 -1.6963813238579064 -101.09378432771155 0 0 0 0 2.1253738028899534 18.513409007515293 0 18.513409007515293 -53.330135950179738 0 0 0 0 -20.961216272062302 28.205633897907774 0 28.205633897907774 -55.220927830770052 0 0 0 0 -5.1230411950236885 12.534098195547813 0 12.534098195547813 -56.296813309445497 0 0 0 0 -8.6108295462327078 23.545814991471161 0 23.545814991471161 -53.435545907343794 0 0 0 0 24.063503915276669 44.201891559237083 0 44.201891559237083 -256.2524694733288 0 0 0 0 0.58333051180147066 0.27788414134374406 0 0.27788414134374406 0.074522007083833941 0 0 0 0 1.8434867779069464 -50.666333704501994 0 -50.666333704501994 -1.5108675046966482 0 0 0 0 -4.5676011576179008 40.057633474818431 0 40.057633474818431 -45.403933011126355 0 0 0 0 -95.916727588493814 107.49750242159735 0 107.49750242159735 -14.996731776107993 0 0 0 0 0.065723378755137674 48.458358204094338 0 48.458358204094338 -157.84042458939803 0 0 0 0 -0.56720474286339595 -1.8201386444579839 0 -1.8201386444579839 -0.51342426585688372 0 0 0 0 -0.7764174179231631 0.31134557418575781 0 0.31134557418575781 1.0474654695237287 0 0 0 0 -18.480497093631129 3.6010282047218425 0 3.6010282047218425 13.704005782481062 0 0 0 0 -38.375208722753086 22.642839366460294 0 22.642839366460294 4.219349021470407 0 0 0 0 -6.7690616989784758 18.854817692112647 0 18.854817692112647 -11.516041094608227 0 0 0 0 46.62589644469972 -108.54471209550911 0 -108.54471209550911 221.38242753870691 0 0 0 0 0.47448448451530822 0.55101456152451078 0 0.55101456152451078 1.2733536765477851 0 0 0 0 -0.066225312972164829 2.1397234417868276 0 2.1397234417868276 0.95072716463641882 0 0 0 0 22.538824832736282 -44.639094519249284 0 -44.639094519249284 57.679575153215239 0 0 0 0 -14.599058671792591 -19.383763925803578 0 -19.383763925803578 146.87103159582966 0 0 0 0 -0.55730112012761168 0.39884129639615118 0 0.39884129639615118 0.5257251940706904 0 0 0 0 33.148691682259596 26.494075338895072 0 26.494075338895072 80.930722806006543 0 0 0 0 -0.5717753353601438 241.12369005888377 0 241.12369005888377 343.70770956580418 0 0 0 0 3.5444919912397381 11.293935310734923 0 11.293935310734923 -11.987470064208992 0 0 0 0 -0.0016424291679868475 12.310635455946795 0 12.310635455946795 1.5328639456265591 0 0 0 0 3.140491510846914 9.5927900695312474 0 9.5927900695312474 2.2249416498985397 0 0 0 0 1.9129547390402877 9.9481095954840839 0 9.9481095954840839 2.1393891472595215 0 0 0 0 8.5030432140447374 5.8895256618400254 0 5.8895256618400254 -7.8270505910554675 0 0 0 0 9.4024227424206401 8.358150682962048 0 8.358150682962048 -3.4550591530028214 0 0 0 0 3.9914450295818824 4.2331838156858339 0 4.2331838156858339 -1.4270296783497542 0 0 0 0 2.4430490149716206 -2.1116130556110875 0 -2.1116130556110875 -18.770957230597787 0 0 0 0 -5.4864120360554607e-05 9.6515835899695492 0 9.6515835899695492 4.3580644374978874 0 0 0 0 -0.52340657023210468 -0.13127586044278061 0 -0.13127586044278061 0.47376741365848929 0 0 0 0 -0.12542079997268019 -0.16435022412112588 0 -0.16435022412112588 0.32176381622490569 0 0 0 0 5.6701816409768071 1.3198096372723285 0 1.3198096372723285 -4.3117912115378658 0 0 0 0 -1.9311553478237329 3.2357628588140415 0 3.2357628588140415 3.5769643302851364 0 0 0 0 -0.0063746055070380897 3.5645253899327156 0 3.5645253899327156 -1.2570304424252754 0 0 0 0 0.0051737084667408889 3.5502324921762982 0 3.5502324921762982 -1.251546328094264 0 0 0 0 -3.1440396638281527 13.645138474442319 0 13.645138474442319 -11.641305364866639 0 0 0 0 -9.3955820488736208 18.121563096436148 0 18.121563096436148 1.316489001197624 0 0 0 0 -8.5589842508952643 10.345290452032486 0 10.345290452032486 -13.369654488113156 0 0 0 0 -6.5370728250181855 19.208710930892266 0 19.208710930892266 -28.164927024608915 0 0 0 0 -13.567743982915999 26.597846742882211 0 26.597846742882211 -25.158136410444058 0 0 0 0 -32.274647322425153 31.60980559075324 0 31.60980559075324 13.306680371385482 0 0 0 0 -27.821572320441192 -0.22365513061868114 0 -0.22365513061868114 31.042612391896 0 0 0 0 1.0665044364962668 1.3149960957820497 0 1.3149960957820497 0.62595134486141291 0 0 0 0 1.2123727083235281 -13.445540776076541 0 -13.445540776076541 23.850905441462601 0 0 0 0 -6.8093932199153642 10.426965363704085 0 10.426965363704085 18.324897308857544 0 0 0 0 1.6895265503044357 2.3614606299242951 0 2.3614606299242951 -0.7584220566895965 0 0 0 0 0.68914032758038957 9.0929466150319058 0 9.0929466150319058 15.690236167496096 0 0 0 0 4.4327661765855737 2.6043331396881513 0 2.6043331396881513 -3.2575614111124196 0 0 0 0 0.44298791721185182 3.5504729712765801 0 3.5504729712765801 -0.77630419693629094 0 0 0 0 4.0594914288467407 3.3910540216559184 0 3.3910540216559184 3.1692243373781821 0 0 0 0 -0.62263944039547425 3.668391364292809 0 3.668391364292809 -0.21679042316820585 0 0 0 0 0.071972352049947119 2.2540436194046709 0 2.2540436194046709 -0.43064396151847539 0 0 0 0 -1.5811047100869473 1.7220191203687136 0 1.7220191203687136 1.5773571298050229 0 0 0 0 0.22120839931147884 0.45420978619823771 0 0.45420978619823771 0.44140239316884333 0 0 0 0 3.5334424356056502 3.9065974568741044 0 3.9065974568741044 -0.4789218842276588 0 0 0 0 -2.975012953105761 -27.774328972301646 0 -27.774328972301646 -14.556821514005605 0 0 0 0 13.065025037507439 6.2735681339313487 0 6.2735681339313487 -11.963784789999409 0 0 0 0 0.79696433889036911 0.40615177442669292 0 0.40615177442669292 0.045602262383397374 0 0 0 0 -83.525022980242284 8.9588581132628633 0 8.9588581132628633 9.8163549721766685 0 0 0 0 1.5802590864695958 3.6087193257253602 0 3.6087193257253602 -16.927896480668551 0 0 0 0 -53.775482183249551 0.61793692129322153 0 0.61793692129322153 -7.9185919143537831 0 0 0 0 3.8044252312829485 7.038092268588116 0 7.038092268588116 -2.3525099584130658 0 0 0 0 5.6039491726005508 6.0850355442186128 0 6.0850355442186128 -14.579857552612339 0 0 0 0 4.0177060074020119 0.37167015796831038 0 0.37167015796831038 2.4152622694205093 0 0 0 0 -3.57545655689146 2.0203854656192419 0 2.0203854656192419 0.293608423316571 0 0 0 0 0.42255585661405348 11.383523111597015 0 11.383523111597015 -1.3528512860357296 0 0 0 0 -0.54667949671853933 0.64747323723168471 0 0.64747323723168471 -0.087881823916157398 0 0 0 0 0.28956077492192378 0.72259673215789455 0 0.72259673215789455 -0.52209010837168934 0 0 0 0 -9.1268927199562313 15.64258256444009 0 15.64258256444009 40.39874162776141 0 0 0 0 -5.1017875409088447 4.7369733278992499 0 4.7369733278992499 13.644608898219303 0 0 0 0 1.8445915060510742 14.759511133518572 0 14.759511133518572 17.17815889072881 0 0 0 0 2.5337114414505777 7.0630030860193074 0 7.0630030860193074 21.201776812865319 0 0 0 0 2.5528477488696808 24.893414387201119 0 24.893414387201119 17.558880244429929 0 0 0 0 -0.73378015723949375 -0.284783855201308 0 -0.284783855201308 0.79022849621714908 0 0 0 0 4.8712746421715565 0.63953218500944331 0 0.63953218500944331 -3.5153083696513931 0 0 0 0 9.6651359130446508 18.837425815200277 0 18.837425815200277 -50.81908342285405 0 0 0 0 10.04697511773702 10.965780494947467 0 10.965780494947467 -45.192592189618153 0 0 0 0 1.7665219752816483 11.648396310676617 0 11.648396310676617 -30.732764046933539 0 0 0 0 -9.0363290733366739 17.453396902769782 0 17.453396902769782 -31.097817549285537 0 0 0 0 -5.1883812254964141 6.80672416780817 0 6.80672416780817 -7.2342836662737682 0 0 0 0 0.16502549023061874 18.211225161597667 0 18.211225161597667 0.17052616257205955 0 0 0 0 -2.1320503880742763 7.198172543203782 0 7.198172543203782 -2.7524063049349934 0 0 0 0 -2.9734541649749815 1.5262941291901502 0 1.5262941291901502 -0.52558149687485578 0 0 0 0 -22.14737930730189 8.0182064495929808 0 8.0182064495929808 2.205297201790529 0 0 0 0 -3.7364611757075181 1.8809527324606279 0 1.8809527324606279 -14.797284926561133 0 0 0 0 -15.7730424981346 11.846661251611067 0 11.846661251611067 -15.519608079784575 0 0 0 0 1.4162614368142386 -4.2369190076892664 0 -4.2369190076892664 -47.687285885687288 0 0 0 0 0.52849207043665558 0.60146273144923867 0 0.60146273144923867 0.71451861604912814 0 0 0 0 71.402172406670161 2.6720626354860997 0 2.6720626354860997 -10.199533847519433 0 0 0 0 26.39560369126923 71.026027078071294 0 71.026027078071294 20.231687045643412 0 0 0 0 4.3358388772103353 18.185704514045938 0 18.185704514045938 57.435166519764906 0 0 0 0 15.84457513551024 -84.936685367190421 0 -84.936685367190421 55.597008531402935 0 0 0 0 61.038494390100823 41.658780526740657 0 41.658780526740657 -2.5805463496262746 0 0 0 0 -0.033534706433940187 0.3663421720921054 0 0.3663421720921054 -0.23584002494787892 0 0 0 0 33.549016930628568 20.659461030999864 0 20.659461030999864 -6.731034166811753 0 0 0 0 22.360071513548974 -0.67748238005151507 0 -0.67748238005151507 -1.4321298377999483 0 0 0 0 -1.4596549090123645 4.069555778721984 0 4.069555778721984 0.32080317845166828 0 0 0 0 -3.0756783400993299 3.3659518855495776 0 3.3659518855495776 12.002096434863688 0 0 0 0 -4.933093163553167 -0.3516180414605401 0 -0.3516180414605401 8.0233951716577394 0 0 0 0 1.474965661236638 5.8677939246742881 0 5.8677939246742881 -0.11518963733578858 0 0 0 0 31.69864571952894 11.203891531374097 0 11.203891531374097 -1.594092917781154 0 0 0 0 5.7263475153040417 14.148592399868221 0 14.148592399868221 14.637422476835127 0 0 0 0 5.1734408897464164 5.0105154958282583 0 5.0105154958282583 0.64273500002582296 0 0 0 0 7.3288086071388534 -3.6423882910152088 0 -3.6423882910152088 16.307420755896374 0 0 0 0 1.5071310589481506 1.9852505343005689 0 1.9852505343005689 1.7401206854593028 0 0 0 0 -96.375665020222186 -42.025383647267859 0 -42.025383647267859 21.058166277451164 0 0 0 0 0.39015097107520091 1.3709268236508017 0 1.3709268236508017 0.077251383135807927 0 0 0 0 3.3459390330917813 9.288090146043487 0 9.288090146043487 -18.3625520417595 0 0 0 0 3.2151428425913764 3.9490761071932639 0 3.9490761071932639 -10.405797650968339 0 0 0 0 -7.2406709689876152 11.664122148560637 0 11.664122148560637 -15.408181208863653 0 0 0 0 -10.64819900551629 18.460498595628906 0 18.460498595628906 21.599213525474624 0 0 0 0 -5.8215048909514735 38.0490790956419 0 38.0490790956419 34.717968305845716 0 0 0 0 -13.665841297269253 23.341633329771071 0 23.341633329771071 15.800229478727488 0 0 0 0 39.967518420169654 -11.847856882683573 0 -11.847856882683573 6.7412975504239512 0 0 0 0 -1.8350525870127825 1.0146103260701462 0 1.0146103260701462 -0.36979964476085669 0 0 0 0 -0.14683338516164923 0.01992521897173205 0 0.01992521897173205 0.0040576732644752589 0 0 0 0 8.23135563823962 36.426553343655087 0 36.426553343655087 1.5511878960389822 0 0 0 0 0.090525625406371546 9.7771962598617392 0 9.7771962598617392 -82.741085689888223 0 0 0 0 13.376509249705123 26.148746878674501 0 26.148746878674501 15.525041565824722 0 0 0 0 3.8046360138323507 6.7180798100903303 0 6.7180798100903303 -80.410823285907327 0 0 0 0 96.853613194834907 -35.333758710576149 0 -35.333758710576149 26.509257923731639 0 0 0 0 -44.809306728782758 11.288394350721319 0 11.288394350721319 60.561071916019728 0 0 0 0 -56.978593406456639 22.884399987517099 0 22.884399987517099 4.5273399490679367 0 0 0 0 -0.095610675384065757 0.039463608377111825 0 0.039463608377111825 0.044547013068645391 0 0 0 0 6.8637863847275185 2.638215478079303 0 2.638215478079303 18.043443690472941 0 0 0 0 -42.547726811235407 35.473353884234712 0 35.473353884234712 -8.5848816462321338 0 0 0 0 -13.384543234542207 6.1283222724302959 0 6.1283222724302959 17.706932317643805 0 0 0 0 -10.52554363744639 24.76541498980896 0 24.76541498980896 13.045066277714341 0 0 0 0 -23.927898706517226 8.4500694785097039 0 8.4500694785097039 20.627868012992622 0 0 0 0 -57.139738043601028 -22.454569703943434 0 -22.454569703943434 -0.97263930738836279 0 0 0 0 -0.56846361190872585 0.37996642597731523 0 0.37996642597731523 -0.21965914283213328 0 0 0 0 -34.617704746795425 14.156373817285839 0 14.156373817285839 17.890178318242761 0 0 0 0 -103.99015540926484 51.78875381200487 0 51.78875381200487 16.580145565160819 0 0 0 0 -16.894474030417769 19.504769059571686 0 19.504769059571686 7.2700239591563331 0 0 0 0 -24.547944923804607 23.645167901968762 0 23.645167901968762 26.080832497850224 0 0 0 0 -24.364692522810856 5.4670854286748636 0 5.4670854286748636 0.5535828818342452 0 0 0 0 -5.8490487482646785 21.460862472691481 0 21.460862472691481 15.613542443009464 0 0 0 0 -5.9999649521712826 10.552681724401433 0 10.552681724401433 -49.57563536232874 0 0 0 0 -53.273957872997926 47.268337393263437 0 47.268337393263437 2.0370664293443497 0 0 0 0 1.7962295604665997 18.312712022388041 0 18.312712022388041 16.818090748889517 0 0 0 0 6.591984771681382 -20.210913112662354 0 -20.210913112662354 -20.336796571187278 0 0 0 0 -14.578017012030614 67.278347481799983 0 67.278347481799983 80.78049620455954 0 0 0 0 -10.704332344207614 39.888353874607446 0 39.888353874607446 52.718871722394397 0 0 0 0 6.8948954954475994 33.953851878976593 0 33.953851878976593 4.9246338371222009 0 0 0 0 3.1343424246897484 11.889248284483415 0 11.889248284483415 39.48860381579243 0 0 0 0 1.2939827483171129 0.85184492538638867 0 0.85184492538638867 0.50811348008093837 0 0 0 0 -3.4824557855899911 10.165657870729774 0 10.165657870729774 55.480410220349171 0 0 0 0 -18.680216473439032 -6.5677733510229359 0 -6.5677733510229359 155.47999566139833 0 0 0 0 0.61958243211013553 0.1317209158880317 0 0.1317209158880317 0.0096284198959804002 0 0 0 0 -28.524488473150996 41.666751979215178 0 41.666751979215178 -44.87088298205208 0 0 0 0 -23.216943623113821 48.098496562351812 0 48.098496562351812 -38.57954054812717 0 0 0 0 -59.71102329918358 34.779055842133744 0 34.779055842133744 -12.467988643232502 0 0 0 0 -18.838936332764206 20.682663717252865 0 20.682663717252865 -7.9968937966730209 0 0 0 0 -0.12767777209593945 1.0512127915484335 0 1.0512127915484335 0.44640553132902561 0 0 0 0 -53.224016100180961 16.291534889301687 0 16.291534889301687 30.238081346897388 0 0 0 0 -1.5969259688354214 9.4815739143213023 0 9.4815739143213023 -108.7425491102897 0 0 0 0 -21.65906312824518 77.550398913962852 0 77.550398913962852 -6.2846062450184945 0 0 0 0 -16.294547508623509 3.0968482294587147 0 3.0968482294587147 8.6707934487621543 0 0 0 0 3.0357214403290378 3.5902207405144999 0 3.5902207405144999 3.614357381254901 0 0 0 0 4.6403157683771497 7.819557193045263 0 7.819557193045263 25.820659172444266 0 0 0 0 10.858595247473204 15.122188419103622 0 15.122188419103622 -36.629819110225185 0 0 0 0 -22.266121514031511 11.492736065563619 0 11.492736065563619 3.8238605937764873 0 0 0 0 -2.1952396214674081 -2.3582715787840698 0 -2.3582715787840698 -33.628830760741558 0 0 0 0 -20.254215850089167 21.02065725182932 0 21.02065725182932 9.0629676621441888 0 0 0 0 -1.3046882087510312 16.770783523423347 0 16.770783523423347 0.77785538894428896 0 0 0 0 3.3127453490398615 4.1843341823343607 0 4.1843341823343607 4.8452387425823584 0 0 0 0 -1.4010478012623935 19.597329465453626 0 19.597329465453626 17.518239783050603 0 0 0 0 41.478706502817658 17.655901170056211 0 17.655901170056211 -4.0801443057476376 0 0 0 0 29.226660705002359 -2.161035733422608 0 -2.161035733422608 -0.47215330973466507 0 0 0 0 15.535482826013322 -1.199910199223666 0 -1.199910199223666 5.5673003382631805 0 0 0 0 39.331627622716042 11.723042247022789 0 11.723042247022789 1.9377523058567121 0 0 0 0 23.394052637875575 26.231090511621488 0 26.231090511621488 10.24017961430593 0 0 0 0 18.625162031868967 16.24022545301429 0 16.24022545301429 -3.8540310473900945 0 0 0 0 0.71955122051353726 -0.24981776745037543 0 -0.24981776745037543 -0.74698300095764236 0 0 0 0 6.5969727028532361 11.345540887971197 0 11.345540887971197 22.65242695927239 0 0 0 0 38.064957305464759 -4.5489935168846909 0 -4.5489935168846909 -2.5305588061108324 0 0 0 0 21.977998384092643 15.875921487662449 0 15.875921487662449 -4.235751594328053 0 0 0 0 1.8689269592078013 0.10181829496537986 0 0.10181829496537986 -3.7782615852393082 0 0 0 0 17.737232537590444 -2.2101073250640013 0 -2.2101073250640013 -1.8776871565842157 0 0 0 0 6.7946486347645987 4.2765869906022544 0 4.2765869906022544 -4.7257297052653371 0 0 0 0 10.510257379553877 8.6010252798790159 0 8.6010252798790159 -6.5163808216767762 0 0 0 0 5.9840002525925229 17.789204386673447 0 17.789204386673447 -3.260046956194337 0 0 0 0 3.874250786782433 5.3862222955410246 0 5.3862222955410246 5.4972369937320638 0 0 0 0 -32.328039572655143 77.8092984129581 0 77.8092984129581 20.830694348762336 0 0 0 0 5.2008360957934201 -3.2421425039510723 0 -3.2421425039510723 1.249402352988227 0 0 0 0 2.1401270971694899 1.099287720102172 0 1.099287720102172 -3.9377312751015845 0 0 0 0 12.118767043880325 5.7617894722918663 0 5.7617894722918663 -3.897815983232249 0 0 0 0 9.2318511205849063 5.8191937741414677 0 5.8191937741414677 -2.7634669205990008 0 0 0 0 2.9446530677778355 12.21792878596284 0 12.21792878596284 3.2211742757190223 0 0 0 0 12.136511621333739 9.2336796305231132 0 9.2336796305231132 -2.09819256348419 0 0 0 0 6.8856172049490851 6.6318718546237889 0 6.6318718546237889 -6.635802416137409 0 0 0 0 4.1736692618906091 8.2287290930012205 0 8.2287290930012205 -2.0847119667325416 0 0 0 0 4.4536570146701706 8.9051252021844789 0 8.9051252021844789 -1.2496744852107895 0 0 0 0 4.9689129299312427 4.121004506617262 0 4.121004506617262 1.5645868936941318 0 0 0 0 7.887940015145432 3.9626085511846441 0 3.9626085511846441 -4.6359142911095432 0 0 0 0 7.4954674418058858 5.3696041267465944 0 5.3696041267465944 -5.4599574270391713 0 0 0 0 8.7176232467645605 5.0120114867076495 0 5.0120114867076495 -5.3557926051605591 0 0 0 0 -7.9178639924048184 9.3704617646534274 0 9.3704617646534274 -2.5102821668201614 0 0 0 0 4.7975447725311184 2.9165614350622437 0 2.9165614350622437 1.2856279089589746 0 0 0 0 2.6618424685511854 8.6914235068530843 0 8.6914235068530843 -3.2414738628281725 0 0 0 0 0.55702900436483205 0.58389495386992607 0 0.58389495386992607 0.34659176985314288 0 0 0 0 1.119359856104893 0.26379233462377272 0 0.26379233462377272 6.1605210697665598 0 0 0 0 2.6363055013753183 8.9427750270355801 0 8.9427750270355801 4.2194760223634376 0 0 0 0 2.1324468638249527 21.929017336594001 0 21.929017336594001 8.5316830802344157 0 0 0 0 7.9905755045620026 13.086557750503943 0 13.086557750503943 -3.4807325598364969 0 0 0 0 11.604493660739536 10.182106259684815 0 10.182106259684815 -0.72349424133594198 0 0 0 0 9.3603401116470195 6.905445288835466 0 6.905445288835466 -4.4099366744108011 0 0 0 0 9.2428012696109363 7.785887398865782 0 7.785887398865782 -5.5617410132338136 0 0 0 0 2.207830856711098 6.9892484075698817 0 6.9892484075698817 -4.6193033250942221 0 0 0 0 6.2043065114085039 6.2923791613865916 0 6.2923791613865916 -4.6895508611999048 0 0 0 0 7.3814319322368647 3.6110056777049309 0 3.6110056777049309 -2.931972500202221 0 0 0 0 7.341505981174123 1.2772828986772993 0 1.2772828986772993 -5.2767860072589343 0 0 0 0 14.550949080523424 5.609200878217564 0 5.609200878217564 -6.8424208848275612 0 0 0 0 17.130193765775402 4.8246348080852357 0 4.8246348080852357 -8.9577335259315305 0 0 0 0 1.2098831279618025 0.60757214503712476 0 0.60757214503712476 -1.3962646619910544 0 0 0 0 -0.34105010141278669 0.67342539524511125 0 0.67342539524511125 -1.9176328926250232 0 0 0 0 3.8681423475482006 -5.4626288100655245 0 -5.4626288100655245 -9.8138659184424455 0 0 0 0 0.0069286528614611598 1.6179164235185226 0 1.6179164235185226 -1.8289996334716534 0 0 0 0 1.3483905710745603 2.3936906070730402 0 2.3936906070730402 -1.3932704885635303 0 0 0 0 1.6059805128588778 2.8470641357669138 0 2.8470641357669138 -2.687102073934625 0 0 0 0 0.006638953675959354 6.9856729893688332 0 6.9856729893688332 10.147154087361741 0 0 0 0 1.4729432492185879 2.7842012067659425 0 2.7842012067659425 -2.1412730186281124 0 0 0 0 1.4526087725416801 2.4514490322479787 0 2.4514490322479787 -2.1003976598385634 0 0 0 0 0.3024711267512501 1.7500135523402669 0 1.7500135523402669 -3.2440642419070569 0 0 0 0 -0.12550709126753645 8.435545070743558 0 8.435545070743558 1.0736977656763429 0 0 0 0 0.3491677608799364 7.6840191927307728 0 7.6840191927307728 7.3676491291366801 0 0 0 0 -1.8078439277566414 4.1481712672157691 0 4.1481712672157691 0.89667010847286122 0 0 0 0 -0.96065264133085293 7.1669876959963972 0 7.1669876959963972 13.749797222054212 0 0 0 0 0.221341805301563 11.286729098147589 0 11.286729098147589 10.09271104309164 0 0 0 0 -0.21912431504478036 0.42985512805045545 0 0.42985512805045545 -0.50148821239186114 0 0 0 0 5.6885535210822127 7.4472162957779346 0 7.4472162957779346 5.6677499109755445 0 0 0 0 -20.004620339831035 30.487960177947315 0 30.487960177947315 -20.932790546098204 0 0 0 0 -20.973023364931578 29.816857759457548 0 29.816857759457548 10.083676122967972 0 0 0 0 11.148713531221802 19.348265425522641 0 19.348265425522641 -35.355679459237876 0 0 0 0 8.3857099338256376 20.345683575806561 0 20.345683575806561 16.327188340335027 0 0 0 0 -15.747747843965954 0.50530527821683791 0 0.50530527821683791 15.440939129659 0 0 0 0 -31.40118011989216 12.21590278375561 0 12.21590278375561 5.536423924794974 0 0 0 0 -10.161879663257423 13.048338462761421 0 13.048338462761421 -4.3156361650178496 0 0 0 0 -5.6158890846672875 11.0089434158931 0 11.0089434158931 -4.471627535150219 0 0 0 0 1.784905376529359 5.357961975217453 0 5.357961975217453 1.2773688824784371 0 0 0 0 -10.687494966265149 14.673439517834822 0 14.673439517834822 -5.464151216916207 0 0 0 0 8.6030272263969891 10.662612517961179 0 10.662612517961179 -4.7338422492839527 0 0 0 0 -7.1568043311971223 14.912952070921989 0 14.912952070921989 9.0167256083386746 0 0 0 0 2.8077794141052976 2.3484869042301026 0 2.3484869042301026 2.1040935406635688 0 0 0 0 -7.4621153272728407 12.163735234799333 0 12.163735234799333 18.076387628597558 0 0 0 0 14.201194747238333 33.928072833279884 0 33.928072833279884 20.337651965933446 0 0 0 0 29.638712893663978 45.717845486553756 0 45.717845486553756 -4.9940204142862967 0 0 0 0 -19.842805975285955 27.559564083323039 0 27.559564083323039 39.962570298040646 0 0 0 0 -19.625191458543668 -6.9773837899781483 0 -6.9773837899781483 18.17587476291601 0 0 0 0 -23.993746802337682 5.7781915147992606 0 5.7781915147992606 22.169601310483813 0 0 0 0 -24.384131957156569 24.891314391398964 0 24.891314391398964 5.8043100862869323 0 0 0 0 -10.380117386731285 -11.007003790349501 0 -11.007003790349501 50.450643357230092 0 0 0 0 -8.3992690615796164 9.5272364328784533 0 9.5272364328784533 21.850072283608142 0 0 0 0 1.2936851791089339 1.6894956417238545 0 1.6894956417238545 1.4889735048451582 0 0 0 0 -16.036939581010301 41.398305782928674 0 41.398305782928674 -44.06932975381892 0 0 0 0 8.7625229797267821 12.736717258914723 0 12.736717258914723 18.228342936337867 0 0 0 0 -20.209334134141272 -2.6278801510644598 0 -2.6278801510644598 11.248512312567073 0 0 0 0 -23.407647597661708 51.596288031216318 0 51.596288031216318 -51.069965437425708 0 0 0 0 -12.335724956468766 -40.165704126107926 0 -40.165704126107926 132.08864460340465 0 0 0 0 8.3051979885040055 53.6399859819428 0 53.6399859819428 64.683494627471646 0 0 0 0 68.557513007959642 3.5626958570842362 0 3.5626958570842362 -47.413966471436197 0 0 0 0 19.990317889496509 96.800060337392779 0 96.800060337392779 -5.5011703401482919 0 0 0 0 15.12440368116404 -20.83118905287256 0 -20.83118905287256 17.802773562026232 0 0 0 0 18.199217751456672 45.140669930663307 0 45.140669930663307 61.572005309757969 0 0 0 0 59.700778748097946 59.32647594967807 0 59.32647594967807 6.6826339986116636 0 0 0 0 -0.24263831863507335 0.20562388374568386 0 0.20562388374568386 0.11942766527141835 0 0 0 0 -40.038106883773935 13.402621909119233 0 13.402621909119233 -9.6008887263647011 0 0 0 0 -32.242371851049029 39.874167004810033 0 39.874167004810033 -60.483713340953727 0 0 0 0 -20.124060056718008 11.035969027095888 0 11.035969027095888 -18.750278767617601 0 0 0 0 0.36259469661123944 0.56915266597216174 0 0.56915266597216174 0.57943584654180125 0 0 0 0 -3.3591341115825344 1.7194944830137047 0 1.7194944830137047 -3.0090019692156602 0 0 0 0 -0.66800061723188264 13.628043612723559 0 13.628043612723559 -53.842479393379733 0 0 0 0 8.1050225838826009 12.263857205109048 0 12.263857205109048 -15.97492145899605 0 0 0 0 -1.6956020255893236 3.3138414643067335 0 3.3138414643067335 4.2414576877429226 0 0 0 0 52.767710223144604 20.490677871693379 0 20.490677871693379 14.655129831827708 0 0 0 0 15.507751049510262 29.949271689992202 0 29.949271689992202 19.180465807120527 0 0 0 0 -2.0113754883259389 2.9662933967279059 0 2.9662933967279059 -7.3729386265786161 0 0 0 0 9.6974990603148399 6.7217669274072307 0 6.7217669274072307 -6.3117788069666858 0 0 0 0 6.3542825655840716 27.35782825565002 0 27.35782825565002 19.321757129373282 0 0 0 0 37.962322205974488 46.352685590849319 0 46.352685590849319 24.659492545635658 0 0 0 0 13.653945633503099 18.278658788529583 0 18.278658788529583 30.308586567810835 0 0 0 0 -0.53698758720043926 0.25463137496284105 0 0.25463137496284105 0.34756288552886794 0 0 0 0 10.536930575713086 23.927168573870176 0 23.927168573870176 31.554945381272773 0 0 0 0 -2.3204506342244713 -2.2690832435682751 0 -2.2690832435682751 4.832083888357829 0 0 0 0 -3.4820728739105107 1.0445083530919419 0 1.0445083530919419 3.4139318115776405 0 0 0 0 -15.687712977825868 -10.520662182497063 0 -10.520662182497063 0.78997406012638294 0 0 0 0 -20.093542336528117 17.491191506117048 0 17.491191506117048 -13.454771905930102 0 0 0 0 -7.6055646729573709 4.2346361766767586 0 4.2346361766767586 11.001248243656164 0 0 0 0 7.2037842392783205 9.4372150192293702 0 9.4372150192293702 4.7224446967504718 0 0 0 0 -0.36726804316276684 6.3033259493242895 0 6.3033259493242895 -0.042355861138503315 0 0 0 0 -0.85565347817509974 5.0698284377767493 0 5.0698284377767493 2.3558002795521134 0 0 0 0 -0.86750228995720136 2.2649926751980161 0 2.2649926751980161 3.3982533675184641 0 0 0 0 -0.30288977829156138 0.41560351675982332 0 0.41560351675982332 1.2058535246550548 0 0 0 0 8.3815616491865512 23.405085981112848 0 23.405085981112848 31.627300631191588 0 0 0 0 -0.78735388230415992 2.6849211854739679 0 2.6849211854739679 4.2935717256359567 0 0 0 0 -0.18913564590911847 3.7409833456763408 0 3.7409833456763408 4.3077540321405472 0 0 0 0 -0.37530750507221455 3.1570245344207706 0 3.1570245344207706 2.9187766498607743 0 0 0 0 3.2470732648143894 5.3664223117002621 0 5.3664223117002621 -48.699898891887926 0 0 0 0 1.7532949281089358 2.4540036764594486 0 2.4540036764594486 1.7492354867232058 0 0 0 0 -4.855118024697731 -21.487654011369159 0 -21.487654011369159 -101.81028325260644 0 0 0 0 22.01490378485687 47.306168759377897 0 47.306168759377897 -52.049762636801375 0 0 0 0 24.175275439327379 24.583450508811666 0 24.583450508811666 -119.56740634122195 0 0 0 0 -13.016406583061325 29.386585632340939 0 29.386585632340939 -18.259398427770748 0 0 0 0 -10.50852269846564 25.279528402064358 0 25.279528402064358 -21.07533485396857 0 0 0 0 -8.9789316705391684 22.077115188349723 0 22.077115188349723 -22.706590830841606 0 0 0 0 -14.949979576481383 15.189202782019919 0 15.189202782019919 -5.5542360165247828 0 0 0 0 -35.868903643504382 27.919119527079033 0 27.919119527079033 -13.001303546962845 0 0 0 0 0.071421675303163568 0.24130824132457462 0 0.24130824132457462 0.24703590624329319 0 0 0 0 49.562314920096469 24.869144913591526 0 24.869144913591526 9.5141541076222893 0 0 0 0 4.0653532599285427 2.5994726898227611 0 2.5994726898227611 3.6463274256116165 0 0 0 0 2.341848039177151 2.7047223748847378 0 2.7047223748847378 2.0762182557417246 0 0 0 0 3.9789411433848727 8.1133172930078672 0 8.1133172930078672 -5.0240493097023773 0 0 0 0 -8.6775912062130374 24.815325497286153 0 24.815325497286153 -31.933207176765677 0 0 0 0 2.028547122238578 2.6230914398034972 0 2.6230914398034972 2.0394550432422385 0 0 0 0 -9.486836709362251 20.942311487951713 0 20.942311487951713 -21.242529426276064 0 0 0 0 -11.716458073253307 21.28059838766535 0 21.28059838766535 -18.74124918323821 0 0 0 0 -6.9427802233312832 22.760956361131264 0 22.760956361131264 -22.321209364708125 0 0 0 0 -9.6128482214376163 19.645424565928348 0 19.645424565928348 -17.091557914288956 0 0 0 0 1.9980560098145972 3.3553297071630102 0 3.3553297071630102 2.3999635309945595 0 0 0 0 0.076821535386114803 1.4267260386701146 0 1.4267260386701146 1.1072404001137031 0 0 0 0 -10.828239081803986 4.9726829235999048 0 4.9726829235999048 3.0607978873422326 0 0 0 0 3.3252599574007036 4.7467114275104905 0 4.7467114275104905 -4.4859536751016549 0 0 0 0 -13.891793527008303 8.8961988772564382 0 8.8961988772564382 2.4457290832697254 0 0 0 0 -13.495419491197026 14.954711365328421 0 14.954711365328421 1.9809653649524535 0 0 0 0 -7.6797862835105946 3.8585058653530329 0 3.8585058653530329 6.0843849761973878 0 0 0 0 -11.478158467771209 7.0374987363718446 0 7.0374987363718446 -3.6612861911644359 0 0 0 0 1.9199747874099558 1.7980852268011631 0 1.7980852268011631 1.2031367206332106 0 0 0 0 10.473232478185309 2.4239362680375507 0 2.4239362680375507 -0.50832488134824416 0 0 0 0 -24.967423440489256 8.9461118727404028 0 8.9461118727404028 1.3438865845882901 0 0 0 0 0.084936402401345035 0.24563510415059397 0 0.24563510415059397 0.95901130163826309 0 0 0 0 -12.88666939882205 9.2792638161201921 0 9.2792638161201921 -4.5445895762622968 0 0 0 0 -25.756058493684577 8.219840656569545 0 8.219840656569545 -1.1623085831533899 0 0 0 0 0.05945899689008094 0.1986042984000207 0 0.1986042984000207 0.28681252169458205 0 0 0 0 6.1909540442763955 2.6497011996150661 0 2.6497011996150661 2.3329151944158184 0 0 0 0 34.218209898043824 6.9695295736939897 0 6.9695295736939897 1.278397495293575 0 0 0 0 -9.976916408570105 14.473094363119287 0 14.473094363119287 -7.2374926703043911 0 0 0 0 1.3440414547585533 14.326213358383711 0 14.326213358383711 -6.8870978334247184 0 0 0 0 -6.5532554946047146 10.654854869310103 0 10.654854869310103 -6.6488519544909153 0 0 0 0 -13.330857694135375 9.729840813239548 0 9.729840813239548 -0.090122872581559932 0 0 0 0 -1.5146794253287226 11.901686166106174 0 11.901686166106174 -4.4490026893104186 0 0 0 0 -5.8675709999971808 7.8529160351772678 0 7.8529160351772678 -3.3725444971319796 0 0 0 0 -2.5005238657186055 11.075801394012387 0 11.075801394012387 0.025253645041175332 0 0 0 0 -2.2813956052004869 9.4623839290138676 0 9.4623839290138676 -6.0179796668799099 0 0 0 0 -1.677785499476613 9.3176866415349195 0 9.3176866415349195 1.4645738998920024 0 0 0 0 -11.60682219146247 6.9322474268172414 0 6.9322474268172414 2.8784484855059418 0 0 0 0 -8.743796611608559 9.4648409018661823 0 9.4648409018661823 0.20212785408921263 0 0 0 0 -5.0486276824540504 7.0147019355730329 0 7.0147019355730329 1.5562074839326332 0 0 0 0 2.6806770531075017 13.699743015105014 0 13.699743015105014 3.5207242716296605 0 0 0 0 1.5793355927435186 12.321365196799889 0 12.321365196799889 3.2939730843716006 0 0 0 0 -1.3560092260404417 13.79419441229561 0 13.79419441229561 4.2259072727038074 0 0 0 0 -0.048140977117327566 18.46862946713668 0 18.46862946713668 17.911046403912678 0 0 0 0 -0.63986868156462151 15.341568121170894 0 15.341568121170894 3.2031682067242855 0 0 0 0 -0.9993167038737738 14.668004868546063 0 14.668004868546063 6.2602101101015251 0 0 0 0 7.2576813568266516 22.886003234955069 0 22.886003234955069 4.442264201531998 0 0 0 0 10.399323595819396 12.515156761189417 0 12.515156761189417 -10.111059389168076 0 0 0 0 -3.1224073454866286 8.0153877745271167 0 8.0153877745271167 -9.398448947720345 0 0 0 0 -1.8650008601880472 17.767976597600637 0 17.767976597600637 33.188088807996337 0 0 0 0 -1.3976307119667304 2.4269906443385851 0 2.4269906443385851 -1.7262084849373318 0 0 0 0 7.4541251638202084 9.9945843291380356 0 9.9945843291380356 7.3590758757964068 0 0 0 0 10.190833407339824 24.895115007753276 0 24.895115007753276 9.4424459928973192 0 0 0 0 -5.1654160336302084 16.611876054776985 0 16.611876054776985 8.5270234486051777 0 0 0 0 5.9594938007967357 16.828019411851528 0 16.828019411851528 -3.0739752205190598 0 0 0 0 -0.35735946367185534 10.698958724816748 0 10.698958724816748 -0.3536661351577095 0 0 0 0 -3.236383853456573 13.577184064881067 0 13.577184064881067 6.2382197178708338 0 0 0 0 -3.2358885343155634 11.754166355464747 0 11.754166355464747 6.8106038588953197 0 0 0 0 2.6603079455536571 12.304590165485479 0 12.304590165485479 -0.71761943126148253 0 0 0 0 2.6030609018657742 11.867482878042892 0 11.867482878042892 -2.5236819007201348 0 0 0 0 2.2583898506933 8.391570599696772 0 8.391570599696772 0.27731830209550212 0 0 0 0 -4.9229398516018321 5.4952341273957206 0 5.4952341273957206 -4.4250241947632487 0 0 0 0 -2.0047454263880553 23.846992053378784 0 23.846992053378784 15.307882805931513 0 0 0 0 2.4458439203681337 16.859655039433164 0 16.859655039433164 -6.1382998099711585 0 0 0 0 -3.8753881174652633 26.265475472563594 0 26.265475472563594 1.2172552280530908 0 0 0 0 6.4910444321085379 14.516587339838679 0 14.516587339838679 11.541025097440411 0 0 0 0 4.5083713544962443 12.452315154691064 0 12.452315154691064 -0.98537794711251081 0 0 0 0 8.5329077776394797 29.571270792513289 0 29.571270792513289 -1.692027329217126 0 0 0 0 -3.1586107286227261 8.9745898971106843 0 8.9745898971106843 -5.2890701470248418 0 0 0 0 37.154542206175165 18.763770878806099 0 18.763770878806099 -30.604161404265597 0 0 0 0 4.3411172232329136 37.151704539112302 0 37.151704539112302 -39.732258815331988 0 0 0 0 6.1447525755132144 11.057499797914305 0 11.057499797914305 3.3053358716510148 0 0 0 0 2.7099135979879065 26.384286674445775 0 26.384286674445775 -0.55630859182969061 0 0 0 0 22.821970376792706 16.101000784230223 0 16.101000784230223 -15.974814681364819 0 0 0 0 8.5578742113357293 9.350604540132208 0 9.350604540132208 6.1891692862347085 0 0 0 0 4.9164659071191181 16.034685288882685 0 16.034685288882685 -10.05317367660291 0 0 0 0 1.7781077604341107 1.5637241098672048 0 1.5637241098672048 -0.82682751938670052 0 0 0 0 -25.364569582633976 27.126200753734395 0 27.126200753734395 -7.7336158459988837 0 0 0 0 -8.7272032887467503 37.286580537625014 0 37.286580537625014 -21.704022773007637 0 0 0 0 -27.30225565991509 23.316877204415277 0 23.316877204415277 23.757235371444949 0 0 0 0 4.2036413397657126 7.1226058561557295 0 7.1226058561557295 2.3537611583436835 0 0 0 0 -7.9387641427259723 48.386226560979708 0 48.386226560979708 34.403469359272094 0 0 0 0 -11.238723935324742 -2.3492736554030671 0 -2.3492736554030671 38.147907259463665 0 0 0 0 -0.0027375230984314491 0.21020834520508469 0 0.21020834520508469 0.71348992149405888 0 0 0 0 -7.1593425106948416 13.147022063619829 0 13.147022063619829 -0.85287082727640495 0 0 0 0 -1.5658181084636453 17.538150048029479 0 17.538150048029479 -9.688495100636942 0 0 0 0 -8.5550445989429136 15.631877462957391 0 15.631877462957391 -3.0590359205805271 0 0 0 0 0.40819358485168777 26.346125432567078 0 26.346125432567078 -14.125097814670426 0 0 0 0 -6.1792645395271393 9.725265902829733 0 9.725265902829733 0.11413154076990395 0 0 0 0 -3.0172547371785186 6.9502921200864876 0 6.9502921200864876 2.5431164600909142 0 0 0 0 -10.481383914979233 16.735995307327613 0 16.735995307327613 -8.5872827218870498 0 0 0 0 -8.5297767597639904 21.047371635896582 0 21.047371635896582 -9.0270698565257135 0 0 0 0 -1.7618542230861358 4.8197706112960059 0 4.8197706112960059 5.9362854098217479 0 0 0 0 -0.46829567608947187 6.3191016724285021 0 6.3191016724285021 3.5562492177741896 0 0 0 0 -9.1647561985555512 14.330352161757077 0 14.330352161757077 -13.286519234456591 0 0 0 0 -9.6252641708470037 21.819484846676914 0 21.819484846676914 -14.811801786052001 0 0 0 0 -3.4928736325305252 6.3735635834846391 0 6.3735635834846391 -1.7255449918978218 0 0 0 0 -8.6527470352699609 7.270972472222442 0 7.270972472222442 5.996960987211204 0 0 0 0 -3.7910348294990399 8.2280730147789995 0 8.2280730147789995 2.6854127622236774 0 0 0 0 -3.9453813924028509 7.1660171647895368 0 7.1660171647895368 4.5081335905033484 0 0 0 0 -4.5128846699626592 8.3122477168740261 0 8.3122477168740261 3.1250132950699481 0 0 0 0 -10.750307374672047 5.0518691226179726 0 5.0518691226179726 -0.53207479302579941 0 0 0 0 -4.3528793396951162 4.3893968412311537 0 4.3893968412311537 -2.1457974723865849 0 0 0 0 -4.1644196625156837 9.2268402779577059 0 9.2268402779577059 1.3653747992166245 0 0 0 0 -9.1329375361474376 8.9263931300879449 0 8.9263931300879449 1.6814145219373131 0 0 0 0 -2.8355134841585823 8.2419705946131216 0 8.2419705946131216 4.9859757568283385 0 0 0 0 -9.8872904526368792 0.081815164147709396 0 0.081815164147709396 3.469281320401258 0 0 0 0 -6.6726588507262932 7.1720334902256582 0 7.1720334902256582 2.800220744273247 0 0 0 0 -7.1635680840684408 6.8536612781683441 0 6.8536612781683441 1.6547599567298459 0 0 0 0 -8.2741361525622779 6.4170893709706434 0 6.4170893709706434 0.12689481409688597 0 0 0 0 -11.701513571003183 12.069901822882695 0 12.069901822882695 2.7829656074151394 0 0 0 0 0.27515320785163233 14.000040270147409 0 14.000040270147409 0.43716793445615387 0 0 0 0 -4.6281486763382773 5.013434443640012 0 5.013434443640012 -0.32903831628845026 0 0 0 0 -1.3694829927298997 8.8500949718124957 0 8.8500949718124957 2.3915102118562572 0 0 0 0 -1.210045880872372 6.8240429866338053 0 6.8240429866338053 1.4877466578159826 0 0 0 0 -5.815501396235959 10.388796355662862 0 10.388796355662862 2.8993270182090782 0 0 0 0 -25.040363755233216 10.005123048115252 0 10.005123048115252 0.89813638173836807 0 0 0 0 -11.630047443405601 11.993027137578338 0 11.993027137578338 -3.2793187185752686 0 0 0 0 -3.5986258000537727 3.09715753477668 0 3.09715753477668 0.65233143343601618 0 0 0 0 -18.745082125841463 9.1540445183820793 0 9.1540445183820793 -3.9960325535221273 0 0 0 0 28.990322719519099 13.509341596828108 0 13.509341596828108 -11.060630085512003 0 0 0 0 2.5230038884362784 5.8642319748796581 0 5.8642319748796581 -9.1515639464868173 0 0 0 0 16.206342889878329 17.699878029121464 0 17.699878029121464 -5.2229134362119112 0 0 0 0 0.44348241537295507 13.856396564075453 0 13.856396564075453 -0.9734434599472479 0 0 0 0 2.9706685659763252 14.19310856788502 0 14.19310856788502 -5.5879659742181502 0 0 0 0 -0.97479358666555527 11.546964362873041 0 11.546964362873041 -3.6097769775618342 0 0 0 0 -8.9142739486708251 14.23031557088143 0 14.23031557088143 -3.6298724285370554 0 0 0 0 -5.812872461855477 23.096305957131335 0 23.096305957131335 16.592646808017889 0 0 0 0 -6.4260258525458358 8.5726312129549314 0 8.5726312129549314 -6.0789759085943187 0 0 0 0 -17.371464058484889 16.954645576158327 0 16.954645576158327 15.622684247490724 0 0 0 0 2.7019615481099208 16.093140320012026 0 16.093140320012026 -0.52706670131112787 0 0 0 0 -7.1925453899869662 6.6312153337226292 0 6.6312153337226292 -6.7089426230025424 0 0 0 0 7.5382019277424206 24.320284879005044 0 24.320284879005044 11.9035838214877 0 0 0 0 7.1676883846816963 15.49026975751417 0 15.49026975751417 -1.6348334655851886 0 0 0 0 9.1832957628039367 13.917145621810505 0 13.917145621810505 -0.51595178676871001 0 0 0 0 7.398031414032971 26.358729893549821 0 26.358729893549821 -10.602761964542879 0 0 0 0 -12.920827784016637 16.036912850237741 0 16.036912850237741 -5.3265730711377728 0 0 0 0 -38.55530726415418 48.151505861645319 0 48.151505861645319 26.051848366923878 0 0 0 0 1.3521053058947938 10.29408485563407 0 10.29408485563407 3.088362745882332 0 0 0 0 -22.446280421227129 29.257950003553105 0 29.257950003553105 -11.416989456491365 0 0 0 0 2.2002578577703389 38.630619371720968 0 38.630619371720968 -41.820621892204144 0 0 0 0 -26.817742595720119 16.700439531021857 0 16.700439531021857 49.774814457272441 0 0 0 0 24.048357355553435 11.947185477674907 0 11.947185477674907 -2.3999754234541797 0 0 0 0 -0.99564427564837388 -7.7393373529698692 0 -7.7393373529698692 29.395161613489108 0 0 0 0 -6.1255698958266294 4.3490763407867234 0 4.3490763407867234 0.16740766333668944 0 0 0 0 -1.2801695282914629 0.33925934392024359 0 0.33925934392024359 0.58318385216340474 0 0 0 0 -1.2078682382539583 0.96412651311482378 0 0.96412651311482378 0.40718320715638612 0 0 0 0 2.5651292742801859 9.3706849318147292 0 9.3706849318147292 4.4161523906785423 0 0 0 0 -14.173486949286598 5.6177542660470863 0 5.6177542660470863 1.7896954898033073 0 0 0 0 -7.7792392148903673 13.674525935806287 0 13.674525935806287 11.941223397241629 0 0 0 0 -58.627529671412958 6.25035030177321 0 6.25035030177321 9.630880904796868 0 0 0 0 -18.770353673673526 -27.182083197318207 0 -27.182083197318207 29.801828074978403 0 0 0 0 -18.729042276667315 38.055740953902387 0 38.055740953902387 -15.296109826528436 0 0 0 0 -20.929195234009683 33.406241327568864 0 33.406241327568864 21.514327044791571 0 0 0 0 -4.5218716081444654 30.743111864772345 0 30.743111864772345 -18.415829691880958 0 0 0 0 -0.6501970838780835 -22.843695044344258 0 -22.843695044344258 55.870721257439072 0 0 0 0 -69.501370785359086 37.413090080525308 0 37.413090080525308 68.4081830791838 0 0 0 0 -23.454328754305152 17.468463030259045 0 17.468463030259045 20.308430172558474 0 0 0 0 -8.9582040019922715 11.685362506199908 0 11.685362506199908 14.891288040729705 0 0 0 0 4.9468592381548708 8.3717352566570078 0 8.3717352566570078 8.1165736458663265 0 0 0 0 -1.3774650935158093 17.336748378492871 0 17.336748378492871 -1.1940406384950109 0 0 0 0 -21.488379453975085 29.962805017328492 0 29.962805017328492 6.0901828904488866 0 0 0 0 -1.2673203279904328 15.74572479774622 0 15.74572479774622 2.8503659833112351 0 0 0 0 4.5488695389608438 19.124076589497008 0 19.124076589497008 7.1440052814741648 0 0 0 0 -4.5446239512008617 7.9877752653655563 0 7.9877752653655563 -3.8926950010827088 0 0 0 0 2.6251803094817987 14.34359293848793 0 14.34359293848793 -1.5629899373402623 0 0 0 0 -4.4088535634006227 14.194832934543683 0 14.194832934543683 0.0046865214890203788 0 0 0 0 2.8563307518493275 15.000450563452432 0 15.000450563452432 -2.0325588966877604 0 0 0 0 0.23445317093774065 17.664761093333937 0 17.664761093333937 1.2636689404967001 0 0 0 0 -2.7492330151835631 18.57736567869415 0 18.57736567869415 1.1610138828709182 0 0 0 0 2.0419062944069992 23.517139984294545 0 23.517139984294545 0.031903867668916064 0 0 0 0 22.658213459472975 35.062518188091985 0 35.062518188091985 4.5072026065518003 0 0 0 0 -5.6609516150329284 18.043439821883794 0 18.043439821883794 6.5832079806664296 0 0 0 0 -9.7082111539640437 6.2595737081215255 0 6.2595737081215255 -1.4538241695348475 0 0 0 0 -9.223175633100027 13.999239241924897 0 13.999239241924897 3.0273662775198318 0 0 0 0 -5.9141191657433012 15.442733293378808 0 15.442733293378808 3.0992021714398561 0 0 0 0 3.122992951591768 5.5997157696576458 0 5.5997157696576458 5.7582254814645211 0 0 0 0 -6.5989027817905708 15.979910988431641 0 15.979910988431641 -94.270265204770112 0 0 0 0 48.835884045383807 -280.79043055910313 0 -280.79043055910313 419.52874283591655 0 0 0 0 15.91519413466267 224.39560501878282 0 224.39560501878282 131.43073069475713 0 0 0 0 -1.0221560159094434 1.3613076313950359 0 1.3613076313950359 -0.14547339904765799 0 0 0 0 -199.25227483249091 401.55051790900689 0 401.55051790900689 52.051070621115628 0 0 0 0 -474.37236163601347 -88.750770335380707 0 -88.750770335380707 434.8254909977959 0 0 0 0 -54.474034661198857 -94.465665926104521 0 -94.465665926104521 -157.40680726254016 0 0 0 0 -323.9208599087487 149.12863417696147 0 149.12863417696147 -14.298800112885147 0 0 0 0 -56.074294526946687 -37.60607043832988 0 -37.60607043832988 -42.012700488147516 0 0 0 0 -342.96140480873231 -72.360281927288185 0 -72.360281927288185 -31.570362665672747 0 0 0 0 193.05332889451438 99.144065261976436 0 99.144065261976436 -54.930065361504717 0 0 0 0 -12.526523723517585 -13.200049586057304 0 -13.200049586057304 -11.645795661773036 0 0 0 0 10.39417074444782 17.565029581741442 0 17.565029581741442 5.8916394396969736 0 0 0 0 -0.36783136067486666 0.024651088969520618 0 0.024651088969520618 0.39297788920385601 0 0 0 0 18.410583298569236 20.444131270056118 0 20.444131270056118 -8.656586456394507 0 0 0 0 19.340400442406462 17.111780143638271 0 17.111780143638271 -2.2895111742632253 0 0 0 0 -195.60664266272943 89.663053808550558 0 89.663053808550558 4.206535319384102 0 0 0 0 -233.16243388956082 97.575078249148874 0 97.575078249148874 3.5928438220607859 0 0 0 0 -22.749529916799929 2.2304023375519932 0 2.2304023375519932 -4.0220348321536221 0 0 0 0 -9.6219908715549707 27.715503006435483 0 27.715503006435483 24.608296884541232 0 0 0 0 14.291044600519946 -14.136730808940229 0 -14.136730808940229 -2.777853328062065 0 0 0 0 -19.336916629638353 8.8287839789581994 0 8.8287839789581994 5.588409855605704 0 0 0 0 -12.744394399482619 8.7455238406019404 0 8.7455238406019404 -5.9196186453591864 0 0 0 0 4.8451433260006525 -29.810927152850581 0 -29.810927152850581 -24.160944660347582 0 0 0 0 61.617293257272649 9.8152310614970162 0 9.8152310614970162 -26.964688687556645 0 0 0 0 -7.5797937244870006 -1.2888416149399404 0 -1.2888416149399404 -7.464107975036768 0 0 0 0 -12.067564367682142 12.905904262441492 0 12.905904262441492 -6.8991109511908766 0 0 0 0 55.477007826961199 49.07472695327715 0 49.07472695327715 -8.856437042514699 0 0 0 0 25.016585542617577 30.66625947562045 0 30.66625947562045 -4.6996738945494485 0 0 0 0 11.620933743971099 8.5312316380394666 0 8.5312316380394666 -0.23339431552036827 0 0 0 0 4.989311445068064 12.878514276138503 0 12.878514276138503 -3.1617812670901912 0 0 0 0 10.040068638269531 11.778414393988726 0 11.778414393988726 0.74995925870246083 0 0 0 0 11.148037344104637 -18.906338776769445 0 -18.906338776769445 -37.281665133510387 0 0 0 0 2.3783417852958717 1.9478136665274866 0 1.9478136665274866 0.62747185737476041 0 0 0 0 15.501884096011963 1.0063862572576454 0 1.0063862572576454 -15.804319925787581 0 0 0 0 9.7392041538153116 6.5288814946668339 0 6.5288814946668339 2.8947940468051163 0 0 0 0 11.747932662159172 9.331966097244937 0 9.331966097244937 -17.725008787788965 0 0 0 0 -1.9534588641114965 5.7669465779903248 0 5.7669465779903248 -4.3485533196892447 0 0 0 0 3.5636372192224322 6.2507023617923307 0 6.2507023617923307 -6.1751237136610584 0 0 0 0 11.954014622476446 12.481238775850734 0 12.481238775850734 -2.2856239468355852 0 0 0 0 -0.30547380719442963 7.3054989019450653 0 7.3054989019450653 -6.8339176957860097 0 0 0 0 -194.33944083886672 84.02331010746633 0 84.02331010746633 -4.9465825020633929 0 0 0 0 25.24659530385054 2.2040449183286057 0 2.2040449183286057 -2.0469933545662116 0 0 0 0 0.258605697805117 0.64128217788092456 0 0.64128217788092456 0.16070647408529926 0 0 0 0 11.208410929725574 -0.80223930701727397 0 -0.80223930701727397 0.93977825494494027 0 0 0 0 14.302331560694256 12.061156299231698 0 12.061156299231698 8.2748092583736366 0 0 0 0 6.5245394700023098 7.0436323931715492 0 7.0436323931715492 5.959653640566728 0 0 0 0 13.521560894368122 6.2728044547509398 0 6.2728044547509398 -3.2653655325852924 0 0 0 0 15.113149365251957 38.99147003825351 0 38.99147003825351 -1.487810425301646 0 0 0 0 -2.1489099935542981 2.1842769300549207 0 2.1842769300549207 -0.44008866418586479 0 0 0 0 6.0953816718661944 4.2954645536766476 0 4.2954645536766476 3.0095499806493367 0 0 0 0 2.9349097704684937 1.9438019487639053 0 1.9438019487639053 0.10542645356508729 0 0 0 0 7.3395039023534991 8.2882410687163883 0 8.2882410687163883 -3.7738692627846149 0 0 0 0 1.0798735135241682 1.5776655152655374 0 1.5776655152655374 0.39734846835316695 0 0 0 0 -143.14998778617519 80.165804883963119 0 80.165804883963119 -43.359502328635301 0 0 0 0 -168.79720907486626 85.836147677001094 0 85.836147677001094 -26.748098597063063 0 0 0 0 -187.46030803549911 67.018219239230461 0 67.018219239230461 -26.969666427607422 0 0 0 0 -121.40941475797354 87.856889300719729 0 87.856889300719729 -30.445419317676738 0 0 0 0 -111.83670289176098 55.413254212635707 0 55.413254212635707 -29.83217591830919 0 0 0 0 -102.77604708525178 66.75393711014317 0 66.75393711014317 -40.55403034843539 0 0 0 0 -152.29396850428429 75.15546359988312 0 75.15546359988312 -26.786825851911772 0 0 0 0 -137.95720339069408 59.08003582536108 0 59.08003582536108 -22.047123197372457 0 0 0 0 -77.758574686229622 36.437337059442257 0 36.437337059442257 -29.014500419015832 0 0 0 0 -110.00888658807889 53.259718862331454 0 53.259718862331454 -25.391350088543277 0 0 0 0 -49.853928178950355 14.526881020821236 0 14.526881020821236 -19.877236694517592 0 0 0 0 -77.190763090249447 31.29062894405223 0 31.29062894405223 -15.960331044272721 0 0 0 0 -77.632944520986712 37.19742216363386 0 37.19742216363386 -25.085942091911193 0 0 0 0 -65.740525562084713 41.150254306538329 0 41.150254306538329 -35.282182187315584 0 0 0 0 -42.95649998090812 19.974911204737396 0 19.974911204737396 -25.540996614422355 0 0 0 0 -93.313889607974488 37.114508149781614 0 37.114508149781614 -20.263631791700618 0 0 0 0 -61.804743391027216 62.130062124692259 0 62.130062124692259 -52.476983003002942 0 0 0 0 -60.623507728576215 23.359925243077729 0 23.359925243077729 -26.220375946712466 0 0 0 0 -36.659358364293894 22.767884919528342 0 22.767884919528342 -33.793420326687851 0 0 0 0 -22.041915340981177 7.8377719163681832 0 7.8377719163681832 -10.957861078157748 0 0 0 0 -26.702901205135277 -1.8837712807005573 0 -1.8837712807005573 -17.010191752379569 0 0 0 0 -33.583969681007602 0.43783663357601199 0 0.43783663357601199 -5.6865143111144789 0 0 0 0 -48.067037720432381 103.52617339953167 0 103.52617339953167 -76.596562322359432 0 0 0 0 -28.808160420559943 40.169540861548853 0 40.169540861548853 -66.684760002328062 0 0 0 0 -186.5435314885608 174.75533266626144 0 174.75533266626144 -112.50790365740045 0 0 0 0 -179.28162869506104 105.1505429405164 0 105.1505429405164 -13.393044973238375 0 0 0 0 -179.37366348171975 106.85846911047693 0 106.85846911047693 -34.727602688976276 0 0 0 0 -197.56682126262967 117.0763775929604 0 117.0763775929604 -19.547322438690799 0 0 0 0 -65.269479259023683 44.174591155130429 0 44.174591155130429 -43.041075264905885 0 0 0 0 34.682066851051331 34.616985403780404 0 34.616985403780404 -19.838419329202317 0 0 0 0 33.296406962072069 30.401226359773091 0 30.401226359773091 -18.675955860849172 0 0 0 0 41.145283336157263 36.267373705401383 0 36.267373705401383 -19.876540934394324 0 0 0 0 33.558248400869616 30.71535536199741 0 30.71535536199741 -20.851103019749871 0 0 0 0 14.817678523592804 17.778992199900529 0 17.778992199900529 -17.59671516700098 0 0 0 0 9.9067719985505391 26.069954744840572 0 26.069954744840572 -11.099488136423361 0 0 0 0 15.127585217577689 23.248582484979465 0 23.248582484979465 -18.97427927822585 0 0 0 0 -10.069370726543639 20.841805058569321 0 20.841805058569321 -18.278024511876424 0 0 0 0 0.59231687587362103 13.138313797948058 0 13.138313797948058 -22.492366298428806 0 0 0 0 -6.53468186314376 10.09811217836608 0 10.09811217836608 -23.591039375785272 0 0 0 0 13.830229163957483 20.635349345416444 0 20.635349345416444 -24.98681036281323 0 0 0 0 -31.30634735134754 26.238992567253604 0 26.238992567253604 -24.667273640418898 0 0 0 0 -22.526790851478836 9.2386598527623391 0 9.2386598527623391 -15.451952237748742 0 0 0 0 -45.054837122279082 14.741013792235009 0 14.741013792235009 -17.477935702445848 0 0 0 0 -19.577048147826645 15.822498579621424 0 15.822498579621424 -25.087351054504893 0 0 0 0 -29.727037004601357 0.53189678508820748 0 0.53189678508820748 -12.233603634216252 0 0 0 0 -22.293882606079933 7.4808412306867922 0 7.4808412306867922 -5.905221200029473 0 0 0 0 -25.686440916588253 -3.4399781276708836 0 -3.4399781276708836 -2.6604247074950536 0 0 0 0 -21.315930460458276 5.0702062867014206 0 5.0702062867014206 -1.1327002180357795 0 0 0 0 -11.57595802794458 12.73385020946705 0 12.73385020946705 4.8937729487220167 0 0 0 0 -5.2505299576114339 15.96862781427501 0 15.96862781427501 -9.499496419499792 0 0 0 0 -19.406636372194825 11.549004902611028 0 11.549004902611028 -9.1621504456900311 0 0 0 0 -4.731562756999665 14.942343347671027 0 14.942343347671027 -8.1419663837639291 0 0 0 0 7.8439965351781211 26.221796632699579 0 26.221796632699579 1.3157470868543442 0 0 0 0 -3.4911302510272435 28.816389478091764 0 28.816389478091764 26.230902730319258 0 0 0 0 -12.956321519675839 14.186712581388292 0 14.186712581388292 5.2386229039586851 0 0 0 0 18.444472586834308 48.277125373878675 0 48.277125373878675 35.920459921178804 0 0 0 0 12.041358068575846 31.676000982079017 0 31.676000982079017 2.9075494660860386 0 0 0 0 14.438240996053082 30.970540872186746 0 30.970540872186746 25.130435866042944 0 0 0 0 31.413981847321793 37.419164941997963 0 37.419164941997963 -9.0265325842259472 0 0 0 0 7.2200557220567134 27.651949317879684 0 27.651949317879684 -0.060104730191824274 0 0 0 0 -5.7512417785119396 10.057640353591523 0 10.057640353591523 32.792901717268251 0 0 0 0 6.1914002741914373 -8.5108535883020977 0 -8.5108535883020977 18.775354606063047 0 0 0 0 0.99090920181970432 3.8959239435037034 0 3.8959239435037034 -9.4935762301433897 0 0 0 0 -22.258456022023893 0.69565751298591749 0 0.69565751298591749 13.950334427489452 0 0 0 0 -2.7901083912415743 7.1812280802976147 0 7.1812280802976147 10.67717247012888 0 0 0 0 -7.3883645083096781 11.031170101993212 0 11.031170101993212 19.446742349601948 0 0 0 0 -4.9569321895196481 23.331660145126648 0 23.331660145126648 46.074978832304396 0 0 0 0 -19.26470001469599 2.7982760538720406 0 2.7982760538720406 9.1788391774916818 0 0 0 0 -19.647211287157916 13.649177160781392 0 13.649177160781392 24.402027408471895 0 0 0 0 -26.614727477216533 -6.4955711896110895 0 -6.4955711896110895 1.5589524901347431 0 0 0 0 -26.81443023814154 4.2103787416715477 0 4.2103787416715477 12.750095951896583 0 0 0 0 -18.165422981584925 -2.4880551819526318 0 -2.4880551819526318 17.937828534918481 0 0 0 0 -19.137711589642549 -6.5518232339607039 0 -6.5518232339607039 -0.4071566182396964 0 0 0 0 -34.719382277848126 1.2942811058628649 0 1.2942811058628649 -4.3176543658200899 0 0 0 0 -27.308580318326676 -12.819572930477534 0 -12.819572930477534 -13.591155055899435 0 0 0 0 -30.336021026580966 -4.0276808840035301 0 -4.0276808840035301 0.16278105032665735 0 0 0 0 -20.848352720494404 -2.7209695158753675 0 -2.7209695158753675 -25.300175679203903 0 0 0 0 -28.283344824055348 -9.7277654235172122 0 -9.7277654235172122 -13.055020267486725 0 0 0 0 -25.48873786905142 2.1461779912229986 0 2.1461779912229986 -14.8233686970907 0 0 0 0 -30.281687650252934 -0.70400676749011382 0 -0.70400676749011382 3.0437491974744262 0 0 0 0 -27.682872397292158 -3.7073478766722019 0 -3.7073478766722019 4.0189121263061338 0 0 0 0 -26.215755974581043 2.0763108950293372 0 2.0763108950293372 12.3343635996074 0 0 0 0 -23.992434341208536 0.77769971751638423 0 0.77769971751638423 6.2100573106915817 0 0 0 0 -30.487755099316018 0.91731379226234822 0 0.91731379226234822 12.978156060146375 0 0 0 0 -30.029698880798605 -3.5866812587836421 0 -3.5866812587836421 8.1104670609202003 0 0 0 0 -28.048751865538634 -5.0358033345073636 0 -5.0358033345073636 6.52353842186767 0 0 0 0 -24.656970637543964 -2.3038123478913235 0 -2.3038123478913235 4.4380997255252623 0 0 0 0 -27.296760086593622 2.6528129517155321 0 2.6528129517155321 15.665794747106247 0 0 0 0 -25.688020155360391 4.4890269282759618 0 4.4890269282759618 3.6994727063648156 0 0 0 0 56.54530421987883 -38.609011201798921 0 -38.609011201798921 128.70360944016284 0 0 0 0 172.6229402615171 84.397214340939627 0 84.397214340939627 -78.991528560916777 0 0 0 0 49.483893637562261 25.691095362050874 0 25.691095362050874 -41.090476187226159 0 0 0 0 -64.113529206233125 129.30761527236518 0 129.30761527236518 -96.179342671267477 0 0 0 0 69.818527497078435 67.862418542097316 0 67.862418542097316 -122.11477227201249 0 0 0 0 -84.635905127528076 113.28491194837352 0 113.28491194837352 -43.890934263576128 0 0 0 0 -75.622486188113953 130.62286305167527 0 130.62286305167527 -34.370150574391914 0 0 0 0 -1.283132945179414 0.065799195102625774 0 0.065799195102625774 0.13239429106340594 0 0 0 0 -37.498031827674822 70.86719664461134 0 70.86719664461134 59.289809627503928 0 0 0 0 19.042705829167062 10.670840505578781 0 10.670840505578781 -61.325763259686028 0 0 0 0 -126.07630943747972 208.80170347308058 0 208.80170347308058 1.8919033669135388 0 0 0 0 -27.057348908543645 -16.886975033134036 0 -16.886975033134036 -28.643970596669931 0 0 0 0 -17.242454246912871 10.038126932574379 0 10.038126932574379 -5.5912620582814103 0 0 0 0 111.42317271338243 -126.65628778722021 0 -126.65628778722021 92.756232855268081 0 0 0 0 -45.30786994729624 -8.8458903805496902 0 -8.8458903805496902 -14.417634941962774 0 0 0 0 -22.474579128424011 -9.6277967298658496 0 -9.6277967298658496 -15.930969920799953 0 0 0 0 -40.100547995322813 11.479416012076854 0 11.479416012076854 -37.071313763185799 0 0 0 0 -9.9970266236778116 -0.89392225386382052 0 -0.89392225386382052 -71.353112320638957 0 0 0 0 5.2313799379508055 -1.2891227486652497 0 -1.2891227486652497 13.496408768944093 0 0 0 0 24.12274419756659 -10.426395803708147 0 -10.426395803708147 17.913182114959454 0 0 0 0 45.101259409073236 2.826665175414746 0 2.826665175414746 -1.8206499602438271 0 0 0 0 -46.765733043433556 96.369710353619666 0 96.369710353619666 -15.014784462808166 0 0 0 0 8.2967185203301597 7.0055909315378813 0 7.0055909315378813 21.478488788399773 0 0 0 0 -10.695213422613961 -34.632406083943806 0 -34.632406083943806 -68.420041757636227 0 0 0 0 17.428288253001938 25.632823143882433 0 25.632823143882433 4.3477037420661873 0 0 0 0 -1.3759044025783602 3.3235345883718841 0 3.3235345883718841 -1.027885362559342 0 0 0 0 -15.13530327872245 10.656549517921 0 10.656549517921 -4.8230835238677958 0 0 0 0 -37.231817123905785 -36.924533489311898 0 -36.924533489311898 -37.816545466873322 0 0 0 0 -19.593440677117542 -8.6799622283967892 0 -8.6799622283967892 -17.322567492846247 0 0 0 0 -12.430868241131975 -13.131855785009066 0 -13.131855785009066 -27.914502517162418 0 0 0 0 -10.652446828962638 -25.410984863189356 0 -25.410984863189356 -48.186708108416497 0 0 0 0 -10.088209117726365 -20.569871758753834 0 -20.569871758753834 -36.833411892413096 0 0 0 0 -17.869807355023113 -3.9612159834468912 0 -3.9612159834468912 -3.7657754156025476 0 0 0 0 -17.447447631494015 6.2065207055147198 0 6.2065207055147198 -35.530946664836847 0 0 0 0 -3.7998665064242232 -12.222104069477155 0 -12.222104069477155 -29.725712873336079 0 0 0 0 94.088520784159925 204.79603921733948 0 204.79603921733948 60.218349352654513 0 0 0 0 70.378252574033695 -28.342709737134101 0 -28.342709737134101 28.432171679477051 0 0 0 0 -100.83646370515044 9.4003657965959064 0 9.4003657965959064 84.102159594914554 0 0 0 0 -110.89964983056689 -11.820479425610756 0 -11.820479425610756 9.563588417125402 0 0 0 0 -197.76647426783211 92.251290393201998 0 92.251290393201998 39.12346512248223 0 0 0 0 -474.88895420127938 24.238175596273322 0 24.238175596273322 93.21495939027227 0 0 0 0 -422.09940292071587 -125.39974776963663 0 -125.39974776963663 -1.0547188935032636 0 0 0 0 -2.7126895376483624 2.2204716133236149 0 2.2204716133236149 0.74424984471660949 0 0 0 0 -369.61022251836312 54.410938677895047 0 54.410938677895047 -15.047563339569734 0 0 0 0 -202.86587046847853 -70.748810534618315 0 -70.748810534618315 54.770666349846579 0 0 0 0 -248.54906079900763 -52.547966186879194 0 -52.547966186879194 251.74594886474824 0 0 0 0 -6.0775757639545205 2.1033321338185198 0 2.1033321338185198 -0.57054534219552178 0 0 0 0 -214.4273834093708 -103.18571514024052 0 -103.18571514024052 268.80691701302567 0 0 0 0 -19.535855772320247 92.460566401744927 0 92.460566401744927 -151.49379506280366 0 0 0 0 -370.66072269817187 68.443916518230253 0 68.443916518230253 150.91670435236574 0 0 0 0 -0.72383301032897407 -26.298432031843944 0 -26.298432031843944 -8.7500773745493916 0 0 0 0 -31.902723140795388 7.190602412900148 0 7.190602412900148 2.8250951878123942 0 0 0 0 -6.5377764623863186 7.9791758101862342 0 7.9791758101862342 0.95777021844861565 0 0 0 0 -37.129040302558678 18.134426017070211 0 18.134426017070211 56.795274620557507 0 0 0 0 -30.217510558590675 -2.7436351583537544 0 -2.7436351583537544 4.4219596072318836 0 0 0 0 -22.212144063218147 -6.4712670525865406 0 -6.4712670525865406 10.603507838367022 0 0 0 0 41.414639099383521 141.52908593549182 0 141.52908593549182 212.23181334253195 0 0 0 0 -16.783153966911481 9.0796722139995829 0 9.0796722139995829 -4.3378858739628541 0 0 0 0 135.92792797832351 74.11810946343644 0 74.11810946343644 57.194583127067744 0 0 0 0 -13.643256429362976 6.5627318381214987 0 6.5627318381214987 -2.6265245611918471 0 0 0 0 -42.101617696906715 222.85274875679852 0 222.85274875679852 317.26593497736076 0 0 0 0 9.3004931025654738 20.555311832666121 0 20.555311832666121 203.76373811328085 0 0 0 0 -36.100995060767559 128.53683241439785 0 128.53683241439785 61.464544797890085 0 0 0 0 53.085300903562953 17.581421624065229 0 17.581421624065229 -34.979676778739304 0 0 0 0 19.455563183603289 92.350547173920631 0 92.350547173920631 57.575029064379123 0 0 0 0 -97.467960746717154 28.174383795989797 0 28.174383795989797 -16.195316251611985 0 0 0 0 92.393480693563106 18.893284079285877 0 18.893284079285877 -27.02411479821285 0 0 0 0 71.031701940905577 82.293183421004869 0 82.293183421004869 -9.4321364686247762 0 0 0 0 28.794724278473495 59.454381140459191 0 59.454381140459191 -49.951652534310597 0 0 0 0 31.477128331373454 52.00508584540205 0 52.00508584540205 -92.048294121990693 0 0 0 0 79.222011614157964 28.55142842045052 0 28.55142842045052 -87.410137818268595 0 0 0 0 77.597787197479988 54.966621196321739 0 54.966621196321739 -102.84932064858367 0 0 0 0 44.520375024064748 40.031236790396633 0 40.031236790396633 -88.038245071188612 0 0 0 0 31.424211310994622 46.126892208720164 0 46.126892208720164 -98.796385286061195 0 0 0 0 -66.484128384285441 12.194205375017191 0 12.194205375017191 -79.407735290267283 0 0 0 0 -79.981315080208105 55.999593035293401 0 55.999593035293401 -90.770251432151781 0 0 0 0 -129.35242912779142 24.681374688480901 0 24.681374688480901 -60.046627336518213 0 0 0 0 -213.39953985245938 33.491581500379652 0 33.491581500379652 -52.33837660322115 0 0 0 0 -265.93316992913253 106.02715678052994 0 106.02715678052994 -62.346035032587679 0 0 0 0 -294.54398664281825 24.9247869952369 0 24.9247869952369 -40.464362396110573 0 0 0 0 -91.938185433422291 18.230999333745785 0 18.230999333745785 -90.678503559736328 0 0 0 0 -369.7534179743692 -96.391639836780996 0 -96.391639836780996 -2.5294622274413996 0 0 0 0 -43.872543794249509 26.75987541113841 0 26.75987541113841 -89.009733662914186 0 0 0 0 161.86347789723868 -170.47171241014394 0 -170.47171241014394 -10.035077447036201 0 0 0 0 -0.28811810951634831 -0.057137561735919107 0 -0.057137561735919107 0.65865949212945196 0 0 0 0 -7.6821004652128977 104.30587154104433 0 104.30587154104433 -39.78978923746763 0 0 0 0 -532.75690304815453 130.81606364561185 0 130.81606364561185 15.591192032638901 0 0 0 0 -211.24136086076351 121.54152341963345 0 121.54152341963345 -78.553541294160823 0 0 0 0 -504.4015561285978 -316.59807718022967 0 -316.59807718022967 55.017437097179481 0 0 0 0 -2.4157503903591855 0.97584841853589133 0 0.97584841853589133 1.8074993609779426 0 0 0 0 -279.65413240477255 87.380105512699629 0 87.380105512699629 -46.582147824949061 0 0 0 0 -307.20610461463366 116.65429743589493 0 116.65429743589493 -58.907184758385483 0 0 0 0 -324.6117912996898 36.427307686749828 0 36.427307686749828 -4.986231783292169 0 0 0 0 -244.2936577173607 108.55164022948395 0 108.55164022948395 -122.1825951052142 0 0 0 0 -312.39085860122441 65.944325259024481 0 65.944325259024481 -96.842639027227051 0 0 0 0 -210.6609362152783 94.452056229004484 0 94.452056229004484 -105.38144913276665 0 0 0 0 -282.73457765391413 211.72292672525646 0 211.72292672525646 -147.3892505503718 0 0 0 0 -337.47212515986985 242.02452667238049 0 242.02452667238049 -162.23636245013404 0 0 0 0 -0.43661066911759772 0.48765989857986725 0 0.48765989857986725 -0.58796521729042417 0 0 0 0 -333.5665427234394 134.77480595337875 0 134.77480595337875 -72.75482054832537 0 0 0 0 -414.69720521046293 171.83598864555461 0 171.83598864555461 -89.233098460354086 0 0 0 0 -260.92845864739445 172.49652405559621 0 172.49652405559621 -110.92412930126375 0 0 0 0 -262.32256705245481 131.00449378415578 0 131.00449378415578 -82.526721953840024 0 0 0 0 -263.71455551794725 133.57311360956555 0 133.57311360956555 -85.220433990888523 0 0 0 0 -165.90715332937202 85.046223500791712 0 85.046223500791712 -97.3712570330772 0 0 0 0 -242.93641799255818 74.343448744129319 0 74.343448744129319 -84.370328575379972 0 0 0 0 -201.32256014187303 80.788696390535023 0 80.788696390535023 -80.621607739169121 0 0 0 0 -131.93242274643285 65.387095516223781 0 65.387095516223781 -94.840683226649162 0 0 0 0 -184.93462708675588 101.8403517236693 0 101.8403517236693 -98.293875895201381 0 0 0 0 -203.77325127389543 124.98757796273441 0 124.98757796273441 -110.24691978020564 0 0 0 0 -99.896219748072554 57.470916502026739 0 57.470916502026739 -86.738045100682939 0 0 0 0 -82.730233957624847 18.126863303621576 0 18.126863303621576 -62.160552451332478 0 0 0 0 -92.702228708537518 24.216699926657384 0 24.216699926657384 -74.447064505890012 0 0 0 0 -133.06278558245072 69.690343571272024 0 69.690343571272024 -95.79526229217845 0 0 0 0 -156.22665649942303 43.439695656338927 0 43.439695656338927 -77.486059350108917 0 0 0 0 -114.32148479785829 29.745077171257208 0 29.745077171257208 -76.185345685706125 0 0 0 0 -72.613594050356141 55.021200100944043 0 55.021200100944043 -98.503249249184591 0 0 0 0 -168.1244898337643 90.380659370864123 0 90.380659370864123 -101.46362302802117 0 0 0 0 -188.43148232756232 54.200626900660154 0 54.200626900660154 -85.820029088834417 0 0 0 0 -245.86004444199295 99.186582240732605 0 99.186582240732605 -77.405731638458747 0 0 0 0 -237.37692191204667 73.392595442134393 0 73.392595442134393 -62.777061188753578 0 0 0 0 -132.97238478512514 68.17321698070009 0 68.17321698070009 -74.621977769815203 0 0 0 0 -140.0617053749713 34.795852000293735 0 34.795852000293735 -77.265566887626846 0 0 0 0 -9.7638776227235624 21.214654508598869 0 21.214654508598869 -99.211724861467317 0 0 0 0 23.850992350395416 16.117881919624779 0 16.117881919624779 -75.898775454190172 0 0 0 0 23.313114833265729 57.906016799841382 0 57.906016799841382 -69.906838501388847 0 0 0 0 -75.277144444238502 44.130396691322858 0 44.130396691322858 -60.844286475670742 0 0 0 0 49.800983253739673 44.816566870897077 0 44.816566870897077 -94.230982008552473 0 0 0 0 59.310297431895265 59.714484227007233 0 59.714484227007233 -70.90112207598213 0 0 0 0 65.668434131791855 -0.29025506586913252 0 -0.29025506586913252 -11.598659318367027 0 0 0 0 125.94249891510503 48.169601254437111 0 48.169601254437111 -15.395109072340347 0 0 0 0 47.454096682121161 40.324240029417069 0 40.324240029417069 -59.372759272115218 0 0 0 0 19.311884185617203 0.22900960407605453 0 0.22900960407605453 -13.880953622842753 0 0 0 0 75.775646197109268 9.7725874676953026 0 9.7725874676953026 -39.823825156880048 0 0 0 0 78.141624092938514 -4.3814171486486657 0 -4.3814171486486657 3.1603760936923209 0 0 0 0 -27.441328582471726 18.940910927796722 0 18.940910927796722 -89.123041896042196 0 0 0 0 -59.096951797637331 48.9581681489326 0 48.9581681489326 -80.361865571323506 0 0 0 0 -17.896978169804001 39.264594230531202 0 39.264594230531202 -46.97930654017182 0 0 0 0 21.715096245671035 11.663691251749697 0 11.663691251749697 -73.414398175566021 0 0 0 0 -28.069856784028843 18.882953767744766 0 18.882953767744766 -77.449397433587365 0 0 0 0 -30.173046559344549 21.465102588744685 0 21.465102588744685 -36.353634973396765 0 0 0 0 -0.89310574418055921 -17.948397593250775 0 -17.948397593250775 -44.81104235474254 0 0 0 0 24.339851584871241 7.3495496048253699 0 7.3495496048253699 -23.318333369117681 0 0 0 0 -25.23956443529255 -22.360608722727193 0 -22.360608722727193 -34.776840219654332 0 0 0 0 -38.232537489189951 17.557262784191153 0 17.557262784191153 -35.867987930096206 0 0 0 0 48.887232345550728 -25.697488439979679 0 -25.697488439979679 -24.699679605272195 0 0 0 0 78.859270327841159 3.6965074267659475 0 3.6965074267659475 0.45162990204880771 0 0 0 0 131.49192664452454 -43.372783674519269 0 -43.372783674519269 -12.662511149379498 0 0 0 0 0.25873036898554153 0.34802899232561746 0 0.34802899232561746 0.24823993654165122 0 0 0 0 69.255588037291602 -44.19147718579984 0 -44.19147718579984 17.756533829440741 0 0 0 0 52.18187901400038 -8.47673744735539 0 -8.47673744735539 -6.8449274479717133 0 0 0 0 92.796406140666818 -0.27333660728481846 0 -0.27333660728481846 6.4295189086660685 0 0 0 0 -7.4274629412232116 -1.9922529996715639 0 -1.9922529996715639 -11.820913387895416 0 0 0 0 17.285769426557874 -32.263751484179011 0 -32.263751484179011 -16.143646723382062 0 0 0 0 10.11703832773938 -16.90716868925756 0 -16.90716868925756 12.299815150268842 0 0 0 0 39.428869855288013 -37.281886202741589 0 -37.281886202741589 2.8662390844760921 0 0 0 0 -8.4669567242844721 -37.476136997507638 0 -37.476136997507638 -9.0101413385127671 0 0 0 0 -35.432451052555905 -26.867965592574365 0 -26.867965592574365 -19.419187227758357 0 0 0 0 -28.462675795851851 -15.451866910899753 0 -15.451866910899753 -1.4186413859497407 0 0 0 0 -53.841202622242577 9.5528526895277537 0 9.5528526895277537 -33.135572600029718 0 0 0 0 -98.592208439510841 13.552082489723034 0 13.552082489723034 -32.898618234337391 0 0 0 0 -45.38877445581582 6.7824037702130227 0 6.7824037702130227 -39.502854056543583 0 0 0 0 -88.921117776726987 0.60051592293984868 0 0.60051592293984868 5.1353065593929159 0 0 0 0 -100.56162428789466 65.521663504445314 0 65.521663504445314 -87.741148070359486 0 0 0 0 -75.636856305738348 -9.6800877877287803 0 -9.6800877877287803 -52.186168364300102 0 0 0 0 -80.266827791007017 41.225788653480777 0 41.225788653480777 -103.44274444709845 0 0 0 0 -144.78864216220643 52.425871867402748 0 52.425871867402748 -75.303940908146615 0 0 0 0 -131.87764138856204 83.404566200105364 0 83.404566200105364 -158.63751547108768 0 0 0 0 -217.40436153883752 144.53209242623416 0 144.53209242623416 -125.28161261060086 0 0 0 0 -216.61036227479281 114.78129872445788 0 114.78129872445788 -109.37120551046155 0 0 0 0 -185.01696399779428 100.18557623051402 0 100.18557623051402 -103.37134358334879 0 0 0 0 -114.11346169341414 65.520958092929504 0 65.520958092929504 -117.72347798538431 0 0 0 0 -135.22498978374421 64.620700324618156 0 64.620700324618156 -84.898858699572884 0 0 0 0 -106.53548581759523 21.200658513799908 0 21.200658513799908 -74.767940149638889 0 0 0 0 -50.609909857296316 -1.3170767180490657 0 -1.3170767180490657 -63.934679264499664 0 0 0 0 -82.998186397154427 36.350154565627236 0 36.350154565627236 -59.296828434406052 0 0 0 0 -56.896015718028423 -1.6483819072172992 0 -1.6483819072172992 -59.690276118182737 0 0 0 0 -88.518988179440157 36.656321173930337 0 36.656321173930337 -62.22045575017728 0 0 0 0 6.3252494497444332 12.73041678544746 0 12.73041678544746 -11.470817313850603 0 0 0 0 7.3640292124580355 11.403211059637215 0 11.403211059637215 -9.978407918702942 0 0 0 0 9.0879727450488303 4.0259611493944476 0 4.0259611493944476 -7.2495197731232111 0 0 0 0 8.7156432491072042 5.8726268782379094 0 5.8726268782379094 -0.8530337827815373 0 0 0 0 5.7473734523914572 25.177137216294796 0 25.177137216294796 4.456034460550427 0 0 0 0 14.590518073705425 1.9531275741856007 0 1.9531275741856007 -9.6021148499944502 0 0 0 0 28.254637359774733 9.5783422182985305 0 9.5783422182985305 -4.4673735499122813 0 0 0 0 7.7873735842387504 1.542590673300765 0 1.542590673300765 -7.4411700467971968 0 0 0 0 7.0619700399251997 7.6184369261486609 0 7.6184369261486609 -7.7397788530843172 0 0 0 0 6.2413919154366795 12.286804040561492 0 12.286804040561492 -12.311763252832861 0 0 0 0 8.9081725878277425 4.203196975808682 0 4.203196975808682 -1.1344642456073686 0 0 0 0 9.3340517042505553 1.7899621147273592 0 1.7899621147273592 -3.1583038879325613 0 0 0 0 10.676465370002916 3.776604015913108 0 3.776604015913108 -3.7911143323439092 0 0 0 0 26.465997929520995 -8.145737918704981 0 -8.145737918704981 -15.979638714244174 0 0 0 0 8.3112277770494529 -2.6919295036786934 0 -2.6919295036786934 -6.3925668014908297 0 0 0 0 1.6126430803802805 8.7430856892754036 0 8.7430856892754036 -9.4895673685950896 0 0 0 0 7.1317339212326374 -0.69201923563082346 0 -0.69201923563082346 2.001260984399778 0 0 0 0 0.14787528608117428 0.19562303525823754 0 0.19562303525823754 -1.0264422575700962 0 0 0 0 1.0280735563724193 48.716349241760781 0 48.716349241760781 -74.523842804193009 0 0 0 0 75.216185189762314 10.434657165878889 0 10.434657165878889 -54.815405200431087 0 0 0 0 0.059893580901594579 -0.086424633540953977 0 -0.086424633540953977 0.36920624208974928 0 0 0 0 12.463857196363733 2.8882770049390274 0 2.8882770049390274 -2.9270420893249138 0 0 0 0 0.78356400186152575 0.27947808958004217 0 0.27947808958004217 -2.8909250315723867 0 0 0 0 -3.5930247674120892 13.369083693421089 0 13.369083693421089 -37.404595967364457 0 0 0 0 2.49419348925744 0.45463881683263807 0 0.45463881683263807 -3.5926067170603275 0 0 0 0 7.8695211368369655 2.092183303989259 0 2.092183303989259 -3.2191108729150528 0 0 0 0 108.58432964479329 -14.120086658810578 0 -14.120086658810578 -22.514822608252871 0 0 0 0 0.81471912731398533 8.0526804662122231 0 8.0526804662122231 -4.4545816663030564 0 0 0 0 1.6287953980800438 6.1670272372298314 0 6.1670272372298314 -7.5719397920838674 0 0 0 0 1.062612482774834 1.3109510033985292 0 1.3109510033985292 0.75082493818635854 0 0 0 0 9.3314735074553141 1.5981587918895457 0 1.5981587918895457 -20.475707547397178 0 0 0 0 7.5650827691500098 -3.7300593745111428 0 -3.7300593745111428 -1.797254846253054 0 0 0 0 -26.227211739599127 24.664854225559338 0 24.664854225559338 22.879699930528659 0 0 0 0 -11.339272021857823 6.7629233727875544 0 6.7629233727875544 11.061492192768128 0 0 0 0 2.4792381725073938 -2.6887951015414728 0 -2.6887951015414728 -10.753895084089891 0 0 0 0 0.23025208109786399 0.89700624059334011 0 0.89700624059334011 -1.2433899079254331 0 0 0 0 1.7998536375286562 10.447846879457302 0 10.447846879457302 -4.6129861440749664 0 0 0 0 -11.408708703136691 11.288275884372396 0 11.288275884372396 7.7676140056246368 0 0 0 0 8.8669677548296022 20.381361813695548 0 20.381361813695548 -22.055272731069635 0 0 0 0 -2.6322227646873646 6.5426920423119999 0 6.5426920423119999 -6.4206071496498325 0 0 0 0 1.9499946821227905 1.2485515581014486 0 1.2485515581014486 -2.7819825988949596 0 0 0 0 -0.8133553441452932 9.1327606348581867 0 9.1327606348581867 -10.399279960616695 0 0 0 0 -0.94830394074233482 15.716815600170321 0 15.716815600170321 -8.9626037461493979 0 0 0 0 7.9866916436765223 3.9422604491464881 0 3.9422604491464881 -3.7501432642789041 0 0 0 0 7.3015479672383217 4.2761547548926417 0 4.2761547548926417 -3.2671072321628323 0 0 0 0 -0.78322327226760535 11.5256386944734 0 11.5256386944734 -8.5512065152342984 0 0 0 0 4.7877907156253059 14.029774192207697 0 14.029774192207697 -7.5025754518210306 0 0 0 0 3.2439539769700332 13.671439682389064 0 13.671439682389064 0.40628823275778814 0 0 0 0 -1.171071185076471 11.666630745427483 0 11.666630745427483 -0.31019072866547504 0 0 0 0 -1.2927705785370813 3.7552495694155938 0 3.7552495694155938 -3.2948401259399667 0 0 0 0 -2.5779079764068982 3.8270574577274274 0 3.8270574577274274 -1.3791347709878075 0 0 0 0 6.3692419471362882 10.450862790607061 0 10.450862790607061 2.4564439415889865 0 0 0 0 8.7799592777182625 16.114847840206494 0 16.114847840206494 -3.8714434985940898 0 0 0 0 12.418144081680111 18.268879276037296 0 18.268879276037296 0.7125356113192538 0 0 0 0 6.2858647116909196 9.0784646317674742 0 9.0784646317674742 21.189576847737953 0 0 0 0 8.3898840988085794 11.867424049606598 0 11.867424049606598 -2.8169469470431068 0 0 0 0 8.9643048670625376 12.873118050598805 0 12.873118050598805 -6.0758998506098578 0 0 0 0 6.0746302517379718 14.362786760970607 0 14.362786760970607 -6.5592060596063675 0 0 0 0 4.5018833082992273 13.0560716389557 0 13.0560716389557 -5.4610049773091305 0 0 0 0 8.1098787400483161 13.751904813589135 0 13.751904813589135 -10.916649532376141 0 0 0 0 6.7525419450869322 14.577591150717922 0 14.577591150717922 -12.743419448041095 0 0 0 0 7.6318108703594589 12.670763625597829 0 12.670763625597829 -8.8777178103719052 0 0 0 0 -15.907711313199655 5.1138621033313711 0 5.1138621033313711 3.0282853711159987 0 0 0 0 -0.65133543737101718 -10.28793090173167 0 -10.28793090173167 -16.429891778323508 0 0 0 0 6.445793203068888 -8.191199746262555 0 -8.191199746262555 -19.784564061444144 0 0 0 0 0.87796051412080978 0.90637150628449437 0 0.90637150628449437 -0.41332582594614919 0 0 0 0 -20.368840076486777 28.920733682309219 0 28.920733682309219 -11.481616215049144 0 0 0 0 -8.0498343019930871 16.513274563833875 0 16.513274563833875 7.9563047342667232 0 0 0 0 -0.099137857527724194 4.6509541702975934 0 4.6509541702975934 -3.4190287450711576 0 0 0 0 2.551468621452841 0.98102664223029024 0 0.98102664223029024 2.645274238242564 0 0 0 0 -12.315974735642158 29.137735960192003 0 29.137735960192003 67.955629013896214 0 0 0 0 0.47064021483486052 0.27965136323001261 0 0.27965136323001261 -1.8947889002176219 0 0 0 0 1.0237533468267337 4.5652396747315223 0 4.5652396747315223 -3.163222031265982 0 0 0 0 0.55353382260955186 4.45091777414018 0 4.45091777414018 -0.73539938104386238 0 0 0 0 -3.2825901633275407 -2.9030944113610531 0 -2.9030944113610531 -17.394076533386396 0 0 0 0 10.45888746210403 -0.21391059811776358 0 -0.21391059811776358 -15.13265045721937 0 0 0 0 3.0759708231967124 -5.9584969678780908 0 -5.9584969678780908 -15.993140742310061 0 0 0 0 9.2784800204283329 -0.96527359634683307 0 -0.96527359634683307 -18.837937524538575 0 0 0 0 1.5220421384486826 0.22079267147182691 0 0.22079267147182691 -18.87997941087815 0 0 0 0 8.0167352872661581 -1.2287064777406158 0 -1.2287064777406158 -22.056115801527994 0 0 0 0 2.9349591156681072 -4.941073915695597 0 -4.941073915695597 -9.6830316104715166 0 0 0 0 5.0424566312718753 -0.51358204554708209 0 -0.51358204554708209 -22.215735375545592 0 0 0 0 -6.5558153674716664 21.655724531358828 0 21.655724531358828 -11.974954825778696 0 0 0 0 5.1462654855650083 2.370694459199342 0 2.370694459199342 -0.072673812324520526 0 0 0 0 33.262460839416576 39.43895744233123 0 39.43895744233123 -48.864671695620018 0 0 0 0 2.2954610044756292 1.2706010130423628 0 1.2706010130423628 0.33986003296901224 0 0 0 0 15.868252988718751 3.6618488986459852 0 3.6618488986459852 -26.509114516500631 0 0 0 0 -12.14577149887856 12.075485956513148 0 12.075485956513148 9.0428070360649144 0 0 0 0 3.8011790813796438 -7.3496338852773988 0 -7.3496338852773988 -30.780500452474371 0 0 0 0 8.0287715202786867 6.1669663487803064 0 6.1669663487803064 -42.07495610560909 0 0 0 0 4.6170882369820134 2.8501702165182223 0 2.8501702165182223 -24.462191758937479 0 0 0 0 -1.4666004498171219 -0.81792120876480112 0 -0.81792120876480112 18.893573124021714 0 0 0 0 1.7534550066138905 -3.8204351712188327 0 -3.8204351712188327 -6.54319788718567 0 0 0 0 6.8207246447293528 -8.5817902330609286 0 -8.5817902330609286 -15.575077839782352 0 0 0 0 0.16419001315580317 -6.078499397494852 0 -6.078499397494852 0.4031919711487717 0 0 0 0 10.927472086797479 -3.8476350578844176 0 -3.8476350578844176 0.44016930861107539 0 0 0 0 77.171087424032009 -38.146588356296888 0 -38.146588356296888 27.218290645994784 0 0 0 0 -0.52132950267206235 0.36457145250876088 0 0.36457145250876088 0.36438694450939479 0 0 0 0 -32.005014977917767 25.116988610615408 0 25.116988610615408 50.652402478279328 0 0 0 0 -0.022480613393099702 -90.639481036063444 0 -90.639481036063444 9.5326918432724597 0 0 0 0 -129.95428936429812 -25.007189557634774 0 -25.007189557634774 74.471913696873798 0 0 0 0 -88.636798277121102 26.813754193541399 0 26.813754193541399 83.626458832070057 0 0 0 0 13.391001540855086 37.718039855366442 0 37.718039855366442 81.480335388687308 0 0 0 0 -6.6541497407154111 3.6565802158761471 0 3.6565802158761471 84.75973394141738 0 0 0 0 4.9367926211778013 2.0105537302370067 0 2.0105537302370067 -1.36486584767772 0 0 0 0 -1.1105311654105816 0.34000793209714431 0 0.34000793209714431 0.38930129851483475 0 0 0 0 1.336001384173187 -2.917565422309508 0 -2.917565422309508 7.2078820178321621 0 0 0 0 2.2563099959917281 -9.8262924044993269 0 -9.8262924044993269 9.3988644502733223 0 0 0 0 7.8122380741078814 -5.5141499630917679 0 -5.5141499630917679 -9.6473111570815036 0 0 0 0 5.7035093962690553 -0.68086261372059198 0 -0.68086261372059198 27.711060709469166 0 0 0 0 1.4827258320215151 3.0355896667269917 0 3.0355896667269917 53.608756851577709 0 0 0 0 13.580267722141343 26.338723065791783 0 26.338723065791783 56.619321226926331 0 0 0 0 5.3648933411795952 13.143215001373392 0 13.143215001373392 37.074129911436103 0 0 0 0 5.5183592310313543 18.587582657286475 0 18.587582657286475 49.311489398690355 0 0 0 0 2.5973194614684871 1.3737034858431798 0 1.3737034858431798 36.324087623401965 0 0 0 0 2.2252877966952838 7.4311831944492042 0 7.4311831944492042 29.637812540673622 0 0 0 0 4.4624681447053263 12.110158431282798 0 12.110158431282798 39.105421445170577 0 0 0 0 -0.45892575665129698 5.6654606829179102 0 5.6654606829179102 24.06286459664625 0 0 0 0 -0.62026578629047435 6.8022787111185608 0 6.8022787111185608 32.018089329811119 0 0 0 0 1.055067813295409 2.9730286704207174 0 2.9730286704207174 21.950485180558644 0 0 0 0 2.5992716724344973 0.49478557356997044 0 0.49478557356997044 25.634039060696523 0 0 0 0 2.3450837576219783 -0.51848042314031773 0 -0.51848042314031773 27.846284365337851 0 0 0 0 -1.2134689862907635 -3.9374264825523824 0 -3.9374264825523824 24.627867175058782 0 0 0 0 -51.432672346942809 9.7835479721647971 0 9.7835479721647971 21.19641709589132 0 0 0 0 -1.0516463902609345 0.36300020288264179 0 0.36300020288264179 0.40243151490150808 0 0 0 0 -6.1816765941374188 0.17416574163198639 0 0.17416574163198639 0.097890745218160546 0 0 0 0 -11.453568528812298 12.655287408939557 0 12.655287408939557 -23.562269376116092 0 0 0 0 10.846731246928584 14.729989302225476 0 14.729989302225476 -67.516585258590794 0 0 0 0 -30.817142619265496 -20.508997679848108 0 -20.508997679848108 6.0065111002553238 0 0 0 0 -31.097408990099293 39.70124377732283 0 39.70124377732283 27.068920686910133 0 0 0 0 -6.0847309767679576 -36.578302886553956 0 -36.578302886553956 -1.0321131320510517 0 0 0 0 -37.839825124697725 -6.5553162291078024 0 -6.5553162291078024 57.68873451692707 0 0 0 0 -7.8812293113795793 -39.365168832940526 0 -39.365168832940526 10.208789104872267 0 0 0 0 14.460076366291105 -36.202300511752583 0 -36.202300511752583 -4.9182168313100192 0 0 0 0 7.5745252216033947 -44.585624898989408 0 -44.585624898989408 7.6164625079907182 0 0 0 0 35.458043550127769 -10.31641832133937 0 -10.31641832133937 33.526694136493461 0 0 0 0 -4.6481395673548604 -48.929252583529887 0 -48.929252583529887 20.237195228899964 0 0 0 0 -10.320619007551883 0.089007689429308812 0 0.089007689429308812 -26.228319435842423 0 0 0 0 -10.220024277915401 9.587003092884764 0 9.587003092884764 -29.70739589369623 0 0 0 0 -0.11706460042657341 3.5614347441305654 0 3.5614347441305654 -32.932217603208755 0 0 0 0 4.7649815653342102 -9.2443403154757107 0 -9.2443403154757107 -23.633873089610006 0 0 0 0 9.9111048246538758 9.0667644731511245 0 9.0667644731511245 -65.319467734620048 0 0 0 0 1.3595658966756901 -11.444712789306323 0 -11.444712789306323 -40.529059670822789 0 0 0 0 -1.6320187338911418 0.74615891144778779 0 0.74615891144778779 0.24507669644442309 0 0 0 0 -0.4597526631126243 1.2413568753436266 0 1.2413568753436266 -8.6581477188592544 0 0 0 0 6.1813642974543654 -16.721748933357048 0 -16.721748933357048 2.7551444420887492 0 0 0 0 3.2114178815445484 1.6402608203016484 0 1.6402608203016484 13.889590426828363 0 0 0 0 3.5488216175514822 -12.979823077776928 0 -12.979823077776928 -12.459094763677967 0 0 0 0 2.0790954846065119 -13.490254358118364 0 -13.490254358118364 -0.74481930751426262 0 0 0 0 -3.451503071455079 -5.3901519229621044 0 -5.3901519229621044 7.1308487056230661 0 0 0 0 155.06234606599332 -70.05307083796788 0 -70.05307083796788 34.345519482691998 0 0 0 0 -4.026222882500889 -16.180780161058465 0 -16.180780161058465 28.096150784233032 0 0 0 0 10.769249415716018 -14.351118223530648 0 -14.351118223530648 8.8691368323035249 0 0 0 0 -0.21968462513460851 0.57002895874088821 0 0.57002895874088821 0.43901287301989811 0 0 0 0 3.9259791338868126 -20.119305837190041 0 -20.119305837190041 45.753024032976555 0 0 0 0 5.0374549798624457 1.068649399562446 0 1.068649399562446 26.574517827990348 0 0 0 0 28.033654655442916 34.157866432424044 0 34.157866432424044 63.755549406176215 0 0 0 0 35.125233467321095 -15.050329843542386 0 -15.050329843542386 15.555970885267016 0 0 0 0 -2.2330052692061599 22.041801262171248 0 22.041801262171248 8.4380776496309409 0 0 0 0 18.245221081156387 -8.3504826253492865 0 -8.3504826253492865 -16.940732657558328 0 0 0 0 -11.263756406623543 1.5589273277701068 0 1.5589273277701068 -20.6080141664861 0 0 0 0 -9.6744703141230275 10.678881143753188 0 10.678881143753188 64.08386969923049 0 0 0 0 10.641603766799562 1.2613723770173237 0 1.2613723770173237 12.309992068378051 0 0 0 0 -18.736588643374489 22.235702563453287 0 22.235702563453287 29.285768169797393 0 0 0 0 -5.5661883593620587 0.092069962588311682 0 0.092069962588311682 6.0876719835714539 0 0 0 0 -22.690775750075773 6.6920073910278006 0 6.6920073910278006 -17.804845469059728 0 0 0 0 -2.2002995089880142 2.3827875383051342 0 2.3827875383051342 4.9362813086228989 0 0 0 0 -20.37653852481526 10.63112434112486 0 10.63112434112486 20.68251548907665 0 0 0 0 -32.046076299028755 33.083131556274566 0 33.083131556274566 1.5016029900666581 0 0 0 0 -9.5320937721097181 31.178341914486808 0 31.178341914486808 -6.0202669890923062 0 0 0 0 -16.587192638922716 15.580372867944789 0 15.580372867944789 -32.582991919543929 0 0 0 0 -3.0313329548581218 1.4159729116561701 0 1.4159729116561701 2.948360946190558 0 0 0 0 -4.4659722293611139 22.004194334745989 0 22.004194334745989 26.220913908423427 0 0 0 0 -10.92035939571311 -0.0029712181889980371 0 -0.0029712181889980371 1.4874431043893432 0 0 0 0 -34.659619134916028 158.07323194307537 0 158.07323194307537 -104.17623647772598 0 0 0 0 -421.51760939735505 -42.338706840236227 0 -42.338706840236227 -165.70408424113521 0 0 0 0 -320.11300723385489 354.61351183706756 0 354.61351183706756 -585.44063438289959 0 0 0 0 -401.71632667588415 355.62997284163339 0 355.62997284163339 -28.450244332721923 0 0 0 0 -162.02097756674485 123.37676373822433 0 123.37676373822433 -262.70611477951024 0 0 0 0 75.507238216754104 -170.93438911304474 0 -170.93438911304474 -141.80990996072069 0 0 0 0 -207.8012295824002 167.50642859888421 0 167.50642859888421 87.012499347567427 0 0 0 0 4.5735362229770544 99.501611137548707 0 99.501611137548707 -223.29447173271546 0 0 0 0 -106.51142338282352 75.324919091907304 0 75.324919091907304 45.713619015896256 0 0 0 0 -3.7822439239670809 1.9144617728679396 0 1.9144617728679396 -1.0957167347468015 0 0 0 0 -22.373734321208758 179.4304172528291 0 179.4304172528291 -417.65912339883198 0 0 0 0 -85.213308058042912 -3.7621411991158311 0 -3.7621411991158311 38.742181567975422 0 0 0 0 -255.16184311352299 276.02933926017658 0 276.02933926017658 -185.2802705388749 0 0 0 0 -60.419736296229985 85.685494596922581 0 85.685494596922581 -116.38278318942162 0 0 0 0 -11.366877083607132 0.83765327775376264 0 0.83765327775376264 1.6034738090582286 0 0 0 0 -217.26226417767975 105.67076563773662 0 105.67076563773662 58.098353648750617 0 0 0 0 -15.190602429086539 255.08115480268248 0 255.08115480268248 -410.87523445772285 0 0 0 0 -30.971643255745221 147.83548943403775 0 147.83548943403775 -207.53050742860387 0 0 0 0 -52.147481520768451 -28.957522486246035 0 -28.957522486246035 22.435620217490396 0 0 0 0 -4.3152993547920637 1.1082957110436347 0 1.1082957110436347 0.012941553284833596 0 0 0 0 -7.3438766424969799 15.570316479783287 0 15.570316479783287 -5.3839478019103808 0 0 0 0 0.34491509913925711 1.0059942802793644 0 1.0059942802793644 3.8306380552048616 0 0 0 0 -19.120353476575474 0.2777663864844726 0 0.2777663864844726 -11.395617319119992 0 0 0 0 -206.0305200442981 64.8845196483162 0 64.8845196483162 2.8821388715268483 0 0 0 0 -45.477541274492069 19.388058283834653 0 19.388058283834653 5.0160777972960204 0 0 0 0 6.2965532368089043 67.729589439953997 0 67.729589439953997 -268.47994691454824 0 0 0 0 -105.70704533156095 194.75705203912776 0 194.75705203912776 -133.48217174076854 0 0 0 0 -0.0090627821609814418 99.361966523569208 0 99.361966523569208 -137.28266277047578 0 0 0 0 -3.316873526735435 96.039570236635882 0 96.039570236635882 -74.71800173480824 0 0 0 0 -14.056555050270617 100.84248995870757 0 100.84248995870757 -58.146768556703137 0 0 0 0 2.349670217984567 108.82996835390531 0 108.82996835390531 -110.55812574467109 0 0 0 0 49.794892566716953 90.17380070938907 0 90.17380070938907 -117.87434739080618 0 0 0 0 6.4395978667362215 89.362876514110212 0 89.362876514110212 -47.144711337931767 0 0 0 0 -9.4808618777451557 45.935125993829843 0 45.935125993829843 -69.577956711616025 0 0 0 0 0.078413786897311155 3.4589577952723012 0 3.4589577952723012 -0.07177800986238414 0 0 0 0 38.63662631715124 43.069148078444414 0 43.069148078444414 24.865502667471219 0 0 0 0 23.57892377533426 17.010461909650076 0 17.010461909650076 -8.7797369946792969 0 0 0 0 47.202577311361438 13.185220358213485 0 13.185220358213485 -104.27001221521277 0 0 0 0 -16.010667082799046 -27.059477546145899 0 -27.059477546145899 -31.088436732229184 0 0 0 0 22.767523960908875 1.1088245846694917 0 1.1088245846694917 -11.740674440547991 0 0 0 0 -3.3444149737879343 -12.496453307266165 0 -12.496453307266165 17.856307925263536 0 0 0 0 22.740861952186663 1.8321379666925424 0 1.8321379666925424 8.2896879405525397 0 0 0 0 -266.26924777576869 184.65179868750556 0 184.65179868750556 -113.79187569820533 0 0 0 0 -119.62035594633289 -61.031374662454255 0 -61.031374662454255 -122.8763972277352 0 0 0 0 -25.673718758707878 12.542402968193755 0 12.542402968193755 -65.377971992607854 0 0 0 0 -6.4568439091535765 20.56894134338927 0 20.56894134338927 43.698644505501761 0 0 0 0 -109.72630473810523 28.053581160599151 0 28.053581160599151 93.056439167692588 0 0 0 0 -46.02704698879279 -39.097874501393562 0 -39.097874501393562 -9.3219846902256904 0 0 0 0 -15.177638384663624 17.206555536993619 0 17.206555536993619 -7.4897149224989334 0 0 0 0 61.148579205282658 69.324373606919835 0 69.324373606919835 59.948708448945126 0 0 0 0 -1.4242530744206574 1.4644848483577171 0 1.4644848483577171 1.5822057525512747 0 0 0 0 76.72686587212047 66.008561443009967 0 66.008561443009967 -110.19661495193844 0 0 0 0 -10.523591970556549 5.7049972854893181 0 5.7049972854893181 0.53795347017543449 0 0 0 0 -6.9019035797289234 17.735574236096454 0 17.735574236096454 17.324434408506932 0 0 0 0 -28.530381129769921 27.645531229573862 0 27.645531229573862 57.317107230783222 0 0 0 0 3.5510046933153028 7.5777176036495888 0 7.5777176036495888 -2.5090824053489129 0 0 0 0 11.788024103149837 12.107019659785237 0 12.107019659785237 3.6427593166754377 0 0 0 0 22.741716399940742 15.351584319622361 0 15.351584319622361 -1.8028260538749237 0 0 0 0 -2.4723916429047677 15.53574795202303 0 15.53574795202303 21.182092620299954 0 0 0 0 -5.7286698270648557 1.0412883824625077 0 1.0412883824625077 3.4475303504776988 0 0 0 0 -0.5413051249304317 17.36376598521565 0 17.36376598521565 3.4626337120894277 0 0 0 0 -4.7695018615381306 8.6951482561134323 0 8.6951482561134323 7.996809809177865 0 0 0 0 -8.6356206188099236 14.50121724009864 0 14.50121724009864 11.290734815531323 0 0 0 0 -3.5419759552660253 25.414659339578293 0 25.414659339578293 3.6788703121092112 0 0 0 0 3.5320327933070335 13.43894735533609 0 13.43894735533609 8.9563014234077514 0 0 0 0 23.752792021876303 3.5882757874187519 0 3.5882757874187519 10.274248046480352 0 0 0 0 -34.491301149020728 25.961334741904466 0 25.961334741904466 15.446584970053664 0 0 0 0 3.697479651362741 8.8020230157884036 0 8.8020230157884036 -0.82417204283653067 0 0 0 0 9.71706049176737 7.3332784865933718 0 7.3332784865933718 40.014676707374747 0 0 0 0 2.0132722968304968 9.5541694371416046 0 9.5541694371416046 -1.5881826798658212 0 0 0 0 -1.6617157139826304 13.062840286958817 0 13.062840286958817 -1.7749508818774302 0 0 0 0 -1.5094187968552433 16.418494398706116 0 16.418494398706116 0.50291545829804818 0 0 0 0 -0.050965756187906663 7.6556328079282139 0 7.6556328079282139 14.596593286116331 0 0 0 0 3.3077952618496056 24.295621614930496 0 24.295621614930496 12.143642352658503 0 0 0 0 -12.943191129807019 34.046886160775557 0 34.046886160775557 -8.3332119985573172 0 0 0 0 -17.838445638361918 33.833990076689815 0 33.833990076689815 5.4078777327240459 0 0 0 0 -11.332384296556484 17.191141966411578 0 17.191141966411578 6.5623270706246331 0 0 0 0 6.9170687945326108 12.870390590060422 0 12.870390590060422 0.42888624206673498 0 0 0 0 2.8539401740212895 14.95482324594381 0 14.95482324594381 2.5077267436048878 0 0 0 0 -27.461558588734988 23.381958015733289 0 23.381958015733289 16.138089973712795 0 0 0 0 -0.5446655455743894 20.698873366801308 0 20.698873366801308 1.6482787529222378 0 0 0 0 3.5386724771506124 18.369205073781359 0 18.369205073781359 0.74756237793280889 0 0 0 0 -28.877667524458957 14.732529690667661 0 14.732529690667661 5.403902227002618 0 0 0 0 -7.1617856906838178 11.043550678522543 0 11.043550678522543 1.1752046792833162 0 0 0 0 -13.130402268274629 8.7796484707603302 0 8.7796484707603302 1.017973958728094 0 0 0 0 -6.6577509291510069 12.630058435084948 0 12.630058435084948 -32.786567221323367 0 0 0 0 -2.3172358133854232 15.999207719290098 0 15.999207719290098 3.2027496260509452 0 0 0 0 5.7572069493857834 6.6565543554378275 0 6.6565543554378275 2.8136148377304266 0 0 0 0 1.425489400639238 7.1312853687000297 0 7.1312853687000297 7.0516433101788856 0 0 0 0 -0.75228527146737179 10.672654914988925 0 10.672654914988925 1.1523000905017398 0 0 0 0 -2.149616158495772 7.1423908558015725 0 7.1423908558015725 -0.55526857778287209 0 0 0 0 1.3598536595836777 16.50089782836676 0 16.50089782836676 0.6412070429587402 0 0 0 0 -39.233705468467633 19.217822493214726 0 19.217822493214726 5.3388359254490751 0 0 0 0 0.00242682150132012 1.6143589025508689 0 1.6143589025508689 0.53027301880462119 0 0 0 0 2.3871890096663613 8.2682285859535369 0 8.2682285859535369 1.2978234605440737 0 0 0 0 8.2403752056350186 13.601828403838795 0 13.601828403838795 0.6056227517528896 0 0 0 0 -1.6013783833814159 9.8715915177858733 0 9.8715915177858733 2.5866923618941655 0 0 0 0 -0.34808804996156884 7.8846489909419262 0 7.8846489909419262 2.4332370999454342 0 0 0 0 1.7699186765767081 13.883048594163029 0 13.883048594163029 0.37117559884609364 0 0 0 0 -2.6362840134679146 8.6983552224919549 0 8.6983552224919549 5.7397954611224122 0 0 0 0 1.372992405665316 9.8260401397570369 0 9.8260401397570369 3.5576648512333708 0 0 0 0 0.81876508978007223 14.622118014439366 0 14.622118014439366 -3.4708987108151632 0 0 0 0 3.1440415854150388 13.040713495701311 0 13.040713495701311 -3.1057534185265467 0 0 0 0 3.2724318741884417 18.942782628246277 0 18.942782628246277 1.0902047404815676 0 0 0 0 -2.8492125731950182 7.4893232021931908 0 7.4893232021931908 -8.2194086134429654 0 0 0 0 -1.3644527929893968 0.88394805071015981 0 0.88394805071015981 -22.138281261355587 0 0 0 0 6.4105830816083653 27.584529809415471 0 27.584529809415471 -34.12803087829252 0 0 0 0 5.5828447430460528 22.68815348663793 0 22.68815348663793 -11.800824614206931 0 0 0 0 -7.9529505875516406 14.337008014318599 0 14.337008014318599 1.8756194035481712 0 0 0 0 -6.7511799696714911 8.0399629689134393 0 8.0399629689134393 4.270325375561173 0 0 0 0 -12.825376853385762 -13.224495140844738 0 -13.224495140844738 10.71345026023522 0 0 0 0 -17.980146930598949 15.328790214222863 0 15.328790214222863 19.102691308502472 0 0 0 0 -9.2510427461071156 5.7902018421897061 0 5.7902018421897061 -0.38214135385520553 0 0 0 0 -10.905119871039346 14.964782531142191 0 14.964782531142191 13.143513677365263 0 0 0 0 -8.9822777977526478 4.6325141235703278 0 4.6325141235703278 0.54203071155606763 0 0 0 0 -18.008353475655895 8.243506157754382 0 8.243506157754382 31.986002143646203 0 0 0 0 -21.81188502933469 2.8039450800713439 0 2.8039450800713439 29.215869662523801 0 0 0 0 -257.8915015773191 173.45815528779156 0 173.45815528779156 -124.97192064305636 0 0 0 0 1.0276547202659576 1.8203568102936583 0 1.8203568102936583 -4.3637780661552839 0 0 0 0 15.971615589221699 -2.4249585382503938 0 -2.4249585382503938 -25.037425817165058 0 0 0 0 23.186676855673511 11.100907373144764 0 11.100907373144764 -91.541514280541378 0 0 0 0 -257.97094361572329 173.93671159947417 0 173.93671159947417 -111.67009956679976 0 0 0 0 -36.971494083360085 10.791144540032292 0 10.791144540032292 13.417283511758797 0 0 0 0 14.463566498409136 48.44209415550722 0 48.44209415550722 -204.77262064459865 0 0 0 0 -249.8247876467114 163.78655520208895 0 163.78655520208895 -156.71622457128979 0 0 0 0 -218.98626937149129 140.27307759248106 0 140.27307759248106 -136.55022730595374 0 0 0 0 -254.22169837145748 162.48137744068117 0 162.48137744068117 -101.93565033820778 0 0 0 0 -1.6189510498654061 1.0146899332419821 0 1.0146899332419821 0.96308204498391703 0 0 0 0 -26.097342985742671 -8.0575983453973095 0 -8.0575983453973095 8.7487406776417629 0 0 0 0 4.5531135904458324 0.13323040253089857 0 0.13323040253089857 -43.804215857164309 0 0 0 0 -40.914194788305394 22.897049805007555 0 22.897049805007555 -12.075468916165846 0 0 0 0 4.0374875909925549 29.308450724424802 0 29.308450724424802 0.97021470840991242 0 0 0 0 1.5705979356770285 23.424130250097733 0 23.424130250097733 6.3314270353648681 0 0 0 0 5.4326195865393174 41.263771774152701 0 41.263771774152701 -56.406547022105315 0 0 0 0 -88.856603504743077 56.740035361421178 0 56.740035361421178 68.557781998235441 0 0 0 0 -4.4502380165581599 -10.326609116866166 0 -10.326609116866166 45.663226031994327 0 0 0 0 21.881977634888869 34.141510164255578 0 34.141510164255578 11.731832280005619 0 0 0 0 -455.49044198390726 135.20502937460969 0 135.20502937460969 -74.840913732141416 0 0 0 0 -212.03338981137495 125.63547930753339 0 125.63547930753339 -168.5903299867623 0 0 0 0 -242.03226669622745 147.94896655196862 0 147.94896655196862 -134.89300302755146 0 0 0 0 -244.41116884409831 135.54549709991625 0 135.54549709991625 -192.08593192183253 0 0 0 0 -282.17243749161435 76.370031710765033 0 76.370031710765033 -185.82104747250514 0 0 0 0 -188.5858893945117 134.62941579285689 0 134.62941579285689 -161.83032924349209 0 0 0 0 -268.87612413409039 116.69381810811865 0 116.69381810811865 -129.84369235425402 0 0 0 0 -127.80747403170551 47.320322137315088 0 47.320322137315088 -98.781699273586128 0 0 0 0 -244.76150300062591 241.59300999160496 0 241.59300999160496 -158.08682373335978 0 0 0 0 -154.860098459894 381.67271863120004 0 381.67271863120004 -94.520310668673119 0 0 0 0 53.300757991019452 133.99869308969164 0 133.99869308969164 -122.61227946267536 0 0 0 0 -37.175627316155328 -8.7517939890021808 0 -8.7517939890021808 -12.659126420078792 0 0 0 0 93.916378961555381 10.341236810927057 0 10.341236810927057 3.2575160295018577 0 0 0 0 0.33732695364727 0.53525556650753892 0 0.53525556650753892 -1.2176002013358946 0 0 0 0 -462.8779071517601 401.5527142813844 0 401.5527142813844 -78.239619353487797 0 0 0 0 -121.19508895163381 401.64530432166066 0 401.64530432166066 -311.30445546334249 0 0 0 0 37.578256232025865 166.20075620836769 0 166.20075620836769 12.129380076847156 0 0 0 0 -33.645387861523432 28.149966574133487 0 28.149966574133487 50.396903317850956 0 0 0 0 -231.86575951541732 74.602989038262876 0 74.602989038262876 42.220901013566618 0 0 0 0 0.049799588858263633 -0.23668680720675184 0 -0.23668680720675184 17.563578563585907 0 0 0 0 -12.76654187273266 31.922336365591036 0 31.922336365591036 45.908310308261207 0 0 0 0 -20.994571040982009 15.724135136878431 0 15.724135136878431 21.416016138073246 0 0 0 0 2.4470187665142475 24.607806410015655 0 24.607806410015655 21.654070801372654 0 0 0 0 12.679325767235468 16.689883841128449 0 16.689883841128449 10.18837668256856 0 0 0 0 0.92681314602748444 14.889730443398548 0 14.889730443398548 10.536577596780262 0 0 0 0 5.2060999293540817 20.845751115987696 0 20.845751115987696 6.9954220120134778 0 0 0 0 -1.5413258051788148 15.587856237176993 0 15.587856237176993 3.2010586375108687 0 0 0 0 3.0326993010359331 17.964587985116736 0 17.964587985116736 2.1354884966749523 0 0 0 0 -3.184462353602612 20.688711573240653 0 20.688711573240653 2.3628588720991957 0 0 0 0 5.4159048466899549 30.156523316862149 0 30.156523316862149 -0.14367490661385318 0 0 0 0 1.6753702244662918 22.453592568375825 0 22.453592568375825 -0.54697807912089047 0 0 0 0 -3.1574863576719281 24.041800237736425 0 24.041800237736425 23.910942162674473 0 0 0 0 
</DataArray>
<DataArray type="Float64" Name="cross_section_updated" format="ascii">
1 1 1 1 1 1 0.0098962063674805697 1 1 1 0.0097852404285385698 1 1 1 0.009724574927257439 1 1 1 1 1 1 0.0099133177000318342 0.0092561626509120483 1 1 1 1 0.010013078867084722 0.01000473312926653 1 0.0095986681103577259 0.0093248768847897789 1 0.0099803049781020982 1 1 1 0.0084357288945512109 1 1 0.01019353957546236 1 1 1 1 1 1 1 0.0098889635164543625 1 1 1 1 1 1 1 1 0.0098584802459833615 1 1 0.010486722925728238 1 0.0098381705708831639 1 0.0099230426664440527 1 0.0088790197088189048 1 1 1 1 1 1 1 1 1 1 1 1 1 1 1 1 0.010265830944868095 1 1 1 1 1 1 1 1 0.0099980347580249825 1 1 0.0099951615921765984 0.0098446171452985752 1 1 1 1 1 1 1 1 1 1 1 1 0.0099572582131517602 1 1 1 1 1 0.010264194316608286 1 1 0.010154791715176021 1 1 1 1 1 1 1 1 1 1 1 1 1 1 1 1 1 1 1 0.010115968259729102 1 1 1 1 1 0.010028635003389321 1 1 1 1 1 1 1 1 1 1 1 1 1 1 1 1 1 1 1 1 1 1 1 1 0.010004723165123949 1 0.00837848223960703 1 1 1 0.0085647246146463036 1 1 1 0.0082713861318413056 1 1 1 0.010127963325424635 0.0072157320572340186 1 1 0.010972531881753522 1 1 1 1 0.010652070371859749 1 1 1 1 1 0.0099206657909879127 1 1 1 1 0.010003100832096323 1 0.010577177484212578 1 1 0.010332955168255834 1 1 1 0.01001744461763264 1 1 0.0088269067230335209 1 1 1 1 1 1 1 1 1 1 0.010328998426381689 1 1 0.010008376571508553 1 1 1 1 1 1 1 0.009844099080848219 1 1 1 1 1 1 1 1 1 1 1 1 1 1 1 1 1 1 1 1 1 0.012329441212382771 1 0.012163929144003889 1 1 1 1 1 0.0099983023826085357 1 1 1 1 1 1 1 1 0.010928299775985126 1 1 1 0.0092381700264944147 1 1 0.010261027868281853 1 1 1 1 0.0094273946031527243 1 1 0.010487832732322622 1 1 1 1 1 0.0099773012898798641 1 0.010037723366605543 1 1 1 1 1 1 1 1 1 1 1 1 1 1 1 1 1 1 0.009988520339485692 1 1 1 1 1 0.010968824179932347 0.010191837839806973 1 1 1 1 1 1 1 1 1 1 0.010455446881019518 1 1 1 1 1 1 1 1 1 0.0097899490857785623 1 1 0.0095692288269797303 0.0099998714555974422 1 1 1 0.010001980205250567 1 1 0.0087760617699827147 1 1 1 1 1 1 1 1 1 1 1 1 1 1 1 0.01151972903229158 1 1 1 1 1 1 1 1 0.010482732654341069 1 1 0.0099841893391495254 1 1 1 1 0.0072842039827158353 1 1 1 1 1 1 1 1 1 1 1 1 1 1 0.011055850180699652 0.00909108979563783 1 1 0.0090543557936099903 0.010688929028881218 1 0.010022358602247237 1 0.010235003768473774 1 0.0095653046181728516 1 1 0.0096971259165902803 1 1 1 1 1 1 1 1 1 0.009833951191111516 0.009289378530021937 1 1 0.0099472079593519655 1 1 1 1 1 0.010800762763620866 1 1 0.010910269891453075 1 1 1 1 0.011018459082159513 1 1 1 0.0099462153565360815 1 1 1 0.0099265613214551962 1 0.011000411904918602 1 1 0.0092996824490812618 1 1 1 1 1 1 1 1 1 1 1 0.0099156137001136374 1 1 1 1 1 1 0.0099641760664668788 1 1 1 0.010037711495757155 1 1 1 1 1 1 1 0.0084511958552354726 1 1 1 1 1 0.010183222531550056 1 0.0095939858013862865 1 1 1 1 1 0.010417893555820047 0.0090145060074558261 1 1 1 0.010002848883326223 0.0080402505171165515 1 0.0092724938356425757 1 1 1 1 1 1 1 0.0099717271811875959 1 1 1 1 1 1 1 1 1 1 1 1 1 1 0.010009280639898395 1 1 0.010093955565766935 1 0.0099810078210859909 1 1 1 1 1 1 1 1 1 1 1 1 1 1 0.010044776329795854 1 1 1 1 1 1 1 1 1 1 1 1 1 1 1 1 0.010019086862813574 1 1 1 1 1 1 1 1 1 1 1 0.0098834365774471775 0.0096618416372288071 1 1 1 1 1 1 1 1 1 1 1 1 1 1 1 1 0.010764137912278163 1 1 1 1 1 1 1 0.010926020672632996 1 1 1 1 1 1 1 1 0.010359571667883826 1 1 1 0.0099803304655727097 1 1 1 1 1 1 1 1 1 1 1 1 1 1 1 1 1 1 1 1 1 1 1 1 1 1 1 1 0.0099656193271114024 1 0.0099403959113212072 1 1 1 1 1 1 1 1 1 1 1 1 1 0.00997252926341133 1 1 1 0.0099999809483802601 1 1 1 1 1 1 1 1 1 1 1 1 1 0.010012835451180192 0.0098671467679411311 1 1 1 1 1 1 1 0.0099692534346406212 1 1 1 1 1 1 1 1 1 1 1 0.0099461799404313208 1 1 1 1 1 1 1 0.00999218523561873 1 1 1 1 1 1 1 1 1 1 1 1 1 1 1 1 1 0.010057688540098357 1 1 1 1 1 1 1 1 1 1 0.010080884391469595 1 1 1 1 1 0.01014700892690314 1 1 1 0.010096764488041724 1 1 1 1 0.0092505293977252455 1 1 1 1 1 1 1 0.010166771223455242 1 0.0099393241122885355 1 1 0.010316585593384458 1 0.010331126491250902 1 1 1 1 1 1 1 1 1 1 1 1 1 1 1 1 1 1 1 1 1 1 1 1 1 1 1 1 1 1 1 1 1 1 1 0.0099983150934201577 1 0.011099189080773269 0.0099999290593937567 1 1 1 1 1 1 1 1 1 1 1 0.0085271632071519301 1 1 1 1 1 1 1 0.0081482058128070148 1 0.010099939916911452 1 0.0079381174267491705 1 1 1 1 1 1 0.0098500652949737848 1 0.010030639952608177 0.0095495753596883635 1 1 1 1 1 1 1 1 1 1 1 1 1 1 1 1 1 0.010095021407673124 1 1 1 1 1 1 1 1 1 1 1 1 1 1 0.010023192606323471 1 1 1 1 1 1 1 1 1 1 1 1 1 0.0097702897470888575 1 1 1 1 1 1 1 1 1 0.010298667122322015 1 1 1 1 1 0.009299449635751994 0.0099798179172438939 1 1 1 1 0.0095538706968287968 0.0095080229374163803 1 1 1 1 1 1 1 1 1 1 1 0.011832407196560797 1 1 1 1 0.0114953288398058 1 1 1 1 1 1 0.0087552057869284983 1 1 0.01114032973110432 1 0.0091275903975713626 1 1 1 0.010755923658755918 1 1 1 1 1 1 1 0.0099964921485068466 1 1 1 1 0.0092865676277293363 0.010182705768259557 1 1 0.010012524476912445 1 1 1 0.0097928355102812649 0.0083404201609606037 0.011381114721026894 0.0099999334744287852 1 1 0.010447570330086208 1 1 1 1 1 1 1 1 0.0092085124625231867 0.0093287497533508113 1 1 1 1 1 1 0.0094509957709416146 1 0.009193052310223767 1 1 1 0.010051904927291957 1 1 1 1 1 1 1 1 1 1 1 1 1 1 1 1 1 1 1 1 1 1 1 1 1 1 1 1 0.010109593467390312 1 1 1 1 1 1 1 1 1 1 1 1 1 1 1 1 1 1 1 1 1 0.010553858368131174 1 1 1 1 1 1 1 1 1 0.010084465963499125 1 1 1 1 1 1 0.010001569931002124 1 1 1 1 1 0.010459247807382509 1 1 1 1 1 0.009857675239893211 1 1 1 1 1 1 1 1 1 1 0.0097751898670543555 1 1 1 1 0.010083615529716764 0.0093190682777930557 1 1 0.0099741376029273219 1 1 1 1 0.010043893212410252 1 1 0.0098243292937584929 1 1 1 1 1 0.01059144821672223 0.0099785356126985275 1 1 1 1 1 1 0.0099501580691239988 1 1 1 1 1 1 1 0.0090440061109792729 0.0098930813835632053 1 1 1 0.009505938529917362 1 1 1 0.0091822997004270199 1 1 0.0092942246590994836 1 0.0088947130366323329 1 1 1 0.010223621237852734 1 1 0.0095290906676446518 0.010003388087841722 1 1 1 1 1 1 0.0088941100870079341 1 0.011486132289930831 1 0.0099440285003295232 1 1 1 0.0099645297452391288 0.010005478887160428 1 0.010197943639736992 1 1 1 1 1 1 1 1 1 1 1 1 1 1 1 1 0.010036468886098328 1 1 1 1 1 1 1 0.010489718393173227 1 1 1 1 1 0.0099893538358999511 1 1 1 0.010721490430180164 1 1 1 1 0.011180538726095278 1 0.0099957662288294689 1 0.011210157605123052 1 1 1 1 0.0090420348294893808 1 1 0.010240037052325981 1 1 1 1 1 1 1 1 1 1 1 0.01009908545126104 1 1 1 1 0.010151609300863937 1 1 1 1 0.010361148500550194 1 1 1 1 1 1 0.010094857834802923 1 1 1 0.010385965946644315 1 0.010000648841545012 0.0099399721412495087 1 1 1 1 1 1 1 1 1 1 1 1 1 1 1 1 1 1 1 1 1 1 1 1 1 1 1 1 0.010062581168909152 1 1 0.010021819358779431 0.010365948963109096 1 0.010644821597870693 1 1 1 1 0.010267083698358243 1 1 0.010091473539901615 1 1 1 1 1 1 1 1 1 1 1 1 1 1 1 1 1 1 1 1 1 1 1 1 1 1 1 1 0.0099365414150680773 1 1 1 1 1 1 1 1 0.010103766857468409 1 1 1 1 1 1 1 0.010301090428987043 1 0.0099838599533902742 1 1 1 0.0099604583725160165 1 1 1 1 1 1 1 0.0099728699171020719 1 0.0099682397356363923 1 1 1 1 1 0.0099604158196145137 1 1 1 1 1 1 1 1 1 1 1 1 1 1 1 1 1 1 1 1 1 1 1 1 1 1 1 1 1 1 1 1 1 1 1 1 1 1 1 0.010118682372549564 0.010533562838518438 1 1 0.010403644160618904 1 1 1 0.0097526649988653215 1 1 1 0.0099755835990908807 0.010000553680845259 1 1 0.010072987558816075 1 1 1 1 1 1 1 1 1 1 1 1 1 1 1 1 1 1 1 1 1 0.0095425529372191974 1 0.0098441081876421265 1 1 1 1 1 1 1 1 1 1 1 1 1 1 1 1 1 1 1 1 1 1 1 1 1 1 1 1 1 1 1 1 1 1 1 1 1 1 1 1 1 1 1 1 1 0.0098794872730407091 1 0.0088891450112003039 1 0.0096584050866588139 1 1 0.0091188996794195187 1 1 1 1 1 1 1 1 1 1 1 1 1 1 1 1 1 1 1 1 1 1 1 1 1 1 1 0.010101240471879207 1 1 1 1 1 1 1 1 1 1 1 1 1 1 1 1 1 1 1 1 1 1 1 1 1 1 1 1 1 1 1 1 1 1 1 1 1 1 1 1 1 1 1 1 1 1 1 1 1 0.0099689076937209322 1 1 1 1 0.0099151001757154574 1 1 1 1 1 1 1 1 0.010323163419047541 1 1 1 1 1 0.0096257266551048049 0.010040786094424561 0.0098117965789286526 1 1 1 1 0.0093749478093381276 0.010065920315498555 1 1 0.010076095854803426 1 1 1 1 1 1 1 1 1 1 1 1 1 1 0.010412080065987898 0.0099947174822372503 1 0.010017261391633824 1 1 1 1 1 1 1 1 1 1 1 1 1 1 1 1 1 1 0.010167604718648105 1 1 1 1 1 1 0.010504310256952724 1 1 1 1 1 1 1 1 1 1 1 1 1 1 1 1 1 1 0.0098577243250692788 1 1 1 1 1 1 1 1 1 0.0095835078554070054 1 1 0.010009033699563992 1 1 1 1 1 1 1 1 1 1 1 1 1 1 1 1 0.009473654756309945 1 0.010443284333752098 1 1 1 1 0.010384931833820483 1 0.010612002886451127 1 1 0.0099087090349501486 0.0091364845311470173 1 1 0.0092007950575874083 1 1 1 0.0099733004756357938 1 1 1 1 1 1 0.0099976506018703646 1 1 1 0.0085531406345349774 1 1 1 1 0.010847682016915704 1 1 1 1 1 1 1 0.0098137294396946455 1 1 1 1 1 0.0094707767834282808 1 1 0.0099477557566485571 1 1 1 1 1 1 1 0.01003787404371082 1 1 1 0.010190061256462492 0.0099054413364539472 1 1 1 0.011278368748798982 1 1 1 1 1 0.010002036447138374 0.010503168809041213 0.010609066573053301 1 1 1 1 1 1 1 1 1 0.010319981401778819 0.010102605045757574 1 0.0096497832789727237 1 1 1 1 1 0.010039077266719439 1 1 0.0101524343631774 1 0.010085946211734783 1 1 1 0.00971746158306332 1 1 0.0096823864712946885 1 1 1 1 1 1 1 0.010329030651776417 1 1 0.010725352114331243 0.010265190482690463 1 1 0.010057479692604711 1 0.010138148544264307 1 1 0.0099863184673099886 1 1 0.010305692826636247 1 0.0099602919843122008 1 1 1 0.0099824745634574576 1 1 0.0097988812669433222 1 0.0093365917470600041 1 1 0.0099454503951171801 1 0.0099246999822671638 1 1 1 1 0.0091526381138436752 0.009670377261830428 1 1 1 1 1 1 1 1 1 0.0099498312559751188 1 1 1 1 1 1 1 1 1 1 1 1 1 1 1 1 1 1 0.0099993689866708941 0.0087261691592119203 1 1 1 0.011030011206305429 1 1 1 1 0.011108931302018175 1 1 0.00929189446905445 1 1 1 0.0095066436406039956 1 1 0.00957830663541334 1 1 1 1 0.010001854476362359 1 1 1 1 1 0.01004034387560025 1 1 1 0.010049457839579832 0.010000491673060179 1 1 0.0099921946560244182 1 1 1 1 1 0.010602879395006353 0.010368339494656483 1 1 1 1 0.010472437416174351 1 1 1 1 0.01075937044501238 1 1 1 1 1 1 1 1 1 1 1 1 1 1 1 1 1 1 1 1 1 1 1 1 1 1 1 1 0.010886805226312272 1 1 1 1 1 1 1 1 1 1 1 0.0085222373065077638 1 1 1 1 0.0098167037328484186 1 1 1 0.0086903827089493853 1 1 0.010000788409135751 1 1 1 1 1 0.010104045266128923 1 1 1 1 1 1 1 1 1 1 1 1 1 1 1 1 1 1 1 1 0.0094459737692111009 1 1 1 1 1 0.009087127317430008 1 1 1 1 1 1 1 0.0099556772971603116 1 1 1 1 1 1 1 1 1 1 1 1 1 0.0099980810871047564 1 1 1 1 1 0.0098837179245413777 0.0099462187397445067 1 1 1 1 0.0095244481017967321 1 0.010001140246421108 1 1 1 0.010202349589679261 0.011135987013616669 1 1 0.012572201391661146 1 1 1 0.012163579530848179 1 1 1 1 0.010979891059196539 1 1 0.010102040725495238 0.010034489380148195 1 1 1 1 1 1 0.0094084656745464183 1 1 0.010003661562898973 1 1 1 1 0.0098913816290558884 1 1 1 1 1 1 1 1 1 1 1 1 1 1 1 1 1 1 1 0.011021464861204807 1 0.0099510319076845585 1 1 1 0.010027403982254391 1 0.010201273862990553 1 0.010444035215906878 1 1 0.010847608618164559 1 1 0.010968785277164172 0.010630118139800656 0.0096639288487247975 1 1 1 0.010687469947209056 1 1 1 1 1 1 0.0097888164061350584 1 1 1 1 1 1 1 0.0098623931028751777 1 0.010051374304495582 1 1 1 1 1 1 1 0.0099907946033771042 1 1 1 1 1 1 1 1 1 1 1 0.009932829383035309 1 1 0.009926338777664457 1 1 1 1 1 1 1 1 1 1 1 1 1 1 1 1 0.010155031405898471 1 1 1 1 1 1 1 1 1 1 1 1 1 1 1 1 1 1 1 1 1 0.0098642984561678644 1 1 1 0.0099222636765096579 1 1 1 1 1 1 1 1 1 1 0.0099277439264865187 1 1 1 1 1 1 1 1 1 1 0.0097904265890604945 1 1 1 1 1 1 0.010348783679341542 1 1 1 0.010992652606432929 1 1 1 1 1 1 1 1 1 1 1 1 1 1 1 1 1 1 1 1 1 0.010017460614644546 1 1 1 1 1 0.011946063638507077 1 1 0.010145835943703944 1 1 1 1 1 1 0.010295594275886869 1 1 1 1 0.010174758700096846 1 1 1 1 1 1 1 1 1 1 1 1 1 1 1 1 1 1 0.010141320474569424 1 1 1 1 1 0.011410847737413379 1 1 1 0.012002776267872273 1 0.011096737110594185 1 1 1 1 1 1 1 0.01181544298515058 1 1 1 0.011743570147643739 0.012105821884970802 1 1 1 1 1 0.0099240496923178115 1 1 1 0.0098001934572508123 1 1 1 1 1 1 1 1 1 1 1 1 1 1 1 0.010289205324796651 1 1 1 1 1 1 0.010100471116920324 1 1 1 1 1 1 1 1 1 1 1 0.010022118949229773 1 1 1 1 1 1 1 1 1 0.0088312315805587835 1 1 1 1 0.011110856330886969 0.0086958535846644418 1 1 1 1 1 1 1 1 0.013900269350293613 0.0087756833480173713 1 0.014145873007085755 1 1 1 1 1 0.0098657706810669696 1 1 1 1 1 1 0.010749831343849162 1 0.0099801014676951499 1 1 1 1 1 1 1 1 1 1 0.010190252564058349 1 1 1 1 1 1 0.0099755365356364138 1 1 1 1 1 1 1 1 0.010166785695064563 1 1 1 1 1 0.0088730984391934102 1 1 0.009274054693136323 1 1 1 1 1 1 0.010211206237131353 1 1 1 1 1 1 1 1 0.010519517288738735 1 1 1 1 0.010673583814650398 1 1 1 1 1 1 1 1 1 1 0.010513003878787928 1 1 1 1 1 1 1 1 1 0.010774432773152069 1 1 1 1 0.010891902844662033 1 1 1 1 1 1 1 1 0.010033354886969246 1 0.010432025200801141 1 1 1 0.0099545360388981589 1 1 1 1 1 1 1 1 0.0095770791863550621 1 1 1 0.0095955871039534787 1 1 1 0.0099149577045316885 1 1 0.010002411584944783 1 1 1 1 1 1 1 1 1 1 1 1 1 1 1 1 1 1 1 1 1 1 1 1 1 1 1 1 1 1 1 1 1 1 1 1 1 1 1 1 1 1 1 1 1 1 1 1 1 1 1 1 1 0.010016127730267652 1 1 1 0.01017409109657849 1 1 1 1 1 1 0.0099928952236638773 1 0.0099696157259858108 1 1 1 1 0.010193305988747403 0.010033146916789642 1 1 1 1 1 1 1 1 1 1 1 1 1 1 1 1 1 1 1 1 1 1 0.010855116850924209 1 1 0.010721886213443117 1 1 1 0.01001160609687976 1 1 1 1 1 1 1 1 1 1 1 1 1 1 0.010147287194899711 1 0.010085238262069448 1 0.0095782913124510573 1 1 1 1 1 1 1 1 1 1 1 1 1 1 1 1 1 0.010086870846655754 1 1 1 1 1 1 1 1 1 1 1 1 1 1 1 1 1 1 1 1 1 1 1 1 1 1 1 1 1 1 1 1 1 0.010029142347434659 1 1 1 1 1 1 0.0096751322828405126 1 1 0.010517788017116583 1 0.0099870555654734926 1 1 0.0099048996245770706 1 1 1 0.010326481659130755 1 1 1 1 1 1 1 1 1 1 1 1 1 1 1 1 1 1 1 1 1 1 1 1 1 0.0099610279832581753 1 1 1 1 0.0099315201306986282 1 1 0.0099703697536212485 1 1 1 1 1 1 1 1 1 1 1 1 1 1 1 1 1 1 1 1 1 1 1 1 1 1 1 1 1 1 0.010077511429488298 1 1 1 0.010045981969589463 1 1 1 1 0.01018493554671499 1 1 1 1 1 0.01023589053441838 1 1 1 1 0.009089876251974752 1 1 1 1 1 1 1 1 1 1 1 1 1 1 0.010079046075200979 0.010221612728047258 1 0.0081528079333651991 1 0.0086335356086167971 1 1 1 1 1 1 1 1 1 1 1 1 1 1 1 1 1 1 1 1 1 1 1 1 1 0.0099063591653892891 0.009527828760973479 1 1 0.010925391114289534 1 1 0.0093545134465669033 1 1 1 1 1 1 1 1 1 1 1 0.0096173691363968389 1 1 0.0098761227139846537 1 1 1 1 1 1 1 1 1 1 1 1 1 1 0.010961856394804466 0.0099938369103140003 1 0.009723475135065815 0.010060464187923484 1 1 1 1 0.010005179448190633 1 1 1 0.01103003721898869 0.0092037630178560311 1 1 1 1 1 1 1 0.010020728349797487 1 1 1 1 1 1 1 1 1 1 1 1 1 1 1 1 0.010581716560603737 1 1 1 1 0.010835020770240055 1 1 1 1 1 1 1 0.0094847960060729809 1 1 1 1 1 1 1 0.0097157191287564337 1 1 0.0099048195023692075 1 1 1 1 1 1 1 1 1 1 1 1 1 1 1 0.0099501821557037677 1 1 1 1 1 1 1 1 0.0099789631238912189 1 1 1 1 1 1 1 0.010005262916251187 1 1 1 1 1 0.010002113494202144 1 1 1 1 0.010078854847789089 1 1 1 1 1 1 1 1 1 1 1 1 0.010219397530482881 1 1 1 1 1 1 1 1 1 1 1 1 1 1 0.0098138739182572418 1 1 1 1 1 1 1 1 1 1 1 1 1 0.010064343402605157 0.010000030660849165 1 1 0.0094916188034307892 1 1 1 1 0.0094811410260043309 1 1 1 0.0093438537839785618 1 1 0.010092901054765124 1 1 1 1 0.009136886720057193 1 1 1 1 1 1 1 1 1 1 1 1 1 1 1 1 1 1 1 1 1 1 1 1 1 1 1 1 1 1 1 1 1 1 0.010008669270374037 1 1 1 0.01012688193191757 1 0.010048027084128486 1 1 1 1 1 1 1 1 1 1 1 1 1 1 0.0099016846408710099 1 1 1 1 1 1 1 1 0.010495460099919618 1 1 1 0.0099515024851672441 1 1 1 1 1 1 1 0.010320404004134578 1 0.010413353937428279 1 1 1 1 1 1 1 1 1 1 1 1 1 1 0.0098855760517119265 1 1 0.0099480674317925216 1 1 1 1 1 1 1 0.010421806028697441 1 1 1 1 1 1 1 1 1 1 1 1 1 1 1 1 1 1 1 1 1 1 1 1 1 1 1 0.010076622246696408 1 1 0.010459058271935299 1 1 1 0.010315792647125989 1 1 0.010242159460009974 1 1 1 1 1 1 1 1 1 1 1 1 1 1 1 1 1 1 1 0.0099298538811319528 1 1 1 1 1 1 1 1 1 1 1 1 1 0.0099923452612125443 1 1 1 1 1 1 1 1 1 1 1 1 1 1 1 1 1 1 1 0.010015609892445673 1 1 1 1 1 1 1 1 1 1 1 1 1 1 1 1 0.0099317826417952768 1 1 0.010030354089396679 1 1 1 0.0094876066985250113 1 1 0.010087154663136868 1 1 1 1 1 1 1 1 1 1 1 1 1 1 0.010065635223065361 1 1 0.010135644181397176 1 1 1 1 1 1 1 1 1 1 1 1 1 1 1 1 1 1 1 1 1 1 1 1 1 1 1 1 1 1 1 1 1 1 1 1 0.0080982428115551688 1 1 1 1 0.0083263221665045451 1 1 1 1 1 1 1 1 1 1 1 1 1 1 1 0.0092372302308586715 1 0.0087644306055882516 0.0092719806043863144 1 1 0.0090849185274554101 1 0.0091858968397099585 1 1 1 1 1 1 1 1 0.012345809898567093 1 1 0.010094794432256235 1 1 1 1 0.01171254489528731 0.0092548854867983785 1 0.0090519549727129684 1 1 1 1 1 1 1 1 1 1 1 1 1 1 1 1 1 1 1 1 1 0.0099758137018421799 1 1 1 1 1 1 1 1 1 1 1 1 1 1 1 1 1 1 1 1 1 1 1 1 1 0.010520437513031271 1 1 1 1 1 0.010418877632430747 1 1 1 1 1 1 1 1 1 0.010719634455741627 1 1 1 1 1 1 1 1 1 1 1 1 1 1 1 1 1 0.011778067627877392 0.010263474033455554 1 1 0.011200218671190589 1 1 1 0.010228138573786634 1 1 1 1 1 1 1 1 1 1 0.010421094324793729 1 1 0.010016680304418997 1 0.0096208176050554765 1 1 1 1 0.0098966051544211123 1 1 1 0.010244774620600059 1 1 1 1 1 1 0.010024808824335093 1 1 1 1 1 1 0.010024617772714732 1 1 1 1 1 1 1 1 1 1 1 1 1 1 0.010091221324971379 1 1 0.010185292114979136 1 1 1 0.0099589597965992864 0.009980901981392995 1 1 1 1 1 1 1 1 1 1 0.010365327715253204 1 1 1 0.010465371862998956 1 1 1 1 0.010086138680658904 1 1 1 1 1 1 1 1 0.0090960778440974926 1 1 1 1 1 0.0095593173731953057 0.010169633158516468 1 1 1 0.0086576087699879786 1 0.010022056857929774 0.010009817381848973 1 1 1 1 1 0.010253095485403447 1 1 1 1 1 1 0.0099695639141234235 1 1 1 1 1 1 1 0.010163059298346763 1 1 0.010109377052969826 1 1 0.0099915060989171339 1 1 1 1 1 1 1 1 1 1 1 1 1 1 0.010063671096667177 1 1 1 0.0099998817317980566 1 1 0.010297172595416982 1 1 1 1 0.0099992031216490883 1 1 1 1 1 1 1 1 0.01022978078781236 1 1 1 1 0.0090424779688102874 1 1 1 1 1 1 1 1 0.0088997837256410365 1 1 1 1 1 1 1 1 1 0.01014127971049964 1 1 1 0.010370262422253751 1 1 0.010344672171714531 1 1 0.010483446642409215 1 1 1 1 1 1 1 1 1 0.010167259523096725 1 1 1 1 1 1 1 1 1 1 1 1 1 1 1 1 0.010034442097049474 1 1 1 1 1 1 1 1 1 1 1 1 1 1 1 1 1 1 1 1 1 1 1 1 1 1 0.012661001295378969 1 0.012397932726490663 1 1 1 1 1 1 1 1 1 1 0.013043256768458038 1 1 0.010089530478861344 1 1 1 1 1 1 1 1 1 1 1 1 1 1 1 1 1 1 1 1 1 0.010045385460269342 1 1 1 1 1 1 1 1 1 0.0084734739182536628 1 0.010048133992575694 1 1 1 1 1 1 1 0.010372182452946034 1 0.010241511143923481 1 1 1 1 1 1 1 1 1 1 1 0.010554294444683423 1 1 1 1 0.010002093520918624 1 0.009748069487642291 1 1 1 1 1 1 0.01040241363720529 1 1 0.0080663288384438744 1 1 0.0077058953932673362 1 1 1 0.010496650006551027 0.012340435183202958 0.011920972690024905 1 1 1 1 1 1 1 1 1 1 1 1 1 0.0099070088446373515 1 1 1 1 1 1 1 0.0093956595337075302 1 0.0097571015483548535 1 0.010431968236190661 1 1 0.010441052766934677 0.010003128474585413 1 1 1 1 1 1 0.010196440358384722 1 1 1 1 0.010023000987222851 1 0.0099287701819898364 1 0.010067221428112562 1 0.0097345207493473515 1 1 1 1 0.0090901602799109311 1 1 1 1 1 0.0096733054082580178 1 1 1 1 1 1 1 1 1 1 1 1 1 1 0.0099670337772743266 1 1 1 1 1 0.0099621057717709151 1 1 1 0.0098804827073326468 1 1 1 1 1 1 1 1 1 1 1 1 1 1 1 1 1 0.011059173117927069 1 1 1 1 0.010647204072419182 1 1 1 1 1 1 0.010006676303382398 1 1 1 1 1 1 1 1 1 1 0.0097833069029181971 1 1 0.010124545716834622 1 0.0099929716676027004 1 1 1 1 1 1 1 1 1 1 1 0.01018454473345233 1 1 1 1 1 1 0.0099829010981673204 1 0.010453149717713016 0.0099300314963124067 1 0.010129310162137745 1 1 1 1 1 1 1 0.010161702376219349 1 1 1 1 1 1 1 1 1 1 1 1 1 1 1 1 0.010047871659299957 1 1 1 1 1 1 1 1 1 1 0.010039032142643445 1 1 1 1 1 1 1 1 1 1 0.010116686911524581 1 1 1 1 0.01007769687935087 1 1 1 1 1 0.010698639011311364 1 1 1 1 0.010235526613555975 1 1 1 1 1 1 1 1 1 1 1 1 1 1 1 1 1 1 0.011158786104447269 1 1 1 1 1 1 1 1 0.010384779343262557 1 0.010340803370884874 0.0099993753727354705 1 1 1 1 1 0.0099051907544696945 1 1 1 1 1 1 1 1 1 1 1 1 1 1 0.010004224433230917 1 1 0.0099366895847854339 1 0.010126275949300937 0.010275930422232021 1 1 1 1 1 1 0.0098750581032802237 1 1 1 1 0.0099866615587434655 1 0.0099918358658335222 1 1 0.010469503647371129 1 1 1 1 1 1 0.010007716088045146 0.0096587389377086018 1 1 1 1 1 1 1 1 1 1 1 1 1 1 1 0.0099287107260895603 1 1 1 1 1 1 1 0.010038958049293873 1 0.010307976624744395 1 1 1 0.010123117566387087 1 0.010375867591237407 1 1 1 1 1 1 1 1 0.0099769144529357826 1 1 1 1 1 0.010322066131354344 1 0.0089756065893447472 1 1 1 1 0.0093171578143647592 1 1 1 1 1 0.0097508795530013397 1 1 1 1 1 1 1 1 1 1 1 1 1 1 1 1 1 1 1 1 1 1 1 1 0.012237962955397674 1 1 1 0.0092539851773617982 1 0.012132228541438854 1 1 1 0.0098849082779940544 1 1 1 1 1 1 1 1 1 1 1 1 1 1 1 1 1 0.01013699627262171 0.0099570774654144708 0.010226438903474593 0.0098855184360878319 1 1 1 1 1 1 0.0099786309368893704 1 1 1 0.009921054087817632 1 1 1 1 1 1 1 1 1 1 0.010594333741491088 0.0097023451609750313 0.0099855182789753208 1 1 0.011063754997888243 0.010014594255930457 1 1 1 1 1 1 1 1 1 0.0096411263644620368 1 1 1 1 1 1 1 1 0.0091874795462649726 0.010183450562950959 1 1 1 0.0099878406677664025 1 1 1 1 1 1 1 1 1 1 1 0.0094210453802945938 1 0.0099526406477519758 1 1 1 1 1 0.010004657030457343 0.011006005007455194 1 1 0.010741687605074329 0.0094998515091596417 1 1 1 1 1 1 1 1 1 1 1 1 1 1 1 1 1 1 1 1 1 1 1 1 1 1 1 1 1 1 1 1 1 1 1 1 1 1 1 1 1 1 0.0091295925499864615 0.0098937737731193409 1 1 1 1 1 1 1 1 1 1 1 1 1 1 1 1 1 1 1 1 0.0098194926722515799 1 1 1 1 1 1 1 1 1 1 1 1 1 1 1 1 0.010019345241212752 1 0.0098838357251288048 1 1 1 1 1 1 1 1 0.0094336761835149829 1 1 1 1 1 1 1 1 1 1 1 0.010001273896138937 1 1 0.010098897100675991 1 1 0.0094329440401346339 1 1 1 1 0.010399218965457492 1 1 1 1 0.0099971328010767246 1 1 0.010074969727948212 1 0.0096829347908508664 1 1 1 1 1 0.0096381386334804219 1 1 1 1 1 1 1 0.0098779308453611978 1 1 1 1 1 1 1 1 1 1 1 1 1 1 1 1 1 1 1 1 1 1 1 1 0.010483245707193447 1 1 1 0.01003831366467685 1 1 0.010715431799470499 1 1 1 0.010558437474630433 1 1 1 1 0.010678644764252721 1 0.010909306724689266 1 1 1 1 1 1 1 1 0.010068304204514888 1 1 1 1 1 1 1 1 1 1 0.0085885761764396742 1 1 0.0099952931549084009 1 1 0.0093306744328132459 1 1 0.0090158379107220365 0.01066149952084878 1 1 1 1 1 1 1 0.010855132579152105 0.010856792775523058 1 1 1 0.0098353903095108001 1 1 0.0099013582327889278 0.0099844561367936416 1 1 1 0.010310171152215664 0.010319549618990356 1 0.0097748072051994407 1 1 0.0099998679213090299 1 1 1 1 0.010296219991945865 1 0.0097364032278331562 0.0095050419527586902 1 1 1 0.0098559808331782957 1 0.010099754822075233 0.0098028101681294343 1 0.010512600652300828 0.01003872693061861 0.010361011651048234 0.010325017275307529 1 0.010201361467903396 1 0.0098617562759215384 1 0.010132794806664205 1 1 1 0.010263143282900579 1 1 0.0097812958046258336 1 0.010114290880603843 0.0098985856541547578 1 1 1 1 0.0098447034292905682 1 0.010594117023138621 0.0098259139660499852 1 1 1 0.010375632440521787 0.0099055573155104465 1 1 0.010053925218143177 0.0099129959619595753 1 1 1 1 0.010004792861369051 1 1 1 1 0.010009967853226512 1 1 1 1 0.010023515968403219 1 0.0099923137368934309 1 0.010254397647987331 1 0.010211335067262838 1 0.010011570590669303 1 0.010000218763778429 1 1 1 1 1 0.010035529375747683 1 1 0.010256614479401925 0.0099870891859660423 0.0099196061647770176 1 1 0.0099836420776006716 0.01016665096241506 1 0.01007280578610871 1 1 0.0099196705572122679 1 1 1 1 1 1 0.010028300624499916 1 1 0.010129090617902724 1 0.01000933305226037 1 1 1 1 0.010028543790153714 1 0.0099923025111652158 1 0.0099965365127291962 1 1 1 0.010147029720051413 1 1 0.0099970304994074291 1 0.010359574995370177 1 0.0099525220607334201 1 1 1 1 1 0.010214701778161714 1 1 1 1 1 1 1 1 1 1 0.010394138998674833 1 1 1 1 0.010069369398932717 1 1 0.0099948431857133993 1 1 1 1 1 0.010089053866837604 1 1 0.01011341966531531 1 1 1 0.010143290793768033 1 0.0099600748295656707 1 1 1 0.010184210378750096 1 1 1 1 0.0090562366128079334 1 1 1 1 0.0094101055096882345 0.010047296344275227 1 1 1 1 1 1 0.010179635638039006 1 1 0.010474787409136557 1 1 1 1 1 1 1 1 1 1 1 1 1 1 1 1 1 1 1 1 1 1 1 1 1 1 1 1 1 1 1 1 1 1 1 1 1 1 1 1 1 1 1 1 1 1 1 1 1 1 1 1 1 1 1 1 1 1 0.0085782291322270832 1 1 1 1 1 1 1 1 1 1 1 1 0.0099124394661992028 1 1 0.0088505919659597893 1 1 1 0.0099013133061741868 1 1 1 1 1 1 1 1 1 1 1 1 1 1 1 0.010176630565855733 1 1 1 1 1 1 1 1 1 1 1 1 1 1 1 1 0.010208775611034905 1 1 1 1 1 1 1 1 1 1 1 1 1 0.0097577742826359115 1 1 0.0099988463028046967 1 1 0.01020570414472404 1 0.010008040542818298 1 1 1 1 1 1 1 0.012128125869944171 1 1 1 1 1 1 1 1 1 1 1 1 0.010047125760173055 1 1 1 0.010024530689535724 1 1 1 1 1 1 1 1 1 0.010125868144419858 1 1 1 1 1 1 0.011550226702244346 1 1 1 1 1 1 0.011789970919385145 1 1 1 0.0098534622020424213 1 1 1 1 1 1 1 0.0095315488129867707 1 1 1 1 1 1 1 1 1 1 0.01130318822676747 1 1 1 1 1 1 1 1 1 1 1 1 1 1 1 1 0.010192263932484388 1 0.010003574955136792 1 1 1 1 1 1 1 1 1 1 0.0091723415258488615 1 0.0093293482371226491 1 1 1 1 1 1 1 1 1 1 1 0.011212885618912379 1 1 1 1 1 1 1 1 1 1 1 0.01122597750514732 1 1 1 1 1 1 1 0.010178688794564753 1 1 1 1 1 1 1 0.01005592756221086 1 1 1 1 1 1 1 1 1 1 1 0.0097196364120097425 1 1 1 1 1 1 1 1 0.011158741498132891 1 0.0091861539786803562 1 1 1 1 1 1 1 1 1 1 0.0099781713473057511 1 1 1 0.0099540507280695741 1 1 1 1 1 1 1 1 1 0.0092105853270126863 1 1 1 1 1 1 1 1 1 1 1 1 1 1 1 1 0.010056667333327978 1 1 1 1 1 1 1 1 1 1 1 1 1 1 1 1 1 1 0.010230381907745525 1 1 0.010564510432098644 1 1 0.010019896253448899 1 1 1 1 1 0.0099583321981909483 1 1 1 1 1 1 1 1 1 1 1 1 1 1 1 1 1 1 1 1 1 1 1 1 1 1 1 1 1 1 1 1 1 1 1 1 1 1 1 1 1 1 1 1 1 1 1 1 1 1 1 1 1 1 1 1 1 1 1 0.010037443436021778 1 1 0.010175263047350235 1 1 1 1 1 1 1 1 1 1 1 1 1 1 1 1 1 1 1 1 1 1 1 1 0.010003092501730267 0.0098657712156595759 1 1 1 1 1 1 1 1 1 1 1 1 1 1 1 1 0.010031640268633105 0.0095153940667857071 1 1 1 1 1 1 1 0.0097263187636483957 1 0.010500274283715626 1 1 0.010485986217239817 0.010003609223588002 1 1 1 1 1 1 1 1 1 1 1 0.0099960857072709346 1 0.011456205266862371 1 1 1 0.011055865835258038 1 1 1 0.0091694173324081626 1 0.0092282845580397774 1 1 1 1 1 0.0092744080096462331 0.009436290536290224 1 1 1 1 1 1 1 1 1 1 1 1 1 1 1 1 1 1 1 1 1 1 1 1 1 1 1 1 1 1 1 1 1 1 1 1 1 1 1 1 1 1 1 1 1 1 1 1 1 1 1 1 1 1 1 1 1 1 1 1 1 1 1 1 1 1 1 1 1 1 1 1 1 1 1 1 1 1 1 1 1 1 1 1 1 1 1 1 1 1 1 1 1 1 1 1 1 1 1 1 1 1 1 1 0.0096154313652464952 0.010278490851923087 1 0.0088621475755489842 1 0.0099912535480624551 1 1 0.009859698580730188 1 1 1 1 0.010003834601712778 1 1 1 1 1 1 1 0.0085759598109073215 0.0099799799050286613 0.0099186627436359028 1 1 1 1 1 0.0085441190868006736 0.0097317947011853669 1 1 1 1 1 1 1 1 1 1 1 1 1 1 1 1 1 1 1 1 1 1 1 1 1 1 1 1 1 1 1 1 1 1 0.010430151802760749 1 1 0.010155856222939925 1 1 1 1 1 1 1 1 1 1 1 0.010016642638155271 1 1 1 1 1 1 1 0.010030640542496937 1 1 1 1 1 1 1 1 1 1 1 1 1 1 1 1 0.0088612042993408604 1 1 0.010862833146957946 1 1 1 1 1 1 1 1 1 1 1 1 1 1 1 1 1 1 1 1 1 1 1 0.0099770857681538202 1 1 0.010079497128530525 1 1 0.010018555550077843 1 1 1 1 1 1 1 0.010032553454419507 1 1 1 1 1 1 0.010003293170786185 1 1 0.010006814617173355 1 1 1 1 0.0099478235910958508 1 0.0099740254309077531 1 1 0.0086105064271395117 1 1 1 1 0.0100352871433785 1 0.0084153574305515094 1 1 0.0083146787438601218 1 1 1 1 1 1 1 1 1 1 1 1 0.010649207303901695 1 1 1 0.0084042041673214503 1 1 0.0085565920771621482 1 1 1 1 0.010001728003845085 1 1 1 1 1 1 1 1 1 1 0.010014476364422122 1 1 1 1 1 1 1 1 1 1 0.0098268566661043368 1 1 1 1 1 1 1 1 1 1 1 1 0.0096658027800701658 1 1 0.010006349096716907 1 1 1 1 1 1 1 1 1 1 0.009816505243453658 1 1 1 1 1 0.0099077850172598243 1 0.0099812717043423257 0.0098005300731510772 1 1 0.0098524998370932738 1 1 1 1 1 1 1 1 1 0.009977421797887142 0.0098536168573228992 1 1 1 1 1 1 0.010004825207124923 1 1 1 1 1 1 1 1 1 1 1 1 1 1 1 1 1 1 1 1 1 1 1 1 1 0.0099697168764051446 1 1 1 1 1 1 1 1 1 1 1 1 1 1 1 1 1 1 1 1 1 1 1 1 1 1 1 1 1 1 1 1 1 1 1 1 1 1 1 1 0.0098162376262700482 1 1 1 1 1 1 1 1 1 1 0.0099315509604778716 1 1 1 0.0098322204566135343 1 0.009816458412567286 1 1 1 0.010029277187468636 1 1 1 0.0099984470019610899 1 0.0095571960310739511 1 0.0096177038318836679 1 0.0096751244314773194 0.010110019449811786 1 1 0.01033103920447696 1 1 1 0.010038001179579419 1 1 1 1 1 0.010013573233595079 1 1 1 1 0.010280617750172194 1 1 1 0.010376069401741619 1 1 1 1 0.010649730165364139 1 0.0099924431926676043 1 1 1 1 1 1 1 1 1 1 1 1 1 1 0.0099929342766215401 1 1 1 1 0.0092565414368793366 1 1 0.0095314033604996014 1 1 0.010412790760949628 0.0099949216694587457 1 1 0.0098972267716103714 1 0.0097138715041085056 1 1 1 0.010438072393801633 0.010281414199229073 0.0096031951222802902 0.01042713656862345 1 1 0.0099881508343835027 1 1 1 1 0.010047504783062482 1 0.0096286318141510247 1 1 0.010227669995759792 0.0094486502062423577 0.0099811225467803452 1 0.0093493682483761203 1 1 0.01032622042255431 0.0091914410246444079 0.0092510022573422113 1 1 1 1 1 1 1 1 1 0.010750621003942626 0.010456126758909449 1 1 1 1 0.010507706571889 0.010438883568597134 1 1 1 0.008601025455456034 1 0.0085850234158983962 1 1 1 1 1 1 1 1 1 1 1 0.008651407885920696 1 1 1 1 1 1 1 1 1 1 1 1 1 1 1 1 1 1 1 1 1 1 1 0.010136203070984685 1 1 1 1 1 1 1 1 1 1 1 1 1 1 1 1 0.0088830141510466316 1 1 0.010376900541626545 1 1 1 1 1 1 1 1 1 0.009597688684108872 1 1 1 0.010344032041362795 0.0093425156042400252 1 1 0.0099981567495349109 1 1 1 1 1 0.0096458566777079292 1 0.0099442909146141983 1 1 1 0.0099444993064196612 1 1 1 1 1 1 1 0.009218063122672919 1 1 0.0099588924783472511 1 1 1 1 0.0087993989709981915 1 1 1 0.0099398214057348673 0.010003496911831743 1 1 0.010285809980252667 1 1 1 0.0088699871860632024 1 1 1 1 1 1 1 0.0092226855848101461 1 1 0.0081083438655250081 1 0.010031187707704677 0.010038527777705574 0.0090689973047420082 1 0.010177396707640757 1 0.0092276479473736486 0.0087184151548311099 1 1 1 1 1 1 0.0088614330451739637 1 1 0.0088515202158524781 1 1 1 1 1 1 1 1 1 1 1 1 1 1 1 1 1 1 1 1 1 1 1 1 1 1 1 1 1 1 1 1 1 1 1 0.010022696533505522 0.010727383922853533 1 1 1 1 1 1 1 1 0.010470169373933684 0.0097103399467823037 0.0098410996954135209 0.010631041491264223 1 1 0.010410812038026171 1 1 1 1 1 1 1 1 0.010344094930400043 1 1 0.0099684462346456074 1 1 1 0.0099346033964369061 1 1 1 1 0.0098932729908071792 1 1 1 1 1 1 1 1 1 1 1 1 1 1 0.011396730322858189 1 1 1 1 1 0.0099944068626530817 1 1 1 1 1 1 1 1 0.0097260744894012534 1 1 1 0.0098336431112321428 0.010407175617804292 1 1 0.0099145350675544919 0.0097151613610303895 1 1 1 1 1 0.0099210055974445384 1 1 1 1 1 1 0.010034230445959687 1 0.010445212093236067 1 1 1 1 1 1 1 1 0.010817794401780647 0.010970942686143792 1 0.010838663894359907 0.0098129043897966714 0.010452249392283654 1 0.010766565368877013 1 1 1 1 1 1 0.010424643102317917 1 1 1 1 1 1 1 0.010079031366506751 1 1 1 1 1 1 1 1 1 1 1 1 1 1 1 1 1 1 1 1 1 1 1 1 1 1 1 1 1 1 1 1 1 1 1 1 1 1 1 1 1 1 1 1 1 1 1 1 1 1 1 1 1 1 1 1 1 0.0099682477297577936 1 1 1 1 1 1 1 0.0099077195659572227 1 1 0.0093737290992425247 1 1 1 0.0090038134190997716 1 0.010000542088214609 1 1 0.010000513015488162 1 1 1 1 1 1 1 0.0087690724365259189 1 1 1 0.010279861950836047 1 1 1 1 1 1 1 0.00991336920929505 1 0.0099645358497919643 1 1 1 1 1 1 1 1 1 1 1 1 1 1 1 1 1 1 1 1 1 1 1 1 1 0.010001677587043963 0.011429187969250963 1 0.0094776700103897001 1 1 1 1 1 1 1 0.010029778397219261 1 0.01003864828050029 1 0.01043639856636399 0.0093631027830942039 0.0099608326409719242 1 1 0.0098997788702116889 1 1 0.0097471952784693866 1 1 1 0.0099148837361717097 1 1 1 1 1 1 1 0.010756134890766877 0.0095820894559210008 1 1 0.010855135800673038 1 1 1 0.0098731822150930314 1 1 1 1 0.010444931191545197 1 0.0097259578999136093 1 1 1 1 1 1 0.010006859292191778 1 0.0099974443362915999 1 1 1 1 1 0.0099921500822387037 1 1 0.0099960945521269211 1 1 1 1 1 1 1 1 1 1 1 1 1 1 1 1 0.010002712059040325 1 1 0.01022856669514681 0.0099998037775570394 1 0.0099921618979809564 1 1 1 1 1 1 1 1 0.0099673471409111609 1 1 1 1 1 1 1 1 1 1 1 1 1 1 1 1 0.0093090371569946196 1 1 1 0.0099960552843074493 1 1 0.0090499730404284238 1 1 1 1 1 1 0.008954350349909556 1 1 1 1 1 1 1 1 1 1 1 1 1 1 1 1 1 1 1 0.010652132685567639 0.0099964791031078998 1 1 1 1 1 1 1 0.0099973913873283218 1 1 1 0.01000363304610692 1 1 0.010612188346330995 1 0.010493733431128062 1 1 0.010386285258212223 1 0.01009677197432326 0.0097765259362011525 1 0.010321949839749271 1 0.009983125318651441 1 0.010028204509241027 1 1 1 1 1 1 1 1 1 1 1 1 1 1 1 0.010013260450916661 0.010070507638693531 1 1 1 1 1 1 1 0.01079097706238844 1 1 1 1 1 1 1 1 1 1 1 1 1 1 1 0.010360731948630263 1 0.010041811607216509 1 1 1 1 1 1 0.01042445595321603 1 1 1 0.010925625425805692 1 1 1 0.010099363793759298 1 1 1 1 1 1 1 1 1 1 1 1 1 1 1 1 1 1 1 1 1 0.0099883292920850582 1 1 1 1 0.010088902541793524 1 1 1 1 1 0.010001886427223565 1 1 1 0.010067616575703389 1 1 1 1 1 1 1 1 1 1 1 1 0.010065602420472603 1 1 1 1 0.010123652775698735 1 1 1 1 1 1 1 1 0.010084769914696232 1 1 1 1 1 1 1 0.010277423730323523 1 1 1 1 0.010042098745916207 1 1 1 1 1 1 1 1 0.010078260034816031 1 1 1 1 1 1 1 1 1 0.010268570254211479 1 1 1 1 1 1 1 1 1 1 1 1 1 1 1 1 1 1 1 1 1 1 1 1 1 1 1 1 0.010142525455713041 1 1 1 1 1 1 1 0.010543010773977967 1 1 1 1 1 1 1 1 1 1 1 1 1 1 1 1 1 1 1 1 1 1 1 1 1 1 1 1 1 0.010057552186542791 1 1 1 1 1 1 1 1 1 1 1 1 1 1 1 1 1 1 1 1 1 1 1 1 1 1 1 1 1 1 1 1 0.0099152658001968527 1 1 0.0099563733218496035 1 1 1 1 0.0089009677031841143 1 1 0.0092451136851257713 1 1 1 1 0.0092960749241382395 1 1 1 0.0091116919553122164 1 1 1 0.009935004878531337 1 1 1 1 1 1 1 1 1 1 0.0098084174469478189 1 1 0.011030858489032146 1 1 1 1 1 1 0.0091764792578480289 1 1 1 1 1 0.011056326741519365 1 1 1 1 0.011062092122850063 1 1 1 1 1 1 1 1 1 1 0.011029571005239864 1 1 1 1 1 1 1 1 1 0.0099044694496728553 1 1 1 1 1 1 1 1 1 1 1 1 1 0.0092118202917478176 1 1 1 1 1 1 1 0.0098517562711843386 1 1 1 1 1 0.010146304305321388 1 1 1 1 1 1 1 1 1 1 1 1 1 1 0.0099578021439322307 1 1 1 1 1 1 1 1 0.0097984235769249632 1 1 1 1 1 1 1 1 1 1 1 1 1 1 1 1 1 1 1 1 1 1 1 1 1 1 1 1 1 1 1 1 1 0.009645796801040064 1 1 1 1 0.0099943964331443529 0.0091092714279696774 1 1 0.010007541681557427 1 1 0.010391325425322367 1 1 0.0094684895638203256 1 1 1 1 1 1 1 1 1 1 1 1 1 1 1 1 1 1 1 0.0093463801212562113 1 1 1 1 0.0092630207254913235 1 1 1 1 1 1 1 1 1 1 1 1 1 1 1 1 1 1 1 1 1 1 1 1 1 1 1 1 1 1 1 1 1 1 1 1 1 1 1 1 1 1 1 1 1 1 1 1 1 1 1 1 1 1 1 1 1 1 1 1 1 1 1 1 1 1 1 1 1 1 1 0.0096645611016408905 1 1 1 1 0.010128568763012944 1 0.010148973455647125 1 1 0.0097514350547624907 1 1 1 1 0.0095902740829958977 1 1 0.010031309610916753 1 1 1 1 1 1 1 1 1 1 1 1 1 1 1 1 1 1 1 1 1 1 1 1 1 1 1 1 1 1 1 1 1 1 1 1 1 1 1 1 1 1 1 1 1 1 1 1 1 1 1 1 1 1 1 1 1 1 1 1 0.009911690043061798 1 1 1 1 1 1 1 1 1 0.009959648487456365 1 1 1 1 1 1 1 0.0098596746440811137 1 1 1 1 1 1 1 1 1 1 1 1 1 1 1 1 1 1 1 0.0089501614468360264 0.012233442813798172 1 1 0.010005445617772196 1 0.0097384067088624893 1 1 1 1 1 1 1 1 1 1 1 1 1 1 1 1 1 1 1 1 1 1 1 1 1 1 1 1 1 1 1 1 1 1 1 1 1 1 1 1 1 1 1 1 1 1 1 1 1 1 1 1 1 1 1 0.0093956615657700797 0.0093935095255375904 1 1 1 1 1 1 1 1 1 1 1 1 1 1 1 1 1 1 1 1 0.0096706638885516172 1 1 1 1 1 1 1 1 1 1 0.0098908775450987294 1 1 1 0.0081317811880393977 1 1 1 1 1 1 0.0098517100641512464 1 1 1 1 1 1 1 1 1 1 1 1 1 0.0081051994246690469 1 1 1 1 1 1 0.0093306808367655501 0.0099958724539892796 1 0.008345571833535027 1 1 0.0099548404401761763 1 1 1 0.008571422208871372 1 1 1 0.008829120622216859 1 1 1 1 1 0.0099945573944972606 1 0.0091401383981717932 1 1 1 1 0.011028837136766653 1 1 1 1 0.0093692525149293923 1 0.0094608326040952866 1 1 0.0099791106774971827 0.009995072907423002 1 1 1 1 1 0.010050541499903875 1 1 1 1 1 0.010116797391624211 0.0098653367765713772 0.0099631946212169909 1 0.0095470836998671014 1 0.0099965316248078143 1 1 1 1 1 0.0099408294127583136 1 1 1 1 1 1 1 1 0.010008790391268301 0.0097869842573476903 1 1 0.0098046790447986823 1 1 1 1 0.0097652605311313607 1 1 0.010110370968163727 1 1 0.010044760437502374 1 1 1 1 1 1 1 1 1 0.010022294632243701 1 1 1 1 1 1 1 1 0.0099768998095601247 1 1 1 1 1 1 1 1 1 0.01004175801770444 0.0095248234979906192 1 1 1 1 1 1 1 1 1 1 1 1 1 1 1 1 1 1 1 1 1 1 1 1 1 1 1 1 1 1 1 1 1 1 1 0.0095898421072305381 1 1 1 1 0.010006010600561131 1 1 1 1 1 1 1 1 1 1 1 1 1 1 1 1 0.010320587816762454 0.0093197664936441951 1 1 1 1 1 1 1 1 1 0.0094234276989161141 1 1 1 1 0.0097455772747216049 1 1 0.0098244118738151105 1 1 1 1 1 1 1 1 1 1 1 1 1 0.0098742256544813133 1 1 1 1 1 1 1 1 1 1 1 1 1 1 1 1 1 1 1 1 1 1 1 1 1 0.010036380001024203 1 1 1 1 1 0.009992786152582693 1 1 1 0.010176402349179305 1 1 1 0.0097726079077191975 0.0097410632242364709 1 1 1 1 1 1 1 1 1 1 1 1 1 1 0.010017882719407309 1 1 1 0.0095554133041565199 1 1 1 1 0.0098806677204657141 0.010017861537965956 1 1 1 1 1 1 1 1 1 1 1 1 1 1 1 1 1 1 1 1 1 1 1 0.0094870420565327639 1 1 1 1 1 1 1 1 1 0.0099040839313014675 1 1 1 1 0.0098292260918481054 1 0.0098538183673791274 1 1 1 1 0.0099986323064130776 1 1 1 1 1 1 1 1 1 1 1 1 1 1 1 0.010118658946483974 1 1 0.010333600214076616 1 1 1 1 1 1 1 1 1 1 0.010816596651761122 0.010859910978200093 1 1 1 1 0.0091196854573113526 1 1 1 0.0086851523641989607 1 1 1 1 0.01009378072342019 0.010034730496304876 1 0.011081627989686007 1 0.011718121515739189 1 0.011239374702592781 1 1 0.0094457479061824164 1 1 0.010626501367038549 1 1 0.0095130179424705238 1 1 1 0.011566549413642924 1 1 0.009999924872699793 1 0.012477793662166878 1 0.00934803915818469 1 1 0.011953249101320966 1 1 1 1 1 1 1 1 1 1 1 1 1 0.0099776281901781498 1 1 1 1 1 1 1 1 1 1 1 1 1 1 1 1 0.01004482233139305 0.010219333931241107 1 1 1 1 1 0.0097159940987810636 1 1 1 1 0.00963544880888784 1 1 0.010413465823236221 1 1 1 1 0.0098795033398854752 1 1 1 1 1 1 1 1 1 1 1 1 1 1 1 1 1 1 1 1 1 1 1 1 1 1 1 1 1 1 1 1 1 1 1 1 1 1 0.0099451554044159719 1 1 1 1 1 1 1 1 1 1 1 1 1 0.0096366065674609157 1 0.0094444599239305888 1 1 1 1 0.0094846101598346083 1 1 1 1 1 1 1 1 1 1 1 1 1 1 1 1 1 1 0.0097166510643848722 1 0.009911949266208267 1 1 0.0088978165740012452 1 1 1 0.0083588243439491408 1 1 1 1 1 1 1 1 1 1 1 1 1 1 1 1 1 1 1 1 1 1 1 1 1 1 1 0.0099715229789548946 1 1 0.0098605423713396048 1 1 1 1 1 1 1 1 1 1 1 1 1 1 1 1 1 1 1 1 1 1 1 1 1 1 1 1 1 1 1 1 1 1 1 0.0099153869669236332 1 0.009831014734651651 1 1 1 1 1 1 1 1 1 1 1 1 1 1 1 1 1 0.009925679195636505 0.0099476443386718634 1 1 1 1 1 0.01009865578580711 1 1 1 1 0.010186432826051545 1 1 1 1 0.010036130663144911 1 1 1 1 1 1 1 1 1 1 1 1 1 1 1 1 1 1 0.010021965143035355 1 1 1 1 1 1 0.01023698329701675 1 1 0.010666977808835148 1 1 1 1 1 1 1 1 1 1 1 1 0.0100529237969823 1 1 0.010068416049155158 1 1 1 1 1 1 1 1 0.01002063841097205 1 1 1 1 1 1 0.010047474493689167 1 1 0.010135251533933602 1 1 1 1 1 1 1 1 1 1 1 1 1 1 1 1 1 1 1 1 1 1 1 1 1 1 1 1 1 1 1 1 1 1 1 1 0.0098802216079465037 1 1 1 0.0097400587068045639 1 1 0.009922023096141536 1 1 1 1 1 1 0.0099656869356478054 1 1 1 1 1 0.0099874476597471389 1 1 1 1 1 1 0.010177602935091956 1 1 1 1 0.0093141205178501295 1 0.0094529779953240918 1 1 0.0097162624659810331 1 1 1 0.0098598370988580604 1 1 1 1 1 1 1 1 1 1 1 1 1 0.010125535695742762 1 1 1 1 1 1 1 1 1 1 1 1 1 1 1 1 1 1 1 1 1 1 1 1 0.009999513262337013 1 0.0099981002617426911 1 0.010356125147370509 1 0.010536806068140777 1 1 1 1 0.010043971615835577 1 1 1 1 0.010115596831787432 1 1 1 1 1 1 1 1 1 1 1 1 1 1 0.010315427776368655 1 1 1 0.010489866674446811 1 1 1 0.0099563659106278006 1 1 0.0098768105042179241 1 1 1 0.010020328432306481 1 1 1 1 0.0096779605960792617 1 1 1 1 0.0097891377561089253 1 1 1 1 1 1 1 1 1 1 0.0095162878242642541 1 1 1 1 1 0.0095780783973788003 1 0.010000428143222117 1 1 1 1 1 0.0093802196563320082 0.0095773258452284682 1 1 0.010318620794435997 1 0.0099982044371535808 1 1 0.0099681010049465241 1 1 1 1 1 1 1 1 1 1 1 1 1 0.010692654241625771 1 1 1 1 1 0.0094655540639993485 1 1 1 1 1 1 1 1 1 1 0.010901503654432081 1 0.011689758467459491 1 1 0.0093271096375426559 1 1 0.010044812374568956 1 0.010079604722069636 1 0.010635669983646954 1 1 1 1 1 0.010873016164453773 0.010764886407535047 1 1 1 1 1 1 1 1 1 1 1 0.010038055676377441 1 1 1 1 1 0.010007833855316128 1 1 1 0.010052001694605125 1 0.0099311491499827903 1 1 1 1 1 1 1 1 1 1 1 1 1 1 1 0.009994683091172088 1 1 1 1 0.0099882521285264148 1 1 1 1 1 1 1 1 1 1 1 1 1 1 1 1 1 1 1 1 1 1 1 0.0099935690373543287 1 1 0.0097102882800287008 1 1 1 1 1 1 1 0.0098305006499671051 1 1 0.0091413735228113805 1 0.0080434016302239775 1 1 1 1 1 1 1 1 1 0.0099143890229992059 1 1 0.0098333481380001309 1 1 1 0.010105234977838757 1 1 1 1 1 1 1 0.010154738971164035 1 1 1 1 0.0099508034950002884 0.010079324077930949 1 1 1 1 1 1 1 1 1 0.010130569208696764 1 1 1 1 1 1 1 1 1 1 1 1 1 1 1 1 0.0098949276302762422 1 0.0099183564610754484 1 1 1 0.0096495164429916402 1 1 1 1 1 1 1 1 1 1 1 1 1 0.0097334691878732584 1 1 1 1 1 0.010060668676813251 1 1 1 0.0095092723113035724 0.010012358913111011 1 1 1 0.0085702103853946519 1 1 0.0097913283115390742 1 1 1 1 0.0092588088313252104 0.010005522122168436 1 1 1 0.01032310891739514 1 1 0.010054777756842489 1 1 1 1 0.011309242668252523 1 0.011132928603722789 1 1 1 0.011533099249973922 1 1 1 1 1 1 1 1 1 1 1 1 1 1 1 1 1 1 1 1 1 0.010153804031356843 1 1 1 1 1 1 1 1 1 0.0099531120944210509 1 1 1 0.010275887567212144 1 0.010114372708787411 1 1 1 1 1 1 1 1 1 1 1 0.010444224627269034 1 1 1 1 1 0.011084975293444698 1 1 1 1 1 0.0089671080768638622 1 1 1 1 1 1 1 1 1 1 1 1 1 1 1 1 0.0088772116149008224 1 1 1 1 1 1 1 1 1 0.0090584818555994612 1 1 1 1 1 1 1 1 1 1 1 1 1 1 1 0.01003102984483153 1 1 1 1 1 1 1 1 1 1 1 1 1 1 1 1 1 1 1 1 1 1 1 1 1 1 1 1 1 0.0094178289075277106 1 1 1 1 0.010207000595967106 1 0.0095925258584374229 0.010017892059584605 1 1 1 1 1 1 0.0099505723901500871 1 0.010726306405036997 1 1 1 0.0099871561542590748 1 1 0.0088026870572637007 1 1 1 1 1 1 0.0099807533319241429 1 1 1 1 1 1 1 0.010176256138634583 1 1 1 1 0.010464058684475572 1 1 1 1 1 1 0.010079674080564795 1 1 1 1 1 1 1 1 1 1 1 1 0.010063952506403956 1 0.010059345648258312 1 1 1 1 1 1 1 0.010136135243698576 0.0099747427205583456 1 1 1 1 1 1 1 1 0.009996474057902674 1 1 1 0.0098431424852822927 1 1 0.0099460837989349456 1 1 1 1 1 1 1 1 1 1 1 1 1 1 1 1 1 1 1 1 1 1 1 1 1 0.009987286599754553 1 1 0.0099814297351151268 1 1 1 1 1 0.0099856623369674029 1 1 0.0099593340398707562 1 0.0096616370474078665 1 1 1 0.0099969836810637949 1 1 1 1 0.0097548856220155359 1 1 0.0099179964840865713 0.010117699832212397 1 1 1 1 1 0.0099959379264466779 1 1 0.010041584353569253 1 1 1 1 1 0.0100128720595269 1 1 1 1 1 1 1 1 1 0.0099963536960151287 1 1 1 1 0.0099838360857591821 1 1 1 1 1 1 0.010283974393327905 1 0.010431138170713544 1 1 1 0.0093186310300452154 1 0.012380443500145763 1 1 0.010435545729371595 1 0.0099981439593766885 1 1 1 0.0099863095951654695 1 1 1 1 1 1 1 1 1 1 1 1 1 0.011808362602388192 1 1 1 1 0.012268161002464867 1 1 1 1 1 1 0.0098606672682682063 1 1 1 1 1 1 1 0.010214593570597045 1 1 1 1 1 1 0.010592153495328424 1 1 1 1 1 1 1 0.010885477598068393 1 1 0.0094415347762150936 1 1 1 1 1 1 1 1 1 0.0098907775024533028 0.0092971797259047868 1 1 1 1 1 1 1 1 1 1 1 1 0.0099396919771992734 1 1 1 1 1 1 1 0.0096833752442331382 1 1 1 0.010181410344592128 1 0.0094803670183036884 1 1 0.010279416944577275 1 1 1 1 1 0.0092732815200098073 1 1 1 0.0099656826246101345 1 1 1 1 0.0099305123817867366 1 1 1 0.010013307993213188 1 1 1 1 1 1 1 0.010683466669974344 1 1 0.010246030083116996 1 1 1 0.0097828878209606472 1 1 1 0.0095209040365050821 1 1 1 1 0.0099354903134602629 1 1 1 0.010488534145713706 1 1 1 1 1 1 1 1 1 0.010235286276694757 1 1 1 1 1 1 1 1 1 0.010519086505211332 1 1 1 1 0.010291673370134698 1 1 0.010771202348275447 1 1 1 1 1 1 1 1 1 1 1 1 1 1 1 1 1 1 1 1 1 1 1 1 1 1 0.010146524463391687 1 1 1 1 1 1 1 1 1 1 1 0.010371989700622712 1 1 1 0.0099568841882694999 1 1 1 1 1 1 0.0099949817559085077 1 1 1 1 1 1 1 1 1 1 1 1 1 1 1 1 1 1 1 1 1 1 1 1 1 1 0.010206220770277639 1 0.0097783354699083613 1 1 0.010135621745864569 0.0099147748929576604 1 1 1 1 1 1 1 1 1 1 1 1 1 1 1 1 1 0.010099855228906196 1 1 1 1 1 1 1 1 1 1 1 1 1 1 1 1 1 1 1 1 1 1 1 1 1 1 1 1 1 1 1 1 1 1 1 1 1 1 1 1 1 1 1 1 1 1 1 1 1 1 1 1 1 1 1 1 1 1 1 1 1 0.0099737088650365974 1 1 0.0099286693508127133 1 1 1 1 0.009869010470588347 1 1 1 1 1 1 1 1 1 1 0.01000100698803754 1 0.011915349556039298 1 1 1 0.011778200539141071 1 1 1 0.0099583846212144781 1 0.0098886094561853911 1 1 1 0.010136358653906869 1 0.0098888357536376561 1 0.010309619595006102 1 1 1 0.011151704829557385 1 1 1 1 0.0099491437764383812 1 0.010514109136454834 1 1 1 1 1 0.010226387747397227 1 0.010019673380799872 0.0091986357330372717 1 1 1 1 1 1 0.010388618310451642 1 1 1 0.010007731412064742 1 1 1 1 1 1 1 1 1 1 1 1 1 1 1 1 1 1 1 0.010007463504767286 1 1 1 0.010734207204990819 0.01002156102491452 1 1 1 1 1 0.009884437081878323 1 1 1 1 1 1 1 1 1 1 1 1 1 1 0.01005991296985707 1 1 0.01118024407907188 1 0.011232185218491651 1 1 1 0.010001233771561948 1 0.0091165500520994074 1 1 0.010652582492200906 1 1 1 1 1 1 1 1 1 1 1 0.0097118808506136082 1 1 1 1 1 1 1 1 1 1 0.011088579477896016 0.0099625386948192403 1 1 1 1 1 1 1 0.0096718679757837565 1 1 1 1 1 1 1 1 1 1 1 1 1 1 0.0098505131518916988 1 1 1 1 1 1 1 1 1 1 0.0099071041303602971 1 1 1 0.0096899345237727429 1 0.0093871220719166613 0.011563014994222911 1 1 1 1 1 1 1 1 0.0085357177947889794 1 1 1 1 1 1 1 1 1 0.0093822095304042213 1 0.010586856141912512 1 0.010060202412905259 1 1 1 1 1 1 1 1 0.0098167065483881315 1 0.0098414304484903993 1 1 1 1 1 1 0.011710964992936009 1 1 0.0094298988906263773 1 0.01085075491180908 1 1 1 1 1 1 1 1 1 1 1 1 1 1 0.010683021377556775 1 1 1 1 1 1 1 1 1 1 0.010139909106347579 1 1 1 1 1 1 0.0099566751400536318 1 1 1 1 1 1 1 1 1 1 1 1 1 1 1 1 1 1 1 1 1 1 1 1 1 0.0099522309574180661 1 1 1 1 1 0.0098831114535548308 1 1 1 1 1 1 1 1 1 1 1 0.010007580125492545 1 1 1 1 0.0096182176752464058 1 1 1 1 1 0.0095023755584286718 1 1 1 1 1 0.0092885282629550543 1 1 0.0090214247558459467 1 1 1 1 1 1 1 1 1 1 1 1 1 1 1 1 1 1 1 1 1 1 1 1 1 1 0.01001714079252532 1 1 0.010017135173787071 1 1 1 1 1 1 1 1 1 1 1 1 1 1 1 0.0099689505700161288 1 1 1 1 1 1 1 1 1 0.0099256257100697621 1 1 1 1 1 1 1 0.0098424251922160783 1 1 1 1 1 0.010013081774514616 1 1 1 1 1 1 0.009703218781015488 1 1 1 1 0.0098442706237542449 1 1 1 1 1 1 1 0.010005501649022072 1 1 0.0098284837409191427 1 1 0.0098652683316975791 1 1 1 1 0.0099942133432002755 1 1 1 1 1 1 1 1 0.010069250322496457 1 1 0.010442007626468021 1 1 1 1 1 1 1 1 1 0.010060531878518977 1 1 1 1 1 0.0099237355962143899 1 1 1 1 0.010154701594333265 1 1 1 0.0099483764030452518 1 1 1 1 1 1 1 1 1 1 1 0.0099946405648787089 0.0099959392038004823 1 1 1 1 1 1 1 1 1 1 1 0.010215991411759219 1 1 1 1 1 0.0098965988406650735 1 0.0096027916234278834 0.010207320054278268 1 0.0099865273641508174 0.010542206584836102 1 1 0.0099886359485565884 1 1 1 1 1 1 0.0095840826597770983 1 0.0099212634852409616 0.01000131393363568 1 1 1 1 1 0.010006430206100092 1 1 1 1 1 1 1 1 0.0096572399922662325 1 1 1 1 0.010119940981120762 1 1 1 1 1 0.010023105736126839 1 1 0.0097998908738254724 1 1 1 1 1 1 1 0.010344442102956828 1 0.0099001412786782553 1 1 1 1 1 1 1 0.009785800376397643 0.0099851515348956896 1 1 1 1 1 1 1 0.0099894440756985396 1 1 1 1 1 1 0.0099310356682416889 1 1 1 1 1 1 1 1 1 1 1 1 1 1 0.010181548500474046 1 1 0.010060521505486331 1 1 1 1 0.0099256332589647348 1 1 1 1 0.010665363909885778 1 1 1 1 1 1 0.010815365854578964 1 1 1 1 1 1 1 0.010024145375347432 1 1 1 0.0097412103466941596 1 1 1 1 0.010985123146187176 1 1 0.0096515719793189361 1 1 1 1 1 1 1 0.010756114525291322 1 1 1 1 0.010642061392521475 1 0.0099905808648430086 1 1 1 1 1 1 1 1 1 1 1 1 1 1 0.0097844140794035271 1 1 1 1 1 1 1 0.0096093911961593718 1 1 0.0098460507099229662 1 1 0.010006522180439664 1 1 1 1 1 1 1 1 1 0.010635395789901152 1 1 1 0.01046852979218907 1 1 1 1 1 1 1 1 1 0.010282684602382495 1 1 1 1 1 1 1 1 1 1 1 0.0099801923941804562 1 1 1 0.010091837357198572 1 1 1 1 1 1 1 1 1 1 1 0.0099806438726943256 1 1 1 1 1 1 1 1 1 1 0.010030059615881104 1 1 1 1 1 0.01036952221397258 1 1 1 1 1 1 1 1 0.010031002115605097 1 1 0.01044313781482728 1 1 0.010410724435290581 1 1 1 1 0.010473248593749707 0.010162615314263764 1 1 1 1 0.0098052129308548539 1 1 1 1 0.010102036478423317 1 1 0.01003556756176689 1 1 1 1 0.0086050058417208204 1 1 0.0090896381652466381 1 1 1 1 1 0.0095839889651115184 1 1 1 1 1 1 1 1 0.0086069063446606569 1 0.010011098143804612 1 1 1 1 1 1 1 1 1 0.010737772410663366 0.0089832746539197442 1 1 1 1 1 1 0.008694855225987088 1 1 0.011510800834680746 1 1 0.011614594246704831 1 0.0099949760215191277 1 1 1 0.010542861792814912 1 1 0.010056773504337202 1 1 1 1 1 1 1 1 0.010446944745527554 0.010618335752765745 1 1 0.0093658167035844363 0.010134416764097659 1 1 1 1 0.0094539975995016207 1 1 1 0.0096912983642026274 1 0.010412417127618716 1 0.010765397654014986 0.0086397512018107324 0.0092347163158959904 1 0.010422732050725175 1 1 1 0.010163674053908348 1 1 1 1 1 1 1 1 1 0.0085189949603228978 1 1 0.0086420797181235021 1 1 1 1 1 1 0.010732875123489593 1 1 1 1 1 1 0.010009610439413744 0.010056862437987821 0.010826367969143226 1 1 1 1 1 1 1 1 1 1 1 0.011496039167242395 1 1 1 1 0.0087794011927356357 1 1 1 1 1 1 1 1 0.0087786174356185506 1 1 0.011008876312875761 1 1 1 0.010079401260010962 1 1 1 1 1 1 1 1 1 0.0099931444318857501 1 1 1 1 1 1 1 1 0.0081630952274057249 1 1 1 0.0077420039436334161 1 1 0.011602268731489607 1 1 1 0.0099707501798876452 1 0.011368727517554999 1 1 0.0093239989784039776 1 0.0089693567346143411 1 1 0.010061052578794479 1 1 1 1 1 1 0.010906153421364691 1 1 0.01015631045368697 1 1 1 1 1 1 1 1 1 1 1 1 1 1 1 1 1 1 1 1 1 1 1 1 1 1 1 1 1 1 1 1 1 1 1 1 1 1 1 1 1 1 1 1 1 1 1 1 1 1 1 1 1 1 1 1 1 1 1 1 1 1 1 1 1 1 1 1 1 1 1 1 1 1 1 1 1 1 1 1 1 1 1 1 1 1 1 1 1 1 1 1 1 1 1 1 0.0098891160347180079 1 1 1 1 0.0077258451045663298 1 1 1 1 1 1 1 1 1 1 1 1 0.0096260841486120914 0.0078696783306306597 1 1 1 1 1 1 1 1 1 1 1 1 1 1 1 0.0096637079839839227 1 1 1 0.009326210479492671 1 1 1 1 1 1 1 1 1 1 0.0078548741554642885 1 0.0083307019018122319 1 1 1 1 1 1 1 1 1 1 1 1 1 1 1 1 1 1 1 1 1 1 1 1 0.010044827315806269 1 1 1 1 0.010180687529872846 1 1 1 1 1 1 1 1 0.0099583654820665831 1 1 1 1 1 1 1 1 1 1 1 1 1 1 1 1 1 1 1 1 1 1 1 1 1 1 1 1 1 1 1 1 1 1 1 1 1 1 1 1 1 1 1 1 1 1 1 1 1 0.010044215327923735 1 1 1 1 1 1 1 1 1 1 1 1 1 1 1 1 1 1 1 1 1 1 1 1 1 1 1 1 1 1 1 1 0.010934771977677529 1 1 1 1 1 1 0.010761925717568595 1 1 1 1 1 1 0.0099180650724054222 1 1 0.010033073500238125 1 0.0097572583436504046 1 0.0098384257381778414 1 1 1 1 0.010150411418700971 1 1 1 1 1 0.010032020790356921 1 1 1 0.0088681956170111893 0.0099936813968745479 1 1 1 0.010579852351828799 1 1 1 1 0.0095225026708645188 0.0094397461982233203 1 1 1 1 1 1 1 1 1 1 1 1 1 1 0.0099213201239431188 1 1 0.0095411315385611449 1 1 0.010049665236776372 0.010241352907534189 1 1 1 1 1 1 1 1 1 1 0.010578261313030477 1 0.010266011030246332 1 1 1 1 1 1 1 1 1 1 1 0.0099752363942408988 1 1 1 1 1 1 1 0.0099200315221884168 1 1 1 1 1 1 1 1 1 1 1 1 1 1 1 1 1 1 0.0099268076939612662 0.0094051859033818866 1 1 1 1 1 1 1 1 1 1 1 1 1 1 1 1 1 0.0098666936538052852 1 1 1 1 1 1 1 1 1 0.010014833600548771 1 1 1 1 1 1 1 1 1 1 1 1 0.010542959822559733 1 1 1 1 0.010290086599711073 1 0.0089426491795607018 1 1 1 1 1 1 1 1 1 0.0095559943578033962 1 1 1 1 0.0089273264744398843 1 1 1 1 0.0096171924148311903 1 0.010394630175419344 1 1 1 1 1 1 1 1 1 1 1 1 0.010053747998873508 1 1 1 1 1 1 1 1 1 1 1 1 1 1 1 0.010074373767741106 1 0.0087645826364143361 1 1 0.010023893520592849 1 1 1 0.010008430389804512 1 0.01033012949693007 1 1 0.011434634671430306 1 1 0.0099957115441574144 1 0.0098008729181548078 1 1 1 1 1 1 1 0.010613031581592058 0.010880043500903611 1 1 1 1 0.0093302261251517905 0.0087241785532368825 1 1 0.011087742384861186 0.01114771647273905 1 0.0096082281193574978 1 1 0.0099760960355965867 0.010273143055176523 1 1 0.0099981844195325721 1 1 0.011232733559134052 1 1 1 1 1 1 1 1 0.0090290812754024626 1 1 0.0090994215268483617 1 0.009121499936916912 1 1 1 0.0097973483445882789 1 1 1 1 1 1 1 1 0.0098553935143793105 1 1 1 1 1 1 1 1 1 1 1 1 1 1 1 1 1 1 1 1 1 1 0.0099464294618393269 1 1 1 1 1 1 1 1 1 1 1 1 1 1 1 1 1 1 
</DataArray>
</CellData>
</Piece>
</UnstructuredGrid>
</VTKFile>
