<?xml version="1.0"?>
<VTKFile type="UnstructuredGrid" version="0.1" byte_order="LittleEndian">
<UnstructuredGrid>
<Piece NumberOfPoints="31898" NumberOfCells="11152">
<Points>
<DataArray type="Float64" NumberOfComponents="3" format="ascii">
-0.5 -0.5 0 -0.47620991077874902 -0.44978878706170539 0 -0.49999999999999473 -0.42132396840504388 0 -0.5 -0.5 0 -0.47160970827802529 -0.4793630013852106 0 -0.47620991077874902 -0.44978878706170539 0 -0.5 -0.5 0 -0.47160970827802529 -0.4793630013852106 0 -0.44860394795025399 -0.5 0 -0.47160970827802529 -0.4793630013852106 0 -0.44860394795025399 -0.5 0 -0.4490820238307246 -0.45820516232899983 0 -0.44860394795025399 -0.5 0 -0.4490820238307246 -0.45820516232899983 0 -0.42881687682924802 -0.47781464288736519 0 -0.4490820238307246 -0.45820516232899983 0 -0.45555437223955858 -0.42914059360647611 0 -0.4490820238307246 -0.45820516232899983 0 -0.45555437223955858 -0.42914059360647611 0 -0.43867285131603428 -0.4271457417558665 0 -0.4490820238307246 -0.45820516232899983 0 -0.43867285131603428 -0.4271457417558665 0 -0.4263356171060747 -0.44269880333887462 0 -0.47160970827802529 -0.4793630013852106 0 -0.4490820238307246 -0.45820516232899983 0 -0.47620991077874902 -0.44978878706170539 0 -0.4490820238307246 -0.45820516232899983 0 -0.47620991077874902 -0.44978878706170539 0 -0.45555437223955858 -0.42914059360647611 0 -0.47620991077874902 -0.44978878706170539 0 -0.48101336032419229 -0.41069999664450008 0 -0.45555437223955858 -0.42914059360647611 0 -0.47620991077874902 -0.44978878706170539 0 -0.49999999999999473 -0.42132396840504388 0 -0.48101336032419229 -0.41069999664450008 0 -0.49999999999999473 -0.42132396840504388 0 -0.48101336032419229 -0.41069999664450008 0 -0.5 -0.393886241813306 0 -0.49999999999999473 -0.42132396840504388 0 -0.48101336032419229 -0.41069999664450008 0 -0.5 -0.393886241813306 0 -0.47854472220918332 -0.38978458738689759 0 -0.48422759779560409 -0.37130120630367158 0 -0.5 -0.393886241813306 0 -0.5 -0.36644851522156802 0 -0.48422759779560409 -0.37130120630367158 0 -0.48101336032419229 -0.41069999664450008 0 -0.5 -0.393886241813306 0 -0.47854472220918332 -0.38978458738689759 0 -0.48101336032419229 -0.41069999664450008 0 -0.47854472220918332 -0.38978458738689759 0 -0.46202672064839212 -0.40007602488395211 0 -0.48101336032419229 -0.41069999664450008 0 -0.46202672064839212 -0.40007602488395211 0 -0.47854472220918332 -0.38978458738689759 0 -0.46725442735267431 -0.37660061361585562 0 -0.46202672064839212 -0.40007602488395211 0 -0.47854472220918332 -0.38978458738689759 0 -0.46725442735267431 -0.37660061361585562 0 -0.48422759779560409 -0.37130120630367158 0 -0.46725442735267431 -0.37660061361585562 0 -0.46202672064839212 -0.40007602488395211 0 -0.46725442735267431 -0.37660061361585562 0 -0.45645674801697989 -0.38644133236760531 0 -0.46202672064839212 -0.40007602488395211 0 -0.46725442735267431 -0.37660061361585562 0 -0.45645674801697989 -0.38644133236760531 0 -0.4540003998136638 -0.37455519391687309 0 -0.45645674801697989 -0.38644133236760531 0 -0.46202672064839212 -0.40007602488395211 0 -0.44257020456291563 -0.38918913383950271 0 -0.46202672064839212 -0.40007602488395211 0 -0.44257020456291563 -0.38918913383950271 0 -0.44727608925983742 -0.41095911152778891 0 -0.46202672064839212 -0.40007602488395211 0 -0.44257020456291563 -0.38918913383950271 0 -0.44257020456291563 -0.38918913383950271 0 -0.44727608925983742 -0.41095911152778891 0 -0.43479358559901082 -0.4041454901736512 0 -0.44257020456291563 -0.38918913383950271 0 -0.4540003998136638 -0.37455519391687309 0 -0.44172858264042247 -0.37082207246888088 0 -0.45645674801697989 -0.38644133236760531 0 -0.44257020456291563 -0.38918913383950271 0 -0.4540003998136638 -0.37455519391687309 0 -0.46202672064839212 -0.40007602488395211 0 -0.45555437223955858 -0.42914059360647611 0 -0.44727608925983742 -0.41095911152778891 0 -0.46202672064839212 -0.40007602488395211 0 -0.45555437223955858 -0.42914059360647611 0 -0.48101336032419229 -0.41069999664450008 0 -0.46202672064839212 -0.40007602488395211 0 -0.45555437223955858 -0.42914059360647611 0 -0.44727608925983742 -0.41095911152778891 0 -0.43867285131603428 -0.4271457417558665 0 -0.43676601469929588 -0.41441201227470881 0 -0.44727608925983742 -0.41095911152778891 0 -0.43676601469929588 -0.41441201227470881 0 -0.43479358559901082 -0.4041454901736512 0 -0.45555437223955858 -0.42914059360647611 0 -0.44727608925983742 -0.41095911152778891 0 -0.43867285131603428 -0.4271457417558665 0 -0.43867285131603428 -0.4271457417558665 0 -0.42681803064840879 -0.42717069814352421 0 -0.4263356171060747 -0.44269880333887462 0 -0.42681803064840879 -0.42717069814352421 0 -0.41531815884496182 -0.42985383783075998 0 -0.4263356171060747 -0.44269880333887462 0 -0.42681803064840879 -0.42717069814352421 0 -0.42624289495594048 -0.42089725947505818 0 -0.42083332353326591 -0.42146747131641099 0 -0.42681803064840879 -0.42717069814352421 0 -0.43096994786351572 -0.41951492446283251 0 -0.42624289495594048 -0.42089725947505818 0 -0.43867285131603428 -0.4271457417558665 0 -0.42681803064840879 -0.42717069814352421 0 -0.43096994786351572 -0.41951492446283251 0 -0.43867285131603428 -0.4271457417558665 0 -0.43676601469929588 -0.41441201227470881 0 -0.43096994786351572 -0.41951492446283251 0 -0.43676601469929588 -0.41441201227470881 0 -0.43096994786351572 -0.41951492446283251 0 -0.42907264086257813 -0.41311715872526122 0 -0.43676601469929588 -0.41441201227470881 0 -0.42907264086257813 -0.41311715872526122 0 -0.43479358559901082 -0.4041454901736512 0 -0.42907264086257813 -0.41311715872526122 0 -0.43479358559901082 -0.4041454901736512 0 -0.42460885511582858 -0.40417321677700252 0 -0.42907264086257813 -0.41311715872526122 0 -0.41997834854398469 -0.41180534796019508 0 -0.42907264086257813 -0.41311715872526122 0 -0.42635027777857132 -0.41543594397746519 0 -0.41997834854398469 -0.41180534796019508 0 -0.42907264086257813 -0.41311715872526122 0 -0.41997834854398469 -0.41180534796019508 0 -0.42460885511582858 -0.40417321677700252 0 -0.42635027777857132 -0.41543594397746519 0 -0.41997834854398469 -0.41180534796019508 0 -0.42635027777857132 -0.41543594397746519 0 -0.42083332353326591 -0.42146747131641099 0 -0.41997834854398469 -0.41180534796019508 0 -0.43096994786351572 -0.41951492446283251 0 -0.42624289495594048 -0.42089725947505818 0 -0.42635027777857132 -0.41543594397746519 0 -0.43096994786351572 -0.41951492446283251 0 -0.42907264086257813 -0.41311715872526122 0 -0.42635027777857132 -0.41543594397746519 0 -0.42624289495594048 -0.42089725947505818 0 -0.42635027777857132 -0.41543594397746519 0 -0.42083332353326591 -0.42146747131641099 0 -0.42083332353326591 -0.42146747131641099 0 -0.41997834854398469 -0.41180534796019508 0 -0.40992282953163789 -0.42011435591993562 0 -0.41997834854398469 -0.41180534796019508 0 -0.39756877647335259 -0.40857286797681719 0 -0.41997834854398469 -0.41180534796019508 0 -0.40992282953163789 -0.42011435591993562 0 -0.39756877647335259 -0.40857286797681719 0 -0.40992282953163789 -0.42011435591993562 0 -0.41531815884496182 -0.42985383783075998 0 -0.39591554026262499 -0.42887225451549271 0 -0.41531815884496182 -0.42985383783075998 0 -0.39591554026262499 -0.42887225451549271 0 -0.41160927495564159 -0.44339431233754628 0 -0.42083332353326591 -0.42146747131641099 0 -0.40992282953163789 -0.42011435591993562 0 -0.41531815884496182 -0.42985383783075998 0 -0.42681803064840879 -0.42717069814352421 0 -0.42083332353326591 -0.42146747131641099 0 -0.41531815884496182 -0.42985383783075998 0 -0.44257020456291563 -0.38918913383950271 0 -0.42311368847744002 -0.37830224279505142 0 -0.42594061475171041 -0.39368797999533162 0 -0.44257020456291563 -0.38918913383950271 0 -0.42311368847744002 -0.37830224279505142 0 -0.44172858264042247 -0.37082207246888088 0 -0.44257020456291563 -0.38918913383950271 0 -0.42311368847744002 -0.37830224279505142 0 -0.42311368847744002 -0.37830224279505142 0 -0.42594061475171041 -0.39368797999533162 0 -0.416587075656149 -0.38785930376960043 0 -0.44257020456291563 -0.38918913383950271 0 -0.42594061475171041 -0.39368797999533162 0 -0.43479358559901082 -0.4041454901736512 0 -0.42594061475171041 -0.39368797999533162 0 -0.43479358559901082 -0.4041454901736512 0 -0.42460885511582858 -0.40417321677700252 0 -0.41997834854398469 -0.41180534796019508 0 -0.41325908582185972 -0.39811010703057192 0 -0.39770572831670092 -0.39911486077581648 0 -0.41997834854398469 -0.41180534796019508 0 -0.39770572831670092 -0.39911486077581648 0 -0.42594061475171041 -0.39368797999533162 0 -0.42460885511582858 -0.40417321677700252 0 -0.41325908582185972 -0.39811010703057192 0 -0.41997834854398469 -0.41180534796019508 0 -0.42460885511582858 -0.40417321677700252 0 -0.41325908582185972 -0.39811010703057192 0 -0.42594061475171041 -0.39368797999533162 0 -0.41325908582185972 -0.39811010703057192 0 -0.416587075656149 -0.38785930376960043 0 -0.41325908582185972 -0.39811010703057192 0 -0.416587075656149 -0.38785930376960043 0 -0.40403491357358612 -0.38133688525744702 0 -0.42311368847744002 -0.37830224279505142 0 -0.40403491357358612 -0.38133688525744702 0 -0.40365717239196519 -0.36741535175059892 0 -0.42311368847744002 -0.37830224279505142 0 -0.416587075656149 -0.38785930376960043 0 -0.40403491357358612 -0.38133688525744702 0 -0.40403491357358612 -0.38133688525744702 0 -0.39190790742475001 -0.38540387676521748 0 -0.39770572831670092 -0.39911486077581648 0 -0.40403491357358612 -0.38133688525744702 0 -0.39190790742475001 -0.38540387676521748 0 -0.3904578797192948 -0.37473938743617019 0 -0.41325908582185972 -0.39811010703057192 0 -0.40403491357358612 -0.38133688525744702 0 -0.39770572831670092 -0.39911486077581648 0 -0.39770572831670092 -0.39911486077581648 0 -0.37543310808941849 -0.38642437359143528 0 -0.39770572831670092 -0.39911486077581648 0 -0.37515920440272033 -0.40534038799344108 0 -0.37543310808941849 -0.38642437359143528 0 -0.39770572831670092 -0.39911486077581648 0 -0.37515920440272033 -0.40534038799344108 0 -0.39756877647335259 -0.40857286797681719 0 -0.37515920440272033 -0.40534038799344108 0 -0.37543310808941849 -0.38642437359143528 0 -0.37543310808941849 -0.38642437359143528 0 -0.3904578797192948 -0.37473938743617019 0 -0.37568304780698558 -0.36916333065311507 0 -0.39190790742475001 -0.38540387676521748 0 -0.37543310808941849 -0.38642437359143528 0 -0.3904578797192948 -0.37473938743617019 0 -0.37543310808941849 -0.38642437359143528 0 -0.37568304780698558 -0.36916333065311507 0 -0.39190790742475001 -0.38540387676521748 0 -0.39770572831670092 -0.39911486077581648 0 -0.37543310808941849 -0.38642437359143528 0 -0.41997834854398469 -0.41180534796019508 0 -0.39770572831670092 -0.39911486077581648 0 -0.39756877647335259 -0.40857286797681719 0 -0.40992282953163789 -0.42011435591993562 0 -0.39591554026262499 -0.42887225451549271 0 -0.39756877647335259 -0.40857286797681719 0 -0.37515920440272033 -0.40534038799344108 0 -0.39591554026262499 -0.42887225451549271 0 -0.39756877647335259 -0.40857286797681719 0 -0.37515920440272033 -0.40534038799344108 0 -0.39756877647335259 -0.40857286797681719 0 -0.37515920440272033 -0.40534038799344108 0 -0.39591554026262499 -0.42887225451549271 0 -0.37472313619600889 -0.43545561783144832 0 -0.39591554026262499 -0.42887225451549271 0 -0.39301703415267508 -0.44654444244683272 0 -0.37472313619600889 -0.43545561783144832 0 -0.39301703415267508 -0.44654444244683272 0 -0.37428706798929601 -0.46557084766945539 0 -0.37472313619600889 -0.43545561783144832 0 -0.39591554026262499 -0.42887225451549271 0 -0.39301703415267508 -0.44654444244683272 0 -0.41160927495564159 -0.44339431233754628 0 -0.39301703415267508 -0.44654444244683272 0 -0.40396056051613372 -0.45751466911048011 0 -0.41160927495564159 -0.44339431233754628 0 -0.40396056051613372 -0.45751466911048011 0 -0.39245383412573559 -0.47875733455523922 0 -0.41207507163844148 -0.46917161410542801 0 -0.40396056051613372 -0.45751466911048011 0 -0.38912381425271458 -0.46154275838996711 0 -0.39245383412573559 -0.47875733455523922 0 -0.40396056051613372 -0.45751466911048011 0 -0.39245383412573559 -0.47875733455523922 0 -0.40396056051613372 -0.45751466911048011 0 -0.40649676728151513 -0.45682610390212369 0 -0.40396056051613372 -0.45751466911048011 0 -0.38912381425271458 -0.46154275838996711 0 -0.39301703415267508 -0.44654444244683272 0 -0.40396056051613372 -0.45751466911048011 0 -0.38912381425271458 -0.46154275838996711 0 -0.39301703415267508 -0.44654444244683272 0 -0.38912381425271458 -0.46154275838996711 0 -0.37428706798929601 -0.46557084766945539 0 -0.38912381425271458 -0.46154275838996711 0 -0.37428706798929601 -0.46557084766945539 0 -0.38912381425271458 -0.46154275838996711 0 -0.38378714202547332 -0.47159002408209011 0 -0.37428706798929601 -0.46557084766945539 0 -0.38378714202547332 -0.47159002408209011 0 -0.39245383412573559 -0.47875733455523922 0 -0.37411677223754131 -0.47733161267270968 0 -0.39245383412573559 -0.47875733455523922 0 -0.37240076261097882 -0.48974555046165519 0 -0.37411677223754131 -0.47733161267270968 0 -0.38378714202547332 -0.47159002408209011 0 -0.37411677223754131 -0.47733161267270968 0 -0.37428706798929601 -0.46557084766945539 0 -0.38912381425271458 -0.46154275838996711 0 -0.38378714202547332 -0.47159002408209011 0 -0.39245383412573559 -0.47875733455523922 0 -0.38094710773533791 -0.49999999999999839 0 -0.39245383412573559 -0.47875733455523922 0 -0.38094710773533791 -0.49999999999999839 0 -0.39245383412573559 -0.47875733455523922 0 -0.37240076261097882 -0.48974555046165519 0 -0.38094710773533791 -0.49999999999999839 0 -0.39245383412573559 -0.47875733455523922 0 -0.40997732063196057 -0.5 0 -0.39245383412573559 -0.47875733455523922 0 -0.41207507163844148 -0.46917161410542801 0 -0.40997732063196057 -0.5 0 -0.41207507163844148 -0.46917161410542801 0 -0.40997732063196057 -0.5 0 -0.42881687682924802 -0.47781464288736519 0 -0.44860394795025399 -0.5 0 -0.40997732063196057 -0.5 0 -0.42881687682924802 -0.47781464288736519 0 -0.41207507163844148 -0.46917161410542801 0 -0.42881687682924802 -0.47781464288736519 0 -0.42627766738448791 -0.46032764904509182 0 -0.4490820238307246 -0.45820516232899983 0 -0.42881687682924802 -0.47781464288736519 0 -0.42627766738448791 -0.46032764904509182 0 -0.4490820238307246 -0.45820516232899983 0 -0.42627766738448791 -0.46032764904509182 0 -0.4263356171060747 -0.44269880333887462 0 -0.42627766738448791 -0.46032764904509182 0 -0.4263356171060747 -0.44269880333887462 0 -0.41655419253802572 -0.45404861160063659 0 -0.4263356171060747 -0.44269880333887462 0 -0.41160927495564159 -0.44339431233754628 0 -0.41655419253802572 -0.45404861160063659 0 -0.41531815884496182 -0.42985383783075998 0 -0.4263356171060747 -0.44269880333887462 0 -0.41160927495564159 -0.44339431233754628 0 -0.40396056051613372 -0.45751466911048011 0 -0.41160927495564159 -0.44339431233754628 0 -0.40649676728151513 -0.45682610390212369 0 -0.41160927495564159 -0.44339431233754628 0 -0.40649676728151513 -0.45682610390212369 0 -0.41655419253802572 -0.45404861160063659 0 -0.40396056051613372 -0.45751466911048011 0 -0.41160927495564159 -0.44339431233754628 0 -0.41207507163844148 -0.46917161410542801 0 -0.40649676728151513 -0.45682610390212369 0 -0.41655419253802572 -0.45404861160063659 0 -0.40396056051613372 -0.45751466911048011 0 -0.41207507163844148 -0.46917161410542801 0 -0.40649676728151513 -0.45682610390212369 0 -0.41207507163844148 -0.46917161410542801 0 -0.42627766738448791 -0.46032764904509182 0 -0.41655419253802572 -0.45404861160063659 0 -0.45662330498375908 -0.25656877445722759 0 -0.43445882011373449 -0.25478651907497341 0 -0.45662330498375908 -0.25656877445722759 0 -0.43445882011373449 -0.25478651907497341 0 -0.45034617445999431 -0.24335722649563979 0 -0.44999384684511368 -0.2755750489792308 0 -0.45662330498375908 -0.25656877445722759 0 -0.43445882011373449 -0.25478651907497341 0 -0.44999384684511368 -0.2755750489792308 0 -0.43077531442077321 -0.27459050524281542 0 -0.43445882011373449 -0.25478651907497341 0 -0.44999384684511368 -0.2755750489792308 0 -0.441361257405879 -0.29303276451920029 0 -0.43077531442077321 -0.27459050524281542 0 -0.44999384684511368 -0.2755750489792308 0 -0.4670541169931961 -0.26846056693166809 0 -0.46910519348062618 -0.28320526693770848 0 -0.44999384684511368 -0.2755750489792308 0 -0.4670541169931961 -0.26846056693166809 0 -0.45662330498375908 -0.25656877445722759 0 -0.45662330498375908 -0.25656877445722759 0 -0.47878778985378329 -0.25835102983948688 0 -0.4670541169931961 -0.26846056693166809 0 -0.45662330498375908 -0.25656877445722759 0 -0.47878778985378329 -0.25835102983948688 0 -0.45662330498375908 -0.25656877445722759 0 -0.47878778985378329 -0.25835102983948688 0 -0.47142395938804471 -0.23802335247430181 0 -0.47878778985378329 -0.25835102983948688 0 -0.5 -0.25669760885461612 0 -0.48361763707807442 -0.27426406281091331 0 -0.47878778985378329 -0.25835102983948688 0 -0.5 -0.25669760885461612 0 -0.4875835208682564 -0.24248539692068891 0 -0.5 -0.25669760885461612 0 -0.48361763707807442 -0.27426406281091331 0 -0.5 -0.28413533544635422 0 -0.4670541169931961 -0.26846056693166809 0 -0.47878778985378329 -0.25835102983948688 0 -0.48361763707807442 -0.27426406281091331 0 -0.4670541169931961 -0.26846056693166809 0 -0.48361763707807442 -0.27426406281091331 0 -0.46910519348062618 -0.28320526693770848 0 -0.46910519348062618 -0.28320526693770848 0 -0.48580896399913942 -0.29193665231809679 0 -0.47164434439118558 -0.29859902487093259 0 -0.48361763707807442 -0.27426406281091331 0 -0.46910519348062618 -0.28320526693770848 0 -0.48580896399913942 -0.29193665231809679 0 -0.5 -0.28413533544635422 0 -0.48580896399913942 -0.29193665231809679 0 -0.5 -0.3115730620380921 0 -0.48361763707807442 -0.27426406281091331 0 -0.5 -0.28413533544635422 0 -0.48580896399913942 -0.29193665231809679 0 -0.48580896399913942 -0.29193665231809679 0 -0.5 -0.3115730620380921 0 -0.48293754746551898 -0.30617437981156609 0 -0.48293754746551898 -0.30617437981156609 0 -0.47164434439118558 -0.29859902487093259 0 -0.47203566342767839 -0.31514771464943409 0 -0.48580896399913942 -0.29193665231809679 0 -0.48293754746551898 -0.30617437981156609 0 -0.47164434439118558 -0.29859902487093259 0 -0.47164434439118558 -0.29859902487093259 0 -0.46096111539772322 -0.3069557537098867 0 -0.47203566342767839 -0.31514771464943409 0 -0.46096111539772322 -0.3069557537098867 0 -0.44739706002137658 -0.30395698434733032 0 -0.45229582611609759 -0.31444164243390338 0 -0.46096111539772322 -0.3069557537098867 0 -0.45682111422556548 -0.29317658806621089 0 -0.44739706002137658 -0.30395698434733032 0 -0.47164434439118558 -0.29859902487093259 0 -0.46096111539772322 -0.3069557537098867 0 -0.45682111422556548 -0.29317658806621089 0 -0.44999384684511368 -0.2755750489792308 0 -0.46910519348062618 -0.28320526693770848 0 -0.45682111422556548 -0.29317658806621089 0 -0.46910519348062618 -0.28320526693770848 0 -0.47164434439118558 -0.29859902487093259 0 -0.45682111422556548 -0.29317658806621089 0 -0.44999384684511368 -0.2755750489792308 0 -0.45682111422556548 -0.29317658806621089 0 -0.441361257405879 -0.29303276451920029 0 -0.45682111422556548 -0.29317658806621089 0 -0.441361257405879 -0.29303276451920029 0 -0.44739706002137658 -0.30395698434733032 0 -0.441361257405879 -0.29303276451920029 0 -0.44739706002137658 -0.30395698434733032 0 -0.43527018611072049 -0.30465000121327751 0 -0.44739706002137658 -0.30395698434733032 0 -0.44024276041750632 -0.31887045497680111 0 -0.43527018611072049 -0.30465000121327751 0 -0.44739706002137658 -0.30395698434733032 0 -0.45229582611609759 -0.31444164243390338 0 -0.44024276041750632 -0.31887045497680111 0 -0.44024276041750632 -0.31887045497680111 0 -0.45653421084860168 -0.32646185290925811 0 -0.44024276041750632 -0.31887045497680111 0 -0.43930980958642257 -0.33554338078202212 0 -0.45653421084860168 -0.32646185290925811 0 -0.45229582611609759 -0.31444164243390338 0 -0.44024276041750632 -0.31887045497680111 0 -0.45653421084860168 -0.32646185290925811 0 -0.43930980958642257 -0.33554338078202212 0 -0.44966367396753332 -0.33841986907325933 0 -0.46855294336124231 -0.32873531729210143 0 -0.43930980958642257 -0.33554338078202212 0 -0.4507851133594416 -0.34910720111649318 0 -0.43930980958642257 -0.33554338078202212 0 -0.44966367396753332 -0.33841986907325933 0 -0.4507851133594416 -0.34910720111649318 0 -0.44966367396753332 -0.33841986907325933 0 -0.46855294336124231 -0.32873531729210143 0 -0.46386644800117471 -0.33586508895417932 0 -0.43930980958642257 -0.33554338078202212 0 -0.46855294336124231 -0.32873531729210143 0 -0.43930980958642257 -0.33554338078202212 0 -0.46855294336124231 -0.32873531729210143 0 -0.45653421084860168 -0.32646185290925811 0 -0.44966367396753332 -0.33841986907325933 0 -0.4586808436472537 -0.3401528003513713 0 -0.45711636988675219 -0.34547487934353349 0 -0.44966367396753332 -0.33841986907325933 0 -0.4586808436472537 -0.3401528003513713 0 -0.46386644800117471 -0.33586508895417932 0 -0.4586808436472537 -0.3401528003513713 0 -0.46472493826860672 -0.34236766697450172 0 -0.45711636988675219 -0.34547487934353349 0 -0.4586808436472537 -0.3401528003513713 0 -0.46472493826860672 -0.34236766697450172 0 -0.46386644800117471 -0.33586508895417932 0 -0.46855294336124231 -0.32873531729210143 0 -0.46207595183026873 -0.31834845619891672 0 -0.47203566342767839 -0.31514771464943409 0 -0.46855294336124231 -0.32873531729210143 0 -0.45653421084860168 -0.32646185290925811 0 -0.46207595183026873 -0.31834845619891672 0 -0.46096111539772322 -0.3069557537098867 0 -0.45229582611609759 -0.31444164243390338 0 -0.46207595183026873 -0.31834845619891672 0 -0.45229582611609759 -0.31444164243390338 0 -0.45653421084860168 -0.32646185290925811 0 -0.46207595183026873 -0.31834845619891672 0 -0.46096111539772322 -0.3069557537098867 0 -0.46207595183026873 -0.31834845619891672 0 -0.47203566342767839 -0.31514771464943409 0 -0.48293754746551898 -0.30617437981156609 0 -0.47203566342767839 -0.31514771464943409 0 -0.47770984076123751 -0.32964979107966252 0 -0.48293754746551898 -0.30617437981156609 0 -0.47770984076123751 -0.32964979107966252 0 -0.48293754746551898 -0.30617437981156609 0 -0.48763303240419292 -0.31981883507337211 0 -0.47770984076123751 -0.32964979107966252 0 -0.46855294336124231 -0.32873531729210143 0 -0.47203566342767839 -0.31514771464943409 0 -0.47770984076123751 -0.32964979107966252 0 -0.5 -0.3115730620380921 0 -0.5 -0.33901078862982997 0 -0.49048543526404831 -0.32960291085151988 0 -0.5 -0.3115730620380921 0 -0.48763303240419292 -0.31981883507337211 0 -0.49048543526404831 -0.32960291085151988 0 -0.5 -0.3115730620380921 0 -0.48293754746551898 -0.30617437981156609 0 -0.48763303240419292 -0.31981883507337211 0 -0.48763303240419292 -0.31981883507337211 0 -0.49048543526404831 -0.32960291085151988 0 -0.47770984076123751 -0.32964979107966252 0 -0.49048543526404831 -0.32960291085151988 0 -0.47770984076123751 -0.32964979107966252 0 -0.48708430315481122 -0.3479620774366432 0 -0.5 -0.33901078862982997 0 -0.49048543526404831 -0.32960291085151988 0 -0.48708430315481122 -0.3479620774366432 0 -0.47770984076123751 -0.32964979107966252 0 -0.47248213405695583 -0.35312520234775913 0 -0.47770984076123751 -0.32964979107966252 0 -0.47248213405695583 -0.35312520234775913 0 -0.48708430315481122 -0.3479620774366432 0 -0.46472493826860672 -0.34236766697450172 0 -0.47770984076123751 -0.32964979107966252 0 -0.47248213405695583 -0.35312520234775913 0 -0.46855294336124231 -0.32873531729210143 0 -0.46386644800117471 -0.33586508895417932 0 -0.47770984076123751 -0.32964979107966252 0 -0.46472493826860672 -0.34236766697450172 0 -0.46386644800117471 -0.33586508895417932 0 -0.47770984076123751 -0.32964979107966252 0 -0.47248213405695583 -0.35312520234775913 0 -0.48708430315481122 -0.3479620774366432 0 -0.48422759779560409 -0.37130120630367158 0 -0.5 -0.33901078862982997 0 -0.48708430315481122 -0.3479620774366432 0 -0.5 -0.36644851522156802 0 -0.48708430315481122 -0.3479620774366432 0 -0.5 -0.36644851522156802 0 -0.48422759779560409 -0.37130120630367158 0 -0.46725442735267431 -0.37660061361585562 0 -0.47248213405695583 -0.35312520234775913 0 -0.48422759779560409 -0.37130120630367158 0 -0.46725442735267431 -0.37660061361585562 0 -0.47248213405695583 -0.35312520234775913 0 -0.46725442735267431 -0.37660061361585562 0 -0.4540003998136638 -0.37455519391687309 0 -0.46226041713245919 -0.36267102145096558 0 -0.46725442735267431 -0.37660061361585562 0 -0.47248213405695583 -0.35312520234775913 0 -0.46226041713245919 -0.36267102145096558 0 -0.4540003998136638 -0.37455519391687309 0 -0.46226041713245919 -0.36267102145096558 0 -0.45167034254705118 -0.36337553476545958 0 -0.47248213405695583 -0.35312520234775913 0 -0.46226041713245919 -0.36267102145096558 0 -0.46130034509645268 -0.35111989715704561 0 -0.46472493826860672 -0.34236766697450172 0 -0.47248213405695583 -0.35312520234775913 0 -0.46130034509645268 -0.35111989715704561 0 -0.46472493826860672 -0.34236766697450172 0 -0.46130034509645268 -0.35111989715704561 0 -0.45711636988675219 -0.34547487934353349 0 -0.46130034509645268 -0.35111989715704561 0 -0.45711636988675219 -0.34547487934353349 0 -0.4507851133594416 -0.34910720111649318 0 -0.46226041713245919 -0.36267102145096558 0 -0.4507851133594416 -0.34910720111649318 0 -0.45167034254705118 -0.36337553476545958 0 -0.46226041713245919 -0.36267102145096558 0 -0.46130034509645268 -0.35111989715704561 0 -0.4507851133594416 -0.34910720111649318 0 -0.46226041713245919 -0.36267102145096558 0 -0.4507851133594416 -0.34910720111649318 0 -0.4507851133594416 -0.34910720111649318 0 -0.44504098357239391 -0.35771747353496869 0 -0.45167034254705118 -0.36337553476545958 0 -0.44966367396753332 -0.33841986907325933 0 -0.45711636988675219 -0.34547487934353349 0 -0.4507851133594416 -0.34910720111649318 0 -0.4507851133594416 -0.34910720111649318 0 -0.44408457896710762 -0.34741130507322732 0 -0.44504098357239391 -0.35771747353496869 0 -0.43930980958642257 -0.33554338078202212 0 -0.4507851133594416 -0.34910720111649318 0 -0.44408457896710762 -0.34741130507322732 0 -0.44408457896710762 -0.34741130507322732 0 -0.43834809566141358 -0.35386966642967582 0 -0.4310745521241639 -0.35060051531725012 0 -0.44408457896710762 -0.34741130507322732 0 -0.43834809566141358 -0.35386966642967582 0 -0.44504098357239391 -0.35771747353496869 0 -0.43834809566141358 -0.35386966642967582 0 -0.44504098357239391 -0.35771747353496869 0 -0.43256408976529492 -0.36260533289695268 0 -0.44504098357239391 -0.35771747353496869 0 -0.44172858264042247 -0.37082207246888088 0 -0.43256408976529492 -0.36260533289695268 0 -0.4540003998136638 -0.37455519391687309 0 -0.44172858264042247 -0.37082207246888088 0 -0.45167034254705118 -0.36337553476545958 0 -0.44504098357239391 -0.35771747353496869 0 -0.44172858264042247 -0.37082207246888088 0 -0.45167034254705118 -0.36337553476545958 0 -0.42311368847744002 -0.37830224279505142 0 -0.44172858264042247 -0.37082207246888088 0 -0.43256408976529492 -0.36260533289695268 0 -0.42311368847744002 -0.37830224279505142 0 -0.43256408976529492 -0.36260533289695268 0 -0.41867380740831611 -0.36398836527224071 0 -0.43256408976529492 -0.36260533289695268 0 -0.42210656065146929 -0.35476551363046099 0 -0.41867380740831611 -0.36398836527224071 0 -0.44408457896710762 -0.34741130507322732 0 -0.4310745521241639 -0.35060051531725012 0 -0.42443636388738298 -0.3390060521705498 0 -0.43834809566141358 -0.35386966642967582 0 -0.43256408976529492 -0.36260533289695268 0 -0.4310745521241639 -0.35060051531725012 0 -0.4310745521241639 -0.35060051531725012 0 -0.42266042161335821 -0.34652378860874011 0 -0.42210656065146929 -0.35476551363046099 0 -0.4310745521241639 -0.35060051531725012 0 -0.42266042161335821 -0.34652378860874011 0 -0.42443636388738298 -0.3390060521705498 0 -0.43256408976529492 -0.36260533289695268 0 -0.4310745521241639 -0.35060051531725012 0 -0.42210656065146929 -0.35476551363046099 0 -0.42210656065146929 -0.35476551363046099 0 -0.41243440171204931 -0.35621682403100541 0 -0.41867380740831611 -0.36398836527224071 0 -0.41243440171204931 -0.35621682403100541 0 -0.40365717239196519 -0.36741535175059892 0 -0.40302160193259851 -0.3439916005776541 0 -0.42210656065146929 -0.35476551363046099 0 -0.41714587076776338 -0.34786779488983011 0 -0.41243440171204931 -0.35621682403100541 0 -0.42266042161335821 -0.34652378860874011 0 -0.42210656065146929 -0.35476551363046099 0 -0.41714587076776338 -0.34786779488983011 0 -0.42266042161335821 -0.34652378860874011 0 -0.41714587076776338 -0.34786779488983011 0 -0.41853876063601031 -0.34037906703560689 0 -0.41714587076776338 -0.34786779488983011 0 -0.41853876063601031 -0.34037906703560689 0 -0.41714587076776338 -0.34786779488983011 0 -0.41243440171204931 -0.35621682403100541 0 -0.40302160193259851 -0.3439916005776541 0 -0.41714587076776338 -0.34786779488983011 0 -0.40302160193259851 -0.3439916005776541 0 -0.41853876063601031 -0.34037906703560689 0 -0.42311368847744002 -0.37830224279505142 0 -0.41867380740831611 -0.36398836527224071 0 -0.40365717239196519 -0.36741535175059892 0 -0.42311368847744002 -0.37830224279505142 0 -0.40365717239196519 -0.36741535175059892 0 -0.41243440171204931 -0.35621682403100541 0 -0.41867380740831611 -0.36398836527224071 0 -0.40365717239196519 -0.36741535175059892 0 -0.40403491357358612 -0.38133688525744702 0 -0.40365717239196519 -0.36741535175059892 0 -0.40403491357358612 -0.38133688525744702 0 -0.40365717239196519 -0.36741535175059892 0 -0.3904578797192948 -0.37473938743617019 0 -0.40365717239196519 -0.36741535175059892 0 -0.38979507995825918 -0.35965881973269581 0 -0.40365717239196519 -0.36741535175059892 0 -0.3904578797192948 -0.37473938743617019 0 -0.38979507995825918 -0.35965881973269581 0 -0.3904578797192948 -0.37473938743617019 0 -0.38979507995825918 -0.35965881973269581 0 -0.37568304780698558 -0.36916333065311507 0 -0.37568304780698558 -0.36916333065311507 0 -0.37593298752455201 -0.35190228771479481 0 -0.38979507995825918 -0.35965881973269581 0 -0.37568304780698558 -0.36916333065311507 0 -0.37593298752455201 -0.35190228771479481 0 -0.38979507995825918 -0.35965881973269581 0 -0.37595629511297179 -0.35029264644438168 0 -0.40302160193259851 -0.3439916005776541 0 -0.37595629511297179 -0.35029264644438168 0 -0.40302160193259851 -0.3439916005776541 0 -0.38842354837557669 -0.33756560667471242 0 -0.37595629511297179 -0.35029264644438168 0 -0.40302160193259851 -0.3439916005776541 0 -0.37595629511297179 -0.35029264644438168 0 -0.37607676276689278 -0.3419730509543204 0 -0.37390838074359528 -0.35076941925389299 0 -0.37595629511297179 -0.35029264644438168 0 -0.37607676276689278 -0.3419730509543204 0 -0.37595629511297179 -0.35029264644438168 0 -0.37593298752455201 -0.35190228771479481 0 -0.37390838074359528 -0.35076941925389299 0 -0.37595629511297179 -0.35029264644438168 0 -0.37593298752455201 -0.35190228771479481 0 -0.38979507995825918 -0.35965881973269581 0 -0.37595629511297179 -0.35029264644438168 0 -0.37593298752455201 -0.35190228771479481 0 -0.38979507995825918 -0.35965881973269581 0 -0.37593298752455201 -0.35190228771479481 0 -0.40365717239196519 -0.36741535175059892 0 -0.40302160193259851 -0.3439916005776541 0 -0.40365717239196519 -0.36741535175059892 0 -0.38979507995825918 -0.35965881973269581 0 -0.40302160193259851 -0.3439916005776541 0 -0.40302160193259851 -0.3439916005776541 0 -0.40263324863316441 -0.32967896077653092 0 -0.40263324863316441 -0.32967896077653092 0 -0.38842354837557669 -0.33756560667471242 0 -0.38442983343225828 -0.32189177462067481 0 -0.40302160193259851 -0.3439916005776541 0 -0.40263324863316441 -0.32967896077653092 0 -0.38842354837557669 -0.33756560667471242 0 -0.37607676276689278 -0.3419730509543204 0 -0.37641717267996733 -0.3184640617331177 0 -0.38842354837557669 -0.33756560667471242 0 -0.37607676276689278 -0.3419730509543204 0 -0.38442983343225828 -0.32189177462067481 0 -0.37607676276689278 -0.3419730509543204 0 -0.38442983343225828 -0.32189177462067481 0 -0.37595629511297179 -0.35029264644438168 0 -0.38842354837557669 -0.33756560667471242 0 -0.37607676276689278 -0.3419730509543204 0 -0.37607676276689278 -0.3419730509543204 0 -0.37641717267996733 -0.3184640617331177 0 -0.38442983343225828 -0.32189177462067481 0 -0.37641717267996733 -0.3184640617331177 0 -0.38442983343225828 -0.32189177462067481 0 -0.3841914044669909 -0.30132118344037401 0 -0.37641717267996733 -0.3184640617331177 0 -0.38442983343225828 -0.32189177462067481 0 -0.40263324863316441 -0.32967896077653092 0 -0.38442983343225828 -0.32189177462067481 0 -0.40185461233875269 -0.30098256284660307 0 -0.40263324863316441 -0.32967896077653092 0 -0.38442983343225828 -0.32189177462067481 0 -0.40263324863316441 -0.32967896077653092 0 -0.40185461233875269 -0.30098256284660307 0 -0.40263324863316441 -0.32967896077653092 0 -0.41242695344044827 -0.31820451366256841 0 -0.40185461233875269 -0.30098256284660307 0 -0.41242695344044827 -0.31820451366256841 0 -0.41920998916455232 -0.33677027649670849 0 -0.42301959421646518 -0.31628833020920039 0 -0.41920998916455232 -0.33677027649670849 0 -0.42301959421646518 -0.31628833020920039 0 -0.41242695344044827 -0.31820451366256841 0 -0.42301959421646518 -0.31628833020920039 0 -0.41541732284930832 -0.30730243798379953 0 -0.40302160193259851 -0.3439916005776541 0 -0.41920998916455232 -0.33677027649670849 0 -0.41853876063601031 -0.34037906703560689 0 -0.40302160193259851 -0.3439916005776541 0 -0.40263324863316441 -0.32967896077653092 0 -0.41920998916455232 -0.33677027649670849 0 -0.40263324863316441 -0.32967896077653092 0 -0.41920998916455232 -0.33677027649670849 0 -0.40263324863316441 -0.32967896077653092 0 -0.41242695344044827 -0.31820451366256841 0 -0.41920998916455232 -0.33677027649670849 0 -0.40302160193259851 -0.3439916005776541 0 -0.41853876063601031 -0.34037906703560689 0 -0.41853876063601031 -0.34037906703560689 0 -0.42443636388738298 -0.3390060521705498 0 -0.41920998916455232 -0.33677027649670849 0 -0.42443636388738298 -0.3390060521705498 0 -0.41920998916455232 -0.33677027649670849 0 -0.41853876063601031 -0.34037906703560689 0 -0.42443636388738298 -0.3390060521705498 0 -0.41920998916455232 -0.33677027649670849 0 -0.41853876063601031 -0.34037906703560689 0 -0.43930980958642257 -0.33554338078202212 0 -0.44408457896710762 -0.34741130507322732 0 -0.42443636388738298 -0.3390060521705498 0 -0.43930980958642257 -0.33554338078202212 0 -0.42443636388738298 -0.3390060521705498 0 -0.42301959421646518 -0.31628833020920039 0 -0.41920998916455232 -0.33677027649670849 0 -0.42443636388738298 -0.3390060521705498 0 -0.42301959421646518 -0.31628833020920039 0 -0.44408457896710762 -0.34741130507322732 0 -0.42443636388738298 -0.3390060521705498 0 -0.42266042161335821 -0.34652378860874011 0 -0.41853876063601031 -0.34037906703560689 0 -0.42443636388738298 -0.3390060521705498 0 -0.43930980958642257 -0.33554338078202212 0 -0.42443636388738298 -0.3390060521705498 0 -0.43930980958642257 -0.33554338078202212 0 -0.42301959421646518 -0.31628833020920039 0 -0.44024276041750632 -0.31887045497680111 0 -0.42395130998641067 -0.31127905704434472 0 -0.44024276041750632 -0.31887045497680111 0 -0.43930980958642257 -0.33554338078202212 0 -0.42301959421646518 -0.31628833020920039 0 -0.44024276041750632 -0.31887045497680111 0 -0.42301959421646518 -0.31628833020920039 0 -0.42395130998641067 -0.31127905704434472 0 -0.42301959421646518 -0.31628833020920039 0 -0.42395130998641067 -0.31127905704434472 0 -0.42395130998641067 -0.31127905704434472 0 -0.42709180872781188 -0.29439449141065738 0 -0.44024276041750632 -0.31887045497680111 0 -0.42395130998641067 -0.31127905704434472 0 -0.43527018611072049 -0.30465000121327751 0 -0.42395130998641067 -0.31127905704434472 0 -0.42709180872781188 -0.29439449141065738 0 -0.41541732284930832 -0.30730243798379953 0 -0.42395130998641067 -0.31127905704434472 0 -0.43527018611072049 -0.30465000121327751 0 -0.42709180872781188 -0.29439449141065738 0 -0.441361257405879 -0.29303276451920029 0 -0.43527018611072049 -0.30465000121327751 0 -0.42709180872781188 -0.29439449141065738 0 -0.42709180872781188 -0.29439449141065738 0 -0.43077531442077321 -0.27459050524281542 0 -0.42709180872781188 -0.29439449141065738 0 -0.41684225135067149 -0.28376244362903152 0 -0.43077531442077321 -0.27459050524281542 0 -0.441361257405879 -0.29303276451920029 0 -0.42709180872781188 -0.29439449141065738 0 -0.441361257405879 -0.29303276451920029 0 -0.42709180872781188 -0.29439449141065738 0 -0.43077531442077321 -0.27459050524281542 0 -0.42709180872781188 -0.29439449141065738 0 -0.41684225135067149 -0.28376244362903152 0 -0.40618483967714292 -0.29638963380315841 0 -0.42709180872781188 -0.29439449141065738 0 -0.40618483967714292 -0.29638963380315841 0 -0.41684225135067149 -0.28376244362903152 0 -0.40690107601488551 -0.28490397733270861 0 -0.40618483967714292 -0.29638963380315841 0 -0.41541732284930832 -0.30730243798379953 0 -0.40185461233875269 -0.30098256284660307 0 -0.40618483967714292 -0.29638963380315841 0 -0.42709180872781188 -0.29439449141065738 0 -0.41541732284930832 -0.30730243798379953 0 -0.40618483967714292 -0.29638963380315841 0 -0.41541732284930832 -0.30730243798379953 0 -0.40618483967714292 -0.29638963380315841 0 -0.41242695344044827 -0.31820451366256841 0 -0.41541732284930832 -0.30730243798379953 0 -0.40185461233875269 -0.30098256284660307 0 -0.41541732284930832 -0.30730243798379953 0 -0.40185461233875269 -0.30098256284660307 0 -0.42301959421646518 -0.31628833020920039 0 -0.41541732284930832 -0.30730243798379953 0 -0.42395130998641067 -0.31127905704434472 0 -0.41541732284930832 -0.30730243798379953 0 -0.42301959421646518 -0.31628833020920039 0 -0.42395130998641067 -0.31127905704434472 0 -0.41541732284930832 -0.30730243798379953 0 -0.38442983343225828 -0.32189177462067481 0 -0.40185461233875269 -0.30098256284660307 0 -0.39448508010510541 -0.297525044214214 0 -0.40185461233875269 -0.30098256284660307 0 -0.40174149504185092 -0.29681366012781812 0 -0.40618483967714292 -0.29638963380315841 0 -0.40185461233875269 -0.30098256284660307 0 -0.40174149504185092 -0.29681366012781812 0 -0.40185461233875269 -0.30098256284660307 0 -0.39448508010510541 -0.297525044214214 0 -0.40174149504185092 -0.29681366012781812 0 -0.40185461233875269 -0.30098256284660307 0 -0.39448508010510541 -0.297525044214214 0 -0.39448508010510541 -0.297525044214214 0 -0.40174149504185092 -0.29681366012781812 0 -0.37641717267996733 -0.3184640617331177 0 -0.37669606201677502 -0.29920373422444158 0 -0.38442983343225828 -0.32189177462067481 0 -0.39448508010510541 -0.297525044214214 0 -0.38442983343225828 -0.32189177462067481 0 -0.39448508010510541 -0.297525044214214 0 -0.3841914044669909 -0.30132118344037401 0 -0.37641717267996733 -0.3184640617331177 0 -0.3841914044669909 -0.30132118344037401 0 -0.37669606201677502 -0.29920373422444158 0 -0.39448508010510541 -0.297525044214214 0 -0.3841914044669909 -0.30132118344037401 0 -0.37928718982873688 -0.29895646409505849 0 -0.39448508010510541 -0.297525044214214 0 -0.37928718982873688 -0.29895646409505849 0 -0.3841914044669909 -0.30132118344037401 0 -0.37928718982873688 -0.29895646409505849 0 -0.3841914044669909 -0.30132118344037401 0 -0.37928718982873688 -0.29895646409505849 0 -0.37669606201677502 -0.29920373422444158 0 -0.37928718982873688 -0.29895646409505849 0 -0.37669606201677502 -0.29920373422444158 0 -0.37671758341694961 -0.29771744858697219 0 -0.37928718982873688 -0.29895646409505849 0 -0.37671758341694961 -0.29771744858697219 0 -0.37928718982873688 -0.29895646409505849 0 -0.37669606201677502 -0.29920373422444158 0 -0.37669606201677502 -0.29920373422444158 0 -0.37671758341694961 -0.29771744858697219 0 -0.37671758341694961 -0.29771744858697219 0 -0.38607699004493318 -0.28757386461908069 0 -0.38483052758877101 -0.28123782127595193 0 -0.37671758341694961 -0.29771744858697219 0 -0.3770412393053626 -0.27536550612006683 0 -0.37671758341694961 -0.29771744858697219 0 -0.38483052758877101 -0.28123782127595193 0 -0.3770412393053626 -0.27536550612006683 0 -0.37928718982873688 -0.29895646409505849 0 -0.37671758341694961 -0.29771744858697219 0 -0.38467000758835601 -0.29297497791584359 0 -0.37671758341694961 -0.29771744858697219 0 -0.38467000758835601 -0.29297497791584359 0 -0.38607699004493318 -0.28757386461908069 0 -0.39448508010510541 -0.297525044214214 0 -0.37928718982873688 -0.29895646409505849 0 -0.38467000758835601 -0.29297497791584359 0 -0.39448508010510541 -0.297525044214214 0 -0.38467000758835601 -0.29297497791584359 0 -0.39448508010510541 -0.297525044214214 0 -0.38467000758835601 -0.29297497791584359 0 -0.39217701296355612 -0.28987936211692023 0 -0.38467000758835601 -0.29297497791584359 0 -0.38607699004493318 -0.28757386461908069 0 -0.39217701296355612 -0.28987936211692023 0 -0.38607699004493318 -0.28757386461908069 0 -0.39049541959166939 -0.28414526237041138 0 -0.39217701296355612 -0.28987936211692023 0 -0.39049541959166939 -0.28414526237041138 0 -0.39420405367365152 -0.27853706101481662 0 -0.38483052758877101 -0.28123782127595193 0 -0.38607699004493318 -0.28757386461908069 0 -0.39049541959166939 -0.28414526237041138 0 -0.38483052758877101 -0.28123782127595193 0 -0.39597078832761667 -0.28551153658085893 0 -0.40174149504185092 -0.29681366012781812 0 -0.40123596036735593 -0.27818233727432817 0 -0.39049541959166939 -0.28414526237041138 0 -0.39597078832761667 -0.28551153658085893 0 -0.39420405367365152 -0.27853706101481662 0 -0.40174149504185092 -0.29681366012781812 0 -0.40123596036735593 -0.27818233727432817 0 -0.40174149504185092 -0.29681366012781812 0 -0.40322207619149192 -0.29288764445213411 0 -0.40123596036735593 -0.27818233727432817 0 -0.39049541959166939 -0.28414526237041138 0 -0.39597078832761667 -0.28551153658085893 0 -0.39217701296355612 -0.28987936211692023 0 -0.39597078832761667 -0.28551153658085893 0 -0.39217701296355612 -0.28987936211692023 0 -0.40174149504185092 -0.29681366012781812 0 -0.39448508010510541 -0.297525044214214 0 -0.39217701296355612 -0.28987936211692023 0 -0.40174149504185092 -0.29681366012781812 0 -0.40690107601488551 -0.28490397733270861 0 -0.40322207619149192 -0.29288764445213411 0 -0.40618483967714292 -0.29638963380315841 0 -0.40174149504185092 -0.29681366012781812 0 -0.40322207619149192 -0.29288764445213411 0 -0.40618483967714292 -0.29638963380315841 0 -0.40174149504185092 -0.29681366012781812 0 -0.40618483967714292 -0.29638963380315841 0 -0.40322207619149192 -0.29288764445213411 0 -0.40618483967714292 -0.29638963380315841 0 -0.40690107601488551 -0.28490397733270861 0 -0.40322207619149192 -0.29288764445213411 0 -0.40123596036735593 -0.27818233727432817 0 -0.39420405367365152 -0.27853706101481662 0 -0.37710287173325818 -0.2711091198417086 0 -0.40073042569286338 -0.25955101442083811 0 -0.40123596036735593 -0.27818233727432817 0 -0.39420405367365152 -0.27853706101481662 0 -0.40073042569286338 -0.25955101442083811 0 -0.40123596036735593 -0.27818233727432817 0 -0.40073042569286338 -0.25955101442083811 0 -0.40123596036735593 -0.27818233727432817 0 -0.40073042569286338 -0.25955101442083811 0 -0.41341650638623911 -0.27076301679274262 0 -0.39597078832761667 -0.28551153658085893 0 -0.40123596036735593 -0.27818233727432817 0 -0.39420405367365152 -0.27853706101481662 0 -0.39420405367365152 -0.27853706101481662 0 -0.37710287173325818 -0.2711091198417086 0 -0.3770412393053626 -0.27536550612006683 0 -0.39420405367365152 -0.27853706101481662 0 -0.3770412393053626 -0.27536550612006683 0 -0.39420405367365152 -0.27853706101481662 0 -0.38483052758877101 -0.28123782127595193 0 -0.3770412393053626 -0.27536550612006683 0 -0.37710287173325818 -0.2711091198417086 0 -0.3770412393053626 -0.27536550612006683 0 -0.37710287173325818 -0.2711091198417086 0 -0.38543722149146659 -0.25821727905458303 0 -0.40073042569286338 -0.25955101442083811 0 -0.37710287173325818 -0.2711091198417086 0 -0.37747963509906429 -0.24508953120583671 0 -0.37710287173325818 -0.2711091198417086 0 -0.40073042569286338 -0.25955101442083811 0 -0.37710287173325818 -0.2711091198417086 0 -0.38543722149146659 -0.25821727905458303 0 -0.37747963509906429 -0.24508953120583671 0 -0.38543722149146659 -0.25821727905458303 0 -0.3938256931015453 -0.25037754026629511 0 -0.37747963509906429 -0.24508953120583671 0 -0.38543722149146659 -0.25821727905458303 0 -0.3938256931015453 -0.25037754026629511 0 -0.40073042569286338 -0.25955101442083811 0 -0.40073042569286338 -0.25955101442083811 0 -0.40282532782868952 -0.25224285689579767 0 -0.40022281387448849 -0.24084313907701979 0 -0.40073042569286338 -0.25955101442083811 0 -0.40022281387448849 -0.24084313907701979 0 -0.3938256931015453 -0.25037754026629511 0 -0.40073042569286338 -0.25955101442083811 0 -0.40022281387448849 -0.24084313907701979 0 -0.40073042569286338 -0.25955101442083811 0 -0.40282532782868952 -0.25224285689579767 0 -0.41385673751816382 -0.25312989710486528 0 -0.40073042569286338 -0.25955101442083811 0 -0.41385673751816382 -0.25312989710486528 0 -0.40073042569286338 -0.25955101442083811 0 -0.41385673751816382 -0.25312989710486528 0 -0.41341650638623911 -0.27076301679274262 0 -0.41385673751816382 -0.25312989710486528 0 -0.41341650638623911 -0.27076301679274262 0 -0.42312684460972783 -0.26331748455384929 0 -0.41385673751816382 -0.25312989710486528 0 -0.41679144862722167 -0.25169429778568547 0 -0.43445882011373449 -0.25478651907497341 0 -0.40282532782868952 -0.25224285689579767 0 -0.41385673751816382 -0.25312989710486528 0 -0.4086566941719203 -0.24778871483445111 0 -0.40282532782868952 -0.25224285689579767 0 -0.41385673751816382 -0.25312989710486528 0 -0.41385673751816382 -0.25312989710486528 0 -0.41679144862722167 -0.25169429778568547 0 -0.41627810448972868 -0.24641300060905449 0 -0.41385673751816382 -0.25312989710486528 0 -0.41679144862722167 -0.25169429778568547 0 -0.41684225135067149 -0.28376244362903152 0 -0.41341650638623911 -0.27076301679274262 0 -0.43077531442077321 -0.27459050524281542 0 -0.40690107601488551 -0.28490397733270861 0 -0.40123596036735593 -0.27818233727432817 0 -0.41341650638623911 -0.27076301679274262 0 -0.41684225135067149 -0.28376244362903152 0 -0.40690107601488551 -0.28490397733270861 0 -0.41341650638623911 -0.27076301679274262 0 -0.41341650638623911 -0.27076301679274262 0 -0.43077531442077321 -0.27459050524281542 0 -0.42312684460972783 -0.26331748455384929 0 -0.43077531442077321 -0.27459050524281542 0 -0.42312684460972783 -0.26331748455384929 0 -0.43445882011373449 -0.25478651907497341 0 -0.41385673751816382 -0.25312989710486528 0 -0.43445882011373449 -0.25478651907497341 0 -0.43077531442077321 -0.27459050524281542 0 -0.43445882011373449 -0.25478651907497341 0 -0.41385673751816382 -0.25312989710486528 0 -0.42312684460972783 -0.26331748455384929 0 -0.43445882011373449 -0.25478651907497341 0 -0.41679144862722167 -0.25169429778568547 0 -0.43445882011373449 -0.25478651907497341 0 -0.42335340856967768 -0.24893549408922019 0 -0.32580796388430833 -0.26195871891040218 0 -0.34139866608006603 -0.2687790352098644 0 -0.31202674084989918 -0.26335133138269068 0 -0.32580796388430833 -0.26195871891040218 0 -0.33345250408021371 -0.25331871279766999 0 -0.32023222063025569 -0.2489608815952247 0 -0.32580796388430833 -0.26195871891040218 0 -0.31664960680882542 -0.25714232151458272 0 -0.32023222063025569 -0.2489608815952247 0 -0.31664960680882542 -0.25714232151458272 0 -0.30853150187083839 -0.25429835417001312 0 -0.32023222063025569 -0.2489608815952247 0 -0.32580796388430833 -0.26195871891040218 0 -0.31664960680882542 -0.25714232151458272 0 -0.31202674084989918 -0.26335133138269068 0 -0.33223611708196649 -0.27626932861073827 0 -0.31972670239926188 -0.28454160199560091 0 -0.31187737399160442 -0.27618124236115132 0 -0.34139866608006603 -0.2687790352098644 0 -0.31202674084989918 -0.26335133138269068 0 -0.33223611708196649 -0.27626932861073827 0 -0.31202674084989918 -0.26335133138269068 0 -0.3062135479255173 -0.26372173898871692 0 -0.33223611708196649 -0.27626932861073827 0 -0.31187737399160442 -0.27618124236115132 0 -0.3062135479255173 -0.26372173898871692 0 -0.33260241140844943 -0.2743168067351805 0 -0.33223611708196649 -0.27626932861073827 0 -0.31202674084989918 -0.26335133138269068 0 -0.33223611708196649 -0.27626932861073827 0 -0.3062135479255173 -0.26372173898871692 0 -0.33260241140844943 -0.2743168067351805 0 -0.34139866608006603 -0.2687790352098644 0 -0.31202674084989918 -0.26335133138269068 0 -0.33223611708196649 -0.27626932861073827 0 -0.34139866608006603 -0.2687790352098644 0 -0.34951875912658742 -0.28460269103381453 0 -0.33223611708196649 -0.27626932861073827 0 -0.34951875912658742 -0.28460269103381453 0 -0.33260241140844943 -0.2743168067351805 0 -0.33223611708196649 -0.27626932861073827 0 -0.34139866608006603 -0.2687790352098644 0 -0.33260241140844943 -0.2743168067351805 0 -0.33223611708196649 -0.27626932861073827 0 -0.34139866608006603 -0.2687790352098644 0 -0.3363084638556994 -0.26041051377605268 0 -0.34457472137820933 -0.25758558818627408 0 -0.32580796388430833 -0.26195871891040218 0 -0.34139866608006603 -0.2687790352098644 0 -0.3363084638556994 -0.26041051377605268 0 -0.32580796388430833 -0.26195871891040218 0 -0.3363084638556994 -0.26041051377605268 0 -0.33345250408021371 -0.25331871279766999 0 -0.3363084638556994 -0.26041051377605268 0 -0.33345250408021371 -0.25331871279766999 0 -0.34457472137820933 -0.25758558818627408 0 -0.33345250408021371 -0.25331871279766999 0 -0.34457472137820933 -0.25758558818627408 0 -0.34395992200845399 -0.24382677409400949 0 -0.34139866608006603 -0.2687790352098644 0 -0.34457472137820933 -0.25758558818627408 0 -0.35733732661955131 -0.26288598862094092 0 -0.34457472137820933 -0.25758558818627408 0 -0.35872453044413888 -0.25078889886649508 0 -0.34395992200845399 -0.24382677409400949 0 -0.34457472137820933 -0.25758558818627408 0 -0.35733732661955131 -0.26288598862094092 0 -0.35872453044413888 -0.25078889886649508 0 -0.37710287173325818 -0.2711091198417086 0 -0.36828299104124951 -0.26081605551440462 0 -0.37747963509906429 -0.24508953120583671 0 -0.35872453044413888 -0.25078889886649508 0 -0.36828299104124951 -0.26081605551440462 0 -0.37747963509906429 -0.24508953120583671 0 -0.35733732661955131 -0.26288598862094092 0 -0.35872453044413888 -0.25078889886649508 0 -0.36828299104124951 -0.26081605551440462 0 -0.37077059131023282 -0.27420673903703829 0 -0.34951875912658742 -0.28460269103381453 0 -0.37710287173325818 -0.2711091198417086 0 -0.3770412393053626 -0.27536550612006683 0 -0.37077059131023282 -0.27420673903703829 0 -0.3770412393053626 -0.27536550612006683 0 -0.37077059131023282 -0.27420673903703829 0 -0.37710287173325818 -0.2711091198417086 0 -0.36828299104124951 -0.26081605551440462 0 -0.37077059131023282 -0.27420673903703829 0 -0.37710287173325818 -0.2711091198417086 0 -0.37077059131023282 -0.27420673903703829 0 -0.35733732661955131 -0.26288598862094092 0 -0.36828299104124951 -0.26081605551440462 0 -0.37077059131023282 -0.27420673903703829 0 -0.34139866608006603 -0.2687790352098644 0 -0.35733732661955131 -0.26288598862094092 0 -0.37077059131023282 -0.27420673903703829 0 -0.34139866608006603 -0.2687790352098644 0 -0.37077059131023282 -0.27420673903703829 0 -0.34951875912658742 -0.28460269103381453 0 -0.34139866608006603 -0.2687790352098644 0 -0.37077059131023282 -0.27420673903703829 0 -0.34951875912658742 -0.28460269103381453 0 -0.3581763596052473 -0.30097106086504849 0 -0.34010739644885768 -0.2892065328944351 0 -0.34951875912658742 -0.28460269103381453 0 -0.34010739644885768 -0.2892065328944351 0 -0.37671758341694961 -0.29771744858697219 0 -0.37077059131023282 -0.27420673903703829 0 -0.34951875912658742 -0.28460269103381453 0 -0.37671758341694961 -0.29771744858697219 0 -0.34951875912658742 -0.28460269103381453 0 -0.37671758341694961 -0.29771744858697219 0 -0.3770412393053626 -0.27536550612006683 0 -0.37077059131023282 -0.27420673903703829 0 -0.37671758341694961 -0.29771744858697219 0 -0.34951875912658742 -0.28460269103381453 0 -0.3581763596052473 -0.30097106086504849 0 -0.37669606201677502 -0.29920373422444158 0 -0.37671758341694961 -0.29771744858697219 0 -0.3581763596052473 -0.30097106086504849 0 -0.37641717267996733 -0.3184640617331177 0 -0.37669606201677502 -0.29920373422444158 0 -0.36799370156123501 -0.30592930732763762 0 -0.37641717267996733 -0.3184640617331177 0 -0.36799370156123501 -0.30592930732763762 0 -0.35803691493684492 -0.31060122461938489 0 -0.37669606201677502 -0.29920373422444158 0 -0.36799370156123501 -0.30592930732763762 0 -0.3581763596052473 -0.30097106086504849 0 -0.37669606201677502 -0.29920373422444158 0 -0.3581763596052473 -0.30097106086504849 0 -0.36799370156123501 -0.30592930732763762 0 -0.35803691493684492 -0.31060122461938489 0 -0.3581763596052473 -0.30097106086504849 0 -0.35803691493684492 -0.31060122461938489 0 -0.33965665719371979 -0.30273838750565862 0 -0.35803691493684492 -0.31060122461938489 0 -0.33965665719371979 -0.30273838750565862 0 -0.34514704515453298 -0.31300544250539297 0 -0.3581763596052473 -0.30097106086504849 0 -0.33965665719371979 -0.30273838750565862 0 -0.34010739644885768 -0.2892065328944351 0 -0.35803691493684492 -0.31060122461938489 0 -0.3581763596052473 -0.30097106086504849 0 -0.33965665719371979 -0.30273838750565862 0 -0.3581763596052473 -0.30097106086504849 0 -0.33965665719371979 -0.30273838750565862 0 -0.33676996251121621 -0.31158184422573892 0 -0.33965665719371979 -0.30273838750565862 0 -0.34514704515453298 -0.31300544250539297 0 -0.33676996251121621 -0.31158184422573892 0 -0.33965665719371979 -0.30273838750565862 0 -0.32704471803945162 -0.30394193902942662 0 -0.33676996251121621 -0.31158184422573892 0 -0.32594772137393307 -0.30978944971135602 0 -0.32704471803945162 -0.30394193902942662 0 -0.33965665719371979 -0.30273838750565862 0 -0.32704471803945162 -0.30394193902942662 0 -0.32819068517220462 -0.29783339261299951 0 -0.33965665719371979 -0.30273838750565862 0 -0.32704471803945162 -0.30394193902942662 0 -0.32819068517220462 -0.29783339261299951 0 -0.33965665719371979 -0.30273838750565862 0 -0.33223611708196649 -0.27626932861073827 0 -0.32819068517220462 -0.29783339261299951 0 -0.33223611708196649 -0.27626932861073827 0 -0.32819068517220462 -0.29783339261299951 0 -0.34010739644885768 -0.2892065328944351 0 -0.33223611708196649 -0.27626932861073827 0 -0.34951875912658742 -0.28460269103381453 0 -0.34010739644885768 -0.2892065328944351 0 -0.32819068517220462 -0.29783339261299951 0 -0.33965665719371979 -0.30273838750565862 0 -0.34010739644885768 -0.2892065328944351 0 -0.32819068517220462 -0.29783339261299951 0 -0.31972670239926188 -0.28454160199560091 0 -0.31332574866090718 -0.291474364566292 0 -0.32819068517220462 -0.29783339261299951 0 -0.31332574866090718 -0.291474364566292 0 -0.33223611708196649 -0.27626932861073827 0 -0.32819068517220462 -0.29783339261299951 0 -0.31972670239926188 -0.28454160199560091 0 -0.31972670239926188 -0.28454160199560091 0 -0.31332574866090718 -0.291474364566292 0 -0.30937392239009109 -0.28339120160471948 0 -0.31972670239926188 -0.28454160199560091 0 -0.30937392239009109 -0.28339120160471948 0 -0.31187737399160442 -0.27618124236115132 0 -0.31992409361072222 -0.30462145692723192 0 -0.32594772137393307 -0.30978944971135602 0 -0.31307430431717392 -0.31869978567557272 0 -0.31992409361072222 -0.30462145692723192 0 -0.32594772137393307 -0.30978944971135602 0 -0.32594772137393307 -0.30978944971135602 0 -0.32704471803945162 -0.30394193902942662 0 -0.31992409361072222 -0.30462145692723192 0 -0.32594772137393307 -0.30978944971135602 0 -0.32704471803945162 -0.30394193902942662 0 -0.32819068517220462 -0.29783339261299951 0 -0.31332574866090718 -0.291474364566292 0 -0.31992409361072222 -0.30462145692723192 0 -0.32819068517220462 -0.29783339261299951 0 -0.32704471803945162 -0.30394193902942662 0 -0.32819068517220462 -0.29783339261299951 0 -0.31992409361072222 -0.30462145692723192 0 -0.32704471803945162 -0.30394193902942662 0 -0.31992409361072222 -0.30462145692723192 0 -0.32704471803945162 -0.30394193902942662 0 -0.32594772137393307 -0.30978944971135602 0 -0.31307430431717392 -0.31869978567557272 0 -0.32184288384298337 -0.33167017375041419 0 -0.32594772137393307 -0.30978944971135602 0 -0.32184288384298337 -0.33167017375041419 0 -0.32184288384298337 -0.33167017375041419 0 -0.31773804631203251 -0.35355089778947202 0 -0.32184288384298337 -0.33167017375041419 0 -0.34475024534571441 -0.34586667392980902 0 -0.31773804631203251 -0.35355089778947202 0 -0.32184288384298337 -0.33167017375041419 0 -0.34612464597635118 -0.32710031367078812 0 -0.34475024534571441 -0.34586667392980902 0 -0.33676996251121621 -0.31158184422573892 0 -0.32594772137393307 -0.30978944971135602 0 -0.34612464597635118 -0.32710031367078812 0 -0.32594772137393307 -0.30978944971135602 0 -0.34612464597635118 -0.32710031367078812 0 -0.32594772137393307 -0.30978944971135602 0 -0.32184288384298337 -0.33167017375041419 0 -0.34612464597635118 -0.32710031367078812 0 -0.33676996251121621 -0.31158184422573892 0 -0.34514704515453298 -0.31300544250539297 0 -0.34612464597635118 -0.32710031367078812 0 -0.35803691493684492 -0.31060122461938489 0 -0.34514704515453298 -0.31300544250539297 0 -0.34612464597635118 -0.32710031367078812 0 -0.35803691493684492 -0.31060122461938489 0 -0.34612464597635118 -0.32710031367078812 0 -0.35600230731325749 -0.33324145173106873 0 -0.37641717267996733 -0.3184640617331177 0 -0.35803691493684492 -0.31060122461938489 0 -0.37641717267996733 -0.3184640617331177 0 -0.35803691493684492 -0.31060122461938489 0 -0.36719759625642318 -0.33008752154143739 0 -0.35803691493684492 -0.31060122461938489 0 -0.36719759625642318 -0.33008752154143739 0 -0.35600230731325749 -0.33324145173106873 0 -0.37607676276689278 -0.3419730509543204 0 -0.37641717267996733 -0.3184640617331177 0 -0.36719759625642318 -0.33008752154143739 0 -0.37607676276689278 -0.3419730509543204 0 -0.3688763256213185 -0.34309961767568647 0 -0.36719759625642318 -0.33008752154143739 0 -0.36719759625642318 -0.33008752154143739 0 -0.36118874601324108 -0.3436521492952741 0 -0.35600230731325749 -0.33324145173106873 0 -0.3688763256213185 -0.34309961767568647 0 -0.36719759625642318 -0.33008752154143739 0 -0.36118874601324108 -0.3436521492952741 0 -0.34612464597635118 -0.32710031367078812 0 -0.35600230731325749 -0.33324145173106873 0 -0.34475024534571441 -0.34586667392980902 0 -0.36118874601324108 -0.3436521492952741 0 -0.35600230731325749 -0.33324145173106873 0 -0.34475024534571441 -0.34586667392980902 0 -0.36118874601324108 -0.3436521492952741 0 -0.34475024534571441 -0.34586667392980902 0 -0.35925477447714671 -0.35134479444962452 0 -0.34475024534571441 -0.34586667392980902 0 -0.35480891830463612 -0.3592101017575729 0 -0.33937201587241012 -0.36587749477948078 0 -0.34475024534571441 -0.34586667392980902 0 -0.35480891830463612 -0.3592101017575729 0 -0.35925477447714671 -0.35134479444962452 0 -0.36118874601324108 -0.3436521492952741 0 -0.37225797237559449 -0.35115364910559932 0 -0.36118874601324108 -0.3436521492952741 0 -0.35925477447714671 -0.35134479444962452 0 -0.36985982957495511 -0.35171195823109852 0 -0.37568304780698558 -0.36916333065311507 0 -0.37593298752455201 -0.35190228771479481 0 -0.37225797237559449 -0.35115364910559932 0 -0.35480891830463612 -0.3592101017575729 0 -0.35925477447714671 -0.35134479444962452 0 -0.36985982957495511 -0.35171195823109852 0 -0.37607676276689278 -0.3419730509543204 0 -0.3688763256213185 -0.34309961767568647 0 -0.37225797237559449 -0.35115364910559932 0 -0.37607676276689278 -0.3419730509543204 0 -0.37225797237559449 -0.35115364910559932 0 -0.37607676276689278 -0.3419730509543204 0 -0.37390838074359528 -0.35076941925389299 0 -0.37225797237559449 -0.35115364910559932 0 -0.37593298752455201 -0.35190228771479481 0 -0.37390838074359528 -0.35076941925389299 0 -0.37225797237559449 -0.35115364910559932 0 -0.3688763256213185 -0.34309961767568647 0 -0.36118874601324108 -0.3436521492952741 0 -0.37225797237559449 -0.35115364910559932 0 -0.37593298752455201 -0.35190228771479481 0 -0.37390838074359528 -0.35076941925389299 0 -0.36118874601324108 -0.3436521492952741 0 -0.36985982957495511 -0.35171195823109852 0 -0.37225797237559449 -0.35115364910559932 0 -0.37595629511297179 -0.35029264644438168 0 -0.37390838074359528 -0.35076941925389299 0 -0.37390838074359528 -0.35076941925389299 0 -0.37225797237559449 -0.35115364910559932 0 -0.36985982957495511 -0.35171195823109852 0 -0.37225797237559449 -0.35115364910559932 0 -0.37568304780698558 -0.36916333065311507 0 -0.37225797237559449 -0.35115364910559932 0 -0.36100598543278789 -0.37820409176948921 0 -0.35480891830463612 -0.3592101017575729 0 -0.36985982957495511 -0.35171195823109852 0 -0.36100598543278789 -0.37820409176948921 0 -0.36985982957495511 -0.35171195823109852 0 -0.37225797237559449 -0.35115364910559932 0 -0.36100598543278789 -0.37820409176948921 0 -0.37225797237559449 -0.35115364910559932 0 -0.36100598543278789 -0.37820409176948921 0 -0.33937201587241012 -0.36587749477948078 0 -0.36100598543278789 -0.37820409176948921 0 -0.35480891830463612 -0.3592101017575729 0 -0.33937201587241012 -0.36587749477948078 0 -0.36100598543278789 -0.37820409176948921 0 -0.33937201587241012 -0.36587749477948078 0 -0.31773804631203251 -0.35355089778947202 0 -0.33937201587241012 -0.36587749477948078 0 -0.31773804631203251 -0.35355089778947202 0 -0.32803705280137402 -0.37447550275240871 0 -0.34475024534571441 -0.34586667392980902 0 -0.33937201587241012 -0.36587749477948078 0 -0.31773804631203251 -0.35355089778947202 0 -0.31773804631203251 -0.35355089778947202 0 -0.31381007312398762 -0.37448885129246268 0 -0.31773804631203251 -0.35355089778947202 0 -0.31381007312398762 -0.37448885129246268 0 -0.32803705280137402 -0.37447550275240871 0 -0.31381007312398762 -0.37448885129246268 0 -0.29871455833571747 -0.36148408621311728 0 -0.29196992941862432 -0.3825632544476108 0 -0.31773804631203251 -0.35355089778947202 0 -0.31381007312398762 -0.37448885129246268 0 -0.29871455833571747 -0.36148408621311728 0 -0.31773804631203251 -0.35355089778947202 0 -0.29871455833571747 -0.36148408621311728 0 -0.29282778547957722 -0.33935753649529382 0 -0.31773804631203251 -0.35355089778947202 0 -0.29282778547957722 -0.33935753649529382 0 -0.29871455833571747 -0.36148408621311728 0 -0.27675503022224163 -0.36681377825091099 0 -0.29282778547957722 -0.33935753649529382 0 -0.29871455833571747 -0.36148408621311728 0 -0.27675503022224163 -0.36681377825091099 0 -0.29196992941862432 -0.3825632544476108 0 -0.27675503022224163 -0.36681377825091099 0 -0.25757508569408222 -0.36424633604315798 0 -0.26546808025963542 -0.34847395767735678 0 -0.27675503022224163 -0.36681377825091099 0 -0.25757508569408222 -0.36424633604315798 0 -0.25812358553267323 -0.37605355791306738 0 -0.25757508569408222 -0.36424633604315798 0 -0.24839247009954951 -0.37292447016044328 0 -0.24532753696728959 -0.36501789644951049 0 -0.25757508569408222 -0.36424633604315798 0 -0.25812358553267323 -0.37605355791306738 0 -0.24839247009954951 -0.37292447016044328 0 -0.25757508569408222 -0.36424633604315798 0 -0.26546808025963542 -0.34847395767735678 0 -0.24650166737573331 -0.3569693529562265 0 -0.26546808025963542 -0.34847395767735678 0 -0.24650166737573331 -0.3569693529562265 0 -0.24881121389389799 -0.33838995723746451 0 -0.27675503022224163 -0.36681377825091099 0 -0.26546808025963542 -0.34847395767735678 0 -0.29282778547957722 -0.33935753649529382 0 -0.26791752464712137 -0.32516417520111718 0 -0.27544300416693679 -0.31995488319631832 0 -0.29282778547957722 -0.33935753649529382 0 -0.26546808025963542 -0.34847395767735678 0 -0.26791752464712137 -0.32516417520111718 0 -0.29282778547957722 -0.33935753649529382 0 -0.26791752464712137 -0.32516417520111718 0 -0.29282778547957722 -0.33935753649529382 0 -0.26791752464712137 -0.32516417520111718 0 -0.24881121389389799 -0.33838995723746451 0 -0.26546808025963542 -0.34847395767735678 0 -0.26791752464712137 -0.32516417520111718 0 -0.24881121389389799 -0.33838995723746451 0 -0.26791752464712137 -0.32516417520111718 0 -0.24881121389389799 -0.33838995723746451 0 -0.2441082332202735 -0.32380704628422963 0 -0.26791752464712137 -0.32516417520111718 0 -0.2444966906846206 -0.31181945912301329 0 -0.26791752464712137 -0.32516417520111718 0 -0.26963915832665503 -0.30942012505775762 0 -0.2444966906846206 -0.31181945912301329 0 -0.26791752464712137 -0.32516417520111718 0 -0.2441082332202735 -0.32380704628422963 0 -0.2444966906846206 -0.31181945912301329 0 -0.26791752464712137 -0.32516417520111718 0 -0.27544300416693679 -0.31995488319631832 0 -0.26963915832665503 -0.30942012505775762 0 -0.26791752464712137 -0.32516417520111718 0 -0.27544300416693679 -0.31995488319631832 0 -0.27544300416693679 -0.31995488319631832 0 -0.29403167998309421 -0.32125824908992018 0 -0.29478162596868879 -0.30702079099249591 0 -0.27544300416693679 -0.31995488319631832 0 -0.29403167998309421 -0.32125824908992018 0 -0.29282778547957722 -0.33935753649529382 0 -0.31307430431717392 -0.31869978567557272 0 -0.32184288384298337 -0.33167017375041419 0 -0.29282778547957722 -0.33935753649529382 0 -0.32184288384298337 -0.33167017375041419 0 -0.31773804631203251 -0.35355089778947202 0 -0.29282778547957722 -0.33935753649529382 0 -0.31307430431717392 -0.31869978567557272 0 -0.29403167998309421 -0.32125824908992018 0 -0.29282778547957722 -0.33935753649529382 0 -0.31307430431717392 -0.31869978567557272 0 -0.29403167998309421 -0.32125824908992018 0 -0.29478162596868879 -0.30702079099249591 0 -0.31992409361072222 -0.30462145692723192 0 -0.29478162596868879 -0.30702079099249591 0 -0.31992409361072222 -0.30462145692723192 0 -0.31307430431717392 -0.31869978567557272 0 -0.29478162596868879 -0.30702079099249591 0 -0.31992409361072222 -0.30462145692723192 0 -0.30687808727867438 -0.29770175581860719 0 -0.29478162596868879 -0.30702079099249591 0 -0.30687808727867438 -0.29770175581860719 0 -0.29813438661480679 -0.29530641477552327 0 -0.29478162596868879 -0.30702079099249591 0 -0.31992409361072222 -0.30462145692723192 0 -0.2984608121496099 -0.28511533651958437 0 -0.31992409361072222 -0.30462145692723192 0 -0.30687808727867438 -0.29770175581860719 0 -0.2984608121496099 -0.28511533651958437 0 -0.31332574866090718 -0.291474364566292 0 -0.31992409361072222 -0.30462145692723192 0 -0.2984608121496099 -0.28511533651958437 0 -0.31332574866090718 -0.291474364566292 0 -0.30937392239009109 -0.28339120160471948 0 -0.2984608121496099 -0.28511533651958437 0 -0.31332574866090718 -0.291474364566292 0 -0.2984608121496099 -0.28511533651958437 0 -0.30937392239009109 -0.28339120160471948 0 -0.2984608121496099 -0.28511533651958437 0 -0.30347897474907187 -0.279643462580969 0 -0.30687808727867438 -0.29770175581860719 0 -0.29951482580247829 -0.29240083595456018 0 -0.29813438661480679 -0.29530641477552327 0 -0.30687808727867438 -0.29770175581860719 0 -0.2984608121496099 -0.28511533651958437 0 -0.29951482580247829 -0.29240083595456018 0 -0.29951482580247829 -0.29240083595456018 0 -0.29813438661480679 -0.29530641477552327 0 -0.29499124589990039 -0.29073588210889412 0 -0.2984608121496099 -0.28511533651958437 0 -0.29951482580247829 -0.29240083595456018 0 -0.29499124589990039 -0.29073588210889412 0 -0.29499124589990039 -0.29073588210889412 0 -0.29148170063899659 -0.29460773718781319 0 -0.28586576089235322 -0.28577101837165192 0 -0.29813438661480679 -0.29530641477552327 0 -0.29499124589990039 -0.29073588210889412 0 -0.29148170063899659 -0.29460773718781319 0 -0.2984608121496099 -0.28511533651958437 0 -0.29499124589990039 -0.29073588210889412 0 -0.28586576089235322 -0.28577101837165192 0 -0.29148170063899659 -0.29460773718781319 0 -0.28586576089235322 -0.28577101837165192 0 -0.2798353156189245 -0.29508903771003908 0 -0.29148170063899659 -0.29460773718781319 0 -0.29478162596868879 -0.30702079099249591 0 -0.2798353156189245 -0.29508903771003908 0 -0.29478162596868879 -0.30702079099249591 0 -0.26963915832665503 -0.30942012505775762 0 -0.2798353156189245 -0.29508903771003908 0 -0.29478162596868879 -0.30702079099249591 0 -0.26963915832665503 -0.30942012505775762 0 -0.29813438661480679 -0.29530641477552327 0 -0.29148170063899659 -0.29460773718781319 0 -0.29478162596868879 -0.30702079099249591 0 -0.27544300416693679 -0.31995488319631832 0 -0.29478162596868879 -0.30702079099249591 0 -0.26963915832665503 -0.30942012505775762 0 -0.26963915832665503 -0.30942012505775762 0 -0.26057201890547982 -0.29344093798311832 0 -0.2798353156189245 -0.29508903771003908 0 -0.26963915832665503 -0.30942012505775762 0 -0.2444966906846206 -0.31181945912301329 0 -0.26963915832665503 -0.30942012505775762 0 -0.26057201890547982 -0.29344093798311832 0 -0.2444966906846206 -0.31181945912301329 0 -0.26057201890547982 -0.29344093798311832 0 -0.27108878797196961 -0.28331686931735522 0 -0.25298377122075039 -0.27518622721876451 0 -0.26057201890547982 -0.29344093798311832 0 -0.25298377122075039 -0.27518622721876451 0 -0.2435111179254994 -0.29490773243705071 0 -0.26057201890547982 -0.29344093798311832 0 -0.27108878797196961 -0.28331686931735522 0 -0.2798353156189245 -0.29508903771003908 0 -0.28586576089235322 -0.28577101837165192 0 -0.27108878797196961 -0.28331686931735522 0 -0.2798353156189245 -0.29508903771003908 0 -0.27108878797196961 -0.28331686931735522 0 -0.27618707322233982 -0.26709712530320262 0 -0.25298377122075039 -0.27518622721876451 0 -0.28586576089235322 -0.28577101837165192 0 -0.27108878797196961 -0.28331686931735522 0 -0.27618707322233982 -0.26709712530320262 0 -0.27618707322233982 -0.26709712530320262 0 -0.25431856302814809 -0.24833495949118861 0 -0.27618707322233982 -0.26709712530320262 0 -0.25298377122075039 -0.27518622721876451 0 -0.25431856302814809 -0.24833495949118861 0 -0.27618707322233982 -0.26709712530320262 0 -0.27309361240676189 -0.24179026653703889 0 -0.25431856302814809 -0.24833495949118861 0 -0.27618707322233982 -0.26709712530320262 0 -0.2907170577323625 -0.25177677077710309 0 -0.27309361240676189 -0.24179026653703889 0 -0.27618707322233982 -0.26709712530320262 0 -0.2907170577323625 -0.25177677077710309 0 -0.29477899871119112 -0.26293378760569941 0 -0.2984608121496099 -0.28511533651958437 0 -0.28586576089235322 -0.28577101837165192 0 -0.27618707322233982 -0.26709712530320262 0 -0.2984608121496099 -0.28511533651958437 0 -0.27618707322233982 -0.26709712530320262 0 -0.27618707322233982 -0.26709712530320262 0 -0.29477899871119112 -0.26293378760569941 0 -0.29948479845841441 -0.27338487519771032 0 -0.2984608121496099 -0.28511533651958437 0 -0.27618707322233982 -0.26709712530320262 0 -0.29948479845841441 -0.27338487519771032 0 -0.29477899871119112 -0.26293378760569941 0 -0.29948479845841441 -0.27338487519771032 0 -0.30156079933714469 -0.26765617134954151 0 -0.30156079933714469 -0.26765617134954151 0 -0.30403476516136241 -0.27459464834518948 0 -0.30588444940973558 -0.27063474712059482 0 -0.29948479845841441 -0.27338487519771032 0 -0.30156079933714469 -0.26765617134954151 0 -0.30403476516136241 -0.27459464834518948 0 -0.30156079933714469 -0.26765617134954151 0 -0.30588444940973558 -0.27063474712059482 0 -0.3062135479255173 -0.26372173898871692 0 -0.2984608121496099 -0.28511533651958437 0 -0.29948479845841441 -0.27338487519771032 0 -0.30347897474907187 -0.279643462580969 0 -0.29948479845841441 -0.27338487519771032 0 -0.30403476516136241 -0.27459464834518948 0 -0.30347897474907187 -0.279643462580969 0 -0.30937392239009109 -0.28339120160471948 0 -0.30347897474907187 -0.279643462580969 0 -0.31187737399160442 -0.27618124236115132 0 -0.30403476516136241 -0.27459464834518948 0 -0.30347897474907187 -0.279643462580969 0 -0.31187737399160442 -0.27618124236115132 0 -0.30403476516136241 -0.27459464834518948 0 -0.31187737399160442 -0.27618124236115132 0 -0.30588444940973558 -0.27063474712059482 0 -0.31187737399160442 -0.27618124236115132 0 -0.30588444940973558 -0.27063474712059482 0 -0.3062135479255173 -0.26372173898871692 0 -0.31664960680882542 -0.25714232151458272 0 -0.31202674084989918 -0.26335133138269068 0 -0.30853150187083839 -0.25429835417001312 0 -0.2907170577323625 -0.25177677077710309 0 -0.29477899871119112 -0.26293378760569941 0 -0.30853150187083839 -0.25429835417001312 0 -0.31202674084989918 -0.26335133138269068 0 -0.3062135479255173 -0.26372173898871692 0 -0.30853150187083839 -0.25429835417001312 0 -0.29477899871119112 -0.26293378760569941 0 -0.30156079933714469 -0.26765617134954151 0 -0.3062135479255173 -0.26372173898871692 0 -0.29477899871119112 -0.26293378760569941 0 -0.3062135479255173 -0.26372173898871692 0 -0.30853150187083839 -0.25429835417001312 0 -0.33709504481289931 -0.46474263175187808 0 -0.33075086723682939 -0.45093918684289991 0 -0.35302422329502631 -0.44785824460859458 0 -0.33709504481289931 -0.46474263175187808 0 -0.33075086723682939 -0.45093918684289991 0 -0.32054712240525829 -0.47546959342145068 0 -0.33075086723682939 -0.45093918684289991 0 -0.34095461206840061 -0.42640878026434909 0 -0.33075086723682939 -0.45093918684289991 0 -0.35302422329502631 -0.44785824460859458 0 -0.34095461206840061 -0.42640878026434909 0 -0.33075086723682939 -0.45093918684289991 0 -0.32054706720266329 -0.44859283512714471 0 -0.3206124180200437 -0.43193612962395289 0 -0.33075086723682939 -0.45093918684289991 0 -0.32054706720266329 -0.44859283512714471 0 -0.31571728338184601 -0.45752087103574601 0 -0.32054706720266329 -0.44859283512714471 0 -0.31571728338184601 -0.45752087103574601 0 -0.30706080135445341 -0.45057148265483188 0 -0.33075086723682939 -0.45093918684289991 0 -0.32054712240525829 -0.47546959342145068 0 -0.33075086723682939 -0.45093918684289991 0 -0.31571728338184601 -0.45752087103574601 0 -0.32054712240525829 -0.47546959342145068 0 -0.32054712240525829 -0.47546959342145068 0 -0.32750579650535672 -0.48798687004089669 0 -0.32933965142182292 -0.47777380670114528 0 -0.32054712240525829 -0.47546959342145068 0 -0.31034337757368669 -0.50000000000000133 0 -0.32750579650535672 -0.48798687004089669 0 -0.33387795429423722 -0.5 0 -0.31034337757368669 -0.50000000000000133 0 -0.32054712240525829 -0.47546959342145068 0 -0.32750579650535672 -0.48798687004089669 0 -0.31034337757368669 -0.50000000000000133 0 -0.32750579650535672 -0.48798687004089669 0 -0.34342087683177741 -0.48669095008188618 0 -0.33387795429423722 -0.5 0 -0.33709504481289931 -0.46474263175187808 0 -0.32933965142182292 -0.47777380670114528 0 -0.35181335970555933 -0.47167232718529989 0 -0.34342087683177741 -0.48669095008188618 0 -0.32933965142182292 -0.47777380670114528 0 -0.35181335970555933 -0.47167232718529989 0 -0.32750579650535672 -0.48798687004089669 0 -0.34342087683177741 -0.48669095008188618 0 -0.32933965142182292 -0.47777380670114528 0 -0.33709504481289931 -0.46474263175187808 0 -0.32054712240525829 -0.47546959342145068 0 -0.32933965142182292 -0.47777380670114528 0 -0.32933965142182292 -0.47777380670114528 0 -0.35181335970555933 -0.47167232718529989 0 -0.34342087683177741 -0.48669095008188618 0 -0.35181335970555933 -0.47167232718529989 0 -0.35979455825166368 -0.48519290092039941 0 -0.34342087683177741 -0.48669095008188618 0 -0.35741253101478748 -0.5 0 -0.35979455825166368 -0.48519290092039941 0 -0.34342087683177741 -0.48669095008188618 0 -0.33387795429423722 -0.5 0 -0.35741253101478748 -0.5 0 -0.38094710773533791 -0.49999999999999839 0 -0.35741253101478748 -0.5 0 -0.37240076261097882 -0.48974555046165519 0 -0.35741253101478748 -0.5 0 -0.35979455825166368 -0.48519290092039941 0 -0.37240076261097882 -0.48974555046165519 0 -0.35181335970555933 -0.47167232718529989 0 -0.35979455825166368 -0.48519290092039941 0 -0.37411677223754131 -0.47733161267270968 0 -0.35181335970555933 -0.47167232718529989 0 -0.37411677223754131 -0.47733161267270968 0 -0.37428706798929601 -0.46557084766945539 0 -0.35979455825166368 -0.48519290092039941 0 -0.37240076261097882 -0.48974555046165519 0 -0.37411677223754131 -0.47733161267270968 0 -0.37411677223754131 -0.47733161267270968 0 -0.37428706798929601 -0.46557084766945539 0 -0.35181335970555933 -0.47167232718529989 0 -0.37428706798929601 -0.46557084766945539 0 -0.35302422329502631 -0.44785824460859458 0 -0.35181335970555933 -0.47167232718529989 0 -0.37428706798929601 -0.46557084766945539 0 -0.33709504481289931 -0.46474263175187808 0 -0.35181335970555933 -0.47167232718529989 0 -0.35302422329502631 -0.44785824460859458 0 -0.37428706798929601 -0.46557084766945539 0 -0.35302422329502631 -0.44785824460859458 0 -0.37472313619600889 -0.43545561783144832 0 -0.37428706798929601 -0.46557084766945539 0 -0.37472313619600889 -0.43545561783144832 0 -0.35302422329502631 -0.44785824460859458 0 -0.37472313619600889 -0.43545561783144832 0 -0.36076670325611282 -0.42019275678090617 0 -0.37515920440272033 -0.40534038799344108 0 -0.37472313619600889 -0.43545561783144832 0 -0.36076670325611282 -0.42019275678090617 0 -0.37515920440272033 -0.40534038799344108 0 -0.36076670325611282 -0.42019275678090617 0 -0.35115835689997099 -0.40187837368579798 0 -0.37515920440272033 -0.40534038799344108 0 -0.37472313619600889 -0.43545561783144832 0 -0.36076670325611282 -0.42019275678090617 0 -0.35115835689997099 -0.40187837368579798 0 -0.34095461206840061 -0.42640878026434909 0 -0.34815033243380111 -0.40144447968524521 0 -0.35115835689997099 -0.40187837368579798 0 -0.34095461206840061 -0.42640878026434909 0 -0.35115835689997099 -0.40187837368579798 0 -0.34095461206840061 -0.42640878026434909 0 -0.35302422329502631 -0.44785824460859458 0 -0.36076670325611282 -0.42019275678090617 0 -0.34095461206840061 -0.42640878026434909 0 -0.37543310808941849 -0.38642437359143528 0 -0.36100598543278789 -0.37820409176948921 0 -0.35115835689997099 -0.40187837368579798 0 -0.37543310808941849 -0.38642437359143528 0 -0.37568304780698558 -0.36916333065311507 0 -0.36100598543278789 -0.37820409176948921 0 -0.37543310808941849 -0.38642437359143528 0 -0.36100598543278789 -0.37820409176948921 0 -0.37515920440272033 -0.40534038799344108 0 -0.37543310808941849 -0.38642437359143528 0 -0.35115835689997099 -0.40187837368579798 0 -0.37515920440272033 -0.40534038799344108 0 -0.35115835689997099 -0.40187837368579798 0 -0.35115835689997099 -0.40187837368579798 0 -0.34646966066369161 -0.38533898881774881 0 -0.34316085436749 -0.39382471367395527 0 -0.34815033243380111 -0.40144447968524521 0 -0.35115835689997099 -0.40187837368579798 0 -0.34316085436749 -0.39382471367395527 0 -0.34815033243380111 -0.40144447968524521 0 -0.35115835689997099 -0.40187837368579798 0 -0.33937201587241012 -0.36587749477948078 0 -0.36100598543278789 -0.37820409176948921 0 -0.34646966066369161 -0.38533898881774881 0 -0.36100598543278789 -0.37820409176948921 0 -0.35115835689997099 -0.40187837368579798 0 -0.36100598543278789 -0.37820409176948921 0 -0.35115835689997099 -0.40187837368579798 0 -0.34646966066369161 -0.38533898881774881 0 -0.33937201587241012 -0.36587749477948078 0 -0.32803705280137402 -0.37447550275240871 0 -0.34646966066369161 -0.38533898881774881 0 -0.32803705280137402 -0.37447550275240871 0 -0.34646966066369161 -0.38533898881774881 0 -0.32931529664348408 -0.38869437358142001 0 -0.34646966066369161 -0.38533898881774881 0 -0.32931529664348408 -0.38869437358142001 0 -0.34316085436749 -0.39382471367395527 0 -0.34815033243380111 -0.40144447968524521 0 -0.33486919938690762 -0.39884665705885908 0 -0.32944617452305069 -0.41182817437998842 0 -0.32931529664348408 -0.38869437358142001 0 -0.34316085436749 -0.39382471367395527 0 -0.33486919938690762 -0.39884665705885908 0 -0.32931529664348408 -0.38869437358142001 0 -0.33486919938690762 -0.39884665705885908 0 -0.32365381597648563 -0.39942827076698811 0 -0.34815033243380111 -0.40144447968524521 0 -0.34316085436749 -0.39382471367395527 0 -0.33486919938690762 -0.39884665705885908 0 -0.33486919938690762 -0.39884665705885908 0 -0.32365381597648563 -0.39942827076698811 0 -0.32944617452305069 -0.41182817437998842 0 -0.32931529664348408 -0.38869437358142001 0 -0.32365381597648563 -0.39942827076698811 0 -0.30988209993594379 -0.39542680479545339 0 -0.32365381597648563 -0.39942827076698811 0 -0.30595412674790001 -0.41636475829844438 0 -0.30988209993594379 -0.39542680479545339 0 -0.31381007312398762 -0.37448885129246268 0 -0.32931529664348408 -0.38869437358142001 0 -0.30988209993594379 -0.39542680479545339 0 -0.31381007312398762 -0.37448885129246268 0 -0.32803705280137402 -0.37447550275240871 0 -0.32931529664348408 -0.38869437358142001 0 -0.34095461206840061 -0.42640878026434909 0 -0.32944617452305069 -0.41182817437998842 0 -0.3206124180200437 -0.43193612962395289 0 -0.33075086723682939 -0.45093918684289991 0 -0.34095461206840061 -0.42640878026434909 0 -0.3206124180200437 -0.43193612962395289 0 -0.34815033243380111 -0.40144447968524521 0 -0.34095461206840061 -0.42640878026434909 0 -0.32944617452305069 -0.41182817437998842 0 -0.32944617452305069 -0.41182817437998842 0 -0.3206124180200437 -0.43193612962395289 0 -0.30595412674790001 -0.41636475829844438 0 -0.32365381597648563 -0.39942827076698811 0 -0.32944617452305069 -0.41182817437998842 0 -0.30595412674790001 -0.41636475829844438 0 -0.3206124180200437 -0.43193612962395289 0 -0.30595412674790001 -0.41636475829844438 0 -0.29602166034141808 -0.43748304283089118 0 -0.30595412674790001 -0.41636475829844438 0 -0.28680587137917263 -0.41476105187328532 0 -0.29502227998321778 -0.40112933436643161 0 -0.30595412674790001 -0.41636475829844438 0 -0.28680587137917263 -0.41476105187328532 0 -0.29602166034141808 -0.43748304283089118 0 -0.28680587137917263 -0.41476105187328532 0 -0.29602166034141808 -0.43748304283089118 0 -0.27149625348017281 -0.42637325053463759 0 -0.29602166034141808 -0.43748304283089118 0 -0.27149625348017281 -0.42637325053463759 0 -0.29602166034141808 -0.43748304283089118 0 -0.27149625348017281 -0.42637325053463759 0 -0.27906578537949278 -0.44687665772048962 0 -0.31381007312398762 -0.37448885129246268 0 -0.30988209993594379 -0.39542680479545339 0 -0.31381007312398762 -0.37448885129246268 0 -0.30988209993594379 -0.39542680479545339 0 -0.29196992941862432 -0.3825632544476108 0 -0.30595412674790001 -0.41636475829844438 0 -0.30988209993594379 -0.39542680479545339 0 -0.30595412674790001 -0.41636475829844438 0 -0.30988209993594379 -0.39542680479545339 0 -0.29502227998321778 -0.40112933436643161 0 -0.30988209993594379 -0.39542680479545339 0 -0.29502227998321778 -0.40112933436643161 0 -0.29196992941862432 -0.3825632544476108 0 -0.28680587137917263 -0.41476105187328532 0 -0.29502227998321778 -0.40112933436643161 0 -0.2806661672136338 -0.39648987600255969 0 -0.29502227998321778 -0.40112933436643161 0 -0.29196992941862432 -0.3825632544476108 0 -0.2806661672136338 -0.39648987600255969 0 -0.27675503022224163 -0.36681377825091099 0 -0.29196992941862432 -0.3825632544476108 0 -0.26924588117792803 -0.38334910629271668 0 -0.29196992941862432 -0.3825632544476108 0 -0.26924588117792803 -0.38334910629271668 0 -0.2806661672136338 -0.39648987600255969 0 -0.27675503022224163 -0.36681377825091099 0 -0.26924588117792803 -0.38334910629271668 0 -0.25812358553267323 -0.37605355791306738 0 -0.28680587137917263 -0.41476105187328532 0 -0.2806661672136338 -0.39648987600255969 0 -0.26326431180229581 -0.40282557300305732 0 -0.26924588117792803 -0.38334910629271668 0 -0.2806661672136338 -0.39648987600255969 0 -0.26326431180229581 -0.40282557300305732 0 -0.26326431180229581 -0.40282557300305732 0 -0.2504897110532438 -0.38524934403489181 0 -0.24394706363899241 -0.39877073912243299 0 -0.26326431180229581 -0.40282557300305732 0 -0.24697084661892749 -0.41526345823838401 0 -0.24394706363899241 -0.39877073912243299 0 -0.26924588117792803 -0.38334910629271668 0 -0.26326431180229581 -0.40282557300305732 0 -0.2504897110532438 -0.38524934403489181 0 -0.26924588117792803 -0.38334910629271668 0 -0.2504897110532438 -0.38524934403489181 0 -0.25812358553267323 -0.37605355791306738 0 -0.2504897110532438 -0.38524934403489181 0 -0.25812358553267323 -0.37605355791306738 0 -0.24839247009954951 -0.37292447016044328 0 -0.28680587137917263 -0.41476105187328532 0 -0.26326431180229581 -0.40282557300305732 0 -0.27149625348017281 -0.42637325053463759 0 -0.27149625348017281 -0.42637325053463759 0 -0.24697084661892749 -0.41526345823838401 0 -0.26326431180229581 -0.40282557300305732 0 -0.27149625348017281 -0.42637325053463759 0 -0.24697084661892749 -0.41526345823838401 0 -0.27149625348017281 -0.42637325053463759 0 -0.25687425522332558 -0.44642006451091643 0 -0.24697084661892749 -0.41526345823838401 0 -0.25687425522332558 -0.44642006451091643 0 -0.27607931301277078 -0.46657199895299017 0 -0.25409384940020791 -0.47271975939701871 0 -0.25687425522332558 -0.44642006451091643 0 -0.27607931301277078 -0.46657199895299017 0 -0.27906578537949278 -0.44687665772048962 0 -0.27149625348017281 -0.42637325053463759 0 -0.25687425522332558 -0.44642006451091643 0 -0.27906578537949278 -0.44687665772048962 0 -0.29602166034141808 -0.43748304283089118 0 -0.27906578537949278 -0.44687665772048962 0 -0.29968055871002541 -0.46203125713240301 0 -0.27607931301277078 -0.46657199895299017 0 -0.27906578537949278 -0.44687665772048962 0 -0.29968055871002541 -0.46203125713240301 0 -0.31571728338184601 -0.45752087103574601 0 -0.29968055871002541 -0.46203125713240301 0 -0.30706080135445341 -0.45057148265483188 0 -0.31571728338184601 -0.45752087103574601 0 -0.32054712240525829 -0.47546959342145068 0 -0.29968055871002541 -0.46203125713240301 0 -0.32054706720266329 -0.44859283512714471 0 -0.29602166034141808 -0.43748304283089118 0 -0.32054706720266329 -0.44859283512714471 0 -0.3206124180200437 -0.43193612962395289 0 -0.29602166034141808 -0.43748304283089118 0 -0.32054706720266329 -0.44859283512714471 0 -0.29602166034141808 -0.43748304283089118 0 -0.30706080135445341 -0.45057148265483188 0 -0.29602166034141808 -0.43748304283089118 0 -0.29968055871002541 -0.46203125713240301 0 -0.30706080135445341 -0.45057148265483188 0 -0.32054712240525829 -0.47546959342145068 0 -0.31034337757368669 -0.50000000000000133 0 -0.2941570887960146 -0.48201569375099518 0 -0.32054712240525829 -0.47546959342145068 0 -0.29968055871002541 -0.46203125713240301 0 -0.2941570887960146 -0.48201569375099518 0 -0.27607931301277078 -0.46657199895299017 0 -0.29968055871002541 -0.46203125713240301 0 -0.2941570887960146 -0.48201569375099518 0 -0.2941570887960146 -0.48201569375099518 0 -0.28248249767631262 -0.5 0 -0.27039562620846602 -0.48462576079096858 0 -0.31034337757368669 -0.50000000000000133 0 -0.2941570887960146 -0.48201569375099518 0 -0.28248249767631262 -0.5 0 -0.28248249767631262 -0.5 0 -0.27039562620846602 -0.48462576079096858 0 -0.25462161777893849 -0.5 0 -0.27607931301277078 -0.46657199895299017 0 -0.2941570887960146 -0.48201569375099518 0 -0.27039562620846602 -0.48462576079096858 0 -0.27607931301277078 -0.46657199895299017 0 -0.27039562620846602 -0.48462576079096858 0 -0.25409384940020791 -0.47271975939701871 0 -0.27039562620846602 -0.48462576079096858 0 -0.25409384940020791 -0.47271975939701871 0 -0.25462161777893849 -0.5 0 -0.25462161777893849 -0.5 0 -0.23155232774708009 -0.47932355884050398 0 -0.22676073788156451 -0.5 0 -0.25409384940020791 -0.47271975939701871 0 -0.25462161777893849 -0.5 0 -0.23155232774708009 -0.47932355884050398 0 -0.25409384940020791 -0.47271975939701871 0 -0.23155232774708009 -0.47932355884050398 0 -0.2350399564306665 -0.45937717328673289 0 -0.23155232774708009 -0.47932355884050398 0 -0.2350399564306665 -0.45937717328673289 0 -0.2080224731694312 -0.47403962225972662 0 -0.23155232774708009 -0.47932355884050398 0 -0.22676073788156451 -0.5 0 -0.2080224731694312 -0.47403962225972662 0 -0.25687425522332558 -0.44642006451091643 0 -0.2350399564306665 -0.45937717328673289 0 -0.23180750449586429 -0.4343742486430574 0 -0.25687425522332558 -0.44642006451091643 0 -0.25409384940020791 -0.47271975939701871 0 -0.2350399564306665 -0.45937717328673289 0 -0.2350399564306665 -0.45937717328673289 0 -0.21590660946663959 -0.44883644739355771 0 -0.2080224731694312 -0.47403962225972662 0 -0.2350399564306665 -0.45937717328673289 0 -0.21590660946663959 -0.44883644739355771 0 -0.23180750449586429 -0.4343742486430574 0 -0.21590660946663959 -0.44883644739355771 0 -0.1943898331460783 -0.4473597119794826 0 -0.20910912931781811 -0.42543372189632289 0 -0.21590660946663959 -0.44883644739355771 0 -0.1943898331460783 -0.4473597119794826 0 -0.2080224731694312 -0.47403962225972662 0 -0.1943898331460783 -0.4473597119794826 0 -0.2080224731694312 -0.47403962225972662 0 -0.17967053697433849 -0.46928570206264231 0 -0.22676073788156451 -0.5 0 -0.2080224731694312 -0.47403962225972662 0 -0.19889985798419041 -0.5 0 -0.2080224731694312 -0.47403962225972662 0 -0.1821948971586228 -0.48648437486529872 0 -0.17967053697433849 -0.46928570206264231 0 -0.2080224731694312 -0.47403962225972662 0 -0.19889985798419041 -0.5 0 -0.1821948971586228 -0.48648437486529872 0 -0.19889985798419041 -0.5 0 -0.1821948971586228 -0.48648437486529872 0 -0.17103897808681609 -0.49999999999999778 0 -0.1821948971586228 -0.48648437486529872 0 -0.17103897808681609 -0.49999999999999778 0 -0.16495124080259491 -0.49121169214579941 0 -0.17103897808681609 -0.49999999999999778 0 -0.16495124080259491 -0.49121169214579941 0 -0.17103897808681609 -0.49999999999999778 0 -0.16495124080259491 -0.49121169214579941 0 -0.15905149781887321 -0.49999999999999961 0 -0.16495124080259491 -0.49121169214579941 0 -0.15905149781887321 -0.49999999999999961 0 -0.1545750311736096 -0.49062041690426861 0 -0.16495124080259491 -0.49121169214579941 0 -0.15905149781887321 -0.49999999999999961 0 -0.16495124080259491 -0.49121169214579941 0 -0.16530166315622061 -0.47155300009798301 0 -0.17967053697433849 -0.46928570206264231 0 -0.16495124080259491 -0.49121169214579941 0 -0.16530166315622061 -0.47155300009798301 0 -0.15083103946930049 -0.47082765280793248 0 -0.16495124080259491 -0.49121169214579941 0 -0.1545750311736096 -0.49062041690426861 0 -0.15083103946930049 -0.47082765280793248 0 -0.16495124080259491 -0.49121169214579941 0 -0.15083103946930049 -0.47082765280793248 0 -0.16495124080259491 -0.49121169214579941 0 -0.17967053697433849 -0.46928570206264231 0 -0.1821948971586228 -0.48648437486529872 0 -0.16495124080259491 -0.49121169214579941 0 -0.17967053697433849 -0.46928570206264231 0 -0.1943898331460783 -0.4473597119794826 0 -0.17967053697433849 -0.46928570206264231 0 -0.1943898331460783 -0.4473597119794826 0 -0.17967053697433849 -0.46928570206264231 0 -0.1657538353786501 -0.45488695337555668 0 -0.1943898331460783 -0.4473597119794826 0 -0.1657538353786501 -0.45488695337555668 0 -0.1755027511393909 -0.43471579892562301 0 -0.1657538353786501 -0.45488695337555668 0 -0.15761868306950341 -0.43586407366366631 0 -0.1755027511393909 -0.43471579892562301 0 -0.16530166315622061 -0.47155300009798301 0 -0.1657538353786501 -0.45488695337555668 0 -0.15083103946930049 -0.47082765280793248 0 -0.16530166315622061 -0.47155300009798301 0 -0.17967053697433849 -0.46928570206264231 0 -0.1657538353786501 -0.45488695337555668 0 -0.13671083813600751 -0.45044361347006462 0 -0.15083103946930049 -0.47082765280793248 0 -0.13671083813600751 -0.45044361347006462 0 -0.13441782301728619 -0.47175980973682791 0 -0.15083103946930049 -0.47082765280793248 0 -0.1657538353786501 -0.45488695337555668 0 -0.13671083813600751 -0.45044361347006462 0 -0.15083103946930049 -0.47082765280793248 0 -0.13671083813600751 -0.45044361347006462 0 -0.13816776916695811 -0.432543871779144 0 -0.15761868306950341 -0.43586407366366631 0 -0.1657538353786501 -0.45488695337555668 0 -0.13671083813600751 -0.45044361347006462 0 -0.15761868306950341 -0.43586407366366631 0 -0.13671083813600751 -0.45044361347006462 0 -0.13816776916695811 -0.432543871779144 0 -0.1225906368027144 -0.43005957413219659 0 -0.13671083813600751 -0.45044361347006462 0 -0.1225906368027144 -0.43005957413219659 0 -0.13671083813600751 -0.45044361347006462 0 -0.13441782301728619 -0.47175980973682791 0 -0.1201929706126502 -0.46127799294672761 0 -0.13441782301728619 -0.47175980973682791 0 -0.12605423818426559 -0.48707922202292669 0 -0.14429533434837091 -0.48908967660720287 0 -0.13441782301728619 -0.47175980973682791 0 -0.12605423818426559 -0.48707922202292669 0 -0.1201929706126502 -0.46127799294672761 0 -0.1295391708778694 -0.5 0 -0.12605423818426559 -0.48707922202292669 0 -0.14429533434837091 -0.48908967660720287 0 -0.15905149781887321 -0.49999999999999961 0 -0.1295391708778694 -0.5 0 -0.14429533434837091 -0.48908967660720287 0 -0.15905149781887321 -0.49999999999999961 0 -0.14429533434837091 -0.48908967660720287 0 -0.1545750311736096 -0.49062041690426861 0 -0.14429533434837091 -0.48908967660720287 0 -0.1545750311736096 -0.49062041690426861 0 -0.15083103946930049 -0.47082765280793248 0 -0.13441782301728619 -0.47175980973682791 0 -0.14429533434837091 -0.48908967660720287 0 -0.15083103946930049 -0.47082765280793248 0 -0.15345949684661231 -0.4053237642064671 0 -0.15136585988972451 -0.39002590355483568 0 -0.13982663417143551 -0.39933000433158738 0 -0.15136585988972451 -0.39002590355483568 0 -0.1368738238800834 -0.3880397179408614 0 -0.13982663417143551 -0.39933000433158738 0 -0.15345949684661231 -0.4053237642064671 0 -0.13982663417143551 -0.39933000433158738 0 -0.1398029654186671 -0.41064466143528439 0 -0.15136585988972451 -0.39002590355483568 0 -0.1368738238800834 -0.3880397179408614 0 -0.13959568407155781 -0.37291875636350952 0 -0.15136585988972451 -0.39002590355483568 0 -0.15951650330528561 -0.37856285477961621 0 -0.13959568407155781 -0.37291875636350952 0 -0.1368738238800834 -0.3880397179408614 0 -0.12625141541498519 -0.38197991289387551 0 -0.13959568407155781 -0.37291875636350952 0 -0.1368738238800834 -0.3880397179408614 0 -0.12625141541498519 -0.38197991289387551 0 -0.1273295258527142 -0.39594401256049883 0 -0.1368738238800834 -0.3880397179408614 0 -0.1273295258527142 -0.39594401256049883 0 -0.13982663417143551 -0.39933000433158738 0 -0.13982663417143551 -0.39933000433158738 0 -0.1295768038857959 -0.40463739140698729 0 -0.1398029654186671 -0.41064466143528439 0 -0.1273295258527142 -0.39594401256049883 0 -0.13982663417143551 -0.39933000433158738 0 -0.1295768038857959 -0.40463739140698729 0 -0.1273295258527142 -0.39594401256049883 0 -0.1295768038857959 -0.40463739140698729 0 -0.1219584454402414 -0.40406961642135292 0 -0.1295768038857959 -0.40463739140698729 0 -0.1296119374269841 -0.41417592727859581 0 -0.1225700411049412 -0.40994677461386392 0 -0.1296119374269841 -0.41417592727859581 0 -0.12315425937001 -0.41747458531602638 0 -0.1225700411049412 -0.40994677461386392 0 -0.1296119374269841 -0.41417592727859581 0 -0.13713184062407599 -0.42036644340313623 0 -0.12908399078123631 -0.42243277819987513 0 -0.1296119374269841 -0.41417592727859581 0 -0.12908399078123631 -0.42243277819987513 0 -0.12315425937001 -0.41747458531602638 0 -0.1296119374269841 -0.41417592727859581 0 -0.13713184062407599 -0.42036644340313623 0 -0.1398029654186671 -0.41064466143528439 0 -0.1295768038857959 -0.40463739140698729 0 -0.1296119374269841 -0.41417592727859581 0 -0.1398029654186671 -0.41064466143528439 0 -0.12908399078123631 -0.42243277819987513 0 -0.13816776916695811 -0.432543871779144 0 -0.1225906368027144 -0.43005957413219659 0 -0.13713184062407599 -0.42036644340313623 0 -0.12908399078123631 -0.42243277819987513 0 -0.13816776916695811 -0.432543871779144 0 -0.13816776916695811 -0.432543871779144 0 -0.14921107955709881 -0.42003443798493328 0 -0.15761868306950341 -0.43586407366366631 0 -0.13713184062407599 -0.42036644340313623 0 -0.13816776916695811 -0.432543871779144 0 -0.14921107955709881 -0.42003443798493328 0 -0.15345949684661231 -0.4053237642064671 0 -0.1398029654186671 -0.41064466143528439 0 -0.14921107955709881 -0.42003443798493328 0 -0.13713184062407599 -0.42036644340313623 0 -0.1398029654186671 -0.41064466143528439 0 -0.14921107955709881 -0.42003443798493328 0 -0.15345949684661231 -0.4053237642064671 0 -0.14921107955709881 -0.42003443798493328 0 -0.17009787391258249 -0.41611158199907422 0 -0.14921107955709881 -0.42003443798493328 0 -0.17009787391258249 -0.41611158199907422 0 -0.15761868306950341 -0.43586407366366631 0 -0.17009787391258249 -0.41611158199907422 0 -0.15761868306950341 -0.43586407366366631 0 -0.1755027511393909 -0.43471579892562301 0 -0.1943898331460783 -0.4473597119794826 0 -0.1755027511393909 -0.43471579892562301 0 -0.18951413900105801 -0.42212105940109063 0 -0.17009787391258249 -0.41611158199907422 0 -0.1755027511393909 -0.43471579892562301 0 -0.18951413900105801 -0.42212105940109063 0 -0.17009787391258249 -0.41611158199907422 0 -0.18562609472684241 -0.40161550393767448 0 -0.18951413900105801 -0.42212105940109063 0 -0.18562609472684241 -0.40161550393767448 0 -0.16863204450281991 -0.39380366607865908 0 -0.18254917963999329 -0.38971973427100182 0 -0.17009787391258249 -0.41611158199907422 0 -0.18562609472684241 -0.40161550393767448 0 -0.16863204450281991 -0.39380366607865908 0 -0.18562609472684241 -0.40161550393767448 0 -0.18254917963999329 -0.38971973427100182 0 -0.19364364155811911 -0.391297223908462 0 -0.15345949684661231 -0.4053237642064671 0 -0.17009787391258249 -0.41611158199907422 0 -0.16863204450281991 -0.39380366607865908 0 -0.15345949684661231 -0.4053237642064671 0 -0.15136585988972451 -0.39002590355483568 0 -0.16863204450281991 -0.39380366607865908 0 -0.15951650330528561 -0.37856285477961621 0 -0.17625218554490921 -0.38180729220612769 0 -0.1663610822414904 -0.3702523776444529 0 -0.16863204450281991 -0.39380366607865908 0 -0.15951650330528561 -0.37856285477961621 0 -0.17625218554490921 -0.38180729220612769 0 -0.15136585988972451 -0.39002590355483568 0 -0.16863204450281991 -0.39380366607865908 0 -0.15951650330528561 -0.37856285477961621 0 -0.17625218554490921 -0.38180729220612769 0 -0.1663610822414904 -0.3702523776444529 0 -0.18579747934449059 -0.37379744869579251 0 -0.16863204450281991 -0.39380366607865908 0 -0.17625218554490921 -0.38180729220612769 0 -0.18254917963999329 -0.38971973427100182 0 -0.17625218554490921 -0.38180729220612769 0 -0.18254917963999329 -0.38971973427100182 0 -0.18859193186727599 -0.38007498522408562 0 -0.17625218554490921 -0.38180729220612769 0 -0.18859193186727599 -0.38007498522408562 0 -0.18579747934449059 -0.37379744869579251 0 -0.18859193186727599 -0.38007498522408562 0 -0.2014200033848125 -0.37119512976538899 0 -0.18859193186727599 -0.38007498522408562 0 -0.2014200033848125 -0.37119512976538899 0 -0.18579747934449059 -0.37379744869579251 0 -0.18859193186727599 -0.38007498522408562 0 -0.1989719328316337 -0.38216032023399737 0 -0.2014200033848125 -0.37119512976538899 0 -0.1989719328316337 -0.38216032023399737 0 -0.20694960464083431 -0.38128159833907621 0 -0.2014200033848125 -0.37119512976538899 0 -0.1989719328316337 -0.38216032023399737 0 -0.19364364155811911 -0.391297223908462 0 -0.20620014074293039 -0.39180645285032889 0 -0.18859193186727599 -0.38007498522408562 0 -0.1989719328316337 -0.38216032023399737 0 -0.19364364155811911 -0.391297223908462 0 -0.18254917963999329 -0.38971973427100182 0 -0.18859193186727599 -0.38007498522408562 0 -0.19364364155811911 -0.391297223908462 0 -0.18562609472684241 -0.40161550393767448 0 -0.19364364155811911 -0.391297223908462 0 -0.20208872018367391 -0.4070926974887904 0 -0.19364364155811911 -0.391297223908462 0 -0.20620014074293039 -0.39180645285032889 0 -0.20208872018367391 -0.4070926974887904 0 -0.20620014074293039 -0.39180645285032889 0 -0.21479853281951461 -0.38638530273916921 0 -0.22382842548955789 -0.4035077318131633 0 -0.20620014074293039 -0.39180645285032889 0 -0.20208872018367391 -0.4070926974887904 0 -0.22382842548955789 -0.4035077318131633 0 -0.21479853281951461 -0.38638530273916921 0 -0.20694960464083431 -0.38128159833907621 0 -0.21335741342528061 -0.3748607861064962 0 -0.21479853281951461 -0.38638530273916921 0 -0.22412886374227589 -0.38235217247817599 0 -0.21335741342528061 -0.3748607861064962 0 -0.20694960464083431 -0.38128159833907621 0 -0.2014200033848125 -0.37119512976538899 0 -0.21335741342528061 -0.3748607861064962 0 -0.20620014074293039 -0.39180645285032889 0 -0.21479853281951461 -0.38638530273916921 0 -0.20694960464083431 -0.38128159833907621 0 -0.1989719328316337 -0.38216032023399737 0 -0.20620014074293039 -0.39180645285032889 0 -0.20694960464083431 -0.38128159833907621 0 -0.1943898331460783 -0.4473597119794826 0 -0.20910912931781811 -0.42543372189632289 0 -0.1943898331460783 -0.4473597119794826 0 -0.18951413900105801 -0.42212105940109063 0 -0.20910912931781811 -0.42543372189632289 0 -0.18951413900105801 -0.42212105940109063 0 -0.20208872018367391 -0.4070926974887904 0 -0.20910912931781811 -0.42543372189632289 0 -0.18562609472684241 -0.40161550393767448 0 -0.18951413900105801 -0.42212105940109063 0 -0.20208872018367391 -0.4070926974887904 0 -0.20208872018367391 -0.4070926974887904 0 -0.20910912931781811 -0.42543372189632289 0 -0.22382842548955789 -0.4035077318131633 0 -0.20910912931781811 -0.42543372189632289 0 -0.22382842548955789 -0.4035077318131633 0 -0.21590660946663959 -0.44883644739355771 0 -0.20910912931781811 -0.42543372189632289 0 -0.23180750449586429 -0.4343742486430574 0 -0.20910912931781811 -0.42543372189632289 0 -0.23180750449586429 -0.4343742486430574 0 -0.22382842548955789 -0.4035077318131633 0 -0.23180750449586429 -0.4343742486430574 0 -0.24697084661892749 -0.41526345823838401 0 -0.22382842548955789 -0.4035077318131633 0 -0.25687425522332558 -0.44642006451091643 0 -0.23180750449586429 -0.4343742486430574 0 -0.24697084661892749 -0.41526345823838401 0 -0.22412886374227589 -0.38235217247817599 0 -0.2351820232309369 -0.38700758852266848 0 -0.22952037500089251 -0.37311519752493849 0 -0.22412886374227589 -0.38235217247817599 0 -0.22186900287429051 -0.37074082218821958 0 -0.21335741342528061 -0.3748607861064962 0 -0.22412886374227589 -0.38235217247817599 0 -0.22952037500089251 -0.37311519752493849 0 -0.22186900287429051 -0.37074082218821958 0 -0.22382842548955789 -0.4035077318131633 0 -0.24394706363899241 -0.39877073912243299 0 -0.2351820232309369 -0.38700758852266848 0 -0.21479853281951461 -0.38638530273916921 0 -0.22412886374227589 -0.38235217247817599 0 -0.22382842548955789 -0.4035077318131633 0 -0.22412886374227589 -0.38235217247817599 0 -0.22382842548955789 -0.4035077318131633 0 -0.2351820232309369 -0.38700758852266848 0 -0.24697084661892749 -0.41526345823838401 0 -0.22382842548955789 -0.4035077318131633 0 -0.24394706363899241 -0.39877073912243299 0 -0.2504897110532438 -0.38524934403489181 0 -0.24394706363899241 -0.39877073912243299 0 -0.2351820232309369 -0.38700758852266848 0 -0.2504897110532438 -0.38524934403489181 0 -0.2351820232309369 -0.38700758852266848 0 -0.24036284435674521 -0.37772398595485779 0 -0.2351820232309369 -0.38700758852266848 0 -0.24036284435674521 -0.37772398595485779 0 -0.22952037500089251 -0.37311519752493849 0 -0.2504897110532438 -0.38524934403489181 0 -0.24036284435674521 -0.37772398595485779 0 -0.24839247009954951 -0.37292447016044328 0 -0.24839247009954951 -0.37292447016044328 0 -0.24532753696728959 -0.36501789644951049 0 -0.23861636880082099 -0.36955921174380651 0 -0.24036284435674521 -0.37772398595485779 0 -0.24839247009954951 -0.37292447016044328 0 -0.23861636880082099 -0.36955921174380651 0 -0.25757508569408222 -0.36424633604315798 0 -0.24532753696728959 -0.36501789644951049 0 -0.24650166737573331 -0.3569693529562265 0 -0.24532753696728959 -0.36501789644951049 0 -0.24234943749700691 -0.36154613291017651 0 -0.24650166737573331 -0.3569693529562265 0 -0.24532753696728959 -0.36501789644951049 0 -0.24234943749700691 -0.36154613291017651 0 -0.23928568589256061 -0.36455139619594779 0 -0.24234943749700691 -0.36154613291017651 0 -0.23928568589256061 -0.36455139619594779 0 -0.23696933381926599 -0.3585493042599866 0 -0.24532753696728959 -0.36501789644951049 0 -0.23928568589256061 -0.36455139619594779 0 -0.23861636880082099 -0.36955921174380651 0 -0.23928568589256061 -0.36455139619594779 0 -0.23861636880082099 -0.36955921174380651 0 -0.23345080570298909 -0.36409891217005902 0 -0.23928568589256061 -0.36455139619594779 0 -0.23345080570298909 -0.36409891217005902 0 -0.23696933381926599 -0.3585493042599866 0 -0.24036284435674521 -0.37772398595485779 0 -0.23861636880082099 -0.36955921174380651 0 -0.22952037500089251 -0.37311519752493849 0 -0.23345080570298909 -0.36409891217005902 0 -0.22186900287429051 -0.37074082218821958 0 -0.21424807490234879 -0.36231527430669241 0 -0.22952037500089251 -0.37311519752493849 0 -0.23345080570298909 -0.36409891217005902 0 -0.22186900287429051 -0.37074082218821958 0 -0.23696933381926599 -0.3585493042599866 0 -0.21424807490234879 -0.36231527430669241 0 -0.23861636880082099 -0.36955921174380651 0 -0.22952037500089251 -0.37311519752493849 0 -0.23345080570298909 -0.36409891217005902 0 -0.23345080570298909 -0.36409891217005902 0 -0.23696933381926599 -0.3585493042599866 0 -0.21424807490234879 -0.36231527430669241 0 -0.22913587473404851 -0.35200963246311751 0 -0.2097464541822805 -0.33582260124732738 0 -0.22913587473404851 -0.35200963246311751 0 -0.23696933381926599 -0.3585493042599866 0 -0.21424807490234879 -0.36231527430669241 0 -0.22913587473404851 -0.35200963246311751 0 -0.21998707993494029 -0.33959044394559312 0 -0.22913587473404851 -0.35200963246311751 0 -0.21424807490234879 -0.36231527430669241 0 -0.22913587473404851 -0.35200963246311751 0 -0.23696933381926599 -0.3585493042599866 0 -0.22913587473404851 -0.35200963246311751 0 -0.24881121389389799 -0.33838995723746451 0 -0.22913587473404851 -0.35200963246311751 0 -0.23696933381926599 -0.3585493042599866 0 -0.24650166737573331 -0.3569693529562265 0 -0.22913587473404851 -0.35200963246311751 0 -0.24650166737573331 -0.3569693529562265 0 -0.24881121389389799 -0.33838995723746451 0 -0.23696933381926599 -0.3585493042599866 0 -0.24650166737573331 -0.3569693529562265 0 -0.24234943749700691 -0.36154613291017651 0 -0.23696933381926599 -0.3585493042599866 0 -0.24650166737573331 -0.3569693529562265 0 -0.22913587473404851 -0.35200963246311751 0 -0.24881121389389799 -0.33838995723746451 0 -0.2325545649384867 -0.33453283978227571 0 -0.24881121389389799 -0.33838995723746451 0 -0.2441082332202735 -0.32380704628422963 0 -0.2325545649384867 -0.33453283978227571 0 -0.23613058105125781 -0.31890710479075163 0 -0.2279063026952847 -0.3135077128279592 0 -0.2444966906846206 -0.31181945912301329 0 -0.2441082332202735 -0.32380704628422963 0 -0.23498207165859719 -0.32537142019391418 0 -0.23613058105125781 -0.31890710479075163 0 -0.2441082332202735 -0.32380704628422963 0 -0.23498207165859719 -0.32537142019391418 0 -0.2325545649384867 -0.33453283978227571 0 -0.2441082332202735 -0.32380704628422963 0 -0.23613058105125781 -0.31890710479075163 0 -0.2444966906846206 -0.31181945912301329 0 -0.2279063026952847 -0.3135077128279592 0 -0.2193464910840433 -0.31976030368968739 0 -0.21134622408423179 -0.310554889255794 0 -0.23613058105125781 -0.31890710479075163 0 -0.2279063026952847 -0.3135077128279592 0 -0.22829430606921119 -0.32293804105388452 0 -0.23498207165859719 -0.32537142019391418 0 -0.22829430606921119 -0.32293804105388452 0 -0.2325545649384867 -0.33453283978227571 0 -0.23498207165859719 -0.32537142019391418 0 -0.23613058105125781 -0.31890710479075163 0 -0.22829430606921119 -0.32293804105388452 0 -0.22829430606921119 -0.32293804105388452 0 -0.2193464910840433 -0.31976030368968739 0 -0.22209033975117781 -0.32887735541776358 0 -0.2279063026952847 -0.3135077128279592 0 -0.22829430606921119 -0.32293804105388452 0 -0.2193464910840433 -0.31976030368968739 0 -0.22913587473404851 -0.35200963246311751 0 -0.2325545649384867 -0.33453283978227571 0 -0.21998707993494029 -0.33959044394559312 0 -0.22913587473404851 -0.35200963246311751 0 -0.21998707993494029 -0.33959044394559312 0 -0.2097464541822805 -0.33582260124732738 0 -0.22829430606921119 -0.32293804105388452 0 -0.2325545649384867 -0.33453283978227571 0 -0.22209033975117781 -0.32887735541776358 0 -0.2325545649384867 -0.33453283978227571 0 -0.22209033975117781 -0.32887735541776358 0 -0.21998707993494029 -0.33959044394559312 0 -0.21998707993494029 -0.33959044394559312 0 -0.21026925672920721 -0.32756514861737779 0 -0.22209033975117781 -0.32887735541776358 0 -0.21998707993494029 -0.33959044394559312 0 -0.21026925672920721 -0.32756514861737779 0 -0.21998707993494029 -0.33959044394559312 0 -0.2097464541822805 -0.33582260124732738 0 -0.21026925672920721 -0.32756514861737779 0 -0.2097464541822805 -0.33582260124732738 0 -0.21026925672920721 -0.32756514861737779 0 -0.21026925672920721 -0.32756514861737779 0 -0.21134622408423179 -0.310554889255794 0 -0.19267178705524021 -0.30578920503631912 0 -0.21026925672920721 -0.32756514861737779 0 -0.21134622408423179 -0.310554889255794 0 -0.2097464541822805 -0.33582260124732738 0 -0.21026925672920721 -0.32756514861737779 0 -0.19254159852174429 -0.31996122112867409 0 -0.2193464910840433 -0.31976030368968739 0 -0.21026925672920721 -0.32756514861737779 0 -0.21134622408423179 -0.310554889255794 0 -0.2193464910840433 -0.31976030368968739 0 -0.22209033975117781 -0.32887735541776358 0 -0.21026925672920721 -0.32756514861737779 0 -0.2097464541822805 -0.33582260124732738 0 -0.1943588054861482 -0.32297640251143073 0 -0.19254159852174429 -0.31996122112867409 0 -0.21026925672920721 -0.32756514861737779 0 -0.19267178705524021 -0.30578920503631912 0 -0.21026925672920721 -0.32756514861737779 0 -0.19254159852174429 -0.31996122112867409 0 -0.19267178705524021 -0.30578920503631912 0 -0.2097464541822805 -0.33582260124732738 0 -0.19254159852174429 -0.31996122112867409 0 -0.1943588054861482 -0.32297640251143073 0 -0.18737083868624629 -0.33075534874643497 0 -0.18479650728396149 -0.32227615663527998 0 -0.1943588054861482 -0.32297640251143073 0 -0.19254159852174429 -0.31996122112867409 0 -0.1789711567900161 -0.3101302037755338 0 -0.2097464541822805 -0.33582260124732738 0 -0.19466829689393059 -0.33824472710720138 0 -0.19565175395430129 -0.3512554891803924 0 -0.2097464541822805 -0.33582260124732738 0 -0.1943588054861482 -0.32297640251143073 0 -0.19466829689393059 -0.33824472710720138 0 -0.2097464541822805 -0.33582260124732738 0 -0.1943588054861482 -0.32297640251143073 0 -0.1943588054861482 -0.32297640251143073 0 -0.19466829689393059 -0.33824472710720138 0 -0.18737083868624629 -0.33075534874643497 0 -0.19466829689393059 -0.33824472710720138 0 -0.18164424501215659 -0.34621916084723381 0 -0.18737083868624629 -0.33075534874643497 0 -0.19466829689393059 -0.33824472710720138 0 -0.19565175395430129 -0.3512554891803924 0 -0.18164424501215659 -0.34621916084723381 0 -0.20800359978069241 -0.36335027445133922 0 -0.18480326185087809 -0.36719565018674682 0 -0.19565175395430129 -0.3512554891803924 0 -0.20800359978069241 -0.36335027445133922 0 -0.18480326185087809 -0.36719565018674682 0 -0.2014200033848125 -0.37119512976538899 0 -0.18480326185087809 -0.36719565018674682 0 -0.18579747934449059 -0.37379744869579251 0 -0.2014200033848125 -0.37119512976538899 0 -0.20800359978069241 -0.36335027445133922 0 -0.18480326185087809 -0.36719565018674682 0 -0.2014200033848125 -0.37119512976538899 0 -0.20800359978069241 -0.36335027445133922 0 -0.20803809997708481 -0.36661394692190907 0 -0.20800359978069241 -0.36335027445133922 0 -0.20803809997708481 -0.36661394692190907 0 -0.21424807490234879 -0.36231527430669241 0 -0.20800359978069241 -0.36335027445133922 0 -0.20803809997708481 -0.36661394692190907 0 -0.2014200033848125 -0.37119512976538899 0 -0.20803809997708481 -0.36661394692190907 0 -0.21335741342528061 -0.3748607861064962 0 -0.2014200033848125 -0.37119512976538899 0 -0.20803809997708481 -0.36661394692190907 0 -0.20803809997708481 -0.36661394692190907 0 -0.21335741342528061 -0.3748607861064962 0 -0.21424807490234879 -0.36231527430669241 0 -0.22186900287429051 -0.37074082218821958 0 -0.21335741342528061 -0.3748607861064962 0 -0.21424807490234879 -0.36231527430669241 0 -0.20800359978069241 -0.36335027445133922 0 -0.21424807490234879 -0.36231527430669241 0 -0.20803809997708481 -0.36661394692190907 0 -0.21424807490234879 -0.36231527430669241 0 -0.2097464541822805 -0.33582260124732738 0 -0.19565175395430129 -0.3512554891803924 0 -0.20800359978069241 -0.36335027445133922 0 -0.2097464541822805 -0.33582260124732738 0 -0.20800359978069241 -0.36335027445133922 0 -0.2097464541822805 -0.33582260124732738 0 -0.20800359978069241 -0.36335027445133922 0 -0.21424807490234879 -0.36231527430669241 0 -0.22913587473404851 -0.35200963246311751 0 -0.2097464541822805 -0.33582260124732738 0 -0.21424807490234879 -0.36231527430669241 0 -0.2335542019388327 -0.26090262277066528 0 -0.21472073189145299 -0.25725591714607071 0 -0.22837296648480071 -0.23789375384220129 0 -0.2335542019388327 -0.26090262277066528 0 -0.21357196166535461 -0.27540027352014051 0 -0.21472073189145299 -0.25725591714607071 0 -0.25298377122075039 -0.27518622721876451 0 -0.2335542019388327 -0.26090262277066528 0 -0.25431856302814809 -0.24833495949118861 0 -0.25298377122075039 -0.27518622721876451 0 -0.2335542019388327 -0.26090262277066528 0 -0.23093648268818689 -0.28342115129973 0 -0.2335542019388327 -0.26090262277066528 0 -0.23093648268818689 -0.28342115129973 0 -0.21357196166535461 -0.27540027352014051 0 -0.23093648268818689 -0.28342115129973 0 -0.21242319143925911 -0.29354462989421048 0 -0.21357196166535461 -0.27540027352014051 0 -0.23093648268818689 -0.28342115129973 0 -0.2435111179254994 -0.29490773243705071 0 -0.2284599410619414 -0.30268204450860919 0 -0.23093648268818689 -0.28342115129973 0 -0.2284599410619414 -0.30268204450860919 0 -0.21242319143925911 -0.29354462989421048 0 -0.25298377122075039 -0.27518622721876451 0 -0.23093648268818689 -0.28342115129973 0 -0.2435111179254994 -0.29490773243705071 0 -0.2444966906846206 -0.31181945912301329 0 -0.2284599410619414 -0.30268204450860919 0 -0.2435111179254994 -0.29490773243705071 0 -0.2444966906846206 -0.31181945912301329 0 -0.2284599410619414 -0.30268204450860919 0 -0.26057201890547982 -0.29344093798311832 0 -0.2435111179254994 -0.29490773243705071 0 -0.2444966906846206 -0.31181945912301329 0 -0.2279063026952847 -0.3135077128279592 0 -0.2444966906846206 -0.31181945912301329 0 -0.2284599410619414 -0.30268204450860919 0 -0.2284599410619414 -0.30268204450860919 0 -0.21242319143925911 -0.29354462989421048 0 -0.2279063026952847 -0.3135077128279592 0 -0.2284599410619414 -0.30268204450860919 0 -0.21134622408423179 -0.310554889255794 0 -0.2284599410619414 -0.30268204450860919 0 -0.21134622408423179 -0.310554889255794 0 -0.21242319143925911 -0.29354462989421048 0 -0.21134622408423179 -0.310554889255794 0 -0.19267178705524021 -0.30578920503631912 0 -0.21242319143925911 -0.29354462989421048 0 -0.21134622408423179 -0.310554889255794 0 -0.21242319143925911 -0.29354462989421048 0 -0.19267178705524021 -0.30578920503631912 0 -0.19410774352861071 -0.2831088592208712 0 -0.21242319143925911 -0.29354462989421048 0 -0.19410774352861071 -0.2831088592208712 0 -0.21242319143925911 -0.29354462989421048 0 -0.21357196166535461 -0.27540027352014051 0 -0.19410774352861071 -0.2831088592208712 0 -0.21242319143925911 -0.29354462989421048 0 -0.21242319143925911 -0.29354462989421048 0 -0.21357196166535461 -0.27540027352014051 0 -0.21357196166535461 -0.27540027352014051 0 -0.21472073189145299 -0.25725591714607071 0 -0.19410774352861071 -0.2831088592208712 0 -0.21357196166535461 -0.27540027352014051 0 -0.1965391795889786 -0.26204425282134669 0 -0.19410774352861071 -0.2831088592208712 0 -0.1965391795889786 -0.26204425282134669 0 -0.17579229561796161 -0.27267308854753308 0 -0.1965391795889786 -0.26204425282134669 0 -0.20565562739327201 -0.24334207984173631 0 -0.18863044441395099 -0.24733650333174401 0 -0.1965391795889786 -0.26204425282134669 0 -0.18340152769721799 -0.25642831405215172 0 -0.18863044441395099 -0.24733650333174401 0 -0.1965391795889786 -0.26204425282134669 0 -0.21472073189145299 -0.25725591714607071 0 -0.20565562739327201 -0.24334207984173631 0 -0.21357196166535461 -0.27540027352014051 0 -0.1965391795889786 -0.26204425282134669 0 -0.21472073189145299 -0.25725591714607071 0 -0.15747684770731041 -0.26223731787419863 0 -0.16344648285301799 -0.25937253054906129 0 -0.17579229561796161 -0.27267308854753308 0 -0.1593809120407062 -0.25278805690175971 0 -0.16344648285301799 -0.25937253054906129 0 -0.1534429259631987 -0.25724555178864622 0 -0.1593809120407062 -0.25278805690175971 0 -0.16344648285301799 -0.25937253054906129 0 -0.16709258238786229 -0.25188408856254202 0 -0.1593809120407062 -0.25278805690175971 0 -0.16709258238786229 -0.25188408856254202 0 -0.1601832428566283 -0.24550858739866141 0 -0.15747684770731041 -0.26223731787419863 0 -0.16344648285301799 -0.25937253054906129 0 -0.1534429259631987 -0.25724555178864622 0 -0.16344648285301799 -0.25937253054906129 0 -0.1534429259631987 -0.25724555178864622 0 -0.16344648285301799 -0.25937253054906129 0 -0.17379217291466831 -0.25992581321180469 0 -0.17579229561796161 -0.27267308854753308 0 -0.16344648285301799 -0.25937253054906129 0 -0.16709258238786229 -0.25188408856254202 0 -0.17379217291466831 -0.25992581321180469 0 -0.16709258238786229 -0.25188408856254202 0 -0.17679077873490559 -0.25046109420941731 0 -0.17379217291466831 -0.25992581321180469 0 -0.1965391795889786 -0.26204425282134669 0 -0.18340152769721799 -0.25642831405215172 0 -0.17579229561796161 -0.27267308854753308 0 -0.17679077873490559 -0.25046109420941731 0 -0.18340152769721799 -0.25642831405215172 0 -0.17379217291466831 -0.25992581321180469 0 -0.18340152769721799 -0.25642831405215172 0 -0.17379217291466831 -0.25992581321180469 0 -0.17579229561796161 -0.27267308854753308 0 -0.17679077873490559 -0.25046109420941731 0 -0.18340152769721799 -0.25642831405215172 0 -0.18863044441395099 -0.24733650333174401 0 -0.19410774352861071 -0.2831088592208712 0 -0.17579229561796161 -0.27267308854753308 0 -0.17507431738127369 -0.28401326145526029 0 -0.19410774352861071 -0.2831088592208712 0 -0.17579229561796161 -0.27267308854753308 0 -0.15747684770731041 -0.26223731787419863 0 -0.17507431738127369 -0.28401326145526029 0 -0.15747684770731041 -0.26223731787419863 0 -0.17579229561796161 -0.27267308854753308 0 -0.15747684770731041 -0.26223731787419863 0 -0.17579229561796161 -0.27267308854753308 0 -0.17507431738127369 -0.28401326145526029 0 -0.15747684770731041 -0.26223731787419863 0 -0.1596399504195592 -0.27820623095404468 0 -0.17507431738127369 -0.28401326145526029 0 -0.1596399504195592 -0.27820623095404468 0 -0.1624028041075358 -0.29248408411088062 0 -0.1494793968803598 -0.28070198605355251 0 -0.1624028041075358 -0.29248408411088062 0 -0.15973767967650701 -0.30493196891575292 0 -0.15108397830665751 -0.29236825921418419 0 -0.1624028041075358 -0.29248408411088062 0 -0.17507431738127369 -0.28401326145526029 0 -0.17391538329452061 -0.29489800819007239 0 -0.1596399504195592 -0.27820623095404468 0 -0.1624028041075358 -0.29248408411088062 0 -0.17507431738127369 -0.28401326145526029 0 -0.19267178705524021 -0.30578920503631912 0 -0.19410774352861071 -0.2831088592208712 0 -0.17507431738127369 -0.28401326145526029 0 -0.19267178705524021 -0.30578920503631912 0 -0.17507431738127369 -0.28401326145526029 0 -0.17391538329452061 -0.29489800819007239 0 -0.19267178705524021 -0.30578920503631912 0 -0.17507431738127369 -0.28401326145526029 0 -0.17391538329452061 -0.29489800819007239 0 -0.17532621133471249 -0.30426618216820789 0 -0.19254159852174429 -0.31996122112867409 0 -0.19267178705524021 -0.30578920503631912 0 -0.17532621133471249 -0.30426618216820789 0 -0.19267178705524021 -0.30578920503631912 0 -0.17391538329452061 -0.29489800819007239 0 -0.17532621133471249 -0.30426618216820789 0 -0.19254159852174429 -0.31996122112867409 0 -0.17532621133471249 -0.30426618216820789 0 -0.1789711567900161 -0.3101302037755338 0 -0.19254159852174429 -0.31996122112867409 0 -0.17532621133471249 -0.30426618216820789 0 -0.17532621133471249 -0.30426618216820789 0 -0.15973767967650701 -0.30493196891575292 0 -0.16582550601247259 -0.31644195918285489 0 -0.1624028041075358 -0.29248408411088062 0 -0.17532621133471249 -0.30426618216820789 0 -0.15973767967650701 -0.30493196891575292 0 -0.1624028041075358 -0.29248408411088062 0 -0.17532621133471249 -0.30426618216820789 0 -0.1624028041075358 -0.29248408411088062 0 -0.17391538329452061 -0.29489800819007239 0 -0.17532621133471249 -0.30426618216820789 0 -0.144593184228827 -0.30237793828586917 0 -0.15261731536399281 -0.31699983390472031 0 -0.1327552185807534 -0.31482398186879779 0 -0.15973767967650701 -0.30493196891575292 0 -0.144593184228827 -0.30237793828586917 0 -0.15261731536399281 -0.31699983390472031 0 -0.15973767967650701 -0.30493196891575292 0 -0.144593184228827 -0.30237793828586917 0 -0.15108397830665751 -0.29236825921418419 0 -0.144593184228827 -0.30237793828586917 0 -0.1304175251842298 -0.30012492429455973 0 -0.1327552185807534 -0.31482398186879779 0 -0.1304175251842298 -0.30012492429455973 0 -0.1327552185807534 -0.31482398186879779 0 -0.11567190875339491 -0.3081878681979589 0 -0.1304175251842298 -0.30012492429455973 0 -0.13697378053928061 -0.28594316463020741 0 -0.11725087491461519 -0.29108504565108578 0 -0.144593184228827 -0.30237793828586917 0 -0.1304175251842298 -0.30012492429455973 0 -0.13697378053928061 -0.28594316463020741 0 -0.13697378053928061 -0.28594316463020741 0 -0.15108397830665751 -0.29236825921418419 0 -0.1494793968803598 -0.28070198605355251 0 -0.144593184228827 -0.30237793828586917 0 -0.13697378053928061 -0.28594316463020741 0 -0.15108397830665751 -0.29236825921418419 0 -0.1624028041075358 -0.29248408411088062 0 -0.15108397830665751 -0.29236825921418419 0 -0.1494793968803598 -0.28070198605355251 0 -0.1624028041075358 -0.29248408411088062 0 -0.1494793968803598 -0.28070198605355251 0 -0.15747684770731041 -0.26223731787419863 0 -0.1596399504195592 -0.27820623095404468 0 -0.1503927610565664 -0.27179087804580171 0 -0.1596399504195592 -0.27820623095404468 0 -0.1494793968803598 -0.28070198605355251 0 -0.1503927610565664 -0.27179087804580171 0 -0.15747684770731041 -0.26223731787419863 0 -0.1503927610565664 -0.27179087804580171 0 -0.1469785187108 -0.2635474229235048 0 -0.1503927610565664 -0.27179087804580171 0 -0.13966748117377659 -0.26847157538705668 0 -0.1469785187108 -0.2635474229235048 0 -0.1503927610565664 -0.27179087804580171 0 -0.14153524490660671 -0.2763029116229278 0 -0.13966748117377659 -0.26847157538705668 0 -0.1494793968803598 -0.28070198605355251 0 -0.1503927610565664 -0.27179087804580171 0 -0.14153524490660671 -0.2763029116229278 0 -0.13697378053928061 -0.28594316463020741 0 -0.1494793968803598 -0.28070198605355251 0 -0.14153524490660671 -0.2763029116229278 0 -0.13697378053928061 -0.28594316463020741 0 -0.14153524490660671 -0.2763029116229278 0 -0.13219795163187159 -0.27110871778552531 0 -0.13697378053928061 -0.28594316463020741 0 -0.1173011125765811 -0.2721428964285707 0 -0.13697378053928061 -0.28594316463020741 0 -0.13219795163187159 -0.27110871778552531 0 -0.1173011125765811 -0.2721428964285707 0 -0.13219795163187159 -0.27110871778552531 0 -0.1333337708168415 -0.26377523499205202 0 -0.12600056203783161 -0.26301541000095829 0 -0.13219795163187159 -0.27110871778552531 0 -0.12600056203783161 -0.26301541000095829 0 -0.1173011125765811 -0.2721428964285707 0 -0.13219795163187159 -0.27110871778552531 0 -0.13966748117377659 -0.26847157538705668 0 -0.1333337708168415 -0.26377523499205202 0 -0.14153524490660671 -0.2763029116229278 0 -0.13219795163187159 -0.27110871778552531 0 -0.13966748117377659 -0.26847157538705668 0 -0.13966748117377659 -0.26847157538705668 0 -0.13807993829988649 -0.25979154560904222 0 -0.1333337708168415 -0.26377523499205202 0 -0.13807993829988649 -0.25979154560904222 0 -0.1333337708168415 -0.26377523499205202 0 -0.13072292094084129 -0.25648892617767749 0 -0.12600056203783161 -0.26301541000095829 0 -0.13072292094084129 -0.25648892617767749 0 -0.1187556211832122 -0.25814451816493872 0 -0.1333337708168415 -0.26377523499205202 0 -0.12600056203783161 -0.26301541000095829 0 -0.13072292094084129 -0.25648892617767749 0 -0.13072292094084129 -0.25648892617767749 0 -0.13218950310710981 -0.25272660122947088 0 -0.1187556211832122 -0.25814451816493872 0 -0.13072292094084129 -0.25648892617767749 0 -0.13218950310710981 -0.25272660122947088 0 -0.13218950310710981 -0.25272660122947088 0 -0.1459019403517107 -0.25564217047089421 0 -0.13375162957080131 -0.24871916986845621 0 -0.13218950310710981 -0.25272660122947088 0 -0.1459019403517107 -0.25564217047089421 0 -0.13218950310710981 -0.25272660122947088 0 -0.13375162957080131 -0.24871916986845621 0 -0.1459019403517107 -0.25564217047089421 0 -0.13375162957080131 -0.24871916986845621 0 -0.13807993829988649 -0.25979154560904222 0 -0.13218950310710981 -0.25272660122947088 0 -0.1459019403517107 -0.25564217047089421 0 -0.13807993829988649 -0.25979154560904222 0 -0.13072292094084129 -0.25648892617767749 0 -0.13218950310710981 -0.25272660122947088 0 -0.1459019403517107 -0.25564217047089421 0 -0.1534429259631987 -0.25724555178864622 0 -0.1378886282313006 -0.2381062402767252 0 -0.13966748117377659 -0.26847157538705668 0 -0.13807993829988649 -0.25979154560904222 0 -0.1469785187108 -0.2635474229235048 0 -0.13807993829988649 -0.25979154560904222 0 -0.1459019403517107 -0.25564217047089421 0 -0.1469785187108 -0.2635474229235048 0 -0.15747684770731041 -0.26223731787419863 0 -0.1459019403517107 -0.25564217047089421 0 -0.1534429259631987 -0.25724555178864622 0 -0.15747684770731041 -0.26223731787419863 0 -0.1459019403517107 -0.25564217047089421 0 -0.1469785187108 -0.2635474229235048 0 -0.15747684770731041 -0.26223731787419863 0 -0.1459019403517107 -0.25564217047089421 0 -0.15747684770731041 -0.26223731787419863 0 -0.1534429259631987 -0.25724555178864622 0 -0.1593809120407062 -0.25278805690175971 0 -0.1534429259631987 -0.25724555178864622 0 -0.15289321433053751 -0.246830478479277 0 -0.1459019403517107 -0.25564217047089421 0 -0.1534429259631987 -0.25724555178864622 0 -0.17143624801538501 -0.35840063883308271 0 -0.1580141783998408 -0.34710035810185619 0 -0.15489216358121211 -0.36256913283011211 0 -0.17143624801538501 -0.35840063883308271 0 -0.1580141783998408 -0.34710035810185619 0 -0.18164424501215659 -0.34621916084723381 0 -0.17143624801538501 -0.35840063883308271 0 -0.1663610822414904 -0.3702523776444529 0 -0.15489216358121211 -0.36256913283011211 0 -0.15951650330528561 -0.37856285477961621 0 -0.1663610822414904 -0.3702523776444529 0 -0.15489216358121211 -0.36256913283011211 0 -0.17143624801538501 -0.35840063883308271 0 -0.1663610822414904 -0.3702523776444529 0 -0.18480326185087809 -0.36719565018674682 0 -0.1663610822414904 -0.3702523776444529 0 -0.18480326185087809 -0.36719565018674682 0 -0.1663610822414904 -0.3702523776444529 0 -0.18480326185087809 -0.36719565018674682 0 -0.18579747934449059 -0.37379744869579251 0 -0.18480326185087809 -0.36719565018674682 0 -0.18579747934449059 -0.37379744869579251 0 -0.18480326185087809 -0.36719565018674682 0 -0.18164424501215659 -0.34621916084723381 0 -0.19565175395430129 -0.3512554891803924 0 -0.18480326185087809 -0.36719565018674682 0 -0.18164424501215659 -0.34621916084723381 0 -0.17143624801538501 -0.35840063883308271 0 -0.18480326185087809 -0.36719565018674682 0 -0.18164424501215659 -0.34621916084723381 0 -0.18164424501215659 -0.34621916084723381 0 -0.17848522817343529 -0.32524267150772068 0 -0.1629610955137164 -0.33076913941787212 0 -0.18164424501215659 -0.34621916084723381 0 -0.17848522817343529 -0.32524267150772068 0 -0.18164424501215659 -0.34621916084723381 0 -0.18737083868624629 -0.33075534874643497 0 -0.17848522817343529 -0.32524267150772068 0 -0.17532621133471249 -0.30426618216820789 0 -0.17848522817343529 -0.32524267150772068 0 -0.17532621133471249 -0.30426618216820789 0 -0.1789711567900161 -0.3101302037755338 0 -0.17848522817343529 -0.32524267150772068 0 -0.17532621133471249 -0.30426618216820789 0 -0.17848522817343529 -0.32524267150772068 0 -0.16582550601247259 -0.31644195918285489 0 -0.1943588054861482 -0.32297640251143073 0 -0.1789711567900161 -0.3101302037755338 0 -0.18479650728396149 -0.32227615663527998 0 -0.1789711567900161 -0.3101302037755338 0 -0.18479650728396149 -0.32227615663527998 0 -0.17848522817343529 -0.32524267150772068 0 -0.1943588054861482 -0.32297640251143073 0 -0.1789711567900161 -0.3101302037755338 0 -0.18737083868624629 -0.33075534874643497 0 -0.18479650728396149 -0.32227615663527998 0 -0.17848522817343529 -0.32524267150772068 0 -0.17848522817343529 -0.32524267150772068 0 -0.16582550601247259 -0.31644195918285489 0 -0.1629610955137164 -0.33076913941787212 0 -0.16582550601247259 -0.31644195918285489 0 -0.1629610955137164 -0.33076913941787212 0 -0.15261731536399281 -0.31699983390472031 0 -0.15973767967650701 -0.30493196891575292 0 -0.16582550601247259 -0.31644195918285489 0 -0.15261731536399281 -0.31699983390472031 0 -0.1580141783998408 -0.34710035810185619 0 -0.18164424501215659 -0.34621916084723381 0 -0.1629610955137164 -0.33076913941787212 0 -0.1580141783998408 -0.34710035810185619 0 -0.1629610955137164 -0.33076913941787212 0 -0.14559484309128301 -0.3331209990743299 0 -0.14559484309128301 -0.3331209990743299 0 -0.15261731536399281 -0.31699983390472031 0 -0.1327552185807534 -0.31482398186879779 0 -0.1629610955137164 -0.33076913941787212 0 -0.14559484309128301 -0.3331209990743299 0 -0.15261731536399281 -0.31699983390472031 0 -0.14559484309128301 -0.3331209990743299 0 -0.1327552185807534 -0.31482398186879779 0 -0.12678352480283511 -0.3369129194106073 0 -0.14559484309128301 -0.3331209990743299 0 -0.12678352480283511 -0.3369129194106073 0 -0.14043772588655989 -0.35211976174212622 0 -0.12678352480283511 -0.3369129194106073 0 -0.14043772588655989 -0.35211976174212622 0 -0.1203130985899742 -0.35955571918490481 0 -0.1580141783998408 -0.34710035810185619 0 -0.14043772588655989 -0.35211976174212622 0 -0.15489216358121211 -0.36256913283011211 0 -0.1580141783998408 -0.34710035810185619 0 -0.14559484309128301 -0.3331209990743299 0 -0.14043772588655989 -0.35211976174212622 0 -0.14043772588655989 -0.35211976174212622 0 -0.15489216358121211 -0.36256913283011211 0 -0.13959568407155781 -0.37291875636350952 0 -0.15951650330528561 -0.37856285477961621 0 -0.15489216358121211 -0.36256913283011211 0 -0.13959568407155781 -0.37291875636350952 0 -0.12625141541498519 -0.38197991289387551 0 -0.13959568407155781 -0.37291875636350952 0 -0.1203130985899742 -0.35955571918490481 0 -0.14043772588655989 -0.35211976174212622 0 -0.13959568407155781 -0.37291875636350952 0 -0.1203130985899742 -0.35955571918490481 0 -0.1203130985899742 -0.35955571918490481 0 -0.11384267237711319 -0.38219851895920232 0 -0.1203130985899742 -0.35955571918490481 0 -0.10849363524981311 -0.36442991456039969 0 -0.11384267237711319 -0.38219851895920232 0 -0.12625141541498519 -0.38197991289387551 0 -0.1203130985899742 -0.35955571918490481 0 -0.11384267237711319 -0.38219851895920232 0 -0.10849363524981311 -0.36442991456039969 0 -0.096157591159299352 -0.35547454281719221 0 -0.10176491866177829 -0.38015793077534599 0 -0.096157591159299352 -0.35547454281719221 0 -0.10176491866177829 -0.38015793077534599 0 -0.096157591159299352 -0.35547454281719221 0 -0.10176491866177829 -0.38015793077534599 0 -0.085276019388031976 -0.37619188405436782 0 -0.096157591159299352 -0.35547454281719221 0 -0.10964553082547281 -0.34513317088572909 0 -0.090550263656820479 -0.33079115485903843 0 -0.10849363524981311 -0.36442991456039969 0 -0.096157591159299352 -0.35547454281719221 0 -0.10964553082547281 -0.34513317088572909 0 -0.1203130985899742 -0.35955571918490481 0 -0.10849363524981311 -0.36442991456039969 0 -0.10964553082547281 -0.34513317088572909 0 -0.12678352480283511 -0.3369129194106073 0 -0.1203130985899742 -0.35955571918490481 0 -0.10964553082547281 -0.34513317088572909 0 -0.12678352480283511 -0.3369129194106073 0 -0.1203130985899742 -0.35955571918490481 0 -0.12678352480283511 -0.3369129194106073 0 -0.10964553082547281 -0.34513317088572909 0 -0.1112875311940303 -0.32576775904759792 0 -0.1327552185807534 -0.31482398186879779 0 -0.12678352480283511 -0.3369129194106073 0 -0.1112875311940303 -0.32576775904759792 0 -0.1327552185807534 -0.31482398186879779 0 -0.1112875311940303 -0.32576775904759792 0 -0.11567190875339491 -0.3081878681979589 0 -0.1112875311940303 -0.32576775904759792 0 -0.1011365257202933 -0.31403431577096802 0 -0.11567190875339491 -0.3081878681979589 0 -0.1112875311940303 -0.32576775904759792 0 -0.1011365257202933 -0.31403431577096802 0 -0.090550263656820479 -0.33079115485903843 0 -0.10964553082547281 -0.34513317088572909 0 -0.1112875311940303 -0.32576775904759792 0 -0.090550263656820479 -0.33079115485903843 0 -0.096157591159299352 -0.35547454281719221 0 -0.090550263656820479 -0.33079115485903843 0 -0.096157591159299352 -0.35547454281719221 0 -0.090550263656820479 -0.33079115485903843 0 -0.073144777225565616 -0.33606175945158517 0 -0.090550263656820479 -0.33079115485903843 0 -0.084942936154341619 -0.30610776690088481 0 -0.090550263656820479 -0.33079115485903843 0 -0.073144777225565616 -0.33606175945158517 0 -0.084942936154341619 -0.30610776690088481 0 -0.1011365257202933 -0.31403431577096802 0 -0.090550263656820479 -0.33079115485903843 0 -0.084942936154341619 -0.30610776690088481 0 -0.073144777225565616 -0.33606175945158517 0 -0.084942936154341619 -0.30610776690088481 0 -0.060613113796085999 -0.32288269869712272 0 -0.073144777225565616 -0.33606175945158517 0 -0.076755031766953086 -0.35884624094615858 0 -0.063306301319701316 -0.35299520754669739 0 -0.076755031766953086 -0.35884624094615858 0 -0.063306301319701316 -0.35299520754669739 0 -0.065890469742167113 -0.37350781086095058 0 -0.076755031766953086 -0.35884624094615858 0 -0.065890469742167113 -0.37350781086095058 0 -0.085276019388031976 -0.37619188405436782 0 -0.096157591159299352 -0.35547454281719221 0 -0.076755031766953086 -0.35884624094615858 0 -0.085276019388031976 -0.37619188405436782 0 -0.096157591159299352 -0.35547454281719221 0 -0.073144777225565616 -0.33606175945158517 0 -0.076755031766953086 -0.35884624094615858 0 -0.097628444613881649 -0.25834262822693399 0 -0.1173011125765811 -0.2721428964285707 0 -0.097628444613881649 -0.25834262822693399 0 -0.1187556211832122 -0.25814451816493872 0 -0.1098930818979398 -0.24798588601512411 0 -0.13218950310710981 -0.25272660122947088 0 -0.1187556211832122 -0.25814451816493872 0 -0.1098930818979398 -0.24798588601512411 0 -0.097628444613881649 -0.25834262822693399 0 -0.1187556211832122 -0.25814451816493872 0 -0.1173011125765811 -0.2721428964285707 0 -0.13218950310710981 -0.25272660122947088 0 -0.1098930818979398 -0.24798588601512411 0 -0.12600056203783161 -0.26301541000095829 0 -0.1187556211832122 -0.25814451816493872 0 -0.1173011125765811 -0.2721428964285707 0 -0.097628444613881649 -0.25834262822693399 0 -0.1173011125765811 -0.2721428964285707 0 -0.090762408808148426 -0.27102181932101072 0 -0.1173011125765811 -0.2721428964285707 0 -0.096655829275762523 -0.28444542957314378 0 -0.090762408808148426 -0.27102181932101072 0 -0.096655829275762523 -0.28444542957314378 0 -0.10322998884287909 -0.29931702984935987 0 -0.084942936154341619 -0.30610776690088481 0 -0.096655829275762523 -0.28444542957314378 0 -0.11725087491461519 -0.29108504565108578 0 -0.10322998884287909 -0.29931702984935987 0 -0.13697378053928061 -0.28594316463020741 0 -0.1173011125765811 -0.2721428964285707 0 -0.11725087491461519 -0.29108504565108578 0 -0.1173011125765811 -0.2721428964285707 0 -0.096655829275762523 -0.28444542957314378 0 -0.11725087491461519 -0.29108504565108578 0 -0.11725087491461519 -0.29108504565108578 0 -0.11567190875339491 -0.3081878681979589 0 -0.10322998884287909 -0.29931702984935987 0 -0.1304175251842298 -0.30012492429455973 0 -0.11725087491461519 -0.29108504565108578 0 -0.11567190875339491 -0.3081878681979589 0 -0.1011365257202933 -0.31403431577096802 0 -0.10322998884287909 -0.29931702984935987 0 -0.084942936154341619 -0.30610776690088481 0 -0.1011365257202933 -0.31403431577096802 0 -0.11567190875339491 -0.3081878681979589 0 -0.10322998884287909 -0.29931702984935987 0 -0.084942936154341619 -0.30610776690088481 0 -0.066237696895848033 -0.30175990202967712 0 -0.078368201618682937 -0.28822753231137022 0 -0.084942936154341619 -0.30610776690088481 0 -0.066237696895848033 -0.30175990202967712 0 -0.060613113796085999 -0.32288269869712272 0 -0.066237696895848033 -0.30175990202967712 0 -0.078368201618682937 -0.28822753231137022 0 -0.057136779716869042 -0.28712205926022771 0 -0.078368201618682937 -0.28822753231137022 0 -0.072744725061100565 -0.27289296274949931 0 -0.057136779716869042 -0.28712205926022771 0 -0.096655829275762523 -0.28444542957314378 0 -0.084942936154341619 -0.30610776690088481 0 -0.078368201618682937 -0.28822753231137022 0 -0.096655829275762523 -0.28444542957314378 0 -0.078368201618682937 -0.28822753231137022 0 -0.090762408808148426 -0.27102181932101072 0 -0.078368201618682937 -0.28822753231137022 0 -0.090762408808148426 -0.27102181932101072 0 -0.072744725061100565 -0.27289296274949931 0 -0.090762408808148426 -0.27102181932101072 0 -0.072744725061100565 -0.27289296274949931 0 -0.081281336266817772 -0.26097832242812891 0 -0.072744725061100565 -0.27289296274949931 0 -0.067161912638977472 -0.25903173736147111 0 -0.055745381016590281 -0.2682223094504298 0 -0.072744725061100565 -0.27289296274949931 0 -0.067161912638977472 -0.25903173736147111 0 -0.081281336266817772 -0.26097832242812891 0 -0.067161912638977472 -0.25903173736147111 0 -0.081281336266817772 -0.26097832242812891 0 -0.077955776651182085 -0.24454236002529731 0 -0.067161912638977472 -0.25903173736147111 0 -0.056939497423126581 -0.24878681181634871 0 -0.077955776651182085 -0.24454236002529731 0 -0.097628444613881649 -0.25834262822693399 0 -0.081281336266817772 -0.26097832242812891 0 -0.077955776651182085 -0.24454236002529731 0 -0.097628444613881649 -0.25834262822693399 0 -0.090762408808148426 -0.27102181932101072 0 -0.081281336266817772 -0.26097832242812891 0 -0.097628444613881649 -0.25834262822693399 0 -0.077955776651182085 -0.24454236002529731 0 -0.025857267464119819 -0.25506418495113531 0 -0.050191684441297867 -0.2485850187836515 0 -0.034199021844566052 -0.25740496373097072 0 -0.056939497423126581 -0.24878681181634871 0 -0.034199021844566052 -0.25740496373097072 0 -0.041398382443623198 -0.25192549838374201 0 -0.056939497423126581 -0.24878681181634871 0 -0.041398382443623198 -0.25192549838374201 0 -0.025857267464119819 -0.25506418495113531 0 -0.050191684441297867 -0.2485850187836515 0 -0.034199021844566052 -0.25740496373097072 0 -0.048255079716108998 -0.25800015923011232 0 -0.056939497423126581 -0.24878681181634871 0 -0.034199021844566052 -0.25740496373097072 0 -0.041398382443623198 -0.25192549838374201 0 -0.025857267464119819 -0.25506418495113531 0 -0.041398382443623198 -0.25192549838374201 0 -0.025857267464119819 -0.25506418495113531 0 -0.034199021844566052 -0.25740496373097072 0 -0.037307574571523318 -0.26201401924185519 0 -0.024854767991187229 -0.26705994663832661 0 -0.037307574571523318 -0.26201401924185519 0 -0.048255079716108998 -0.25800015923011232 0 -0.046606779304586107 -0.26584835010199509 0 -0.034199021844566052 -0.25740496373097072 0 -0.037307574571523318 -0.26201401924185519 0 -0.048255079716108998 -0.25800015923011232 0 -0.05702546769870083 -0.25851025446459042 0 -0.048255079716108998 -0.25800015923011232 0 -0.056939497423126581 -0.24878681181634871 0 -0.041398382443623198 -0.25192549838374201 0 -0.056939497423126581 -0.24878681181634871 0 -0.067161912638977472 -0.25903173736147111 0 -0.05702546769870083 -0.25851025446459042 0 -0.056939497423126581 -0.24878681181634871 0 -0.067161912638977472 -0.25903173736147111 0 -0.05702546769870083 -0.25851025446459042 0 -0.055745381016590281 -0.2682223094504298 0 -0.05702546769870083 -0.25851025446459042 0 -0.048255079716108998 -0.25800015923011232 0 -0.055745381016590281 -0.2682223094504298 0 -0.048255079716108998 -0.25800015923011232 0 -0.055745381016590281 -0.2682223094504298 0 -0.046606779304586107 -0.26584835010199509 0 -0.055745381016590281 -0.2682223094504298 0 -0.045119081914121867 -0.27515691248558288 0 -0.046606779304586107 -0.26584835010199509 0 -0.055745381016590281 -0.2682223094504298 0 -0.045119081914121867 -0.27515691248558288 0 -0.057136779716869042 -0.28712205926022771 0 -0.072744725061100565 -0.27289296274949931 0 -0.055745381016590281 -0.2682223094504298 0 -0.057136779716869042 -0.28712205926022771 0 -0.037307574571523318 -0.26201401924185519 0 -0.034478529498429812 -0.28951379058442123 0 -0.037307574571523318 -0.26201401924185519 0 -0.034478529498429812 -0.28951379058442123 0 -0.024854767991187229 -0.26705994663832661 0 -0.037307574571523318 -0.26201401924185519 0 -0.045119081914121867 -0.27515691248558288 0 -0.034478529498429812 -0.28951379058442123 0 -0.037307574571523318 -0.26201401924185519 0 -0.045119081914121867 -0.27515691248558288 0 -0.046606779304586107 -0.26584835010199509 0 -0.045119081914121867 -0.27515691248558288 0 -0.034478529498429812 -0.28951379058442123 0 -0.057136779716869042 -0.28712205926022771 0 -0.034478529498429812 -0.28951379058442123 0 -0.057136779716869042 -0.28712205926022771 0 -0.05012745319326059 -0.30445945297878008 0 -0.066237696895848033 -0.30175990202967712 0 -0.05012745319326059 -0.30445945297878008 0 -0.060613113796085999 -0.32288269869712272 0 -0.066237696895848033 -0.30175990202967712 0 -0.057136779716869042 -0.28712205926022771 0 -0.05012745319326059 -0.30445945297878008 0 -0.034478529498429812 -0.28951379058442123 0 -0.05012745319326059 -0.30445945297878008 0 -0.031649484425336299 -0.31701356192698721 0 -0.034478529498429812 -0.28951379058442123 0 -0.031649484425336299 -0.31701356192698721 0 -0.034478529498429812 -0.28951379058442123 0 -0.020284114256294641 -0.29759304008048471 0 -0.031649484425336299 -0.31701356192698721 0 -0.020284114256294641 -0.29759304008048471 0 -0.01007927323019326 -0.3103345258507364 0 -0.031649484425336299 -0.31701356192698721 0 -0.020284114256294641 -0.29759304008048471 0 -0.01007927323019326 -0.3103345258507364 0 -0.0080748459131490501 -0.2914060437848453 0 -0.01007927323019326 -0.3103345258507364 0 -0.0080748459131490501 -0.2914060437848453 0 0.0017563221397047381 -0.2997067901486577 0 -0.020284114256294641 -0.29759304008048471 0 -0.0080748459131490501 -0.2914060437848453 0 -0.017138438214364771 -0.27969727825543328 0 -0.0080748459131490501 -0.2914060437848453 0 -0.002848760243290064 -0.27761611820401882 0 0.0066437179820165657 -0.2861171845936395 0 -0.0080748459131490501 -0.2914060437848453 0 -0.017138438214364771 -0.27969727825543328 0 -0.002848760243290064 -0.27761611820401882 0 -0.034478529498429812 -0.28951379058442123 0 -0.020284114256294641 -0.29759304008048471 0 -0.017138438214364771 -0.27969727825543328 0 -0.034478529498429812 -0.28951379058442123 0 -0.024854767991187229 -0.26705994663832661 0 -0.017138438214364771 -0.27969727825543328 0 -0.024854767991187229 -0.26705994663832661 0 -0.01588915841142927 -0.27169793716392882 0 -0.01145854626600548 -0.26602311564559261 0 -0.024854767991187229 -0.26705994663832661 0 -0.01588915841142927 -0.27169793716392882 0 -0.017138438214364771 -0.27969727825543328 0 -0.017138438214364771 -0.27969727825543328 0 -0.011833725783772399 -0.27375861231724341 0 -0.002848760243290064 -0.27761611820401882 0 -0.01145854626600548 -0.26602311564559261 0 0.01128192931255503 -0.27464126756021451 0 -0.002848760243290064 -0.27761611820401882 0 -0.01145854626600548 -0.26602311564559261 0 0.01128192931255503 -0.27464126756021451 0 -0.01588915841142927 -0.27169793716392882 0 -0.017138438214364771 -0.27969727825543328 0 -0.011833725783772399 -0.27375861231724341 0 -0.011833725783772399 -0.27375861231724341 0 -0.002848760243290064 -0.27761611820401882 0 -0.01145854626600548 -0.26602311564559261 0 -0.01588915841142927 -0.27169793716392882 0 -0.011833725783772399 -0.27375861231724341 0 -0.01145854626600548 -0.26602311564559261 0 -0.01269776775011346 -0.25850600500130039 0 -0.0051360078472848583 -0.25701396995817721 0 0.0057158633005241696 -0.26337829885565528 0 -0.01145854626600548 -0.26602311564559261 0 -0.01269776775011346 -0.25850600500130039 0 0.0057158633005241696 -0.26337829885565528 0 -0.01269776775011346 -0.25850600500130039 0 0.0057158633005241696 -0.26337829885565528 0 -0.0009620894167222515 -0.25496392916579452 0 -0.0051360078472848583 -0.25701396995817721 0 0.0057158633005241696 -0.26337829885565528 0 -0.0071971320314794382 -0.2528457057960789 0 -0.01082738352359053 -0.24876902592697839 0 -0.0029313858115674811 -0.24854412401401971 0 -0.0009620894167222515 -0.25496392916579452 0 -0.0071971320314794382 -0.2528457057960789 0 -0.0029313858115674811 -0.24854412401401971 0 -0.0009620894167222515 -0.25496392916579452 0 -0.0051360078472848583 -0.25701396995817721 0 -0.0071971320314794382 -0.2528457057960789 0 -0.0051360078472848583 -0.25701396995817721 0 -0.0071971320314794382 -0.2528457057960789 0 -0.0094143843739788544 -0.25459574361389747 0 -0.0071971320314794382 -0.2528457057960789 0 -0.0094143843739788544 -0.25459574361389747 0 -0.01082738352359053 -0.24876902592697839 0 -0.01269776775011346 -0.25850600500130039 0 -0.0094143843739788544 -0.25459574361389747 0 -0.01082738352359053 -0.24876902592697839 0 -0.01269776775011346 -0.25850600500130039 0 -0.0051360078472848583 -0.25701396995817721 0 -0.0094143843739788544 -0.25459574361389747 0 -0.01269776775011346 -0.25850600500130039 0 -0.025857267464119819 -0.25506418495113531 0 -0.034199021844566052 -0.25740496373097072 0 -0.01145854626600548 -0.26602311564559261 0 -0.025857267464119819 -0.25506418495113531 0 -0.01269776775011346 -0.25850600500130039 0 -0.025857267464119819 -0.25506418495113531 0 -0.02368513365757598 -0.23851275990414511 0 -0.034199021844566052 -0.25740496373097072 0 -0.024854767991187229 -0.26705994663832661 0 -0.01145854626600548 -0.26602311564559261 0 -0.034199021844566052 -0.25740496373097072 0 -0.01145854626600548 -0.26602311564559261 0 -0.01145854626600548 -0.26602311564559261 0 -0.01269776775011346 -0.25850600500130039 0 -0.025857267464119819 -0.25506418495113531 0 -0.046940286889098168 -0.35955036210978841 0 -0.050269733973634309 -0.3392354021108881 0 -0.02882043935224279 -0.34451333326955308 0 -0.046940286889098168 -0.35955036210978841 0 -0.02882043935224279 -0.34451333326955308 0 -0.026419717968229769 -0.36867473508972981 0 -0.046940286889098168 -0.35955036210978841 0 -0.026419717968229769 -0.36867473508972981 0 -0.046935058978613817 -0.3783756837809118 0 -0.065890469742167113 -0.37350781086095058 0 -0.046940286889098168 -0.35955036210978841 0 -0.046935058978613817 -0.3783756837809118 0 -0.063306301319701316 -0.35299520754669739 0 -0.065890469742167113 -0.37350781086095058 0 -0.046940286889098168 -0.35955036210978841 0 -0.063306301319701316 -0.35299520754669739 0 -0.046940286889098168 -0.35955036210978841 0 -0.050269733973634309 -0.3392354021108881 0 -0.073144777225565616 -0.33606175945158517 0 -0.063306301319701316 -0.35299520754669739 0 -0.050269733973634309 -0.3392354021108881 0 -0.073144777225565616 -0.33606175945158517 0 -0.050269733973634309 -0.3392354021108881 0 -0.060613113796085999 -0.32288269869712272 0 -0.050269733973634309 -0.3392354021108881 0 -0.060613113796085999 -0.32288269869712272 0 -0.031649484425336299 -0.31701356192698721 0 -0.05012745319326059 -0.30445945297878008 0 -0.060613113796085999 -0.32288269869712272 0 -0.031649484425336299 -0.31701356192698721 0 -0.050269733973634309 -0.3392354021108881 0 -0.031649484425336299 -0.31701356192698721 0 -0.02882043935224279 -0.34451333326955308 0 -0.031649484425336299 -0.31701356192698721 0 -0.02882043935224279 -0.34451333326955308 0 -0.031649484425336299 -0.31701356192698721 0 -0.0038616663111063101 -0.33241552487502413 0 -0.02882043935224279 -0.34451333326955308 0 -0.01007927323019326 -0.3103345258507364 0 -0.031649484425336299 -0.31701356192698721 0 -0.0038616663111063101 -0.33241552487502413 0 -0.01007927323019326 -0.3103345258507364 0 -0.0038616663111063101 -0.33241552487502413 0 0.0094652366165251054 -0.31053241408104548 0 -0.0038616663111063101 -0.33241552487502413 0 -0.0043130761299947744 -0.35643483176966217 0 -0.02882043935224279 -0.34451333326955308 0 -0.0043130761299947744 -0.35643483176966217 0 -0.02882043935224279 -0.34451333326955308 0 -0.026419717968229769 -0.36867473508972981 0 -0.0043130761299947744 -0.35643483176966217 0 -0.026419717968229769 -0.36867473508972981 0 -0.0064694903547723136 -0.38059021958606692 0 -0.0064694903547723136 -0.38059021958606692 0 -0.0080625817845775948 -0.40608726553411861 0 -0.026496984295852101 -0.39226102623928111 0 -0.0064694903547723136 -0.38059021958606692 0 -0.0080625817845775948 -0.40608726553411861 0 0.009690974369139977 -0.39295199195252922 0 -0.0080625817845775948 -0.40608726553411861 0 -0.026496984295852101 -0.39226102623928111 0 -0.029852467816379728 -0.41236872525256307 0 -0.026419717968229769 -0.36867473508972981 0 -0.0064694903547723136 -0.38059021958606692 0 -0.026496984295852101 -0.39226102623928111 0 -0.026496984295852101 -0.39226102623928111 0 -0.048213792324517578 -0.39768762776665978 0 -0.046935058978613817 -0.3783756837809118 0 -0.026419717968229769 -0.36867473508972981 0 -0.026496984295852101 -0.39226102623928111 0 -0.046935058978613817 -0.3783756837809118 0 -0.026496984295852101 -0.39226102623928111 0 -0.048213792324517578 -0.39768762776665978 0 -0.029852467816379728 -0.41236872525256307 0 -0.048213792324517578 -0.39768762776665978 0 -0.065379196062645584 -0.39052657147488062 0 -0.06528413140028641 -0.40548789039177052 0 -0.048213792324517578 -0.39768762776665978 0 -0.046935058978613817 -0.3783756837809118 0 -0.065379196062645584 -0.39052657147488062 0 -0.065890469742167113 -0.37350781086095058 0 -0.046935058978613817 -0.3783756837809118 0 -0.065379196062645584 -0.39052657147488062 0 -0.052630130657334448 -0.42871109396582502 0 -0.036803499053157718 -0.43392585985635063 0 -0.055908543568221357 -0.44353945242809251 0 -0.052630130657334448 -0.42871109396582502 0 -0.048282499091199083 -0.41684649723306111 0 -0.065713266975248902 -0.42040157794015642 0 -0.052630130657334448 -0.42871109396582502 0 -0.055908543568221357 -0.44353945242809251 0 -0.077753046024815156 -0.43509142098737241 0 -0.048282499091199083 -0.41684649723306111 0 -0.06528413140028641 -0.40548789039177052 0 -0.065713266975248902 -0.42040157794015642 0 -0.048213792324517578 -0.39768762776665978 0 -0.048282499091199083 -0.41684649723306111 0 -0.06528413140028641 -0.40548789039177052 0 -0.048213792324517578 -0.39768762776665978 0 -0.048282499091199083 -0.41684649723306111 0 -0.029852467816379728 -0.41236872525256307 0 -0.048282499091199083 -0.41684649723306111 0 -0.036803499053157718 -0.43392585985635063 0 -0.029852467816379728 -0.41236872525256307 0 -0.052630130657334448 -0.42871109396582502 0 -0.048282499091199083 -0.41684649723306111 0 -0.036803499053157718 -0.43392585985635063 0 -0.036803499053157718 -0.43392585985635063 0 -0.01686747062211669 -0.42668809062348251 0 -0.022482277956740859 -0.44034230556013138 0 -0.036803499053157718 -0.43392585985635063 0 -0.01686747062211669 -0.42668809062348251 0 -0.029852467816379728 -0.41236872525256307 0 -0.0080625817845775948 -0.40608726553411861 0 -0.01686747062211669 -0.42668809062348251 0 -0.029852467816379728 -0.41236872525256307 0 -0.0080625817845775948 -0.40608726553411861 0 -0.01686747062211669 -0.42668809062348251 0 0.01224976062295041 -0.42183763890738629 0 -0.01686747062211669 -0.42668809062348251 0 -0.008216644178786571 -0.4466179140804285 0 0.01224976062295041 -0.42183763890738629 0 -0.008216644178786571 -0.4466179140804285 0 -0.0021957942935651631 -0.46571035637089769 0 -0.016151777162071251 -0.46269316979172348 0 -0.0021957942935651631 -0.46571035637089769 0 -0.016151777162071251 -0.46269316979172348 0 -0.01292321871024151 -0.47600360382280887 0 -0.008216644178786571 -0.4466179140804285 0 -0.016151777162071251 -0.46269316979172348 0 -0.028753682251359231 -0.45370767630375852 0 -0.016151777162071251 -0.46269316979172348 0 -0.030722049445265721 -0.46513815794063051 0 -0.025757536927686689 -0.47561542944709773 0 -0.016151777162071251 -0.46269316979172348 0 -0.030722049445265721 -0.46513815794063051 0 -0.028753682251359231 -0.45370767630375852 0 -0.036803499053157718 -0.43392585985635063 0 -0.028753682251359231 -0.45370767630375852 0 -0.022482277956740859 -0.44034230556013138 0 -0.01686747062211669 -0.42668809062348251 0 -0.008216644178786571 -0.4466179140804285 0 -0.022482277956740859 -0.44034230556013138 0 -0.008216644178786571 -0.4466179140804285 0 -0.028753682251359231 -0.45370767630375852 0 -0.022482277956740859 -0.44034230556013138 0 -0.011489863113854141 -0.5 0 -0.010144146689038991 -0.48941639725935437 0 0.012735562036971701 -0.48508522326900949 0 -0.010144146689038991 -0.48941639725935437 0 -0.00065605929082254884 -0.47874224407546379 0 -0.01292321871024151 -0.47600360382280887 0 -0.010144146689038991 -0.48941639725935437 0 -0.01292321871024151 -0.47600360382280887 0 -0.022633997898264431 -0.48384402599231691 0 -0.0021957942935651631 -0.46571035637089769 0 -0.00065605929082254884 -0.47874224407546379 0 -0.01292321871024151 -0.47600360382280887 0 -0.016151777162071251 -0.46269316979172348 0 -0.01292321871024151 -0.47600360382280887 0 -0.025757536927686689 -0.47561542944709773 0 -0.025757536927686689 -0.47561542944709773 0 -0.022633997898264431 -0.48384402599231691 0 -0.032724513000240443 -0.48384135401243772 0 -0.01292321871024151 -0.47600360382280887 0 -0.025757536927686689 -0.47561542944709773 0 -0.022633997898264431 -0.48384402599231691 0 -0.011489863113854141 -0.5 0 -0.010144146689038991 -0.48941639725935437 0 -0.033023855415049652 -0.49374757124969931 0 -0.010144146689038991 -0.48941639725935437 0 -0.022633997898264431 -0.48384402599231691 0 -0.033023855415049652 -0.49374757124969931 0 -0.011489863113854141 -0.5 0 -0.041002190054857779 -0.5 0 -0.033023855415049652 -0.49374757124969931 0 -0.010144146689038991 -0.48941639725935437 0 -0.033023855415049652 -0.49374757124969931 0 -0.022633997898264431 -0.48384402599231691 0 -0.033023855415049652 -0.49374757124969931 0 -0.032724513000240443 -0.48384135401243772 0 -0.041002190054857779 -0.5 0 -0.040644419244316249 -0.48874723383863622 0 -0.055758353525359711 -0.48944453406372251 0 -0.041002190054857779 -0.5 0 -0.033023855415049652 -0.49374757124969931 0 -0.040644419244316249 -0.48874723383863622 0 -0.033023855415049652 -0.49374757124969931 0 -0.040644419244316249 -0.48874723383863622 0 -0.032724513000240443 -0.48384135401243772 0 -0.040644419244316249 -0.48874723383863622 0 -0.040713184226073652 -0.47670270986732172 0 -0.055758353525359711 -0.48944453406372251 0 -0.040644419244316249 -0.48874723383863622 0 -0.040713184226073652 -0.47670270986732172 0 -0.032724513000240443 -0.48384135401243772 0 -0.025757536927686689 -0.47561542944709773 0 -0.040713184226073652 -0.47670270986732172 0 -0.032724513000240443 -0.48384135401243772 0 -0.030722049445265721 -0.46513815794063051 0 -0.025757536927686689 -0.47561542944709773 0 -0.040713184226073652 -0.47670270986732172 0 -0.040713184226073652 -0.47670270986732172 0 -0.05604151524233808 -0.47085547185542692 0 -0.042137987481662489 -0.46199998676314519 0 -0.040713184226073652 -0.47670270986732172 0 -0.05604151524233808 -0.47085547185542692 0 -0.055758353525359711 -0.48944453406372251 0 -0.05604151524233808 -0.47085547185542692 0 -0.055758353525359711 -0.48944453406372251 0 -0.068357021366280857 -0.47830767763467641 0 -0.041002190054857779 -0.5 0 -0.055758353525359711 -0.48944453406372251 0 -0.070514516995861642 -0.5 0 -0.036803499053157718 -0.43392585985635063 0 -0.028753682251359231 -0.45370767630375852 0 -0.042591220718736618 -0.44931976272637059 0 -0.036803499053157718 -0.43392585985635063 0 -0.042591220718736618 -0.44931976272637059 0 -0.055908543568221357 -0.44353945242809251 0 -0.028753682251359231 -0.45370767630375852 0 -0.042591220718736618 -0.44931976272637059 0 -0.042137987481662489 -0.46199998676314519 0 -0.030722049445265721 -0.46513815794063051 0 -0.028753682251359231 -0.45370767630375852 0 -0.042137987481662489 -0.46199998676314519 0 -0.030722049445265721 -0.46513815794063051 0 -0.040713184226073652 -0.47670270986732172 0 -0.042137987481662489 -0.46199998676314519 0 -0.042591220718736618 -0.44931976272637059 0 -0.042137987481662489 -0.46199998676314519 0 -0.054601469153056192 -0.45704509188174619 0 -0.05604151524233808 -0.47085547185542692 0 -0.054601469153056192 -0.45704509188174619 0 -0.071896784036839162 -0.45711427830285839 0 -0.05604151524233808 -0.47085547185542692 0 -0.042137987481662489 -0.46199998676314519 0 -0.054601469153056192 -0.45704509188174619 0 -0.054601469153056192 -0.45704509188174619 0 -0.055908543568221357 -0.44353945242809251 0 -0.071896784036839162 -0.45711427830285839 0 -0.042591220718736618 -0.44931976272637059 0 -0.054601469153056192 -0.45704509188174619 0 -0.055908543568221357 -0.44353945242809251 0 -0.055908543568221357 -0.44353945242809251 0 -0.071896784036839162 -0.45711427830285839 0 -0.077753046024815156 -0.43509142098737241 0 -0.071896784036839162 -0.45711427830285839 0 -0.087573937031005744 -0.47412410395137422 0 -0.093954286744555499 -0.45179652052777369 0 -0.087573937031005744 -0.47412410395137422 0 -0.093954286744555499 -0.45179652052777369 0 -0.071896784036839162 -0.45711427830285839 0 -0.093954286744555499 -0.45179652052777369 0 -0.077753046024815156 -0.43509142098737241 0 -0.093954286744555499 -0.45179652052777369 0 -0.10033463645810529 -0.42946893710417328 0 -0.077753046024815156 -0.43509142098737241 0 -0.055758353525359711 -0.48944453406372251 0 -0.070514516995861642 -0.5 0 -0.068357021366280857 -0.47830767763467641 0 -0.05604151524233808 -0.47085547185542692 0 -0.071896784036839162 -0.45711427830285839 0 -0.068357021366280857 -0.47830767763467641 0 -0.071896784036839162 -0.45711427830285839 0 -0.068357021366280857 -0.47830767763467641 0 -0.087573937031005744 -0.47412410395137422 0 -0.070514516995861642 -0.5 0 -0.068357021366280857 -0.47830767763467641 0 -0.087573937031005744 -0.47412410395137422 0 -0.070514516995861642 -0.5 0 -0.087573937031005744 -0.47412410395137422 0 -0.10002684393686551 -0.5 0 -0.087573937031005744 -0.47412410395137422 0 -0.10002684393686551 -0.5 0 -0.10780494223314389 -0.47765854937150709 0 -0.087573937031005744 -0.47412410395137422 0 -0.10780494223314389 -0.47765854937150709 0 -0.1029954147344513 -0.46359439800738522 0 -0.12605423818426559 -0.48707922202292669 0 -0.10780494223314389 -0.47765854937150709 0 -0.1201929706126502 -0.46127799294672761 0 -0.12605423818426559 -0.48707922202292669 0 -0.1201929706126502 -0.46127799294672761 0 -0.12605423818426559 -0.48707922202292669 0 -0.10002684393686551 -0.5 0 -0.10780494223314389 -0.47765854937150709 0 -0.1295391708778694 -0.5 0 -0.12605423818426559 -0.48707922202292669 0 -0.10002684393686551 -0.5 0 -0.093954286744555499 -0.45179652052777369 0 -0.10033463645810529 -0.42946893710417328 0 -0.10636180231815941 -0.44832292249131772 0 -0.11433170304103479 -0.43547676387052858 0 -0.10033463645810529 -0.42946893710417328 0 -0.10636180231815941 -0.44832292249131772 0 -0.093954286744555499 -0.45179652052777369 0 -0.10033463645810529 -0.42946893710417328 0 -0.087573937031005744 -0.47412410395137422 0 -0.093954286744555499 -0.45179652052777369 0 -0.1029954147344513 -0.46359439800738522 0 -0.10636180231815941 -0.44832292249131772 0 -0.093954286744555499 -0.45179652052777369 0 -0.1029954147344513 -0.46359439800738522 0 -0.10780494223314389 -0.47765854937150709 0 -0.1029954147344513 -0.46359439800738522 0 -0.1201929706126502 -0.46127799294672761 0 -0.10636180231815941 -0.44832292249131772 0 -0.1029954147344513 -0.46359439800738522 0 -0.1201929706126502 -0.46127799294672761 0 -0.13671083813600751 -0.45044361347006462 0 -0.1201929706126502 -0.46127799294672761 0 -0.11433170304103479 -0.43547676387052858 0 -0.10636180231815941 -0.44832292249131772 0 -0.1201929706126502 -0.46127799294672761 0 -0.11433170304103479 -0.43547676387052858 0 -0.13671083813600751 -0.45044361347006462 0 -0.1225906368027144 -0.43005957413219659 0 -0.11433170304103479 -0.43547676387052858 0 -0.1201929706126502 -0.46127799294672761 0 -0.11433170304103479 -0.43547676387052858 0 -0.1225906368027144 -0.43005957413219659 0 -0.11433170304103479 -0.43547676387052858 0 -0.10847043546942051 -0.40967553479432928 0 -0.11433170304103479 -0.43547676387052858 0 -0.10847043546942051 -0.40967553479432928 0 -0.12908399078123631 -0.42243277819987513 0 -0.1225906368027144 -0.43005957413219659 0 -0.12315425937001 -0.41747458531602638 0 -0.11433170304103479 -0.43547676387052858 0 -0.10033463645810529 -0.42946893710417328 0 -0.10847043546942051 -0.40967553479432928 0 -0.10033463645810529 -0.42946893710417328 0 -0.094107383989168333 -0.41562629379671062 0 -0.1067149861716557 -0.40714135368057303 0 -0.10033463645810529 -0.42946893710417328 0 -0.1067149861716557 -0.40714135368057303 0 -0.10847043546942051 -0.40967553479432928 0 -0.10033463645810529 -0.42946893710417328 0 -0.1067149861716557 -0.40714135368057303 0 -0.094107383989168333 -0.41562629379671062 0 -0.1067149861716557 -0.40714135368057303 0 -0.093615658715422545 -0.40476526464288082 0 -0.10847043546942051 -0.40967553479432928 0 -0.1105756132387118 -0.40676785322215941 0 -0.1073722461642546 -0.40484131873350049 0 -0.10847043546942051 -0.40967553479432928 0 -0.1073722461642546 -0.40484131873350049 0 -0.1067149861716557 -0.40714135368057303 0 -0.10847043546942051 -0.40967553479432928 0 -0.1073722461642546 -0.40484131873350049 0 -0.1067149861716557 -0.40714135368057303 0 -0.10847043546942051 -0.40967553479432928 0 -0.1225906368027144 -0.43005957413219659 0 -0.1163272184937543 -0.41351727508190028 0 -0.12315425937001 -0.41747458531602638 0 -0.10847043546942051 -0.40967553479432928 0 -0.1125412123036873 -0.40894162881917728 0 -0.1163272184937543 -0.41351727508190028 0 -0.1125412123036873 -0.40894162881917728 0 -0.1105756132387118 -0.40676785322215941 0 -0.1147915820128618 -0.40580585217832088 0 -0.1225906368027144 -0.43005957413219659 0 -0.10847043546942051 -0.40967553479432928 0 -0.1163272184937543 -0.41351727508190028 0 -0.10847043546942051 -0.40967553479432928 0 -0.1125412123036873 -0.40894162881917728 0 -0.1105756132387118 -0.40676785322215941 0 -0.1225906368027144 -0.43005957413219659 0 -0.10847043546942051 -0.40967553479432928 0 -0.1125412123036873 -0.40894162881917728 0 -0.1163272184937543 -0.41351727508190028 0 -0.1147915820128618 -0.40580585217832088 0 -0.1225700411049412 -0.40994677461386392 0 -0.1219584454402414 -0.40406961642135292 0 -0.1147915820128618 -0.40580585217832088 0 -0.1163272184937543 -0.41351727508190028 0 -0.1225700411049412 -0.40994677461386392 0 -0.1147915820128618 -0.40580585217832088 0 -0.1163272184937543 -0.41351727508190028 0 -0.12315425937001 -0.41747458531602638 0 -0.1225700411049412 -0.40994677461386392 0 -0.1273295258527142 -0.39594401256049883 0 -0.1219584454402414 -0.40406961642135292 0 -0.1190781430676657 -0.39944145851713192 0 -0.11305295545189779 -0.39895005080087959 0 -0.11384267237711319 -0.38219851895920232 0 -0.1073722461642546 -0.40484131873350049 0 -0.1295768038857959 -0.40463739140698729 0 -0.1225700411049412 -0.40994677461386392 0 -0.1219584454402414 -0.40406961642135292 0 -0.1182582065806136 -0.392437760624607 0 -0.11305295545189779 -0.39895005080087959 0 -0.11384267237711319 -0.38219851895920232 0 -0.11384267237711319 -0.38219851895920232 0 -0.1073722461642546 -0.40484131873350049 0 -0.1219584454402414 -0.40406961642135292 0 -0.1190781430676657 -0.39944145851713192 0 -0.1147915820128618 -0.40580585217832088 0 -0.1273295258527142 -0.39594401256049883 0 -0.1190781430676657 -0.39944145851713192 0 -0.1182582065806136 -0.392437760624607 0 -0.1190781430676657 -0.39944145851713192 0 -0.1182582065806136 -0.392437760624607 0 -0.11305295545189779 -0.39895005080087959 0 -0.1105756132387118 -0.40676785322215941 0 -0.1114480992169309 -0.40409126873371493 0 -0.1073722461642546 -0.40484131873350049 0 -0.1105756132387118 -0.40676785322215941 0 -0.1114480992169309 -0.40409126873371493 0 -0.1147915820128618 -0.40580585217832088 0 -0.11305295545189779 -0.39895005080087959 0 -0.1114480992169309 -0.40409126873371493 0 -0.1147915820128618 -0.40580585217832088 0 -0.11305295545189779 -0.39895005080087959 0 -0.1114480992169309 -0.40409126873371493 0 -0.1073722461642546 -0.40484131873350049 0 -0.1190781430676657 -0.39944145851713192 0 -0.11305295545189779 -0.39895005080087959 0 -0.1147915820128618 -0.40580585217832088 0 -0.12625141541498519 -0.38197991289387551 0 -0.1182582065806136 -0.392437760624607 0 -0.11384267237711319 -0.38219851895920232 0 -0.12625141541498519 -0.38197991289387551 0 -0.1273295258527142 -0.39594401256049883 0 -0.1182582065806136 -0.392437760624607 0 -0.11384267237711319 -0.38219851895920232 0 -0.10176491866177829 -0.38015793077534599 0 -0.1073722461642546 -0.40484131873350049 0 -0.10176491866177829 -0.38015793077534599 0 -0.095995502779844255 -0.39166661886747001 0 -0.085276019388031976 -0.37619188405436782 0 -0.10849363524981311 -0.36442991456039969 0 -0.11384267237711319 -0.38219851895920232 0 -0.10176491866177829 -0.38015793077534599 0 -0.10176491866177829 -0.38015793077534599 0 -0.1073722461642546 -0.40484131873350049 0 -0.095995502779844255 -0.39166661886747001 0 -0.10176491866177829 -0.38015793077534599 0 -0.1073722461642546 -0.40484131873350049 0 -0.1067149861716557 -0.40714135368057303 0 -0.1073722461642546 -0.40484131873350049 0 -0.095995502779844255 -0.39166661886747001 0 -0.1067149861716557 -0.40714135368057303 0 -0.1073722461642546 -0.40484131873350049 0 -0.1067149861716557 -0.40714135368057303 0 -0.095995502779844255 -0.39166661886747001 0 -0.1067149861716557 -0.40714135368057303 0 -0.095995502779844255 -0.39166661886747001 0 -0.093615658715422545 -0.40476526464288082 0 -0.093615658715422545 -0.40476526464288082 0 -0.081664681120336771 -0.39582842074610342 0 -0.082451352827770552 -0.41163664718976212 0 -0.095995502779844255 -0.39166661886747001 0 -0.093615658715422545 -0.40476526464288082 0 -0.081664681120336771 -0.39582842074610342 0 -0.095995502779844255 -0.39166661886747001 0 -0.081664681120336771 -0.39582842074610342 0 -0.085276019388031976 -0.37619188405436782 0 -0.081664681120336771 -0.39582842074610342 0 -0.085276019388031976 -0.37619188405436782 0 -0.074552591578295357 -0.38401367178407558 0 -0.095995502779844255 -0.39166661886747001 0 -0.085276019388031976 -0.37619188405436782 0 -0.081664681120336771 -0.39582842074610342 0 -0.065379196062645584 -0.39052657147488062 0 -0.074552591578295357 -0.38401367178407558 0 -0.065890469742167113 -0.37350781086095058 0 -0.085276019388031976 -0.37619188405436782 0 -0.074552591578295357 -0.38401367178407558 0 -0.065890469742167113 -0.37350781086095058 0 -0.065379196062645584 -0.39052657147488062 0 -0.074552591578295357 -0.38401367178407558 0 -0.081664681120336771 -0.39582842074610342 0 -0.06528413140028641 -0.40548789039177052 0 -0.082451352827770552 -0.41163664718976212 0 -0.081664681120336771 -0.39582842074610342 0 -0.065379196062645584 -0.39052657147488062 0 -0.06528413140028641 -0.40548789039177052 0 -0.065713266975248902 -0.42040157794015642 0 -0.085028608260126398 -0.42320905853578622 0 -0.082451352827770552 -0.41163664718976212 0 -0.06528413140028641 -0.40548789039177052 0 -0.065713266975248902 -0.42040157794015642 0 -0.082451352827770552 -0.41163664718976212 0 -0.065713266975248902 -0.42040157794015642 0 -0.077753046024815156 -0.43509142098737241 0 -0.085028608260126398 -0.42320905853578622 0 -0.052630130657334448 -0.42871109396582502 0 -0.065713266975248902 -0.42040157794015642 0 -0.077753046024815156 -0.43509142098737241 0 -0.10033463645810529 -0.42946893710417328 0 -0.077753046024815156 -0.43509142098737241 0 -0.085028608260126398 -0.42320905853578622 0 -0.10033463645810529 -0.42946893710417328 0 -0.094107383989168333 -0.41562629379671062 0 -0.085028608260126398 -0.42320905853578622 0 -0.094107383989168333 -0.41562629379671062 0 -0.085028608260126398 -0.42320905853578622 0 -0.082451352827770552 -0.41163664718976212 0 -0.094107383989168333 -0.41562629379671062 0 -0.093615658715422545 -0.40476526464288082 0 -0.082451352827770552 -0.41163664718976212 0 -0.080832567710134945 -0.085265223789800185 0 -0.09573268077664969 -0.090624673380050064 0 -0.094924188455715333 -0.074372309221374736 0 -0.080832567710134945 -0.085265223789800185 0 -0.0944050220014645 -0.1050702242089397 0 -0.09573268077664969 -0.090624673380050064 0 -0.094924188455715333 -0.074372309221374736 0 -0.077079431972146645 -0.050953682142663811 0 -0.080832567710134945 -0.085265223789800185 0 -0.077460787511610923 -0.070469280456870842 0 -0.094924188455715333 -0.074372309221374736 0 -0.077460787511610923 -0.070469280456870842 0 -0.094924188455715333 -0.074372309221374736 0 -0.078535685693175539 -0.061573663464548622 0 -0.080832567710134945 -0.085265223789800185 0 -0.072736864716213656 -0.076885636419884412 0 -0.077460787511610923 -0.070469280456870842 0 -0.072736864716213656 -0.076885636419884412 0 -0.077460787511610923 -0.070469280456870842 0 -0.067174029152377468 -0.071022972744677337 0 -0.077460787511610923 -0.070469280456870842 0 -0.067174029152377468 -0.071022972744677337 0 -0.070308423821052124 -0.061023041189074957 0 -0.077460787511610923 -0.070469280456870842 0 -0.078535685693175539 -0.061573663464548622 0 -0.070308423821052124 -0.061023041189074957 0 -0.067174029152377468 -0.071022972744677337 0 -0.070308423821052124 -0.061023041189074957 0 -0.060830035872249492 -0.064558057335980773 0 -0.072736864716213656 -0.076885636419884412 0 -0.067174029152377468 -0.071022972744677337 0 -0.063732237529271596 -0.080733089011810297 0 -0.067174029152377468 -0.071022972744677337 0 -0.063732237529271596 -0.080733089011810297 0 -0.058000192015007383 -0.073011667883306972 0 -0.080832567710134945 -0.085265223789800185 0 -0.063732237529271596 -0.080733089011810297 0 -0.066023591375222151 -0.09957098179305135 0 -0.080832567710134945 -0.085265223789800185 0 -0.072736864716213656 -0.076885636419884412 0 -0.063732237529271596 -0.080733089011810297 0 -0.066023591375222151 -0.09957098179305135 0 -0.069466171350113709 -0.1135628440840601 0 -0.0944050220014645 -0.1050702242089397 0 -0.066023591375222151 -0.09957098179305135 0 -0.069466171350113709 -0.1135628440840601 0 -0.054384952187449757 -0.110609208962567 0 -0.077516787342341589 -0.1242022911324857 0 -0.069466171350113709 -0.1135628440840601 0 -0.059238207921678762 -0.13024384051707169 0 -0.077516787342341589 -0.1242022911324857 0 -0.093262550211769629 -0.1231040070079162 0 -0.0944050220014645 -0.1050702242089397 0 -0.077516787342341589 -0.1242022911324857 0 -0.069466171350113709 -0.1135628440840601 0 -0.0944050220014645 -0.1050702242089397 0 -0.066023591375222151 -0.09957098179305135 0 -0.0944050220014645 -0.1050702242089397 0 -0.080832567710134945 -0.085265223789800185 0 -0.066023591375222151 -0.09957098179305135 0 -0.0944050220014645 -0.1050702242089397 0 -0.0944050220014645 -0.1050702242089397 0 -0.1071147179002416 -0.1244919901550422 0 -0.11276894493928399 -0.097790936300085646 0 -0.0944050220014645 -0.1050702242089397 0 -0.11276894493928399 -0.097790936300085646 0 -0.09573268077664969 -0.090624673380050064 0 -0.093262550211769629 -0.1231040070079162 0 -0.0944050220014645 -0.1050702242089397 0 -0.1071147179002416 -0.1244919901550422 0 -0.1071147179002416 -0.1244919901550422 0 -0.11276894493928399 -0.097790936300085646 0 -0.1306137014228527 -0.1212095633787966 0 -0.11276894493928399 -0.097790936300085646 0 -0.1306137014228527 -0.1212095633787966 0 -0.112702195828283 -0.076339248342475546 0 -0.13438499311011279 -0.096174695905308166 0 -0.11276894493928399 -0.097790936300085646 0 -0.112702195828283 -0.076339248342475546 0 -0.13438499311011279 -0.096174695905308166 0 -0.11276894493928399 -0.097790936300085646 0 -0.094924188455715333 -0.074372309221374736 0 -0.112702195828283 -0.076339248342475546 0 -0.11276894493928399 -0.097790936300085646 0 -0.094924188455715333 -0.074372309221374736 0 -0.11276894493928399 -0.097790936300085646 0 -0.09573268077664969 -0.090624673380050064 0 -0.094924188455715333 -0.074372309221374736 0 -0.094924188455715333 -0.074372309221374736 0 -0.1026030192468113 -0.064894788769428779 0 -0.112702195828283 -0.076339248342475546 0 -0.094924188455715333 -0.074372309221374736 0 -0.1026030192468113 -0.064894788769428779 0 -0.090333769324138391 -0.059362086744932152 0 -0.1026030192468113 -0.064894788769428779 0 -0.112702195828283 -0.076339248342475546 0 -0.1158705629695205 -0.060236298698018297 0 -0.112702195828283 -0.076339248342475546 0 -0.1158705629695205 -0.060236298698018297 0 -0.13497135686491851 -0.078315161523928284 0 -0.1158705629695205 -0.060236298698018297 0 -0.1150956899200111 -0.045830426672337207 0 -0.1070798181065768 -0.041876824406217303 0 -0.1158705629695205 -0.060236298698018297 0 -0.1150956899200111 -0.045830426672337207 0 -0.12809376798702951 -0.047905065599393698 0 -0.1163329610324388 -0.034474533447810513 0 -0.12530131535501859 -0.034952786400489197 0 -0.12809376798702951 -0.047905065599393698 0 -0.11023593420079281 -0.033339602888773932 0 -0.1150956899200111 -0.045830426672337207 0 -0.12809376798702951 -0.047905065599393698 0 -0.11023593420079281 -0.033339602888773932 0 -0.1163329610324388 -0.034474533447810513 0 -0.12809376798702951 -0.047905065599393698 0 -0.11023593420079281 -0.033339602888773932 0 -0.12809376798702951 -0.047905065599393698 0 -0.1163329610324388 -0.034474533447810513 0 -0.1221370268088495 -0.025998648103035 0 -0.12530131535501859 -0.034952786400489197 0 -0.11023593420079281 -0.033339602888773932 0 -0.1150956899200111 -0.045830426672337207 0 -0.1070798181065768 -0.041876824406217303 0 -0.11023593420079281 -0.033339602888773932 0 -0.1163329610324388 -0.034474533447810513 0 -0.097427134368436918 -0.027820357899848831 0 -0.11023593420079281 -0.033339602888773932 0 -0.1070798181065768 -0.041876824406217303 0 -0.097427134368436918 -0.027820357899848831 0 -0.1070798181065768 -0.041876824406217303 0 -0.096769769074122519 -0.04215743587210824 0 -0.097427134368436918 -0.027820357899848831 0 -0.1158705629695205 -0.060236298698018297 0 -0.1070798181065768 -0.041876824406217303 0 -0.096769769074122519 -0.04215743587210824 0 -0.1026030192468113 -0.064894788769428779 0 -0.1158705629695205 -0.060236298698018297 0 -0.099264754381345577 -0.055060356505970513 0 -0.1158705629695205 -0.060236298698018297 0 -0.096769769074122519 -0.04215743587210824 0 -0.099264754381345577 -0.055060356505970513 0 -0.096769769074122519 -0.04215743587210824 0 -0.099264754381345577 -0.055060356505970513 0 -0.090746651292135133 -0.048651172445365112 0 -0.1158705629695205 -0.060236298698018297 0 -0.096769769074122519 -0.04215743587210824 0 -0.1026030192468113 -0.064894788769428779 0 -0.099264754381345577 -0.055060356505970513 0 -0.090333769324138391 -0.059362086744932152 0 -0.1029392013539359 -0.0085751277431150782 0 -0.12735709500343681 0.004015926865657337 0 -0.1236693299605585 -0.0137973575501921 0 -0.1110604598185659 -0.0207882196779367 0 -0.1029392013539359 -0.0085751277431150782 0 -0.1236693299605585 -0.0137973575501921 0 -0.1029392013539359 -0.0085751277431150782 0 -0.12735709500343681 0.004015926865657337 0 -0.1236693299605585 -0.0137973575501921 0 -0.1110604598185659 -0.0207882196779367 0 -0.1221370268088495 -0.025998648103035 0 -0.1163329610324388 -0.034474533447810513 0 -0.1221370268088495 -0.025998648103035 0 -0.11173939550707281 -0.027270439782157759 0 -0.1110604598185659 -0.0207882196779367 0 -0.1221370268088495 -0.025998648103035 0 -0.11173939550707281 -0.027270439782157759 0 -0.1163329610324388 -0.034474533447810513 0 -0.097427134368436918 -0.027820357899848831 0 -0.1110604598185659 -0.0207882196779367 0 -0.097427134368436918 -0.027820357899848831 0 -0.1029392013539359 -0.0085751277431150782 0 -0.1163329610324388 -0.034474533447810513 0 -0.11173939550707281 -0.027270439782157759 0 -0.097427134368436918 -0.027820357899848831 0 -0.1110604598185659 -0.0207882196779367 0 -0.11173939550707281 -0.027270439782157759 0 -0.097427134368436918 -0.027820357899848831 0 -0.1029392013539359 -0.0085751277431150782 0 -0.086097875964997059 -0.0058870606910941042 0 -0.078521307704434995 -0.021166182351887271 0 -0.1029392013539359 -0.0085751277431150782 0 -0.078521307704434995 -0.021166182351887271 0 -0.1029392013539359 -0.0085751277431150782 0 -0.086097875964997059 -0.0058870606910941042 0 -0.091682611010439896 0.0063963380850077774 0 -0.086097875964997059 -0.0058870606910941042 0 -0.073830544796709738 -0.0078542708917730738 0 -0.078933949510919491 0.00072378658541613432 0 -0.086097875964997059 -0.0058870606910941042 0 -0.078521307704434995 -0.021166182351887271 0 -0.073830544796709738 -0.0078542708917730738 0 -0.097427134368436918 -0.027820357899848831 0 -0.078521307704434995 -0.021166182351887271 0 -0.097427134368436918 -0.027820357899848831 0 -0.078521307704434995 -0.021166182351887271 0 -0.077668975178724509 -0.024078573046198169 0 -0.097427134368436918 -0.027820357899848831 0 -0.1029392013539359 -0.0085751277431150782 0 -0.078521307704434995 -0.021166182351887271 0 -0.078521307704434995 -0.021166182351887271 0 -0.055132092173872667 -0.033226800447327051 0 -0.05822397002114936 -0.01402224463886402 0 -0.078521307704434995 -0.021166182351887271 0 -0.055132092173872667 -0.033226800447327051 0 -0.077668975178724509 -0.024078573046198169 0 -0.075465350998538308 -0.032772608828030472 0 -0.055132092173872667 -0.033226800447327051 0 -0.078521307704434995 -0.021166182351887271 0 -0.077668975178724509 -0.024078573046198169 0 -0.055132092173872667 -0.033226800447327051 0 -0.078521307704434995 -0.021166182351887271 0 -0.05822397002114936 -0.01402224463886402 0 -0.078521307704434995 -0.021166182351887271 0 -0.073830544796709738 -0.0078542708917730738 0 -0.05822397002114936 -0.01402224463886402 0 -0.073830544796709738 -0.0078542708917730738 0 -0.05822397002114936 -0.01402224463886402 0 -0.068462160169621672 0.0025537029525893409 0 -0.073830544796709738 -0.0078542708917730738 0 -0.078933949510919491 0.00072378658541613432 0 -0.068462160169621672 0.0025537029525893409 0 -0.094924188455715333 -0.074372309221374736 0 -0.090333769324138391 -0.059362086744932152 0 -0.077079431972146645 -0.050953682142663811 0 -0.094924188455715333 -0.074372309221374736 0 -0.078535685693175539 -0.061573663464548622 0 -0.077079431972146645 -0.050953682142663811 0 -0.084868245962835154 -0.053326759561897898 0 -0.090333769324138391 -0.059362086744932152 0 -0.077079431972146645 -0.050953682142663811 0 -0.084868245962835154 -0.053326759561897898 0 -0.080876314157704687 -0.04955372347343575 0 -0.082849096915408454 -0.045583035938281863 0 -0.080876314157704687 -0.04955372347343575 0 -0.078708481780428496 -0.048351416250899462 0 -0.082849096915408454 -0.045583035938281863 0 -0.080876314157704687 -0.04955372347343575 0 -0.078708481780428496 -0.048351416250899462 0 -0.077079431972146645 -0.050953682142663811 0 -0.084868245962835154 -0.053326759561897898 0 -0.080876314157704687 -0.04955372347343575 0 -0.077079431972146645 -0.050953682142663811 0 -0.084868245962835154 -0.053326759561897898 0 -0.090746651292135133 -0.048651172445365112 0 -0.082849096915408454 -0.045583035938281863 0 -0.084868245962835154 -0.053326759561897898 0 -0.090333769324138391 -0.059362086744932152 0 -0.090746651292135133 -0.048651172445365112 0 -0.099264754381345577 -0.055060356505970513 0 -0.090333769324138391 -0.059362086744932152 0 -0.090746651292135133 -0.048651172445365112 0 -0.096769769074122519 -0.04215743587210824 0 -0.088481073739883592 -0.043344290748051233 0 -0.083558777677868248 -0.036985518736449702 0 -0.096769769074122519 -0.04215743587210824 0 -0.097427134368436918 -0.027820357899848831 0 -0.077668975178724509 -0.024078573046198169 0 -0.096769769074122519 -0.04215743587210824 0 -0.077668975178724509 -0.024078573046198169 0 -0.083558777677868248 -0.036985518736449702 0 -0.096769769074122519 -0.04215743587210824 0 -0.077668975178724509 -0.024078573046198169 0 -0.090746651292135133 -0.048651172445365112 0 -0.088481073739883592 -0.043344290748051233 0 -0.082849096915408454 -0.045583035938281863 0 -0.096769769074122519 -0.04215743587210824 0 -0.090746651292135133 -0.048651172445365112 0 -0.088481073739883592 -0.043344290748051233 0 -0.077668975178724509 -0.024078573046198169 0 -0.083558777677868248 -0.036985518736449702 0 -0.075465350998538308 -0.032772608828030472 0 -0.083558777677868248 -0.036985518736449702 0 -0.082849096915408454 -0.045583035938281863 0 -0.075062618692292638 -0.040325846155841297 0 -0.088481073739883592 -0.043344290748051233 0 -0.083558777677868248 -0.036985518736449702 0 -0.082849096915408454 -0.045583035938281863 0 -0.082849096915408454 -0.045583035938281863 0 -0.078067002861142085 -0.04575568247049161 0 -0.075062618692292638 -0.040325846155841297 0 -0.078708481780428496 -0.048351416250899462 0 -0.082849096915408454 -0.045583035938281863 0 -0.078067002861142085 -0.04575568247049161 0 -0.075647814056438792 -0.048762431536943832 0 -0.055132092173872667 -0.033226800447327051 0 -0.078067002861142085 -0.04575568247049161 0 -0.075062618692292638 -0.040325846155841297 0 -0.075647814056438792 -0.048762431536943832 0 -0.075062618692292638 -0.040325846155841297 0 -0.075465350998538308 -0.032772608828030472 0 -0.055132092173872667 -0.033226800447327051 0 -0.075647814056438792 -0.048762431536943832 0 -0.061428605263776047 -0.046553119166432878 0 -0.055132092173872667 -0.033226800447327051 0 -0.075062618692292638 -0.040325846155841297 0 -0.075647814056438792 -0.048762431536943832 0 -0.055132092173872667 -0.033226800447327051 0 -0.083558777677868248 -0.036985518736449702 0 -0.075062618692292638 -0.040325846155841297 0 -0.075465350998538308 -0.032772608828030472 0 -0.065722760200719738 -0.052253177456942877 0 -0.075647814056438792 -0.048762431536943832 0 -0.061428605263776047 -0.046553119166432878 0 -0.065722760200719738 -0.052253177456942877 0 -0.07269306068786438 -0.052406879740114577 0 -0.069833853901725543 -0.055329661047837618 0 -0.065722760200719738 -0.052253177456942877 0 -0.07269306068786438 -0.052406879740114577 0 -0.075647814056438792 -0.048762431536943832 0 -0.07269306068786438 -0.052406879740114577 0 -0.073703714626092445 -0.056102563442451223 0 -0.069833853901725543 -0.055329661047837618 0 -0.07269306068786438 -0.052406879740114577 0 -0.077079431972146645 -0.050953682142663811 0 -0.073703714626092445 -0.056102563442451223 0 -0.078708481780428496 -0.048351416250899462 0 -0.077079431972146645 -0.050953682142663811 0 -0.075647814056438792 -0.048762431536943832 0 -0.07269306068786438 -0.052406879740114577 0 -0.077079431972146645 -0.050953682142663811 0 -0.075647814056438792 -0.048762431536943832 0 -0.078708481780428496 -0.048351416250899462 0 -0.078067002861142085 -0.04575568247049161 0 -0.075647814056438792 -0.048762431536943832 0 -0.078535685693175539 -0.061573663464548622 0 -0.073703714626092445 -0.056102563442451223 0 -0.070308423821052124 -0.061023041189074957 0 -0.078535685693175539 -0.061573663464548622 0 -0.077079431972146645 -0.050953682142663811 0 -0.073703714626092445 -0.056102563442451223 0 -0.073703714626092445 -0.056102563442451223 0 -0.070308423821052124 -0.061023041189074957 0 -0.069833853901725543 -0.055329661047837618 0 -0.070308423821052124 -0.061023041189074957 0 -0.064391701294429504 -0.057679717025484439 0 -0.060830035872249492 -0.064558057335980773 0 -0.070308423821052124 -0.061023041189074957 0 -0.069833853901725543 -0.055329661047837618 0 -0.064391701294429504 -0.057679717025484439 0 -0.065722760200719738 -0.052253177456942877 0 -0.069833853901725543 -0.055329661047837618 0 -0.064391701294429504 -0.057679717025484439 0 -0.064391701294429504 -0.057679717025484439 0 -0.055978059279945473 -0.056388284161067823 0 -0.060830035872249492 -0.064558057335980773 0 -0.065722760200719738 -0.052253177456942877 0 -0.064391701294429504 -0.057679717025484439 0 -0.055978059279945473 -0.056388284161067823 0 -0.055978059279945473 -0.056388284161067823 0 -0.041230103293456458 -0.058058117591144771 0 -0.049479852383656611 -0.067543566470139038 0 -0.055978059279945473 -0.056388284161067823 0 -0.049741921456861897 -0.048697412542500033 0 -0.041230103293456458 -0.058058117591144771 0 -0.055978059279945473 -0.056388284161067823 0 -0.049741921456861897 -0.048697412542500033 0 -0.061428605263776047 -0.046553119166432878 0 -0.065722760200719738 -0.052253177456942877 0 -0.055978059279945473 -0.056388284161067823 0 -0.061428605263776047 -0.046553119166432878 0 -0.049741921456861897 -0.048697412542500033 0 -0.061428605263776047 -0.046553119166432878 0 -0.055132092173872667 -0.033226800447327051 0 -0.049741921456861897 -0.048697412542500033 0 -0.055132092173872667 -0.033226800447327051 0 -0.032367863380537598 -0.044965144957206583 0 -0.055132092173872667 -0.033226800447327051 0 -0.032367863380537598 -0.044965144957206583 0 -0.055132092173872667 -0.033226800447327051 0 -0.032367863380537598 -0.044965144957206583 0 -0.031233838643279398 -0.031193199633022049 0 -0.049741921456861897 -0.048697412542500033 0 -0.032367863380537598 -0.044965144957206583 0 -0.041230103293456458 -0.058058117591144771 0 -0.032367863380537598 -0.044965144957206583 0 -0.041230103293456458 -0.058058117591144771 0 -0.026902341230915561 -0.060374551747501753 0 -0.05822397002114936 -0.01402224463886402 0 -0.057836245250817257 0.0062936453779614283 0 -0.044352522143416888 0.0050416822031405977 0 -0.05822397002114936 -0.01402224463886402 0 -0.037926632337863607 -0.0068783069258408786 0 -0.05822397002114936 -0.01402224463886402 0 -0.068462160169621672 0.0025537029525893409 0 -0.057836245250817257 0.0062936453779614283 0 -0.055132092173872667 -0.033226800447327051 0 -0.05822397002114936 -0.01402224463886402 0 -0.036243114184870161 -0.018923029155399909 0 -0.055132092173872667 -0.033226800447327051 0 -0.036243114184870161 -0.018923029155399909 0 -0.031233838643279398 -0.031193199633022049 0 -0.055132092173872667 -0.033226800447327051 0 -0.036243114184870161 -0.018923029155399909 0 -0.05822397002114936 -0.01402224463886402 0 -0.036243114184870161 -0.018923029155399909 0 -0.037926632337863607 -0.0068783069258408786 0 -0.05822397002114936 -0.01402224463886402 0 -0.037926632337863607 -0.0068783069258408786 0 -0.044352522143416888 0.0050416822031405977 0 -0.036243114184870161 -0.018923029155399909 0 -0.037926632337863607 -0.0068783069258408786 0 -0.029121832422534862 -0.0067169982391169078 0 -0.037926632337863607 -0.0068783069258408786 0 -0.029539197120254941 -0.00051038393964639519 0 -0.029121832422534862 -0.0067169982391169078 0 -0.037926632337863607 -0.0068783069258408786 0 -0.029539197120254941 -0.00051038393964639519 0 -0.03614709390981162 0.0015378833132510439 0 -0.037926632337863607 -0.0068783069258408786 0 -0.03614709390981162 0.0015378833132510439 0 -0.044352522143416888 0.0050416822031405977 0 -0.036243114184870161 -0.018923029155399909 0 -0.017354136195868258 -0.0046192578634720229 0 -0.01819617019275287 -0.0061732580868559192 0 -0.036243114184870161 -0.018923029155399909 0 -0.017354136195868258 -0.0046192578634720229 0 -0.029121832422534862 -0.0067169982391169078 0 -0.036243114184870161 -0.018923029155399909 0 -0.01819617019275287 -0.0061732580868559192 0 -0.019637671972121611 -0.02148729346067638 0 -0.036243114184870161 -0.018923029155399909 0 -0.017354136195868258 -0.0046192578634720229 0 -0.017354136195868258 -0.0046192578634720229 0 -0.01819617019275287 -0.0061732580868559192 0 -0.013500839782477779 -0.0058155532537883976 0 -0.017354136195868258 -0.0046192578634720229 0 -0.01819617019275287 -0.0061732580868559192 0 -0.017354136195868258 -0.0046192578634720229 0 -0.024546082273817361 -0.00265401331122534 0 -0.02112675760807068 0.0030512678310729521 0 -0.024546082273817361 -0.00265401331122534 0 -0.029539197120254941 -0.00051038393964639519 0 -0.02112675760807068 0.0030512678310729521 0 -0.017354136195868258 -0.0046192578634720229 0 -0.024546082273817361 -0.00265401331122534 0 -0.029121832422534862 -0.0067169982391169078 0 -0.024546082273817361 -0.00265401331122534 0 -0.029539197120254941 -0.00051038393964639519 0 -0.029121832422534862 -0.0067169982391169078 0 -0.01819617019275287 -0.0061732580868559192 0 -0.019637671972121611 -0.02148729346067638 0 -0.011008321991883009 -0.01057962122923565 0 -0.036243114184870161 -0.018923029155399909 0 -0.019637671972121611 -0.02148729346067638 0 -0.031233838643279398 -0.031193199633022049 0 -0.019637671972121611 -0.02148729346067638 0 -0.031233838643279398 -0.031193199633022049 0 -0.016064986363794779 -0.036441041599790329 0 -0.0077215053668332834 -0.022860670268973711 0 -0.00118246574067416 -0.01324232368796026 0 0.0015263381015913891 -0.033415212413580753 0 -0.0077215053668332834 -0.022860670268973711 0 -0.016064986363794779 -0.036441041599790329 0 0.0015263381015913891 -0.033415212413580753 0 -0.019637671972121611 -0.02148729346067638 0 -0.0077215053668332834 -0.022860670268973711 0 -0.016064986363794779 -0.036441041599790329 0 -0.019637671972121611 -0.02148729346067638 0 -0.0077215053668332834 -0.022860670268973711 0 -0.011008321991883009 -0.01057962122923565 0 -0.011008321991883009 -0.01057962122923565 0 -0.00118246574067416 -0.01324232368796026 0 -0.0072764121498596901 -0.0036325873431357339 0 -0.0077215053668332834 -0.022860670268973711 0 -0.011008321991883009 -0.01057962122923565 0 -0.00118246574067416 -0.01324232368796026 0 -0.00118246574067416 -0.01324232368796026 0 -0.0072764121498596901 -0.0036325873431357339 0 0.0012074066645448821 -0.00065723147797176382 0 -0.0072764121498596901 -0.0036325873431357339 0 -0.013500839782477779 -0.0058155532537883976 0 -0.013607688627124061 -0.00178224205395049 0 -0.011008321991883009 -0.01057962122923565 0 -0.0072764121498596901 -0.0036325873431357339 0 -0.013500839782477779 -0.0058155532537883976 0 -0.01819617019275287 -0.0061732580868559192 0 -0.011008321991883009 -0.01057962122923565 0 -0.013500839782477779 -0.0058155532537883976 0 -0.017354136195868258 -0.0046192578634720229 0 -0.013500839782477779 -0.0058155532537883976 0 -0.013607688627124061 -0.00178224205395049 0 -0.017354136195868258 -0.0046192578634720229 0 -0.013607688627124061 -0.00178224205395049 0 -0.032367863380537598 -0.044965144957206583 0 -0.0096036345872028556 -0.056703489467087059 0 -0.032367863380537598 -0.044965144957206583 0 -0.026902341230915561 -0.060374551747501753 0 -0.0096036345872028556 -0.056703489467087059 0 -0.032367863380537598 -0.044965144957206583 0 -0.031233838643279398 -0.031193199633022049 0 -0.016064986363794779 -0.036441041599790329 0 -0.032367863380537598 -0.044965144957206583 0 -0.016064986363794779 -0.036441041599790329 0 -0.0096036345872028556 -0.056703489467087059 0 -0.0096036345872028556 -0.056703489467087059 0 0.0015263381015913891 -0.033415212413580753 0 -0.016064986363794779 -0.036441041599790329 0 -0.0096036345872028556 -0.056703489467087059 0 0.0015263381015913891 -0.033415212413580753 0 -0.0096036345872028556 -0.056703489467087059 0 0.0015263381015913891 -0.033415212413580753 0 0.007298405735321048 -0.051477207310420908 0 -0.0096036345872028556 -0.056703489467087059 0 0.0052181775422467033 -0.064346337314722044 0 -0.0096036345872028556 -0.056703489467087059 0 -0.0043762627118289626 -0.071729097412358583 0 0.0052181775422467033 -0.064346337314722044 0 -0.0043762627118289626 -0.071729097412358583 0 -0.0092607301227374331 -0.088572496961274561 0 -0.01646375475339092 -0.071057556949349329 0 -0.0096036345872028556 -0.056703489467087059 0 -0.01646375475339092 -0.071057556949349329 0 -0.0096036345872028556 -0.056703489467087059 0 -0.0043762627118289626 -0.071729097412358583 0 -0.01646375475339092 -0.071057556949349329 0 -0.0092607301227374331 -0.088572496961274561 0 -0.00044729776891663488 -0.1011528385718463 0 0.0042106568376920582 -0.081118225430045127 0 -0.0043762627118289626 -0.071729097412358583 0 -0.0092607301227374331 -0.088572496961274561 0 0.0042106568376920582 -0.081118225430045127 0 -0.0092607301227374331 -0.088572496961274561 0 -0.037642160748979789 -0.094071739377162955 0 -0.0092607301227374331 -0.088572496961274561 0 -0.023323874919582349 -0.085411624431610003 0 -0.01646375475339092 -0.071057556949349329 0 -0.0092607301227374331 -0.088572496961274561 0 -0.023323874919582349 -0.085411624431610003 0 -0.037642160748979789 -0.094071739377162955 0 -0.023323874919582349 -0.085411624431610003 0 -0.01646375475339092 -0.071057556949349329 0 -0.023323874919582349 -0.085411624431610003 0 -0.01646375475339092 -0.071057556949349329 0 -0.034846350139989962 -0.07108844977272101 0 -0.026902341230915561 -0.060374551747501753 0 -0.01646375475339092 -0.071057556949349329 0 -0.034846350139989962 -0.07108844977272101 0 -0.026902341230915561 -0.060374551747501753 0 -0.0096036345872028556 -0.056703489467087059 0 -0.01646375475339092 -0.071057556949349329 0 -0.041230103293456458 -0.058058117591144771 0 -0.026902341230915561 -0.060374551747501753 0 -0.034846350139989962 -0.07108844977272101 0 -0.041230103293456458 -0.058058117591144771 0 -0.034846350139989962 -0.07108844977272101 0 -0.049479852383656611 -0.067543566470139038 0 -0.034846350139989962 -0.07108844977272101 0 -0.048784805137481749 -0.081200653853927454 0 -0.049479852383656611 -0.067543566470139038 0 -0.023323874919582349 -0.085411624431610003 0 -0.034846350139989962 -0.07108844977272101 0 -0.036149297736508462 -0.082943116858855345 0 -0.023323874919582349 -0.085411624431610003 0 -0.036149297736508462 -0.082943116858855345 0 -0.037642160748979789 -0.094071739377162955 0 -0.036149297736508462 -0.082943116858855345 0 -0.048784805137481749 -0.081200653853927454 0 -0.037642160748979789 -0.094071739377162955 0 -0.034846350139989962 -0.07108844977272101 0 -0.036149297736508462 -0.082943116858855345 0 -0.048784805137481749 -0.081200653853927454 0 -0.063732237529271596 -0.080733089011810297 0 -0.066023591375222151 -0.09957098179305135 0 -0.048784805137481749 -0.081200653853927454 0 -0.066023591375222151 -0.09957098179305135 0 -0.048784805137481749 -0.081200653853927454 0 -0.037642160748979789 -0.094071739377162955 0 -0.063732237529271596 -0.080733089011810297 0 -0.048784805137481749 -0.081200653853927454 0 -0.058000192015007383 -0.073011667883306972 0 -0.055978059279945473 -0.056388284161067823 0 -0.060830035872249492 -0.064558057335980773 0 -0.049479852383656611 -0.067543566470139038 0 -0.058000192015007383 -0.073011667883306972 0 -0.060830035872249492 -0.064558057335980773 0 -0.049479852383656611 -0.067543566470139038 0 -0.067174029152377468 -0.071022972744677337 0 -0.058000192015007383 -0.073011667883306972 0 -0.060830035872249492 -0.064558057335980773 0 -0.048784805137481749 -0.081200653853927454 0 -0.058000192015007383 -0.073011667883306972 0 -0.049479852383656611 -0.067543566470139038 0 -0.069466171350113709 -0.1135628440840601 0 -0.054384952187449757 -0.110609208962567 0 -0.059238207921678762 -0.13024384051707169 0 -0.054384952187449757 -0.110609208962567 0 -0.059238207921678762 -0.13024384051707169 0 -0.032945469352336033 -0.1293562392835419 0 -0.066023591375222151 -0.09957098179305135 0 -0.054384952187449757 -0.110609208962567 0 -0.037642160748979789 -0.094071739377162955 0 -0.066023591375222151 -0.09957098179305135 0 -0.037642160748979789 -0.094071739377162955 0 -0.054384952187449757 -0.110609208962567 0 -0.037642160748979789 -0.094071739377162955 0 -0.035661083064217503 -0.11124856921529409 0 -0.054384952187449757 -0.110609208962567 0 -0.032945469352336033 -0.1293562392835419 0 -0.054384952187449757 -0.110609208962567 0 -0.035661083064217503 -0.11124856921529409 0 -0.032945469352336033 -0.1293562392835419 0 -0.01767174996810443 -0.1109570892379047 0 -0.012892303975098539 -0.12786221844410239 0 -0.032945469352336033 -0.1293562392835419 0 -0.035661083064217503 -0.11124856921529409 0 -0.01767174996810443 -0.1109570892379047 0 -0.032945469352336033 -0.1293562392835419 0 -0.0092607301227374331 -0.088572496961274561 0 -0.037642160748979789 -0.094071739377162955 0 -0.01767174996810443 -0.1109570892379047 0 -0.037642160748979789 -0.094071739377162955 0 -0.035661083064217503 -0.11124856921529409 0 -0.01767174996810443 -0.1109570892379047 0 -0.01767174996810443 -0.1109570892379047 0 -0.00044729776891663488 -0.1011528385718463 0 0.005085065621477718 -0.1151057880332567 0 -0.0092607301227374331 -0.088572496961274561 0 -0.01767174996810443 -0.1109570892379047 0 -0.00044729776891663488 -0.1011528385718463 0 -0.01767174996810443 -0.1109570892379047 0 -0.012892303975098539 -0.12786221844410239 0 0.005085065621477718 -0.1151057880332567 0 -0.012892303975098539 -0.12786221844410239 0 0.0027021066240326768 -0.1317064378292063 0 0.005085065621477718 -0.1151057880332567 0 -0.011505986517222349 -0.14810326960451681 0 -0.033736789854580403 -0.16402697950055581 0 -0.032945469352336033 -0.1293562392835419 0 -0.012892303975098539 -0.12786221844410239 0 -0.011505986517222349 -0.14810326960451681 0 0.0027021066240326768 -0.1317064378292063 0 -0.011505986517222349 -0.14810326960451681 0 -0.032945469352336033 -0.1293562392835419 0 -0.012892303975098539 -0.12786221844410239 0 -0.011505986517222349 -0.14810326960451681 0 -0.032945469352336033 -0.1293562392835419 0 -0.011505986517222349 -0.14810326960451681 0 0.009933496317892726 -0.16685029992549011 0 -0.011505986517222349 -0.14810326960451681 0 -0.0085976242789068957 -0.177408956520272 0 0.009933496317892726 -0.16685029992549011 0 -0.0085976242789068957 -0.177408956520272 0 -0.003739977245034012 -0.19168309442994089 0 -0.02712874487570623 -0.18796761311505439 0 -0.0085976242789068957 -0.177408956520272 0 -0.003739977245034012 -0.19168309442994089 0 0.0034571977838801569 -0.17702496179755631 0 -0.0085976242789068957 -0.177408956520272 0 -0.02712874487570623 -0.18796761311505439 0 -0.0085976242789068957 -0.177408956520272 0 -0.033736789854580403 -0.16402697950055581 0 -0.02712874487570623 -0.18796761311505439 0 -0.011505986517222349 -0.14810326960451681 0 -0.0085976242789068957 -0.177408956520272 0 -0.033736789854580403 -0.16402697950055581 0 -0.033736789854580403 -0.16402697950055581 0 -0.041678182321736049 -0.18065303021324261 0 -0.02712874487570623 -0.18796761311505439 0 -0.033736789854580403 -0.16402697950055581 0 -0.041678182321736049 -0.18065303021324261 0 -0.060187329084152079 -0.17209125852752319 0 -0.041678182321736049 -0.18065303021324261 0 -0.060187329084152079 -0.17209125852752319 0 -0.045659865472505487 -0.198526269709837 0 -0.060187329084152079 -0.17209125852752319 0 -0.045659865472505487 -0.198526269709837 0 -0.033736789854580403 -0.16402697950055581 0 -0.060187329084152079 -0.17209125852752319 0 -0.051699405537506939 -0.14899167338562519 0 -0.060187329084152079 -0.17209125852752319 0 -0.051699405537506939 -0.14899167338562519 0 -0.072389231474787458 -0.1492400490994332 0 -0.051699405537506939 -0.14899167338562519 0 -0.059238207921678762 -0.13024384051707169 0 -0.072389231474787458 -0.1492400490994332 0 -0.033736789854580403 -0.16402697950055581 0 -0.051699405537506939 -0.14899167338562519 0 -0.032945469352336033 -0.1293562392835419 0 -0.051699405537506939 -0.14899167338562519 0 -0.059238207921678762 -0.13024384051707169 0 -0.032945469352336033 -0.1293562392835419 0 -0.025857267464119819 -0.25506418495113531 0 -0.02368513365757598 -0.23851275990414511 0 -0.036167443228362108 -0.24337299090061551 0 -0.01269776775011346 -0.25850600500130039 0 -0.02368513365757598 -0.23851275990414511 0 -0.01269776775011346 -0.25850600500130039 0 -0.02368513365757598 -0.23851275990414511 0 -0.01082738352359053 -0.24876902592697839 0 -0.02368513365757598 -0.23851275990414511 0 -0.0067432183097289999 -0.239968376336817 0 -0.0090267388034834407 -0.23007068799598671 0 -0.02368513365757598 -0.23851275990414511 0 -0.01082738352359053 -0.24876902592697839 0 -0.0067432183097289999 -0.239968376336817 0 -0.01082738352359053 -0.24876902592697839 0 -0.0029313858115674811 -0.24854412401401971 0 -0.0067432183097289999 -0.239968376336817 0 -0.0029313858115674811 -0.24854412401401971 0 -0.0067432183097289999 -0.239968376336817 0 0.0026199421412959989 -0.2430643023623929 0 -0.0067432183097289999 -0.239968376336817 0 0.0026199421412959989 -0.2430643023623929 0 0.0017465435191736189 -0.23378549097037141 0 -0.0067432183097289999 -0.239968376336817 0 -0.0090267388034834407 -0.23007068799598671 0 0.0017465435191736189 -0.23378549097037141 0 -0.0090267388034834407 -0.23007068799598671 0 -0.00080535468136348092 -0.21995366459000901 0 -0.01839049427805331 -0.2195873775130934 0 -0.0090267388034834407 -0.23007068799598671 0 -0.00080535468136348092 -0.21995366459000901 0 0.0017465435191736189 -0.23378549097037141 0 -0.02368513365757598 -0.23851275990414511 0 -0.0090267388034834407 -0.23007068799598671 0 -0.01839049427805331 -0.2195873775130934 0 -0.02368513365757598 -0.23851275990414511 0 -0.01839049427805331 -0.2195873775130934 0 -0.034672499565036527 -0.2185195148069887 0 -0.02368513365757598 -0.23851275990414511 0 -0.034672499565036527 -0.2185195148069887 0 -0.01839049427805331 -0.2195873775130934 0 -0.027127261386640289 -0.20489204062456881 0 -0.034672499565036527 -0.2185195148069887 0 -0.01839049427805331 -0.2195873775130934 0 -0.027127261386640289 -0.20489204062456881 0 -0.01084996336714465 -0.20584666152463099 0 -0.00080535468136348092 -0.21995366459000901 0 -0.01839049427805331 -0.2195873775130934 0 -0.01084996336714465 -0.20584666152463099 0 -0.00080535468136348092 -0.21995366459000901 0 -0.01084996336714465 -0.20584666152463099 0 0.01016515501406726 -0.20926501301563591 0 -0.01084996336714465 -0.20584666152463099 0 -0.003739977245034012 -0.19168309442994089 0 0.01016515501406726 -0.20926501301563591 0 -0.01084996336714465 -0.20584666152463099 0 -0.003739977245034012 -0.19168309442994089 0 -0.02712874487570623 -0.18796761311505439 0 -0.027127261386640289 -0.20489204062456881 0 -0.01084996336714465 -0.20584666152463099 0 -0.02712874487570623 -0.18796761311505439 0 -0.041678182321736049 -0.18065303021324261 0 -0.02712874487570623 -0.18796761311505439 0 -0.045659865472505487 -0.198526269709837 0 -0.02712874487570623 -0.18796761311505439 0 -0.045659865472505487 -0.198526269709837 0 -0.027127261386640289 -0.20489204062456881 0 -0.02712874487570623 -0.18796761311505439 0 -0.045659865472505487 -0.198526269709837 0 -0.045659865472505487 -0.198526269709837 0 -0.067682806497079445 -0.21107449474949169 0 -0.062708331551170268 -0.19442045911658551 0 -0.060187329084152079 -0.17209125852752319 0 -0.045659865472505487 -0.198526269709837 0 -0.062708331551170268 -0.19442045911658551 0 -0.045659865472505487 -0.198526269709837 0 -0.067682806497079445 -0.21107449474949169 0 -0.045659865472505487 -0.198526269709837 0 -0.054546183461555722 -0.22015285450131489 0 -0.067682806497079445 -0.21107449474949169 0 -0.045659865472505487 -0.198526269709837 0 -0.034672499565036527 -0.2185195148069887 0 -0.054546183461555722 -0.22015285450131489 0 -0.045659865472505487 -0.198526269709837 0 -0.034672499565036527 -0.2185195148069887 0 -0.027127261386640289 -0.20489204062456881 0 -0.045659865472505487 -0.198526269709837 0 -0.034672499565036527 -0.2185195148069887 0 -0.034672499565036527 -0.2185195148069887 0 -0.044145410485190079 -0.23242073182379891 0 -0.054546183461555722 -0.22015285450131489 0 -0.02368513365757598 -0.23851275990414511 0 -0.034672499565036527 -0.2185195148069887 0 -0.044145410485190079 -0.23242073182379891 0 -0.044145410485190079 -0.23242073182379891 0 -0.054546183461555722 -0.22015285450131489 0 -0.061280333386656921 -0.23284462843810469 0 -0.061280333386656921 -0.23284462843810469 0 -0.050191684441297867 -0.2485850187836515 0 -0.071591358857016049 -0.2429226102204386 0 -0.050191684441297867 -0.2485850187836515 0 -0.071591358857016049 -0.2429226102204386 0 -0.056939497423126581 -0.24878681181634871 0 -0.050191684441297867 -0.2485850187836515 0 -0.071591358857016049 -0.2429226102204386 0 -0.044145410485190079 -0.23242073182379891 0 -0.061280333386656921 -0.23284462843810469 0 -0.050191684441297867 -0.2485850187836515 0 -0.041398382443623198 -0.25192549838374201 0 -0.056939497423126581 -0.24878681181634871 0 -0.050191684441297867 -0.2485850187836515 0 -0.044145410485190079 -0.23242073182379891 0 -0.050191684441297867 -0.2485850187836515 0 -0.036167443228362108 -0.24337299090061551 0 -0.02368513365757598 -0.23851275990414511 0 -0.044145410485190079 -0.23242073182379891 0 -0.036167443228362108 -0.24337299090061551 0 -0.025857267464119819 -0.25506418495113531 0 -0.050191684441297867 -0.2485850187836515 0 -0.036167443228362108 -0.24337299090061551 0 -0.097628444613881649 -0.25834262822693399 0 -0.087470553331264578 -0.24262075389877999 0 -0.077955776651182085 -0.24454236002529731 0 -0.087470553331264578 -0.24262075389877999 0 -0.087928467376508473 -0.23859976953689591 0 -0.1005617376665941 -0.23997685579502359 0 -0.087928467376508473 -0.23859976953689591 0 -0.07453604668454375 -0.2421434382925548 0 -0.07383618536286593 -0.22753148747966839 0 -0.087928467376508473 -0.23859976953689591 0 -0.07453604668454375 -0.2421434382925548 0 -0.087928467376508473 -0.23859976953689591 0 -0.077955776651182085 -0.24454236002529731 0 -0.07453604668454375 -0.2421434382925548 0 -0.087470553331264578 -0.24262075389877999 0 -0.087928467376508473 -0.23859976953689591 0 -0.077955776651182085 -0.24454236002529731 0 -0.087470553331264578 -0.24262075389877999 0 -0.077955776651182085 -0.24454236002529731 0 -0.056939497423126581 -0.24878681181634871 0 -0.077955776651182085 -0.24454236002529731 0 -0.071591358857016049 -0.2429226102204386 0 -0.056939497423126581 -0.24878681181634871 0 -0.077955776651182085 -0.24454236002529731 0 -0.077955776651182085 -0.24454236002529731 0 -0.071591358857016049 -0.2429226102204386 0 -0.07453604668454375 -0.2421434382925548 0 -0.077955776651182085 -0.24454236002529731 0 -0.07453604668454375 -0.2421434382925548 0 -0.071591358857016049 -0.2429226102204386 0 -0.07453604668454375 -0.2421434382925548 0 -0.056939497423126581 -0.24878681181634871 0 -0.071591358857016049 -0.2429226102204386 0 -0.061280333386656921 -0.23284462843810469 0 -0.071591358857016049 -0.2429226102204386 0 -0.07453604668454375 -0.2421434382925548 0 -0.061280333386656921 -0.23284462843810469 0 -0.07453604668454375 -0.2421434382925548 0 -0.07383618536286593 -0.22753148747966839 0 -0.089705747521653334 -0.22362271978914661 0 -0.067682806497079445 -0.21107449474949169 0 -0.054546183461555722 -0.22015285450131489 0 -0.061280333386656921 -0.23284462843810469 0 -0.07383618536286593 -0.22753148747966839 0 -0.054546183461555722 -0.22015285450131489 0 -0.07383618536286593 -0.22753148747966839 0 -0.067682806497079445 -0.21107449474949169 0 -0.061280333386656921 -0.23284462843810469 0 -0.07453604668454375 -0.2421434382925548 0 -0.07383618536286593 -0.22753148747966839 0 -0.087928467376508473 -0.23859976953689591 0 -0.07383618536286593 -0.22753148747966839 0 -0.089705747521653334 -0.22362271978914661 0 -0.087928467376508473 -0.23859976953689591 0 -0.089705747521653334 -0.22362271978914661 0 -0.1005617376665941 -0.23997685579502359 0 -0.089705747521653334 -0.22362271978914661 0 -0.067682806497079445 -0.21107449474949169 0 -0.089705747521653334 -0.22362271978914661 0 -0.084027466008495671 -0.20735524824550181 0 -0.09921486728828334 -0.20109800384388701 0 -0.089705747521653334 -0.22362271978914661 0 -0.084027466008495671 -0.20735524824550181 0 -0.067682806497079445 -0.21107449474949169 0 -0.084027466008495671 -0.20735524824550181 0 -0.067682806497079445 -0.21107449474949169 0 -0.079506442726966622 -0.19362577459948219 0 -0.067682806497079445 -0.21107449474949169 0 -0.062708331551170268 -0.19442045911658551 0 -0.079506442726966622 -0.19362577459948219 0 -0.079506442726966622 -0.19362577459948219 0 -0.09921486728828334 -0.20109800384388701 0 -0.089369030920126963 -0.1732707743578942 0 -0.084027466008495671 -0.20735524824550181 0 -0.079506442726966622 -0.19362577459948219 0 -0.09921486728828334 -0.20109800384388701 0 -0.09921486728828334 -0.20109800384388701 0 -0.1156293974943295 -0.1822747327150937 0 -0.1210853022939376 -0.205467400633562 0 -0.1156293974943295 -0.1822747327150937 0 -0.13505851963374399 -0.18906788910329131 0 -0.09921486728828334 -0.20109800384388701 0 -0.1210853022939376 -0.205467400633562 0 -0.1156293974943295 -0.1822747327150937 0 -0.1210853022939376 -0.205467400633562 0 -0.10755849924533691 -0.2178899443088799 0 -0.11989889803527461 -0.22145143588075511 0 -0.1210853022939376 -0.205467400633562 0 -0.11989889803527461 -0.22145143588075511 0 -0.13086176299679239 -0.21746526838305219 0 -0.089705747521653334 -0.22362271978914661 0 -0.09921486728828334 -0.20109800384388701 0 -0.10755849924533691 -0.2178899443088799 0 -0.09921486728828334 -0.20109800384388701 0 -0.1210853022939376 -0.205467400633562 0 -0.10755849924533691 -0.2178899443088799 0 -0.089705747521653334 -0.22362271978914661 0 -0.11172868854622731 -0.23617094482880149 0 -0.1005617376665941 -0.23997685579502359 0 -0.089705747521653334 -0.22362271978914661 0 -0.11172868854622731 -0.23617094482880149 0 -0.089705747521653334 -0.22362271978914661 0 -0.10755849924533691 -0.2178899443088799 0 -0.11172868854622731 -0.23617094482880149 0 -0.11989889803527461 -0.22145143588075511 0 -0.11172868854622731 -0.23617094482880149 0 -0.127825895831608 -0.22987551408160201 0 -0.10755849924533691 -0.2178899443088799 0 -0.11989889803527461 -0.22145143588075511 0 -0.11172868854622731 -0.23617094482880149 0 -0.13218950310710981 -0.25272660122947088 0 -0.1218823470606431 -0.24640061544388489 0 -0.1098930818979398 -0.24798588601512411 0 -0.11172868854622731 -0.23617094482880149 0 -0.13375162957080131 -0.24871916986845621 0 -0.11172868854622731 -0.23617094482880149 0 -0.1218823470606431 -0.24640061544388489 0 -0.13375162957080131 -0.24871916986845621 0 -0.11172868854622731 -0.23617094482880149 0 -0.13375162957080131 -0.24871916986845621 0 -0.127825895831608 -0.22987551408160201 0 -0.11172868854622731 -0.23617094482880149 0 -0.1218823470606431 -0.24640061544388489 0 -0.1098930818979398 -0.24798588601512411 0 -0.097628444613881649 -0.25834262822693399 0 -0.087470553331264578 -0.24262075389877999 0 -0.1098930818979398 -0.24798588601512411 0 -0.087470553331264578 -0.24262075389877999 0 -0.1098930818979398 -0.24798588601512411 0 -0.1005617376665941 -0.23997685579502359 0 -0.087470553331264578 -0.24262075389877999 0 -0.1098930818979398 -0.24798588601512411 0 -0.11172868854622731 -0.23617094482880149 0 -0.1098930818979398 -0.24798588601512411 0 -0.1005617376665941 -0.23997685579502359 0 -0.087470553331264578 -0.24262075389877999 0 -0.1005617376665941 -0.23997685579502359 0 -0.072389231474787458 -0.1492400490994332 0 -0.089369030920126963 -0.1732707743578942 0 -0.096011965921864201 -0.14265464397282879 0 -0.077516787342341589 -0.1242022911324857 0 -0.093262550211769629 -0.1231040070079162 0 -0.096011965921864201 -0.14265464397282879 0 -0.077516787342341589 -0.1242022911324857 0 -0.072389231474787458 -0.1492400490994332 0 -0.096011965921864201 -0.14265464397282879 0 -0.077516787342341589 -0.1242022911324857 0 -0.059238207921678762 -0.13024384051707169 0 -0.072389231474787458 -0.1492400490994332 0 -0.060187329084152079 -0.17209125852752319 0 -0.072389231474787458 -0.1492400490994332 0 -0.089369030920126963 -0.1732707743578942 0 -0.060187329084152079 -0.17209125852752319 0 -0.079506442726966622 -0.19362577459948219 0 -0.089369030920126963 -0.1732707743578942 0 -0.060187329084152079 -0.17209125852752319 0 -0.062708331551170268 -0.19442045911658551 0 -0.079506442726966622 -0.19362577459948219 0 -0.089369030920126963 -0.1732707743578942 0 -0.1107512355661594 -0.16096683979900789 0 -0.096011965921864201 -0.14265464397282879 0 -0.09921486728828334 -0.20109800384388701 0 -0.089369030920126963 -0.1732707743578942 0 -0.1156293974943295 -0.1822747327150937 0 -0.089369030920126963 -0.1732707743578942 0 -0.1156293974943295 -0.1822747327150937 0 -0.1107512355661594 -0.16096683979900789 0 -0.1156293974943295 -0.1822747327150937 0 -0.13204392770037571 -0.1634514615863005 0 -0.1156293974943295 -0.1822747327150937 0 -0.1107512355661594 -0.16096683979900789 0 -0.13204392770037571 -0.1634514615863005 0 -0.1107512355661594 -0.16096683979900789 0 -0.12070185579410091 -0.1431825863629223 0 -0.13204392770037571 -0.1634514615863005 0 -0.1107512355661594 -0.16096683979900789 0 -0.12070185579410091 -0.1431825863629223 0 -0.096011965921864201 -0.14265464397282879 0 -0.1071147179002416 -0.1244919901550422 0 -0.12070185579410091 -0.1431825863629223 0 -0.096011965921864201 -0.14265464397282879 0 -0.093262550211769629 -0.1231040070079162 0 -0.1071147179002416 -0.1244919901550422 0 -0.096011965921864201 -0.14265464397282879 0 -0.1071147179002416 -0.1244919901550422 0 -0.12070185579410091 -0.1431825863629223 0 -0.1306137014228527 -0.1212095633787966 0 -0.12070185579410091 -0.1431825863629223 0 -0.14845845790642179 -0.14462819045750719 0 -0.1306137014228527 -0.1212095633787966 0 -0.14845845790642179 -0.14462819045750719 0 -0.1306137014228527 -0.1212095633787966 0 -0.15036797716661271 -0.14243845987679379 0 -0.14845845790642179 -0.14462819045750719 0 -0.1306137014228527 -0.1212095633787966 0 -0.15406265534163929 -0.1294064941378926 0 -0.15036797716661271 -0.14243845987679379 0 -0.1306137014228527 -0.1212095633787966 0 -0.15406265534163929 -0.1294064941378926 0 -0.15036797716661271 -0.14243845987679379 0 -0.1564494690737798 -0.13971242061594299 0 -0.1543278084257422 -0.1453912472931165 0 -0.14845845790642179 -0.14462819045750719 0 -0.15894149653025619 -0.15184230729274609 0 -0.15519343748037609 -0.14309809199123349 0 -0.15036797716661271 -0.14243845987679379 0 -0.1564494690737798 -0.13971242061594299 0 -0.1543278084257422 -0.1453912472931165 0 -0.15519343748037609 -0.14309809199123349 0 -0.15036797716661271 -0.14243845987679379 0 -0.1543278084257422 -0.1453912472931165 0 -0.15036797716661271 -0.14243845987679379 0 -0.14845845790642179 -0.14462819045750719 0 -0.15036797716661271 -0.14243845987679379 0 -0.14845845790642179 -0.14462819045750719 0 -0.12070185579410091 -0.1431825863629223 0 -0.14845845790642179 -0.14462819045750719 0 -0.13204392770037571 -0.1634514615863005 0 -0.14845845790642179 -0.14462819045750719 0 -0.13204392770037571 -0.1634514615863005 0 -0.13204392770037571 -0.1634514615863005 0 -0.1475860696211248 -0.17640031700015249 0 -0.13505851963374399 -0.18906788910329131 0 -0.1156293974943295 -0.1822747327150937 0 -0.13204392770037571 -0.1634514615863005 0 -0.13505851963374399 -0.18906788910329131 0 -0.1475860696211248 -0.17640031700015249 0 -0.1655722477793394 -0.1670875310098065 0 -0.15496537504316019 -0.19429807729602311 0 -0.1475860696211248 -0.17640031700015249 0 -0.13505851963374399 -0.18906788910329131 0 -0.15496537504316019 -0.19429807729602311 0 -0.1475860696211248 -0.17640031700015249 0 -0.14862352044039201 -0.16347018067920821 0 -0.1655722477793394 -0.1670875310098065 0 -0.14845845790642179 -0.14462819045750719 0 -0.13204392770037571 -0.1634514615863005 0 -0.14862352044039201 -0.16347018067920821 0 -0.14845845790642179 -0.14462819045750719 0 -0.14862352044039201 -0.16347018067920821 0 -0.1655722477793394 -0.1670875310098065 0 -0.13204392770037571 -0.1634514615863005 0 -0.1475860696211248 -0.17640031700015249 0 -0.14862352044039201 -0.16347018067920821 0 -0.1655722477793394 -0.1670875310098065 0 -0.1716614177265566 -0.15146656102038991 0 -0.1655722477793394 -0.1670875310098065 0 -0.15894149653025619 -0.15184230729274609 0 -0.1716614177265566 -0.15146656102038991 0 -0.1655722477793394 -0.1670875310098065 0 -0.17557921295501691 -0.18022020591375351 0 -0.1689483943248192 -0.19264195369377959 0 -0.1655722477793394 -0.1670875310098065 0 -0.15496537504316019 -0.19429807729602311 0 -0.1689483943248192 -0.19264195369377959 0 -0.1655722477793394 -0.1670875310098065 0 -0.15496537504316019 -0.19429807729602311 0 -0.1655722477793394 -0.1670875310098065 0 -0.17557921295501691 -0.18022020591375351 0 -0.17557921295501691 -0.18022020591375351 0 -0.18239484980351819 -0.16464781923938721 0 -0.1907059301477185 -0.18468107337543721 0 -0.1655722477793394 -0.1670875310098065 0 -0.17557921295501691 -0.18022020591375351 0 -0.18239484980351819 -0.16464781923938721 0 -0.1655722477793394 -0.1670875310098065 0 -0.18239484980351819 -0.16464781923938721 0 -0.1716614177265566 -0.15146656102038991 0 -0.18239484980351819 -0.16464781923938721 0 -0.1716614177265566 -0.15146656102038991 0 -0.1894311146879058 -0.1465309504005988 0 -0.17775058767377289 -0.13584559103097291 0 -0.1716614177265566 -0.15146656102038991 0 -0.1894311146879058 -0.1465309504005988 0 -0.17775058767377289 -0.13584559103097291 0 -0.1716614177265566 -0.15146656102038991 0 -0.17775058767377289 -0.13584559103097291 0 -0.1894311146879058 -0.1465309504005988 0 -0.17775058767377289 -0.13584559103097291 0 -0.19823449762692411 -0.13229999761030051 0 -0.18534812722118199 -0.1163550958908785 0 -0.17775058767377289 -0.13584559103097291 0 -0.18534812722118199 -0.1163550958908785 0 -0.15406265534163929 -0.1294064941378926 0 -0.16394560233522651 -0.1386698702264933 0 -0.15606779039194271 -0.1160101434681408 0 -0.17775058767377289 -0.13584559103097291 0 -0.16394560233522651 -0.1386698702264933 0 -0.15606779039194271 -0.1160101434681408 0 -0.17775058767377289 -0.13584559103097291 0 -0.15606779039194271 -0.1160101434681408 0 -0.15406265534163929 -0.1294064941378926 0 -0.16394560233522651 -0.1386698702264933 0 -0.1564494690737798 -0.13971242061594299 0 -0.16394560233522651 -0.1386698702264933 0 -0.1564494690737798 -0.13971242061594299 0 -0.15962849525536979 -0.1448502401790808 0 -0.14845845790642179 -0.14462819045750719 0 -0.1655722477793394 -0.1670875310098065 0 -0.14845845790642179 -0.14462819045750719 0 -0.1655722477793394 -0.1670875310098065 0 -0.15894149653025619 -0.15184230729274609 0 -0.15519343748037609 -0.14309809199123349 0 -0.1564494690737798 -0.13971242061594299 0 -0.15962849525536979 -0.1448502401790808 0 -0.1543278084257422 -0.1453912472931165 0 -0.15519343748037609 -0.14309809199123349 0 -0.15962849525536979 -0.1448502401790808 0 -0.1543278084257422 -0.1453912472931165 0 -0.15962849525536979 -0.1448502401790808 0 -0.15894149653025619 -0.15184230729274609 0 -0.15962849525536979 -0.1448502401790808 0 -0.15894149653025619 -0.15184230729274609 0 -0.1716614177265566 -0.15146656102038991 0 -0.17775058767377289 -0.13584559103097291 0 -0.16394560233522651 -0.1386698702264933 0 -0.1716614177265566 -0.15146656102038991 0 -0.16394560233522651 -0.1386698702264933 0 -0.15962849525536979 -0.1448502401790808 0 -0.1716614177265566 -0.15146656102038991 0 -0.1534429259631987 -0.25724555178864622 0 -0.15289321433053751 -0.246830478479277 0 -0.1378886282313006 -0.2381062402767252 0 -0.1534429259631987 -0.25724555178864622 0 -0.1378886282313006 -0.2381062402767252 0 -0.15348527020851541 -0.23913552791147211 0 -0.1378886282313006 -0.2381062402767252 0 -0.15430752157141919 -0.22794821467022949 0 -0.15289321433053751 -0.246830478479277 0 -0.15348527020851541 -0.23913552791147211 0 -0.1601832428566283 -0.24550858739866141 0 -0.15289321433053751 -0.246830478479277 0 -0.15348527020851541 -0.23913552791147211 0 -0.1378886282313006 -0.2381062402767252 0 -0.1459019403517107 -0.25564217047089421 0 -0.13375162957080131 -0.24871916986845621 0 -0.1378886282313006 -0.2381062402767252 0 -0.13375162957080131 -0.24871916986845621 0 -0.1378886282313006 -0.2381062402767252 0 -0.127825895831608 -0.22987551408160201 0 -0.13375162957080131 -0.24871916986845621 0 -0.1378886282313006 -0.2381062402767252 0 -0.13218950310710981 -0.25272660122947088 0 -0.1218823470606431 -0.24640061544388489 0 -0.13375162957080131 -0.24871916986845621 0 -0.127825895831608 -0.22987551408160201 0 -0.14435850230698141 -0.22150862358223991 0 -0.13086176299679239 -0.21746526838305219 0 -0.1378886282313006 -0.2381062402767252 0 -0.127825895831608 -0.22987551408160201 0 -0.14435850230698141 -0.22150862358223991 0 -0.11989889803527461 -0.22145143588075511 0 -0.127825895831608 -0.22987551408160201 0 -0.13086176299679239 -0.21746526838305219 0 -0.1378886282313006 -0.2381062402767252 0 -0.14435850230698141 -0.22150862358223991 0 -0.14435850230698141 -0.22150862358223991 0 -0.15430752157141919 -0.22794821467022949 0 -0.16410544360365359 -0.21493654602220469 0 -0.1378886282313006 -0.2381062402767252 0 -0.14435850230698141 -0.22150862358223991 0 -0.15430752157141919 -0.22794821467022949 0 -0.14435850230698141 -0.22150862358223991 0 -0.15496537504316019 -0.19429807729602311 0 -0.14435850230698141 -0.22150862358223991 0 -0.1373527607074172 -0.20563907323320921 0 -0.15496537504316019 -0.19429807729602311 0 -0.14435850230698141 -0.22150862358223991 0 -0.15496537504316019 -0.19429807729602311 0 -0.16410544360365359 -0.21493654602220469 0 -0.14435850230698141 -0.22150862358223991 0 -0.1373527607074172 -0.20563907323320921 0 -0.13086176299679239 -0.21746526838305219 0 -0.1210853022939376 -0.205467400633562 0 -0.1373527607074172 -0.20563907323320921 0 -0.13086176299679239 -0.21746526838305219 0 -0.1210853022939376 -0.205467400633562 0 -0.1373527607074172 -0.20563907323320921 0 -0.13505851963374399 -0.18906788910329131 0 -0.1373527607074172 -0.20563907323320921 0 -0.13505851963374399 -0.18906788910329131 0 -0.15496537504316019 -0.19429807729602311 0 -0.1689483943248192 -0.19264195369377959 0 -0.17994482166635981 -0.2014366202218163 0 -0.16410544360365359 -0.21493654602220469 0 -0.15496537504316019 -0.19429807729602311 0 -0.1689483943248192 -0.19264195369377959 0 -0.16410544360365359 -0.21493654602220469 0 -0.17557921295501691 -0.18022020591375351 0 -0.1689483943248192 -0.19264195369377959 0 -0.17994482166635981 -0.2014366202218163 0 -0.17557921295501691 -0.18022020591375351 0 -0.17994482166635981 -0.2014366202218163 0 -0.1907059301477185 -0.18468107337543721 0 -0.17994482166635981 -0.2014366202218163 0 -0.1784102433228649 -0.21681777692650089 0 -0.16410544360365359 -0.21493654602220469 0 -0.17994482166635981 -0.2014366202218163 0 -0.18904495760185211 -0.20873870471059999 0 -0.19252771524915421 -0.19930647688205899 0 -0.17994482166635981 -0.2014366202218163 0 -0.1784102433228649 -0.21681777692650089 0 -0.18904495760185211 -0.20873870471059999 0 -0.1784102433228649 -0.21681777692650089 0 -0.19175951728552271 -0.21959172261586679 0 -0.18904495760185211 -0.20873870471059999 0 -0.15430752157141919 -0.22794821467022949 0 -0.16410544360365359 -0.21493654602220469 0 -0.16877954452522659 -0.2255120540677526 0 -0.15430752157141919 -0.22794821467022949 0 -0.16877954452522659 -0.2255120540677526 0 -0.16324537569009509 -0.2357306359809743 0 -0.15348527020851541 -0.23913552791147211 0 -0.15430752157141919 -0.22794821467022949 0 -0.16324537569009509 -0.2357306359809743 0 -0.16877954452522659 -0.2255120540677526 0 -0.17781387366555559 -0.23090770197000129 0 -0.16324537569009509 -0.2357306359809743 0 -0.1784102433228649 -0.21681777692650089 0 -0.16410544360365359 -0.21493654602220469 0 -0.16877954452522659 -0.2255120540677526 0 -0.1784102433228649 -0.21681777692650089 0 -0.16877954452522659 -0.2255120540677526 0 -0.17781387366555559 -0.23090770197000129 0 -0.1784102433228649 -0.21681777692650089 0 -0.17781387366555559 -0.23090770197000129 0 -0.19175951728552271 -0.21959172261586679 0 -0.17781387366555559 -0.23090770197000129 0 -0.1805311654956796 -0.2411950136452527 0 -0.19410287643929239 -0.23312434657521411 0 -0.17781387366555559 -0.23090770197000129 0 -0.1805311654956796 -0.2411950136452527 0 -0.16955513552828311 -0.24305067226283769 0 -0.17679077873490559 -0.25046109420941731 0 -0.1805311654956796 -0.2411950136452527 0 -0.18863044441395099 -0.24733650333174401 0 -0.17679077873490559 -0.25046109420941731 0 -0.1805311654956796 -0.2411950136452527 0 -0.16955513552828311 -0.24305067226283769 0 -0.16709258238786229 -0.25188408856254202 0 -0.17679077873490559 -0.25046109420941731 0 -0.16955513552828311 -0.24305067226283769 0 -0.16709258238786229 -0.25188408856254202 0 -0.16955513552828311 -0.24305067226283769 0 -0.1601832428566283 -0.24550858739866141 0 -0.17781387366555559 -0.23090770197000129 0 -0.16955513552828311 -0.24305067226283769 0 -0.16324537569009509 -0.2357306359809743 0 -0.16955513552828311 -0.24305067226283769 0 -0.16324537569009509 -0.2357306359809743 0 -0.1601832428566283 -0.24550858739866141 0 -0.15348527020851541 -0.23913552791147211 0 -0.16324537569009509 -0.2357306359809743 0 -0.1601832428566283 -0.24550858739866141 0 -0.1593809120407062 -0.25278805690175971 0 -0.15289321433053751 -0.246830478479277 0 -0.1601832428566283 -0.24550858739866141 0 -0.20565562739327201 -0.24334207984173631 0 -0.19410287643929239 -0.23312434657521411 0 -0.21201774175915139 -0.2290986139018284 0 -0.21472073189145299 -0.25725591714607071 0 -0.20565562739327201 -0.24334207984173631 0 -0.22837296648480071 -0.23789375384220129 0 -0.20565562739327201 -0.24334207984173631 0 -0.21201774175915139 -0.2290986139018284 0 -0.22837296648480071 -0.23789375384220129 0 -0.20565562739327201 -0.24334207984173631 0 -0.18863044441395099 -0.24733650333174401 0 -0.19410287643929239 -0.23312434657521411 0 -0.1805311654956796 -0.2411950136452527 0 -0.18863044441395099 -0.24733650333174401 0 -0.19410287643929239 -0.23312434657521411 0 -0.17781387366555559 -0.23090770197000129 0 -0.19410287643929239 -0.23312434657521411 0 -0.19175951728552271 -0.21959172261586679 0 -0.19410287643929239 -0.23312434657521411 0 -0.19175951728552271 -0.21959172261586679 0 -0.20443040571370949 -0.21985141578154491 0 -0.21201774175915139 -0.2290986139018284 0 -0.20443040571370949 -0.21985141578154491 0 -0.22630383013383959 -0.21240708539258099 0 -0.19410287643929239 -0.23312434657521411 0 -0.21201774175915139 -0.2290986139018284 0 -0.20443040571370949 -0.21985141578154491 0 -0.20157622681128409 -0.2075672839719423 0 -0.21557055542943429 -0.1904257004922347 0 -0.22630383013383959 -0.21240708539258099 0 -0.20157622681128409 -0.2075672839719423 0 -0.22630383013383959 -0.21240708539258099 0 -0.20443040571370949 -0.21985141578154491 0 -0.20157622681128409 -0.2075672839719423 0 -0.22630383013383959 -0.21240708539258099 0 -0.19175951728552271 -0.21959172261586679 0 -0.20443040571370949 -0.21985141578154491 0 -0.20157622681128409 -0.2075672839719423 0 -0.19175951728552271 -0.21959172261586679 0 -0.20157622681128409 -0.2075672839719423 0 -0.19175951728552271 -0.21959172261586679 0 -0.18904495760185211 -0.20873870471059999 0 -0.20157622681128409 -0.2075672839719423 0 -0.18904495760185211 -0.20873870471059999 0 -0.20157622681128409 -0.2075672839719423 0 -0.19252771524915421 -0.19930647688205899 0 -0.17994482166635981 -0.2014366202218163 0 -0.19252771524915421 -0.19930647688205899 0 -0.1907059301477185 -0.18468107337543721 0 -0.20157622681128409 -0.2075672839719423 0 -0.19252771524915421 -0.19930647688205899 0 -0.20187756758401409 -0.19506767240709361 0 -0.19252771524915421 -0.19930647688205899 0 -0.20187756758401409 -0.19506767240709361 0 -0.1907059301477185 -0.18468107337543721 0 -0.20157622681128409 -0.2075672839719423 0 -0.21557055542943429 -0.1904257004922347 0 -0.20187756758401409 -0.19506767240709361 0 -0.21557055542943429 -0.1904257004922347 0 -0.2038146335316797 -0.1820121315948606 0 -0.20157622681128409 -0.2075672839719423 0 -0.20187756758401409 -0.19506767240709361 0 -0.21557055542943429 -0.1904257004922347 0 -0.21557055542943429 -0.1904257004922347 0 -0.23533053747689989 -0.1962925907305976 0 -0.22630383013383959 -0.21240708539258099 0 -0.23533053747689989 -0.1962925907305976 0 -0.25103143345639523 -0.21724688681321891 0 -0.25418198431724581 -0.18809916394242601 0 -0.22630383013383959 -0.21240708539258099 0 -0.25103143345639523 -0.21724688681321891 0 -0.23533053747689989 -0.1962925907305976 0 -0.22630383013383959 -0.21240708539258099 0 -0.25103143345639523 -0.21724688681321891 0 -0.21201774175915139 -0.2290986139018284 0 -0.22630383013383959 -0.21240708539258099 0 -0.22837296648480071 -0.23789375384220129 0 -0.22630383013383959 -0.21240708539258099 0 -0.22837296648480071 -0.23789375384220129 0 -0.25103143345639523 -0.21724688681321891 0 -0.22837296648480071 -0.23789375384220129 0 -0.25431856302814809 -0.24833495949118861 0 -0.25103143345639523 -0.21724688681321891 0 -0.2335542019388327 -0.26090262277066528 0 -0.22837296648480071 -0.23789375384220129 0 -0.25431856302814809 -0.24833495949118861 0 -0.20708483324238849 -0.15128624944667929 0 -0.22647357207813959 -0.15205360930679629 0 -0.2195633859389316 -0.1340578990397249 0 -0.20708483324238849 -0.15128624944667929 0 -0.19823449762692411 -0.13229999761030051 0 -0.2195633859389316 -0.1340578990397249 0 -0.19823449762692411 -0.13229999761030051 0 -0.2195633859389316 -0.1340578990397249 0 -0.21022893699736381 -0.1097241998529486 0 -0.17775058767377289 -0.13584559103097291 0 -0.19823449762692411 -0.13229999761030051 0 -0.1894311146879058 -0.1465309504005988 0 -0.20708483324238849 -0.15128624944667929 0 -0.1894311146879058 -0.1465309504005988 0 -0.19351686899232889 -0.15854259719770419 0 -0.20708483324238849 -0.15128624944667929 0 -0.19823449762692411 -0.13229999761030051 0 -0.1894311146879058 -0.1465309504005988 0 -0.20708483324238849 -0.15128624944667929 0 -0.19351686899232889 -0.15854259719770419 0 -0.19880271024428661 -0.17007658736909009 0 -0.18239484980351819 -0.16464781923938721 0 -0.1894311146879058 -0.1465309504005988 0 -0.19351686899232889 -0.15854259719770419 0 -0.18239484980351819 -0.16464781923938721 0 -0.19351686899232889 -0.15854259719770419 0 -0.19880271024428661 -0.17007658736909009 0 -0.18239484980351819 -0.16464781923938721 0 -0.19880271024428661 -0.17007658736909009 0 -0.1907059301477185 -0.18468107337543721 0 -0.19880271024428661 -0.17007658736909009 0 -0.1907059301477185 -0.18468107337543721 0 -0.2038146335316797 -0.1820121315948606 0 -0.20187756758401409 -0.19506767240709361 0 -0.1907059301477185 -0.18468107337543721 0 -0.2038146335316797 -0.1820121315948606 0 -0.21557055542943429 -0.1904257004922347 0 -0.2038146335316797 -0.1820121315948606 0 -0.21355186476225221 -0.16985639920369799 0 -0.19880271024428661 -0.17007658736909009 0 -0.2038146335316797 -0.1820121315948606 0 -0.21355186476225221 -0.16985639920369799 0 -0.20708483324238849 -0.15128624944667929 0 -0.21355186476225221 -0.16985639920369799 0 -0.22647357207813959 -0.15205360930679629 0 -0.20708483324238849 -0.15128624944667929 0 -0.19880271024428661 -0.17007658736909009 0 -0.21355186476225221 -0.16985639920369799 0 -0.22956488404758479 -0.1732841170125273 0 -0.2435592126657353 -0.1561425335328199 0 -0.22647357207813959 -0.15205360930679629 0 -0.21355186476225221 -0.16985639920369799 0 -0.22956488404758479 -0.1732841170125273 0 -0.22647357207813959 -0.15205360930679629 0 -0.21557055542943429 -0.1904257004922347 0 -0.21355186476225221 -0.16985639920369799 0 -0.22956488404758479 -0.1732841170125273 0 -0.21557055542943429 -0.1904257004922347 0 -0.22956488404758479 -0.1732841170125273 0 -0.21557055542943429 -0.1904257004922347 0 -0.23533053747689989 -0.1962925907305976 0 -0.22956488404758479 -0.1732841170125273 0 -0.23533053747689989 -0.1962925907305976 0 -0.22956488404758479 -0.1732841170125273 0 -0.25418198431724581 -0.18809916394242601 0 -0.22956488404758479 -0.1732841170125273 0 -0.25418198431724581 -0.18809916394242601 0 -0.2565438833259911 -0.1687602707777138 0 -0.22956488404758479 -0.1732841170125273 0 -0.2435592126657353 -0.1561425335328199 0 -0.22956488404758479 -0.1732841170125273 0 -0.2435592126657353 -0.1561425335328199 0 -0.2565438833259911 -0.1687602707777138 0 -0.2435592126657353 -0.1561425335328199 0 -0.22647357207813959 -0.15205360930679629 0 -0.2432602079730701 -0.13485583854350039 0 -0.22647357207813959 -0.15205360930679629 0 -0.2195633859389316 -0.1340578990397249 0 -0.2432602079730701 -0.13485583854350039 0 -0.2195633859389316 -0.1340578990397249 0 -0.2432602079730701 -0.13485583854350039 0 -0.23065476516460279 -0.11957242830579699 0 -0.2432602079730701 -0.13485583854350039 0 -0.2499653418643101 -0.1102460646797562 0 -0.23065476516460279 -0.11957242830579699 0 -0.2499653418643101 -0.1102460646797562 0 -0.2308399038819596 -0.1034577205422559 0 -0.23065476516460279 -0.11957242830579699 0 -0.2308399038819596 -0.1034577205422559 0 -0.25308440776240432 -0.086371671251396109 0 -0.2499653418643101 -0.1102460646797562 0 -0.2308399038819596 -0.1034577205422559 0 -0.25308440776240432 -0.086371671251396109 0 -0.2308399038819596 -0.1034577205422559 0 -0.21022893699736381 -0.1097241998529486 0 -0.21520721362926831 -0.098298511723915558 0 -0.2308399038819596 -0.1034577205422559 0 -0.22013457808717909 -0.089221868029860679 0 -0.21520721362926831 -0.098298511723915558 0 -0.2308399038819596 -0.1034577205422559 0 -0.23065476516460279 -0.11957242830579699 0 -0.21022893699736381 -0.1097241998529486 0 -0.2195633859389316 -0.1340578990397249 0 -0.23065476516460279 -0.11957242830579699 0 -0.21022893699736381 -0.1097241998529486 0 -0.2335598957907816 -0.079883889973887123 0 -0.24475965461883589 -0.059498385283178377 0 -0.2582325144520296 -0.070050845257802419 0 -0.2335598957907816 -0.079883889973887123 0 -0.2582325144520296 -0.070050845257802419 0 -0.25308440776240432 -0.086371671251396109 0 -0.2308399038819596 -0.1034577205422559 0 -0.2335598957907816 -0.079883889973887123 0 -0.25308440776240432 -0.086371671251396109 0 -0.2308399038819596 -0.1034577205422559 0 -0.22013457808717909 -0.089221868029860679 0 -0.2335598957907816 -0.079883889973887123 0 -0.22013457808717909 -0.089221868029860679 0 -0.2335598957907816 -0.079883889973887123 0 -0.21963876375789801 -0.077814354495200549 0 -0.2335598957907816 -0.079883889973887123 0 -0.21595644614104051 -0.065738508165203102 0 -0.24475965461883589 -0.059498385283178377 0 -0.21595644614104051 -0.065738508165203102 0 -0.24475965461883589 -0.059498385283178377 0 -0.2335598957907816 -0.079883889973887123 0 -0.21963876375789801 -0.077814354495200549 0 -0.21595644614104051 -0.065738508165203102 0 -0.20438945881064449 -0.068244458930106389 0 -0.21100771399754009 -0.086966924160961745 0 -0.21595644614104051 -0.065738508165203102 0 -0.21100771399754009 -0.086966924160961745 0 -0.20438945881064449 -0.068244458930106389 0 -0.21595644614104051 -0.065738508165203102 0 -0.21100771399754009 -0.086966924160961745 0 -0.21963876375789801 -0.077814354495200549 0 -0.21595644614104051 -0.065738508165203102 0 -0.21100771399754009 -0.086966924160961745 0 -0.20438945881064449 -0.068244458930106389 0 -0.21595644614104051 -0.065738508165203102 0 -0.20438945881064449 -0.068244458930106389 0 -0.21595644614104051 -0.065738508165203102 0 -0.20711132549122371 -0.057203435059411119 0 -0.20438945881064449 -0.068244458930106389 0 -0.21100771399754009 -0.086966924160961745 0 -0.19851231957361129 -0.085310821531315487 0 -0.22013457808717909 -0.089221868029860679 0 -0.21963876375789801 -0.077814354495200549 0 -0.21100771399754009 -0.086966924160961745 0 -0.22013457808717909 -0.089221868029860679 0 -0.21100771399754009 -0.086966924160961745 0 -0.21520721362926831 -0.098298511723915558 0 -0.21100771399754009 -0.086966924160961745 0 -0.19851231957361129 -0.085310821531315487 0 -0.20550431009004061 -0.095676697317907802 0 -0.21100771399754009 -0.086966924160961745 0 -0.21520721362926831 -0.098298511723915558 0 -0.20550431009004061 -0.095676697317907802 0 -0.19851231957361129 -0.085310821531315487 0 -0.18118326058104209 -0.08825419183970401 0 -0.18409944718507371 -0.07264022497537044 0 -0.19851231957361129 -0.085310821531315487 0 -0.19294566676858971 -0.096864600750783431 0 -0.18118326058104209 -0.08825419183970401 0 -0.19851231957361129 -0.085310821531315487 0 -0.20550431009004061 -0.095676697317907802 0 -0.19294566676858971 -0.096864600750783431 0 -0.20438945881064449 -0.068244458930106389 0 -0.19851231957361129 -0.085310821531315487 0 -0.18409944718507371 -0.07264022497537044 0 -0.20438945881064449 -0.068244458930106389 0 -0.18409944718507371 -0.07264022497537044 0 -0.18769526278089041 -0.057829612445021099 0 -0.20438945881064449 -0.068244458930106389 0 -0.18409944718507371 -0.07264022497537044 0 -0.21022893699736381 -0.1097241998529486 0 -0.21520721362926831 -0.098298511723915558 0 -0.20550431009004061 -0.095676697317907802 0 -0.21022893699736381 -0.1097241998529486 0 -0.20550431009004061 -0.095676697317907802 0 -0.19294566676858971 -0.096864600750783431 0 -0.19294566676858971 -0.096864600750783431 0 -0.18534812722118199 -0.1163550958908785 0 -0.21022893699736381 -0.1097241998529486 0 -0.19294566676858971 -0.096864600750783431 0 -0.18534812722118199 -0.1163550958908785 0 -0.19823449762692411 -0.13229999761030051 0 -0.21022893699736381 -0.1097241998529486 0 -0.18534812722118199 -0.1163550958908785 0 -0.18534812722118199 -0.1163550958908785 0 -0.17423934197139679 -0.1017815859784342 0 -0.15606779039194271 -0.1160101434681408 0 -0.17775058767377289 -0.13584559103097291 0 -0.18534812722118199 -0.1163550958908785 0 -0.15606779039194271 -0.1160101434681408 0 -0.16057304666404501 -0.10079887419961479 0 -0.17423934197139679 -0.1017815859784342 0 -0.15606779039194271 -0.1160101434681408 0 -0.16057304666404501 -0.10079887419961479 0 -0.16746185343044401 -0.091445336260546128 0 -0.1570966781871318 -0.090327755750333361 0 -0.16057304666404501 -0.10079887419961479 0 -0.17423934197139679 -0.1017815859784342 0 -0.16746185343044401 -0.091445336260546128 0 -0.17423934197139679 -0.1017815859784342 0 -0.18118326058104209 -0.08825419183970401 0 -0.16746185343044401 -0.091445336260546128 0 -0.19294566676858971 -0.096864600750783431 0 -0.18534812722118199 -0.1163550958908785 0 -0.17423934197139679 -0.1017815859784342 0 -0.19294566676858971 -0.096864600750783431 0 -0.17423934197139679 -0.1017815859784342 0 -0.18118326058104209 -0.08825419183970401 0 -0.18118326058104209 -0.08825419183970401 0 -0.18409944718507371 -0.07264022497537044 0 -0.16915717098214109 -0.081397787743409861 0 -0.18118326058104209 -0.08825419183970401 0 -0.16746185343044401 -0.091445336260546128 0 -0.16915717098214109 -0.081397787743409861 0 -0.18409944718507371 -0.07264022497537044 0 -0.1702117591297739 -0.06777753321031553 0 -0.16380943555950259 -0.077035991020633382 0 -0.18409944718507371 -0.07264022497537044 0 -0.16380943555950259 -0.077035991020633382 0 -0.16915717098214109 -0.081397787743409861 0 -0.18409944718507371 -0.07264022497537044 0 -0.17187825396406881 -0.057945450019426657 0 -0.18769526278089041 -0.057829612445021099 0 -0.18409944718507371 -0.07264022497537044 0 -0.16380943555950259 -0.077035991020633382 0 -0.18409944718507371 -0.07264022497537044 0 -0.1702117591297739 -0.06777753321031553 0 -0.17187825396406881 -0.057945450019426657 0 -0.16380943555950259 -0.077035991020633382 0 -0.16105989981045041 -0.063488466825831633 0 -0.14595160177326619 -0.062470528310013429 0 -0.1702117591297739 -0.06777753321031553 0 -0.16105989981045041 -0.063488466825831633 0 -0.17187825396406881 -0.057945450019426657 0 -0.1702117591297739 -0.06777753321031553 0 -0.16380943555950259 -0.077035991020633382 0 -0.16105989981045041 -0.063488466825831633 0 -0.16380943555950259 -0.077035991020633382 0 -0.16109871639751261 -0.084134952385501949 0 -0.14796844382834351 -0.080467891152587012 0 -0.16746185343044401 -0.091445336260546128 0 -0.16915717098214109 -0.081397787743409861 0 -0.16109871639751261 -0.084134952385501949 0 -0.16380943555950259 -0.077035991020633382 0 -0.16915717098214109 -0.081397787743409861 0 -0.16109871639751261 -0.084134952385501949 0 -0.16380943555950259 -0.077035991020633382 0 -0.16915717098214109 -0.081397787743409861 0 -0.16746185343044401 -0.091445336260546128 0 -0.16109871639751261 -0.084134952385501949 0 -0.1570966781871318 -0.090327755750333361 0 -0.16380943555950259 -0.077035991020633382 0 -0.14796844382834351 -0.080467891152587012 0 -0.14796844382834351 -0.080467891152587012 0 -0.13497135686491851 -0.078315161523928284 0 -0.1484932433812913 -0.094043062253026791 0 -0.1570966781871318 -0.090327755750333361 0 -0.14796844382834351 -0.080467891152587012 0 -0.1484932433812913 -0.094043062253026791 0 -0.16109871639751261 -0.084134952385501949 0 -0.1570966781871318 -0.090327755750333361 0 -0.14796844382834351 -0.080467891152587012 0 -0.16380943555950259 -0.077035991020633382 0 -0.14796844382834351 -0.080467891152587012 0 -0.14595160177326619 -0.062470528310013429 0 -0.16380943555950259 -0.077035991020633382 0 -0.14595160177326619 -0.062470528310013429 0 -0.14796844382834351 -0.080467891152587012 0 -0.13497135686491851 -0.078315161523928284 0 -0.14595160177326619 -0.062470528310013429 0 -0.1158705629695205 -0.060236298698018297 0 -0.13497135686491851 -0.078315161523928284 0 -0.1158705629695205 -0.060236298698018297 0 -0.13497135686491851 -0.078315161523928284 0 -0.13122182239868371 -0.062231763532838429 0 -0.13497135686491851 -0.078315161523928284 0 -0.13122182239868371 -0.062231763532838429 0 -0.14595160177326619 -0.062470528310013429 0 -0.112702195828283 -0.076339248342475546 0 -0.13497135686491851 -0.078315161523928284 0 -0.13438499311011279 -0.096174695905308166 0 -0.13497135686491851 -0.078315161523928284 0 -0.13438499311011279 -0.096174695905308166 0 -0.1484932433812913 -0.094043062253026791 0 -0.11276894493928399 -0.097790936300085646 0 -0.13438499311011279 -0.096174695905308166 0 -0.1306137014228527 -0.1212095633787966 0 -0.13438499311011279 -0.096174695905308166 0 -0.1306137014228527 -0.1212095633787966 0 -0.15606779039194271 -0.1160101434681408 0 -0.15406265534163929 -0.1294064941378926 0 -0.1306137014228527 -0.1212095633787966 0 -0.15606779039194271 -0.1160101434681408 0 -0.13438499311011279 -0.096174695905308166 0 -0.15606779039194271 -0.1160101434681408 0 -0.1484932433812913 -0.094043062253026791 0 -0.16057304666404501 -0.10079887419961479 0 -0.15606779039194271 -0.1160101434681408 0 -0.1484932433812913 -0.094043062253026791 0 -0.13438499311011279 -0.096174695905308166 0 -0.15606779039194271 -0.1160101434681408 0 -0.16057304666404501 -0.10079887419961479 0 -0.1570966781871318 -0.090327755750333361 0 -0.1484932433812913 -0.094043062253026791 0 -0.14513665439653431 -0.02122229521611602 0 -0.15148395360685291 -0.031475856168514699 0 -0.16129500549156001 -0.024264335985147129 0 -0.14513665439653431 -0.02122229521611602 0 -0.1346415055917565 -0.031432898451717602 0 -0.15148395360685291 -0.031475856168514699 0 -0.14513665439653431 -0.02122229521611602 0 -0.15327979458335059 -0.01391829646419882 0 -0.16129500549156001 -0.024264335985147129 0 -0.1412848112475209 -0.008091449167619497 0 -0.15773416148281841 -0.0035868741371463562 0 -0.14801408494475049 0.0031182785745780331 0 -0.15327979458335059 -0.01391829646419882 0 -0.1412848112475209 -0.008091449167619497 0 -0.15773416148281841 -0.0035868741371463562 0 -0.14513665439653431 -0.02122229521611602 0 -0.15327979458335059 -0.01391829646419882 0 -0.1412848112475209 -0.008091449167619497 0 -0.1236693299605585 -0.0137973575501921 0 -0.1412848112475209 -0.008091449167619497 0 -0.12735709500343681 0.004015926865657337 0 -0.1412848112475209 -0.008091449167619497 0 -0.12735709500343681 0.004015926865657337 0 -0.14801408494475049 0.0031182785745780331 0 -0.1236693299605585 -0.0137973575501921 0 -0.1412848112475209 -0.008091449167619497 0 -0.13426109495296229 -0.02049569832685658 0 -0.1236693299605585 -0.0137973575501921 0 -0.1221370268088495 -0.025998648103035 0 -0.13426109495296229 -0.02049569832685658 0 -0.14513665439653431 -0.02122229521611602 0 -0.1412848112475209 -0.008091449167619497 0 -0.13426109495296229 -0.02049569832685658 0 -0.14513665439653431 -0.02122229521611602 0 -0.13426109495296229 -0.02049569832685658 0 -0.1346415055917565 -0.031432898451717602 0 -0.1221370268088495 -0.025998648103035 0 -0.12530131535501859 -0.034952786400489197 0 -0.1346415055917565 -0.031432898451717602 0 -0.1221370268088495 -0.025998648103035 0 -0.13426109495296229 -0.02049569832685658 0 -0.1346415055917565 -0.031432898451717602 0 -0.12530131535501859 -0.034952786400489197 0 -0.1346415055917565 -0.031432898451717602 0 -0.12809376798702951 -0.047905065599393698 0 -0.1346415055917565 -0.031432898451717602 0 -0.12809376798702951 -0.047905065599393698 0 -0.14629371500633531 -0.042796653234188263 0 -0.12809376798702951 -0.047905065599393698 0 -0.14595160177326619 -0.062470528310013429 0 -0.12809376798702951 -0.047905065599393698 0 -0.14595160177326619 -0.062470528310013429 0 -0.14629371500633531 -0.042796653234188263 0 -0.13122182239868371 -0.062231763532838429 0 -0.12809376798702951 -0.047905065599393698 0 -0.14595160177326619 -0.062470528310013429 0 -0.1158705629695205 -0.060236298698018297 0 -0.13122182239868371 -0.062231763532838429 0 -0.12809376798702951 -0.047905065599393698 0 -0.14595160177326619 -0.062470528310013429 0 -0.14629371500633531 -0.042796653234188263 0 -0.15696853651444401 -0.052603520026387289 0 -0.16105989981045041 -0.063488466825831633 0 -0.14595160177326619 -0.062470528310013429 0 -0.15696853651444401 -0.052603520026387289 0 -0.15148395360685291 -0.031475856168514699 0 -0.14629371500633531 -0.042796653234188263 0 -0.16402488563849801 -0.041062174760887443 0 -0.1346415055917565 -0.031432898451717602 0 -0.15148395360685291 -0.031475856168514699 0 -0.14629371500633531 -0.042796653234188263 0 -0.14629371500633531 -0.042796653234188263 0 -0.16402488563849801 -0.041062174760887443 0 -0.15696853651444401 -0.052603520026387289 0 -0.15148395360685291 -0.031475856168514699 0 -0.16402488563849801 -0.041062174760887443 0 -0.16129500549156001 -0.024264335985147129 0 -0.16402488563849801 -0.041062174760887443 0 -0.17409393016306191 -0.030370879776367592 0 -0.16129500549156001 -0.024264335985147129 0 -0.16402488563849801 -0.041062174760887443 0 -0.15696853651444401 -0.052603520026387289 0 -0.17187825396406881 -0.057945450019426657 0 -0.16105989981045041 -0.063488466825831633 0 -0.15696853651444401 -0.052603520026387289 0 -0.17187825396406881 -0.057945450019426657 0 -0.16402488563849801 -0.041062174760887443 0 -0.17187825396406881 -0.057945450019426657 0 -0.18133558272394029 -0.043618149437272283 0 -0.17187825396406881 -0.057945450019426657 0 -0.18133558272394029 -0.043618149437272283 0 -0.18769526278089041 -0.057829612445021099 0 -0.18133558272394029 -0.043618149437272283 0 -0.17409393016306191 -0.030370879776367592 0 -0.18915768363079971 -0.025155098795753519 0 -0.16402488563849801 -0.041062174760887443 0 -0.18133558272394029 -0.043618149437272283 0 -0.17409393016306191 -0.030370879776367592 0 -0.17409393016306191 -0.030370879776367592 0 -0.17549551533112251 -0.014893414490097231 0 -0.18915768363079971 -0.025155098795753519 0 -0.16129500549156001 -0.024264335985147129 0 -0.16350931143073591 -0.01273440345064396 0 -0.17549551533112251 -0.014893414490097231 0 -0.17409393016306191 -0.030370879776367592 0 -0.16129500549156001 -0.024264335985147129 0 -0.17549551533112251 -0.014893414490097231 0 -0.15327979458335059 -0.01391829646419882 0 -0.16129500549156001 -0.024264335985147129 0 -0.16350931143073591 -0.01273440345064396 0 -0.15773416148281841 -0.0035868741371463562 0 -0.16716832075785379 -0.0032078365625175 0 -0.1619193683370386 0.0066468078375689294 0 -0.15773416148281841 -0.0035868741371463562 0 -0.16350931143073591 -0.01273440345064396 0 -0.16716832075785379 -0.0032078365625175 0 -0.15327979458335059 -0.01391829646419882 0 -0.15773416148281841 -0.0035868741371463562 0 -0.16350931143073591 -0.01273440345064396 0 -0.16350931143073591 -0.01273440345064396 0 -0.16716832075785379 -0.0032078365625175 0 -0.17549551533112251 -0.014893414490097231 0 -0.17549551533112251 -0.014893414490097231 0 -0.18154179604087481 -0.0036104187285780349 0 -0.18915768363079971 -0.025155098795753519 0 -0.18154179604087481 -0.0036104187285780349 0 -0.18915768363079971 -0.025155098795753519 0 -0.17549551533112251 -0.014893414490097231 0 -0.17584419881677341 0.0071523107965592754 0 -0.17549551533112251 -0.014893414490097231 0 -0.18154179604087481 -0.0036104187285780349 0 -0.17584419881677341 0.0071523107965592754 0 -0.16716832075785379 -0.0032078365625175 0 -0.17549551533112251 -0.014893414490097231 0 -0.17584419881677341 0.0071523107965592754 0 -0.18154179604087481 -0.0036104187285780349 0 -0.19066530249761049 -0.0041303576494283751 0 -0.18915768363079971 -0.025155098795753519 0 -0.18154179604087481 -0.0036104187285780349 0 -0.19066530249761049 -0.0041303576494283751 0 -0.18717715497560061 0.0062623078557712403 0 -0.19066530249761049 -0.0041303576494283751 0 -0.1989264366345522 -0.0080023544535597537 0 -0.18915768363079971 -0.025155098795753519 0 -0.19066530249761049 -0.0041303576494283751 0 -0.1989264366345522 -0.0080023544535597537 0 -0.1965234412062255 0.0098537758749781944 0 -0.1989264366345522 -0.0080023544535597537 0 -0.2007918169376324 -0.0191738513677071 0 -0.20680177871376751 -0.0119671669755851 0 -0.18915768363079971 -0.025155098795753519 0 -0.2007918169376324 -0.0191738513677071 0 -0.21013076049929519 -0.028334228638799381 0 -0.1989264366345522 -0.0080023544535597537 0 -0.18915768363079971 -0.025155098795753519 0 -0.2007918169376324 -0.0191738513677071 0 -0.2007918169376324 -0.0191738513677071 0 -0.21013076049929519 -0.028334228638799381 0 -0.20680177871376751 -0.0119671669755851 0 -0.21013076049929519 -0.028334228638799381 0 -0.21702438745170211 -0.0043907958627755336 0 -0.21921501925093501 -0.017985606360015789 0 -0.21013076049929519 -0.028334228638799381 0 -0.21702438745170211 -0.0043907958627755336 0 -0.21013076049929519 -0.028334228638799381 0 -0.22271521407306469 -0.037269361340154371 0 -0.21921501925093501 -0.017985606360015789 0 -0.21013076049929519 -0.028334228638799381 0 -0.21702438745170211 -0.0043907958627755336 0 -0.20680177871376751 -0.0119671669755851 0 -0.1989264366345522 -0.0080023544535597537 0 -0.20680177871376751 -0.0119671669755851 0 -0.20713549204565579 6.5395444916274768e-05 0 -0.21702438745170211 -0.0043907958627755336 0 -0.20680177871376751 -0.0119671669755851 0 -0.20713549204565579 6.5395444916274768e-05 0 -0.20438945881064449 -0.068244458930106389 0 -0.1967735712207245 -0.046699778862929052 0 -0.20438945881064449 -0.068244458930106389 0 -0.18769526278089041 -0.057829612445021099 0 -0.1967735712207245 -0.046699778862929052 0 -0.20438945881064449 -0.068244458930106389 0 -0.1967735712207245 -0.046699778862929052 0 -0.20711132549122371 -0.057203435059411119 0 -0.18133558272394029 -0.043618149437272283 0 -0.18769526278089041 -0.057829612445021099 0 -0.1967735712207245 -0.046699778862929052 0 -0.18133558272394029 -0.043618149437272283 0 -0.18915768363079971 -0.025155098795753519 0 -0.1967735712207245 -0.046699778862929052 0 -0.18915768363079971 -0.025155098795753519 0 -0.1967735712207245 -0.046699778862929052 0 -0.18915768363079971 -0.025155098795753519 0 -0.21013076049929519 -0.028334228638799381 0 -0.1967735712207245 -0.046699778862929052 0 -0.21013076049929519 -0.028334228638799381 0 -0.21132582579248671 -0.048130994279405613 0 -0.22271521407306469 -0.037269361340154371 0 -0.21013076049929519 -0.028334228638799381 0 -0.1967735712207245 -0.046699778862929052 0 -0.21132582579248671 -0.048130994279405613 0 -0.21595644614104051 -0.065738508165203102 0 -0.21132582579248671 -0.048130994279405613 0 -0.22271521407306469 -0.037269361340154371 0 -0.21595644614104051 -0.065738508165203102 0 -0.21132582579248671 -0.048130994279405613 0 -0.20711132549122371 -0.057203435059411119 0 -0.1967735712207245 -0.046699778862929052 0 -0.21132582579248671 -0.048130994279405613 0 -0.20711132549122371 -0.057203435059411119 0 -0.21595644614104051 -0.065738508165203102 0 -0.2284172135094342 -0.053659916570315727 0 -0.24475965461883589 -0.059498385283178377 0 -0.21595644614104051 -0.065738508165203102 0 -0.2284172135094342 -0.053659916570315727 0 -0.22271521407306469 -0.037269361340154371 0 -0.21595644614104051 -0.065738508165203102 0 -0.22271521407306469 -0.037269361340154371 0 -0.2284172135094342 -0.053659916570315727 0 -0.22271521407306469 -0.037269361340154371 0 -0.23903543051913109 -0.043198085603962481 0 -0.22271521407306469 -0.037269361340154371 0 -0.23903543051913109 -0.043198085603962481 0 -0.24161885061771041 -0.026720350447010301 0 -0.23903543051913109 -0.043198085603962481 0 -0.24161885061771041 -0.026720350447010301 0 -0.25766621977661042 -0.038842414379153638 0 -0.23903543051913109 -0.043198085603962481 0 -0.24475965461883589 -0.059498385283178377 0 -0.25766621977661042 -0.038842414379153638 0 -0.2284172135094342 -0.053659916570315727 0 -0.23903543051913109 -0.043198085603962481 0 -0.24475965461883589 -0.059498385283178377 0 -0.22947398200509031 -0.0088002145151058891 0 -0.22867745033346079 0.0038692188645070222 0 -0.2401015516947359 0.00075261550232862703 0 -0.21702438745170211 -0.0043907958627755336 0 -0.22947398200509031 -0.0088002145151058891 0 -0.22867745033346079 0.0038692188645070222 0 -0.21702438745170211 -0.0043907958627755336 0 -0.22947398200509031 -0.0088002145151058891 0 -0.21921501925093501 -0.017985606360015789 0 -0.22271521407306469 -0.037269361340154371 0 -0.22947398200509031 -0.0088002145151058891 0 -0.21921501925093501 -0.017985606360015789 0 -0.22271521407306469 -0.037269361340154371 0 -0.22947398200509031 -0.0088002145151058891 0 -0.22271521407306469 -0.037269361340154371 0 -0.22947398200509031 -0.0088002145151058891 0 -0.24161885061771041 -0.026720350447010301 0 -0.22947398200509031 -0.0088002145151058891 0 -0.24161885061771041 -0.026720350447010301 0 -0.2437457614006571 -0.011962382738850049 0 -0.24161885061771041 -0.026720350447010301 0 -0.2437457614006571 -0.011962382738850049 0 -0.2598032925822476 -0.0188915667982569 0 -0.22947398200509031 -0.0088002145151058891 0 -0.2437457614006571 -0.011962382738850049 0 -0.2401015516947359 0.00075261550232862703 0 -0.2437457614006571 -0.011962382738850049 0 -0.25267499080189931 -0.0034516002120552492 0 -0.2401015516947359 0.00075261550232862703 0 -0.25267499080189931 -0.0034516002120552492 0 -0.2598032925822476 -0.0188915667982569 0 -0.26909988492935111 -0.0018655285383734981 0 -0.2437457614006571 -0.011962382738850049 0 -0.25267499080189931 -0.0034516002120552492 0 -0.2598032925822476 -0.0188915667982569 0 -0.2598032925822476 -0.0188915667982569 0 -0.27267419604841259 -0.026924212746328481 0 -0.25766621977661042 -0.038842414379153638 0 -0.24161885061771041 -0.026720350447010301 0 -0.2598032925822476 -0.0188915667982569 0 -0.25766621977661042 -0.038842414379153638 0 -0.2598032925822476 -0.0188915667982569 0 -0.27267419604841259 -0.026924212746328481 0 -0.27804425228895369 -0.016131696666228459 0 -0.27267419604841259 -0.026924212746328481 0 -0.27804425228895369 -0.016131696666228459 0 -0.28378415359151371 -0.031280105512012511 0 -0.27804425228895369 -0.016131696666228459 0 -0.26909988492935111 -0.0018655285383734981 0 -0.2917254884257266 -0.0017566381736345419 0 -0.2598032925822476 -0.0188915667982569 0 -0.27804425228895369 -0.016131696666228459 0 -0.26909988492935111 -0.0018655285383734981 0 -0.27804425228895369 -0.016131696666228459 0 -0.2917254884257266 -0.0017566381736345419 0 -0.2928870998243559 -0.020527937726781 0 -0.27804425228895369 -0.016131696666228459 0 -0.2928870998243559 -0.020527937726781 0 -0.28378415359151371 -0.031280105512012511 0 -0.2928870998243559 -0.020527937726781 0 -0.29943422057661201 -0.032203920876667472 0 -0.28378415359151371 -0.031280105512012511 0 -0.2928870998243559 -0.020527937726781 0 -0.31144738423897378 -0.02126732740536201 0 -0.29943422057661201 -0.032203920876667472 0 -0.31144738423897378 -0.02126732740536201 0 -0.31110423911055801 -0.035316851109560482 0 -0.29943422057661201 -0.032203920876667472 0 -0.2917254884257266 -0.0017566381736345419 0 -0.31144738423897378 -0.02126732740536201 0 -0.31177688145040278 0.0050359958776742568 0 -0.2917254884257266 -0.0017566381736345419 0 -0.2928870998243559 -0.020527937726781 0 -0.31144738423897378 -0.02126732740536201 0 -0.2917254884257266 -0.0017566381736345419 0 -0.31144738423897378 -0.02126732740536201 0 -0.30323190850646392 -0.052883144282766713 0 -0.3023660715744253 -0.047018139519123002 0 -0.29757341552329353 -0.05219957266967655 0 -0.29931176789370939 -0.061629941742321552 0 -0.30659897303184058 -0.057135789817405573 0 -0.30728911182784302 -0.064893595009923935 0 -0.30323190850646392 -0.052883144282766713 0 -0.29931176789370939 -0.061629941742321552 0 -0.30659897303184058 -0.057135789817405573 0 -0.30323190850646392 -0.052883144282766713 0 -0.29757341552329353 -0.05219957266967655 0 -0.29931176789370939 -0.061629941742321552 0 -0.30659897303184058 -0.057135789817405573 0 -0.30728911182784302 -0.064893595009923935 0 -0.31405483352543062 -0.056831087900065053 0 -0.30323190850646392 -0.052883144282766713 0 -0.3023660715744253 -0.047018139519123002 0 -0.31025625293594222 -0.050033124508212908 0 -0.30659897303184058 -0.057135789817405573 0 -0.31025625293594222 -0.050033124508212908 0 -0.31405483352543062 -0.056831087900065053 0 -0.30323190850646392 -0.052883144282766713 0 -0.30659897303184058 -0.057135789817405573 0 -0.31025625293594222 -0.050033124508212908 0 -0.3023660715744253 -0.047018139519123002 0 -0.31110423911055801 -0.035316851109560482 0 -0.29943422057661201 -0.032203920876667472 0 -0.3023660715744253 -0.047018139519123002 0 -0.29943422057661201 -0.032203920876667472 0 -0.29166722635019171 -0.038853801873014321 0 -0.29943422057661201 -0.032203920876667472 0 -0.29166722635019171 -0.038853801873014321 0 -0.28378415359151371 -0.031280105512012511 0 -0.3023660715744253 -0.047018139519123002 0 -0.29166722635019171 -0.038853801873014321 0 -0.28390051605192418 -0.042754285685484159 0 -0.29166722635019171 -0.038853801873014321 0 -0.28378415359151371 -0.031280105512012511 0 -0.28390051605192418 -0.042754285685484159 0 -0.3023660715744253 -0.047018139519123002 0 -0.28390051605192418 -0.042754285685484159 0 -0.27356286309663053 -0.053258262401150697 0 -0.3023660715744253 -0.047018139519123002 0 -0.27356286309663053 -0.053258262401150697 0 -0.29757341552329353 -0.05219957266967655 0 -0.27356286309663053 -0.053258262401150697 0 -0.27532891164284878 -0.069285621960536392 0 -0.29757341552329353 -0.05219957266967655 0 -0.27532891164284878 -0.069285621960536392 0 -0.3023660715744253 -0.047018139519123002 0 -0.29757341552329353 -0.05219957266967655 0 -0.27356286309663053 -0.053258262401150697 0 -0.29757341552329353 -0.05219957266967655 0 -0.29931176789370939 -0.061629941742321552 0 -0.27532891164284878 -0.069285621960536392 0 -0.27267419604841259 -0.026924212746328481 0 -0.27375437843427658 -0.039043607324579933 0 -0.25766621977661042 -0.038842414379153638 0 -0.27356286309663053 -0.053258262401150697 0 -0.27375437843427658 -0.039043607324579933 0 -0.25766621977661042 -0.038842414379153638 0 -0.28378415359151371 -0.031280105512012511 0 -0.28390051605192418 -0.042754285685484159 0 -0.27375437843427658 -0.039043607324579933 0 -0.27267419604841259 -0.026924212746328481 0 -0.28378415359151371 -0.031280105512012511 0 -0.27375437843427658 -0.039043607324579933 0 -0.28390051605192418 -0.042754285685484159 0 -0.27356286309663053 -0.053258262401150697 0 -0.27375437843427658 -0.039043607324579933 0 -0.24475965461883589 -0.059498385283178377 0 -0.27356286309663053 -0.053258262401150697 0 -0.2582325144520296 -0.070050845257802419 0 -0.24475965461883589 -0.059498385283178377 0 -0.27356286309663053 -0.053258262401150697 0 -0.24475965461883589 -0.059498385283178377 0 -0.27356286309663053 -0.053258262401150697 0 -0.25766621977661042 -0.038842414379153638 0 -0.2582325144520296 -0.070050845257802419 0 -0.25308440776240432 -0.086371671251396109 0 -0.27532891164284878 -0.069285621960536392 0 -0.25308440776240432 -0.086371671251396109 0 -0.27532891164284878 -0.069285621960536392 0 -0.25308440776240432 -0.086371671251396109 0 -0.27361062541114611 -0.085405998149086934 0 -0.26907394573302829 -0.10103393024372311 0 -0.27361062541114611 -0.085405998149086934 0 -0.26907394573302829 -0.10103393024372311 0 -0.28494676303449051 -0.09097811142482605 0 -0.25308440776240432 -0.086371671251396109 0 -0.27361062541114611 -0.085405998149086934 0 -0.27532891164284878 -0.069285621960536392 0 -0.27356286309663053 -0.053258262401150697 0 -0.2582325144520296 -0.070050845257802419 0 -0.27532891164284878 -0.069285621960536392 0 -0.27361062541114611 -0.085405998149086934 0 -0.27532891164284878 -0.069285621960536392 0 -0.28561909888295839 -0.079360655864953042 0 -0.2432602079730701 -0.13485583854350039 0 -0.2499653418643101 -0.1102460646797562 0 -0.26490928006600228 -0.12397715003998409 0 -0.2499653418643101 -0.1102460646797562 0 -0.26490928006600228 -0.12397715003998409 0 -0.26907394573302829 -0.10103393024372311 0 -0.2499653418643101 -0.1102460646797562 0 -0.25308440776240432 -0.086371671251396109 0 -0.26907394573302829 -0.10103393024372311 0 -0.26907394573302829 -0.10103393024372311 0 -0.28789548083438649 -0.11161882002010511 0 -0.28494676303449051 -0.09097811142482605 0 -0.26490928006600228 -0.12397715003998409 0 -0.28789548083438649 -0.11161882002010511 0 -0.28428672055728371 -0.13281235115180859 0 -0.26490928006600228 -0.12397715003998409 0 -0.26907394573302829 -0.10103393024372311 0 -0.28789548083438649 -0.11161882002010511 0 -0.28789548083438649 -0.11161882002010511 0 -0.28428672055728371 -0.13281235115180859 0 -0.30877835781368662 -0.12931532841693749 0 -0.28789548083438649 -0.11161882002010511 0 -0.29765529442092259 -0.094840601490837839 0 -0.28494676303449051 -0.09097811142482605 0 -0.30761934067920371 -0.1042503242997595 0 -0.29765529442092259 -0.094840601490837839 0 -0.30832877355579341 -0.086934752854072747 0 -0.30761934067920371 -0.1042503242997595 0 -0.30832877355579341 -0.086934752854072747 0 -0.31968159473222052 -0.091584555267719248 0 -0.28789548083438649 -0.11161882002010511 0 -0.30761934067920371 -0.1042503242997595 0 -0.29765529442092259 -0.094840601490837839 0 -0.28789548083438649 -0.11161882002010511 0 -0.30761934067920371 -0.1042503242997595 0 -0.30877835781368662 -0.12931532841693749 0 -0.29931176789370939 -0.061629941742321552 0 -0.27532891164284878 -0.069285621960536392 0 -0.29568251685582603 -0.071589435967753134 0 -0.27532891164284878 -0.069285621960536392 0 -0.29568251685582603 -0.071589435967753134 0 -0.28561909888295839 -0.079360655864953042 0 -0.29568251685582603 -0.071589435967753134 0 -0.28561909888295839 -0.079360655864953042 0 -0.29849490204505058 -0.081938345925378783 0 -0.27361062541114611 -0.085405998149086934 0 -0.28561909888295839 -0.079360655864953042 0 -0.28494676303449051 -0.09097811142482605 0 -0.29765529442092259 -0.094840601490837839 0 -0.28494676303449051 -0.09097811142482605 0 -0.29849490204505058 -0.081938345925378783 0 -0.28561909888295839 -0.079360655864953042 0 -0.28494676303449051 -0.09097811142482605 0 -0.29849490204505058 -0.081938345925378783 0 -0.29849490204505058 -0.081938345925378783 0 -0.30832877355579341 -0.086934752854072747 0 -0.3066986514807607 -0.074546990101646726 0 -0.29765529442092259 -0.094840601490837839 0 -0.29849490204505058 -0.081938345925378783 0 -0.30832877355579341 -0.086934752854072747 0 -0.30832877355579341 -0.086934752854072747 0 -0.3066986514807607 -0.074546990101646726 0 -0.31636087034116728 -0.076704125898778439 0 -0.3066986514807607 -0.074546990101646726 0 -0.31411021802290889 -0.069356746280106005 0 -0.31636087034116728 -0.076704125898778439 0 -0.29568251685582603 -0.071589435967753134 0 -0.29849490204505058 -0.081938345925378783 0 -0.3066986514807607 -0.074546990101646726 0 -0.29568251685582603 -0.071589435967753134 0 -0.3066986514807607 -0.074546990101646726 0 -0.30728911182784302 -0.064893595009923935 0 -0.29931176789370939 -0.061629941742321552 0 -0.29568251685582603 -0.071589435967753134 0 -0.30728911182784302 -0.064893595009923935 0 -0.3066986514807607 -0.074546990101646726 0 -0.30728911182784302 -0.064893595009923935 0 -0.31411021802290889 -0.069356746280106005 0 -0.30728911182784302 -0.064893595009923935 0 -0.31630436981946819 -0.062936971351065629 0 -0.31411021802290889 -0.069356746280106005 0 -0.31630436981946819 -0.062936971351065629 0 -0.31411021802290889 -0.069356746280106005 0 -0.32389808664530562 -0.067702049039115322 0 -0.31630436981946819 -0.062936971351065629 0 -0.32389808664530562 -0.067702049039115322 0 -0.32481687078849097 -0.058022226865728103 0 -0.32389808664530562 -0.067702049039115322 0 -0.3259684841043719 -0.075020057435826168 0 -0.31636087034116728 -0.076704125898778439 0 -0.31411021802290889 -0.069356746280106005 0 -0.32389808664530562 -0.067702049039115322 0 -0.31636087034116728 -0.076704125898778439 0 -0.30832877355579341 -0.086934752854072747 0 -0.32608803180755441 -0.084321365842938284 0 -0.30832877355579341 -0.086934752854072747 0 -0.31968159473222052 -0.091584555267719248 0 -0.32608803180755441 -0.084321365842938284 0 -0.30832877355579341 -0.086934752854072747 0 -0.31636087034116728 -0.076704125898778439 0 -0.32608803180755441 -0.084321365842938284 0 -0.31968159473222052 -0.091584555267719248 0 -0.32608803180755441 -0.084321365842938284 0 -0.3259684841043719 -0.075020057435826168 0 -0.31636087034116728 -0.076704125898778439 0 -0.32608803180755441 -0.084321365842938284 0 -0.31968159473222052 -0.091584555267719248 0 -0.32608803180755441 -0.084321365842938284 0 -0.34030971713070318 -0.087052614945596102 0 -0.32608803180755441 -0.084321365842938284 0 -0.34030971713070318 -0.087052614945596102 0 -0.34745734249292459 -0.081176736816750444 0 -0.32608803180755441 -0.084321365842938284 0 -0.33752694762346008 -0.07135268896247253 0 -0.34745734249292459 -0.081176736816750444 0 -0.32608803180755441 -0.084321365842938284 0 -0.34745734249292459 -0.081176736816750444 0 -0.33752694762346008 -0.07135268896247253 0 -0.3489658634393657 -0.058384012082006782 0 -0.33645864726091979 -0.05858208772264157 0 -0.33752694762346008 -0.07135268896247253 0 -0.3489658634393657 -0.058384012082006782 0 -0.32389808664530562 -0.067702049039115322 0 -0.33752694762346008 -0.07135268896247253 0 -0.33645864726091979 -0.05858208772264157 0 -0.3259684841043719 -0.075020057435826168 0 -0.32608803180755441 -0.084321365842938284 0 -0.33752694762346008 -0.07135268896247253 0 -0.32608803180755441 -0.084321365842938284 0 -0.33752694762346008 -0.07135268896247253 0 -0.32389808664530562 -0.067702049039115322 0 -0.3259684841043719 -0.075020057435826168 0 -0.33752694762346008 -0.07135268896247253 0 -0.32454403747219479 -0.1081839716812668 0 -0.30877835781368662 -0.12931532841693749 0 -0.30761934067920371 -0.1042503242997595 0 -0.32454403747219479 -0.1081839716812668 0 -0.30877835781368662 -0.12931532841693749 0 -0.32454403747219479 -0.1081839716812668 0 -0.33570809008837621 -0.11845594114356341 0 -0.30877835781368662 -0.12931532841693749 0 -0.30761934067920371 -0.1042503242997595 0 -0.31968159473222052 -0.091584555267719248 0 -0.32454403747219479 -0.1081839716812668 0 -0.34030971713070318 -0.087052614945596102 0 -0.32454403747219479 -0.1081839716812668 0 -0.34278855512837281 -0.1049294584887832 0 -0.31968159473222052 -0.091584555267719248 0 -0.34030971713070318 -0.087052614945596102 0 -0.32454403747219479 -0.1081839716812668 0 -0.34030971713070318 -0.087052614945596102 0 -0.32454403747219479 -0.1081839716812668 0 -0.32454403747219479 -0.1081839716812668 0 -0.34278855512837281 -0.1049294584887832 0 -0.33570809008837621 -0.11845594114356341 0 -0.33570809008837621 -0.11845594114356341 0 -0.35404294059136687 -0.1217835462641018 0 -0.33688620478323589 -0.13358080389391511 0 -0.34278855512837281 -0.1049294584887832 0 -0.35404294059136687 -0.1217835462641018 0 -0.35932798989652742 -0.1047455147758234 0 -0.34278855512837281 -0.1049294584887832 0 -0.33570809008837621 -0.11845594114356341 0 -0.35404294059136687 -0.1217835462641018 0 -0.34278855512837281 -0.1049294584887832 0 -0.35932798989652742 -0.1047455147758234 0 -0.35079718399447979 -0.093651592615473511 0 -0.34030971713070318 -0.087052614945596102 0 -0.34278855512837281 -0.1049294584887832 0 -0.35079718399447979 -0.093651592615473511 0 -0.35932798989652742 -0.1047455147758234 0 -0.35079718399447979 -0.093651592615473511 0 -0.36132419909701757 -0.091459041133748031 0 -0.35932798989652742 -0.1047455147758234 0 -0.37367929427193591 -0.1014825750548952 0 -0.37212838853434238 -0.11808059788504249 0 -0.35932798989652742 -0.1047455147758234 0 -0.37367929427193591 -0.1014825750548952 0 -0.36132419909701757 -0.091459041133748031 0 -0.35404294059136687 -0.1217835462641018 0 -0.37212838853434238 -0.11808059788504249 0 -0.37028068739271691 -0.13083580994494901 0 -0.35404294059136687 -0.1217835462641018 0 -0.35932798989652742 -0.1047455147758234 0 -0.37212838853434238 -0.11808059788504249 0 -0.35069420168351129 -0.07223638641294812 0 -0.34745734249292459 -0.081176736816750444 0 -0.36882665317829499 -0.078032107790563188 0 -0.36882665317829499 -0.078032107790563188 0 -0.3489658634393657 -0.058384012082006782 0 -0.35069420168351129 -0.07223638641294812 0 -0.36882665317829499 -0.078032107790563188 0 -0.3489658634393657 -0.058384012082006782 0 -0.33752694762346008 -0.07135268896247253 0 -0.35069420168351129 -0.07223638641294812 0 -0.3489658634393657 -0.058384012082006782 0 -0.33752694762346008 -0.07135268896247253 0 -0.35069420168351129 -0.07223638641294812 0 -0.34745734249292459 -0.081176736816750444 0 -0.34745734249292459 -0.081176736816750444 0 -0.36882665317829499 -0.078032107790563188 0 -0.34745734249292459 -0.081176736816750444 0 -0.36132419909701757 -0.091459041133748031 0 -0.36882665317829499 -0.078032107790563188 0 -0.34030971713070318 -0.087052614945596102 0 -0.34745734249292459 -0.081176736816750444 0 -0.35079718399447979 -0.093651592615473511 0 -0.34745734249292459 -0.081176736816750444 0 -0.35079718399447979 -0.093651592615473511 0 -0.36132419909701757 -0.091459041133748031 0 -0.37367929427193591 -0.1014825750548952 0 -0.36132419909701757 -0.091459041133748031 0 -0.36882665317829499 -0.078032107790563188 0 -0.36882665317829499 -0.078032107790563188 0 -0.36862349457690058 -0.057461967220355487 0 -0.3489658634393657 -0.058384012082006782 0 -0.36882665317829499 -0.078032107790563188 0 -0.36862349457690058 -0.057461967220355487 0 -0.37947166312044489 -0.067272628224985004 0 -0.36862349457690058 -0.057461967220355487 0 -0.3489658634393657 -0.058384012082006782 0 -0.36066681755822472 -0.045118253717945672 0 -0.36862349457690058 -0.057461967220355487 0 -0.37355784227175309 -0.045246792894939887 0 -0.3815482533063424 -0.052412606119804542 0 -0.36862349457690058 -0.057461967220355487 0 -0.36066681755822472 -0.045118253717945672 0 -0.37355784227175309 -0.045246792894939887 0 -0.3489658634393657 -0.058384012082006782 0 -0.36066681755822472 -0.045118253717945672 0 -0.3489658634393657 -0.058384012082006782 0 -0.34511111307690212 -0.046137334811030092 0 -0.36066681755822472 -0.045118253717945672 0 -0.35304062521722218 -0.036039659744318157 0 -0.3553139768507978 -0.023567241021099371 0 -0.33371347875736079 -0.040226824134751989 0 -0.34511111307690212 -0.046137334811030092 0 -0.35304062521722218 -0.036039659744318157 0 -0.33371347875736079 -0.040226824134751989 0 -0.34511111307690212 -0.046137334811030092 0 -0.35304062521722218 -0.036039659744318157 0 -0.36066681755822472 -0.045118253717945672 0 -0.36066681755822472 -0.045118253717945672 0 -0.37236777167708351 -0.031852495353884333 0 -0.35304062521722218 -0.036039659744318157 0 -0.37236777167708351 -0.031852495353884333 0 -0.35304062521722218 -0.036039659744318157 0 -0.36066681755822472 -0.045118253717945672 0 -0.37236777167708351 -0.031852495353884333 0 -0.36066681755822472 -0.045118253717945672 0 -0.37355784227175309 -0.045246792894939887 0 -0.37236777167708351 -0.031852495353884333 0 -0.37236777167708351 -0.031852495353884333 0 -0.3739022591900184 -0.02415390189740213 0 -0.36770044175442279 -0.02036669541201027 0 -0.37236777167708351 -0.031852495353884333 0 -0.36770044175442279 -0.02036669541201027 0 -0.3553139768507978 -0.023567241021099371 0 -0.36770044175442279 -0.02036669541201027 0 -0.35847393927256738 -0.010652033510738681 0 -0.38297625517291389 -0.017448943304264108 0 -0.35304062521722218 -0.036039659744318157 0 -0.37236777167708351 -0.031852495353884333 0 -0.3553139768507978 -0.023567241021099371 0 -0.3739022591900184 -0.02415390189740213 0 -0.36770044175442279 -0.02036669541201027 0 -0.38297625517291389 -0.017448943304264108 0 -0.36770044175442279 -0.02036669541201027 0 -0.35847393927256738 -0.010652033510738681 0 -0.3553139768507978 -0.023567241021099371 0 -0.35847393927256738 -0.010652033510738681 0 -0.38297625517291389 -0.017448943304264108 0 -0.37278444596104371 -0.0079457960458173115 0 -0.35847393927256738 -0.010652033510738681 0 -0.38297625517291389 -0.017448943304264108 0 -0.37474494217865062 -0.0022388935110706832 0 -0.37278444596104371 -0.0079457960458173115 0 -0.36307869926690151 -0.00068504054922277494 0 -0.37278444596104371 -0.0079457960458173115 0 -0.36307869926690151 -0.00068504054922277494 0 -0.35847393927256738 -0.010652033510738681 0 -0.36307869926690151 -0.00068504054922277494 0 -0.34718119132474479 -0.01384164818341615 0 -0.36064890389212972 0.0125435277679194 0 -0.36307869926690151 -0.00068504054922277494 0 -0.35847393927256738 -0.010652033510738681 0 -0.34718119132474479 -0.01384164818341615 0 -0.34718119132474479 -0.01384164818341615 0 -0.36064890389212972 0.0125435277679194 0 -0.34718119132474479 -0.01384164818341615 0 -0.3553139768507978 -0.023567241021099371 0 -0.33371347875736079 -0.040226824134751989 0 -0.35847393927256738 -0.010652033510738681 0 -0.34718119132474479 -0.01384164818341615 0 -0.3553139768507978 -0.023567241021099371 0 -0.34718119132474479 -0.01384164818341615 0 -0.33035884889608558 -0.02420969997450095 0 -0.33371347875736079 -0.040226824134751989 0 -0.34718119132474479 -0.01384164818341615 0 -0.33371347875736079 -0.040226824134751989 0 -0.34718119132474479 -0.01384164818341615 0 -0.32828291010712762 -0.0049346835118845543 0 -0.34055428987364128 0.0059527955302196532 0 -0.34718119132474479 -0.01384164818341615 0 -0.33035884889608558 -0.02420969997450095 0 -0.32828291010712762 -0.0049346835118845543 0 -0.31144738423897378 -0.02126732740536201 0 -0.32828291010712762 -0.0049346835118845543 0 -0.31177688145040278 0.0050359958776742568 0 -0.31144738423897378 -0.02126732740536201 0 -0.33116928005221918 -0.040778016637091109 0 -0.31144738423897378 -0.02126732740536201 0 -0.33035884889608558 -0.02420969997450095 0 -0.32828291010712762 -0.0049346835118845543 0 -0.31144738423897378 -0.02126732740536201 0 -0.33035884889608558 -0.02420969997450095 0 -0.33116928005221918 -0.040778016637091109 0 -0.3023660715744253 -0.047018139519123002 0 -0.31110423911055801 -0.035316851109560482 0 -0.33116928005221918 -0.040778016637091109 0 -0.3023660715744253 -0.047018139519123002 0 -0.31025625293594222 -0.050033124508212908 0 -0.33116928005221918 -0.040778016637091109 0 -0.3023660715744253 -0.047018139519123002 0 -0.33116928005221918 -0.040778016637091109 0 -0.31144738423897378 -0.02126732740536201 0 -0.31110423911055801 -0.035316851109560482 0 -0.33116928005221918 -0.040778016637091109 0 -0.31025625293594222 -0.050033124508212908 0 -0.31770057673851387 -0.05020147555903863 0 -0.33116928005221918 -0.040778016637091109 0 -0.31025625293594222 -0.050033124508212908 0 -0.31770057673851387 -0.05020147555903863 0 -0.31405483352543062 -0.056831087900065053 0 -0.31770057673851387 -0.05020147555903863 0 -0.31405483352543062 -0.056831087900065053 0 -0.31936567051967829 -0.054711673150449433 0 -0.31630436981946819 -0.062936971351065629 0 -0.31936567051967829 -0.054711673150449433 0 -0.32481687078849097 -0.058022226865728103 0 -0.30728911182784302 -0.064893595009923935 0 -0.31630436981946819 -0.062936971351065629 0 -0.31405483352543062 -0.056831087900065053 0 -0.31630436981946819 -0.062936971351065629 0 -0.31405483352543062 -0.056831087900065053 0 -0.31936567051967829 -0.054711673150449433 0 -0.31770057673851387 -0.05020147555903863 0 -0.32448711316898249 -0.050622394842538963 0 -0.33116928005221918 -0.040778016637091109 0 -0.31936567051967829 -0.054711673150449433 0 -0.32481687078849097 -0.058022226865728103 0 -0.32448711316898249 -0.050622394842538963 0 -0.31770057673851387 -0.05020147555903863 0 -0.31936567051967829 -0.054711673150449433 0 -0.32448711316898249 -0.050622394842538963 0 -0.32481687078849097 -0.058022226865728103 0 -0.32770904195502032 -0.053173566283506987 0 -0.32448711316898249 -0.050622394842538963 0 -0.32770904195502032 -0.053173566283506987 0 -0.32448711316898249 -0.050622394842538963 0 -0.32972533979495861 -0.048040159006195682 0 -0.3489658634393657 -0.058384012082006782 0 -0.34511111307690212 -0.046137334811030092 0 -0.3326728772282519 -0.042265511425067279 0 -0.32972533979495861 -0.048040159006195682 0 -0.33645864726091979 -0.05858208772264157 0 -0.3326728772282519 -0.042265511425067279 0 -0.3489658634393657 -0.058384012082006782 0 -0.3326728772282519 -0.042265511425067279 0 -0.32770904195502032 -0.053173566283506987 0 -0.32972533979495861 -0.048040159006195682 0 -0.33645864726091979 -0.05858208772264157 0 -0.3489658634393657 -0.058384012082006782 0 -0.33645864726091979 -0.05858208772264157 0 -0.3326728772282519 -0.042265511425067279 0 -0.32389808664530562 -0.067702049039115322 0 -0.32481687078849097 -0.058022226865728103 0 -0.33645864726091979 -0.05858208772264157 0 -0.32481687078849097 -0.058022226865728103 0 -0.32770904195502032 -0.053173566283506987 0 -0.33645864726091979 -0.05858208772264157 0 -0.34511111307690212 -0.046137334811030092 0 -0.33371347875736079 -0.040226824134751989 0 -0.3326728772282519 -0.042265511425067279 0 -0.33035884889608558 -0.02420969997450095 0 -0.33116928005221918 -0.040778016637091109 0 -0.33371347875736079 -0.040226824134751989 0 -0.35304062521722218 -0.036039659744318157 0 -0.33371347875736079 -0.040226824134751989 0 -0.32448711316898249 -0.050622394842538963 0 -0.32972533979495861 -0.048040159006195682 0 -0.33116928005221918 -0.040778016637091109 0 -0.33116928005221918 -0.040778016637091109 0 -0.3326728772282519 -0.042265511425067279 0 -0.32972533979495861 -0.048040159006195682 0 -0.3326728772282519 -0.042265511425067279 0 -0.32972533979495861 -0.048040159006195682 0 -0.33116928005221918 -0.040778016637091109 0 -0.3326728772282519 -0.042265511425067279 0 -0.33116928005221918 -0.040778016637091109 0 -0.33371347875736079 -0.040226824134751989 0 -0.33116928005221918 -0.040778016637091109 0 -0.33371347875736079 -0.040226824134751989 0 -0.3326728772282519 -0.042265511425067279 0 -0.33371347875736079 -0.040226824134751989 0 -0.3326728772282519 -0.042265511425067279 0 -0.2907170577323625 -0.25177677077710309 0 -0.30853150187083839 -0.25429835417001312 0 -0.30748271917561598 -0.2431056607245809 0 -0.30748271917561598 -0.2431056607245809 0 -0.3004866401015065 -0.2269264896544945 0 -0.32066485276457768 -0.2334308190911655 0 -0.2907170577323625 -0.25177677077710309 0 -0.30748271917561598 -0.2431056607245809 0 -0.3004866401015065 -0.2269264896544945 0 -0.30853150187083839 -0.25429835417001312 0 -0.30748271917561598 -0.2431056607245809 0 -0.32023222063025569 -0.2489608815952247 0 -0.3004866401015065 -0.2269264896544945 0 -0.27575903677895092 -0.22208668823385669 0 -0.3004866401015065 -0.2269264896544945 0 -0.27309361240676189 -0.24179026653703889 0 -0.27575903677895092 -0.22208668823385669 0 -0.3004866401015065 -0.2269264896544945 0 -0.27575903677895092 -0.22208668823385669 0 -0.29482007196541532 -0.2089319155152673 0 -0.2907170577323625 -0.25177677077710309 0 -0.3004866401015065 -0.2269264896544945 0 -0.27309361240676189 -0.24179026653703889 0 -0.27309361240676189 -0.24179026653703889 0 -0.25431856302814809 -0.24833495949118861 0 -0.25103143345639523 -0.21724688681321891 0 -0.27575903677895092 -0.22208668823385669 0 -0.25103143345639523 -0.21724688681321891 0 -0.27309361240676189 -0.24179026653703889 0 -0.27575903677895092 -0.22208668823385669 0 -0.25103143345639523 -0.21724688681321891 0 -0.27575903677895092 -0.22208668823385669 0 -0.25103143345639523 -0.21724688681321891 0 -0.27708552823660842 -0.19790031786117671 0 -0.25103143345639523 -0.21724688681321891 0 -0.25418198431724581 -0.18809916394242601 0 -0.27708552823660842 -0.19790031786117671 0 -0.27708552823660842 -0.19790031786117671 0 -0.29482007196541532 -0.2089319155152673 0 -0.30195969341908391 -0.19078830755985379 0 -0.29482007196541532 -0.2089319155152673 0 -0.30195969341908391 -0.19078830755985379 0 -0.32674672588845421 -0.2120308859258328 0 -0.3004866401015065 -0.2269264896544945 0 -0.29482007196541532 -0.2089319155152673 0 -0.32674672588845421 -0.2120308859258328 0 -0.27575903677895092 -0.22208668823385669 0 -0.27708552823660842 -0.19790031786117671 0 -0.29482007196541532 -0.2089319155152673 0 -0.30195969341908391 -0.19078830755985379 0 -0.30674796742087651 -0.1684647150882764 0 -0.32123008678095788 -0.18729232698745699 0 -0.30674796742087651 -0.1684647150882764 0 -0.2930126781551784 -0.15044668515260809 0 -0.3206808779707625 -0.15110047818677941 0 -0.27724699849667023 -0.17157804188827869 0 -0.2930126781551784 -0.15044668515260809 0 -0.30674796742087651 -0.1684647150882764 0 -0.27724699849667023 -0.17157804188827869 0 -0.2930126781551784 -0.15044668515260809 0 -0.27708552823660842 -0.19790031786117671 0 -0.30195969341908391 -0.19078830755985379 0 -0.27724699849667023 -0.17157804188827869 0 -0.30195969341908391 -0.19078830755985379 0 -0.30674796742087651 -0.1684647150882764 0 -0.27724699849667023 -0.17157804188827869 0 -0.25418198431724581 -0.18809916394242601 0 -0.27708552823660842 -0.19790031786117671 0 -0.27724699849667023 -0.17157804188827869 0 -0.25418198431724581 -0.18809916394242601 0 -0.2565438833259911 -0.1687602707777138 0 -0.27724699849667023 -0.17157804188827869 0 -0.2435592126657353 -0.1561425335328199 0 -0.2565438833259911 -0.1687602707777138 0 -0.26683780591716472 -0.14870377212940841 0 -0.27724699849667023 -0.17157804188827869 0 -0.26683780591716472 -0.14870377212940841 0 -0.2930126781551784 -0.15044668515260809 0 -0.2565438833259911 -0.1687602707777138 0 -0.27724699849667023 -0.17157804188827869 0 -0.26683780591716472 -0.14870377212940841 0 -0.2435592126657353 -0.1561425335328199 0 -0.2432602079730701 -0.13485583854350039 0 -0.26683780591716472 -0.14870377212940841 0 -0.2432602079730701 -0.13485583854350039 0 -0.26490928006600228 -0.12397715003998409 0 -0.26683780591716472 -0.14870377212940841 0 -0.26490928006600228 -0.12397715003998409 0 -0.26683780591716472 -0.14870377212940841 0 -0.28428672055728371 -0.13281235115180859 0 -0.28428672055728371 -0.13281235115180859 0 -0.2930126781551784 -0.15044668515260809 0 -0.30877835781368662 -0.12931532841693749 0 -0.26683780591716472 -0.14870377212940841 0 -0.28428672055728371 -0.13281235115180859 0 -0.2930126781551784 -0.15044668515260809 0 -0.2930126781551784 -0.15044668515260809 0 -0.30877835781368662 -0.12931532841693749 0 -0.3206808779707625 -0.15110047818677941 0 -0.2930126781551784 -0.15044668515260809 0 -0.30877835781368662 -0.12931532841693749 0 -0.33570809008837621 -0.11845594114356341 0 -0.30877835781368662 -0.12931532841693749 0 -0.33688620478323589 -0.13358080389391511 0 -0.30877835781368662 -0.12931532841693749 0 -0.3206808779707625 -0.15110047818677941 0 -0.33688620478323589 -0.13358080389391511 0 -0.3206808779707625 -0.15110047818677941 0 -0.33688620478323589 -0.13358080389391511 0 -0.34399943231138669 -0.15408109000358611 0 -0.33688620478323589 -0.13358080389391511 0 -0.35929992868189681 -0.1386942596847188 0 -0.35404294059136687 -0.1217835462641018 0 -0.33688620478323589 -0.13358080389391511 0 -0.35929992868189681 -0.1386942596847188 0 -0.35404294059136687 -0.1217835462641018 0 -0.35929992868189681 -0.1386942596847188 0 -0.37028068739271691 -0.13083580994494901 0 -0.35929992868189681 -0.1386942596847188 0 -0.37028068739271691 -0.13083580994494901 0 -0.3804539816512269 -0.14482329966991631 0 -0.35929992868189681 -0.1386942596847188 0 -0.3804539816512269 -0.14482329966991631 0 -0.35929992868189681 -0.1386942596847188 0 -0.3655172116091886 -0.15688196674787641 0 -0.3804539816512269 -0.14482329966991631 0 -0.3655172116091886 -0.15688196674787641 0 -0.3804539816512269 -0.14482329966991631 0 -0.3655172116091886 -0.15688196674787641 0 -0.37839901512320262 -0.15996290040625341 0 -0.3804539816512269 -0.14482329966991631 0 -0.33688620478323589 -0.13358080389391511 0 -0.35929992868189681 -0.1386942596847188 0 -0.34399943231138669 -0.15408109000358611 0 -0.35929992868189681 -0.1386942596847188 0 -0.34399943231138669 -0.15408109000358611 0 -0.3655172116091886 -0.15688196674787641 0 -0.34399943231138669 -0.15408109000358611 0 -0.35323542112630057 -0.1671812377988513 0 -0.3655172116091886 -0.15688196674787641 0 -0.3655172116091886 -0.15688196674787641 0 -0.37378547386561772 -0.17392500984250869 0 -0.37839901512320262 -0.15996290040625341 0 -0.35323542112630057 -0.1671812377988513 0 -0.3655172116091886 -0.15688196674787641 0 -0.37378547386561772 -0.17392500984250869 0 -0.37378547386561772 -0.17392500984250869 0 -0.35240556330307887 -0.18479875362473361 0 -0.36895563931783232 -0.19259611207654981 0 -0.35323542112630057 -0.1671812377988513 0 -0.37378547386561772 -0.17392500984250869 0 -0.35240556330307887 -0.18479875362473361 0 -0.35323542112630057 -0.1671812377988513 0 -0.35240556330307887 -0.18479875362473361 0 -0.33400288196205857 -0.17193246321376471 0 -0.35240556330307887 -0.18479875362473361 0 -0.33400288196205857 -0.17193246321376471 0 -0.33669316521431608 -0.19324526314955739 0 -0.33400288196205857 -0.17193246321376471 0 -0.32123008678095788 -0.18729232698745699 0 -0.33669316521431608 -0.19324526314955739 0 -0.3206808779707625 -0.15110047818677941 0 -0.34399943231138669 -0.15408109000358611 0 -0.33400288196205857 -0.17193246321376471 0 -0.34399943231138669 -0.15408109000358611 0 -0.35323542112630057 -0.1671812377988513 0 -0.33400288196205857 -0.17193246321376471 0 -0.30674796742087651 -0.1684647150882764 0 -0.3206808779707625 -0.15110047818677941 0 -0.33400288196205857 -0.17193246321376471 0 -0.30674796742087651 -0.1684647150882764 0 -0.33400288196205857 -0.17193246321376471 0 -0.32123008678095788 -0.18729232698745699 0 -0.30195969341908391 -0.19078830755985379 0 -0.32123008678095788 -0.18729232698745699 0 -0.32674672588845421 -0.2120308859258328 0 -0.32674672588845421 -0.2120308859258328 0 -0.35024140450074381 -0.20994798342056251 0 -0.32674672588845421 -0.2120308859258328 0 -0.33669316521431608 -0.19324526314955739 0 -0.35024140450074381 -0.20994798342056251 0 -0.32674672588845421 -0.2120308859258328 0 -0.35024140450074381 -0.20994798342056251 0 -0.3377174746324717 -0.2284461722996495 0 -0.32123008678095788 -0.18729232698745699 0 -0.32674672588845421 -0.2120308859258328 0 -0.33669316521431608 -0.19324526314955739 0 -0.35240556330307887 -0.18479875362473361 0 -0.36895563931783232 -0.19259611207654981 0 -0.35024140450074381 -0.20994798342056251 0 -0.35240556330307887 -0.18479875362473361 0 -0.33669316521431608 -0.19324526314955739 0 -0.35024140450074381 -0.20994798342056251 0 -0.36895563931783232 -0.19259611207654981 0 -0.37373608311303341 -0.20786508091529229 0 -0.35024140450074381 -0.20994798342056251 0 -0.37373608311303341 -0.20786508091529229 0 -0.35024140450074381 -0.20994798342056251 0 -0.37373608311303341 -0.20786508091529229 0 -0.35024140450074381 -0.20994798342056251 0 -0.36602803805366552 -0.21914337572849349 0 -0.37373608311303341 -0.20786508091529229 0 -0.36602803805366552 -0.21914337572849349 0 -0.37785639846487218 -0.21906994256996459 0 -0.35024140450074381 -0.20994798342056251 0 -0.357966965356528 -0.23170644806675769 0 -0.3377174746324717 -0.2284461722996495 0 -0.35024140450074381 -0.20994798342056251 0 -0.357966965356528 -0.23170644806675769 0 -0.36602803805366552 -0.21914337572849349 0 -0.357966965356528 -0.23170644806675769 0 -0.36602803805366552 -0.21914337572849349 0 -0.36983275924353248 -0.22875232439276311 0 -0.36602803805366552 -0.21914337572849349 0 -0.36983275924353248 -0.22875232439276311 0 -0.37785639846487218 -0.21906994256996459 0 -0.357966965356528 -0.23170644806675769 0 -0.36983275924353248 -0.22875232439276311 0 -0.37747963509906429 -0.24508953120583671 0 -0.35872453044413888 -0.25078889886649508 0 -0.357966965356528 -0.23170644806675769 0 -0.37747963509906429 -0.24508953120583671 0 -0.357966965356528 -0.23170644806675769 0 -0.34395992200845399 -0.24382677409400949 0 -0.3377174746324717 -0.2284461722996495 0 -0.35872453044413888 -0.25078889886649508 0 -0.357966965356528 -0.23170644806675769 0 -0.34395992200845399 -0.24382677409400949 0 -0.33345250408021371 -0.25331871279766999 0 -0.34395992200845399 -0.24382677409400949 0 -0.33132333615916232 -0.2411148243472106 0 -0.33345250408021371 -0.25331871279766999 0 -0.33132333615916232 -0.2411148243472106 0 -0.32023222063025569 -0.2489608815952247 0 -0.34395992200845399 -0.24382677409400949 0 -0.33132333615916232 -0.2411148243472106 0 -0.3377174746324717 -0.2284461722996495 0 -0.32674672588845421 -0.2120308859258328 0 -0.3377174746324717 -0.2284461722996495 0 -0.32066485276457768 -0.2334308190911655 0 -0.33132333615916232 -0.2411148243472106 0 -0.3377174746324717 -0.2284461722996495 0 -0.32066485276457768 -0.2334308190911655 0 -0.3004866401015065 -0.2269264896544945 0 -0.32674672588845421 -0.2120308859258328 0 -0.32066485276457768 -0.2334308190911655 0 -0.30748271917561598 -0.2431056607245809 0 -0.32066485276457768 -0.2334308190911655 0 -0.32023222063025569 -0.2489608815952247 0 -0.33132333615916232 -0.2411148243472106 0 -0.32066485276457768 -0.2334308190911655 0 -0.32023222063025569 -0.2489608815952247 0 -0.43445882011373449 -0.25478651907497341 0 -0.43806130733353449 -0.23541812032183559 0 -0.43445882011373449 -0.25478651907497341 0 -0.4258852610480256 -0.24284815888716721 0 -0.43806130733353449 -0.23541812032183559 0 -0.4258852610480256 -0.24284815888716721 0 -0.42538833238501789 -0.2333934851751748 0 -0.41698539980062188 -0.23875950084572559 0 -0.43445882011373449 -0.25478651907497341 0 -0.4258852610480256 -0.24284815888716721 0 -0.42335340856967768 -0.24893549408922019 0 -0.4258852610480256 -0.24284815888716721 0 -0.42538833238501789 -0.2333934851751748 0 -0.43806130733353449 -0.23541812032183559 0 -0.43091611572645672 -0.22699763907763329 0 -0.42538833238501789 -0.2333934851751748 0 -0.43806130733353449 -0.23541812032183559 0 -0.43091611572645672 -0.22699763907763329 0 -0.44166379455333399 -0.21604972156869759 0 -0.43806130733353449 -0.23541812032183559 0 -0.43091611572645672 -0.22699763907763329 0 -0.43133498143110582 -0.21921018883561361 0 -0.44166379455333399 -0.21604972156869759 0 -0.43133498143110582 -0.21921018883561361 0 -0.4232485836513401 -0.22477446532261011 0 -0.4232102070061276 -0.21869015764887889 0 -0.43091611572645672 -0.22699763907763329 0 -0.43133498143110582 -0.21921018883561361 0 -0.4232485836513401 -0.22477446532261011 0 -0.43091611572645672 -0.22699763907763329 0 -0.4232485836513401 -0.22477446532261011 0 -0.42538833238501789 -0.2333934851751748 0 -0.4232485836513401 -0.22477446532261011 0 -0.42538833238501789 -0.2333934851751748 0 -0.41731365953457839 -0.2310953018814938 0 -0.4232485836513401 -0.22477446532261011 0 -0.41731365953457839 -0.2310953018814938 0 -0.4121948509493269 -0.2247325638453028 0 -0.41731365953457839 -0.2310953018814938 0 -0.4080561583250083 -0.23272886934204159 0 -0.41698539980062188 -0.23875950084572559 0 -0.4232485836513401 -0.22477446532261011 0 -0.4121948509493269 -0.2247325638453028 0 -0.41685681033243982 -0.21746512418924929 0 -0.4232485836513401 -0.22477446532261011 0 -0.41685681033243982 -0.21746512418924929 0 -0.4232102070061276 -0.21869015764887889 0 -0.4121948509493269 -0.2247325638453028 0 -0.4080561583250083 -0.23272886934204159 0 -0.39971520205611372 -0.2221352637332015 0 -0.4121948509493269 -0.2247325638453028 0 -0.40807454407470489 -0.21592977391801271 0 -0.41685681033243982 -0.21746512418924929 0 -0.4121948509493269 -0.2247325638453028 0 -0.39971520205611372 -0.2221352637332015 0 -0.40807454407470489 -0.21592977391801271 0 -0.41731365953457839 -0.2310953018814938 0 -0.4121948509493269 -0.2247325638453028 0 -0.4080561583250083 -0.23272886934204159 0 -0.4080561583250083 -0.23272886934204159 0 -0.40983148527785651 -0.24118391776602099 0 -0.41698539980062188 -0.23875950084572559 0 -0.42538833238501789 -0.2333934851751748 0 -0.41731365953457839 -0.2310953018814938 0 -0.41698539980062188 -0.23875950084572559 0 -0.40983148527785651 -0.24118391776602099 0 -0.41698539980062188 -0.23875950084572559 0 -0.41627810448972868 -0.24641300060905449 0 -0.4258852610480256 -0.24284815888716721 0 -0.42335340856967768 -0.24893549408922019 0 -0.41627810448972868 -0.24641300060905449 0 -0.4258852610480256 -0.24284815888716721 0 -0.41698539980062188 -0.23875950084572559 0 -0.41627810448972868 -0.24641300060905449 0 -0.41679144862722167 -0.25169429778568547 0 -0.42335340856967768 -0.24893549408922019 0 -0.41627810448972868 -0.24641300060905449 0 -0.41385673751816382 -0.25312989710486528 0 -0.41627810448972868 -0.24641300060905449 0 -0.4086566941719203 -0.24778871483445111 0 -0.40983148527785651 -0.24118391776602099 0 -0.41627810448972868 -0.24641300060905449 0 -0.4086566941719203 -0.24778871483445111 0 -0.40282532782868952 -0.25224285689579767 0 -0.4086566941719203 -0.24778871483445111 0 -0.40022281387448849 -0.24084313907701979 0 -0.40983148527785651 -0.24118391776602099 0 -0.4086566941719203 -0.24778871483445111 0 -0.40022281387448849 -0.24084313907701979 0 -0.4080561583250083 -0.23272886934204159 0 -0.40983148527785651 -0.24118391776602099 0 -0.40022281387448849 -0.24084313907701979 0 -0.40022281387448849 -0.24084313907701979 0 -0.3903832871219331 -0.2411545733314838 0 -0.38772777019650018 -0.2315142496456449 0 -0.3938256931015453 -0.25037754026629511 0 -0.40022281387448849 -0.24084313907701979 0 -0.3903832871219331 -0.2411545733314838 0 -0.3938256931015453 -0.25037754026629511 0 -0.3903832871219331 -0.2411545733314838 0 -0.37747963509906429 -0.24508953120583671 0 -0.3903832871219331 -0.2411545733314838 0 -0.37747963509906429 -0.24508953120583671 0 -0.38772777019650018 -0.2315142496456449 0 -0.37747963509906429 -0.24508953120583671 0 -0.37785639846487218 -0.21906994256996459 0 -0.37747963509906429 -0.24508953120583671 0 -0.37785639846487218 -0.21906994256996459 0 -0.38772777019650018 -0.2315142496456449 0 -0.36983275924353248 -0.22875232439276311 0 -0.37747963509906429 -0.24508953120583671 0 -0.37785639846487218 -0.21906994256996459 0 -0.37785639846487218 -0.21906994256996459 0 -0.38772777019650018 -0.2315142496456449 0 -0.38790285805175961 -0.2167146319195192 0 -0.4080561583250083 -0.23272886934204159 0 -0.40022281387448849 -0.24084313907701979 0 -0.39971520205611372 -0.2221352637332015 0 -0.40022281387448849 -0.24084313907701979 0 -0.39971520205611372 -0.2221352637332015 0 -0.38772777019650018 -0.2315142496456449 0 -0.39971520205611372 -0.2221352637332015 0 -0.38790285805175961 -0.2167146319195192 0 -0.40022281387448849 -0.24084313907701979 0 -0.38772777019650018 -0.2315142496456449 0 -0.39971520205611372 -0.2221352637332015 0 -0.39971520205611372 -0.2221352637332015 0 -0.39723076172532301 -0.205782178410022 0 -0.40807454407470489 -0.21592977391801271 0 -0.39971520205611372 -0.2221352637332015 0 -0.39723076172532301 -0.205782178410022 0 -0.38790285805175961 -0.2167146319195192 0 -0.39723076172532301 -0.205782178410022 0 -0.41303892827123678 -0.21093405469715851 0 -0.40807454407470489 -0.21592977391801271 0 -0.37373608311303341 -0.20786508091529229 0 -0.39723076172532301 -0.205782178410022 0 -0.38370630256805799 -0.1971119561512929 0 -0.37373608311303341 -0.20786508091529229 0 -0.39723076172532301 -0.205782178410022 0 -0.38790285805175961 -0.2167146319195192 0 -0.37373608311303341 -0.20786508091529229 0 -0.39723076172532301 -0.205782178410022 0 -0.37373608311303341 -0.20786508091529229 0 -0.37785639846487218 -0.21906994256996459 0 -0.38790285805175961 -0.2167146319195192 0 -0.36895563931783232 -0.19259611207654981 0 -0.38370630256805799 -0.1971119561512929 0 -0.3831693110633177 -0.1873742460103984 0 -0.36895563931783232 -0.19259611207654981 0 -0.37373608311303341 -0.20786508091529229 0 -0.38370630256805799 -0.1971119561512929 0 -0.38370630256805799 -0.1971119561512929 0 -0.39543971762078378 -0.19194216334420211 0 -0.3831693110633177 -0.1873742460103984 0 -0.39723076172532301 -0.205782178410022 0 -0.38370630256805799 -0.1971119561512929 0 -0.39543971762078378 -0.19194216334420211 0 -0.39723076172532301 -0.205782178410022 0 -0.39543971762078378 -0.19194216334420211 0 -0.40534117689708921 -0.19634387975323889 0 -0.39543971762078378 -0.19194216334420211 0 -0.40534117689708921 -0.19634387975323889 0 -0.40730162077548249 -0.18407395049314179 0 -0.39723076172532301 -0.205782178410022 0 -0.40534117689708921 -0.19634387975323889 0 -0.42072544033761272 -0.20369927590475301 0 -0.42032122747045741 -0.1927313373696285 0 -0.42072544033761272 -0.20369927590475301 0 -0.40730162077548249 -0.18407395049314179 0 -0.42072544033761272 -0.20369927590475301 0 -0.40730162077548249 -0.18407395049314179 0 -0.40534117689708921 -0.19634387975323889 0 -0.42072544033761272 -0.20369927590475301 0 -0.40730162077548249 -0.18407395049314179 0 -0.39723076172532301 -0.205782178410022 0 -0.41303892827123678 -0.21093405469715851 0 -0.42072544033761272 -0.20369927590475301 0 -0.39723076172532301 -0.205782178410022 0 -0.42072544033761272 -0.20369927590475301 0 -0.41303892827123678 -0.21093405469715851 0 -0.40807454407470489 -0.21592977391801271 0 -0.41685681033243982 -0.21746512418924929 0 -0.41303892827123678 -0.21093405469715851 0 -0.41685681033243982 -0.21746512418924929 0 -0.42140045260962489 -0.21331085224804261 0 -0.41685681033243982 -0.21746512418924929 0 -0.42140045260962489 -0.21331085224804261 0 -0.4232102070061276 -0.21869015764887889 0 -0.41303892827123678 -0.21093405469715851 0 -0.42140045260962489 -0.21331085224804261 0 -0.42072544033761272 -0.20369927590475301 0 -0.42512182626149492 -0.2033095177213731 0 -0.43378961613155448 -0.20908682079381441 0 -0.44184138868315109 -0.20247798044170351 0 -0.42072544033761272 -0.20369927590475301 0 -0.42512182626149492 -0.2033095177213731 0 -0.43133498143110582 -0.21921018883561361 0 -0.42072544033761272 -0.20369927590475301 0 -0.42512182626149492 -0.2033095177213731 0 -0.43133498143110582 -0.21921018883561361 0 -0.42512182626149492 -0.2033095177213731 0 -0.43378961613155448 -0.20908682079381441 0 -0.43133498143110582 -0.21921018883561361 0 -0.42140045260962489 -0.21331085224804261 0 -0.4232102070061276 -0.21869015764887889 0 -0.43133498143110582 -0.21921018883561361 0 -0.42072544033761272 -0.20369927590475301 0 -0.43133498143110582 -0.21921018883561361 0 -0.42140045260962489 -0.21331085224804261 0 -0.42072544033761272 -0.20369927590475301 0 -0.43133498143110582 -0.21921018883561361 0 -0.43378961613155448 -0.20908682079381441 0 -0.44166379455333399 -0.21604972156869759 0 -0.42032122747045741 -0.1927313373696285 0 -0.44184138868315109 -0.20247798044170351 0 -0.42032122747045741 -0.1927313373696285 0 -0.43099962817645188 -0.18319011649723049 0 -0.43833565968517207 -0.19112957676178299 0 -0.42032122747045741 -0.1927313373696285 0 -0.42512182626149492 -0.2033095177213731 0 -0.44184138868315109 -0.20247798044170351 0 -0.42032122747045741 -0.1927313373696285 0 -0.43833565968517207 -0.19112957676178299 0 -0.44184138868315109 -0.20247798044170351 0 -0.42032122747045741 -0.1927313373696285 0 -0.42072544033761272 -0.20369927590475301 0 -0.42512182626149492 -0.2033095177213731 0 -0.42549584187692119 -0.17333418479170171 0 -0.43099962817645188 -0.18319011649723049 0 -0.41834400919125792 -0.18158621355319651 0 -0.42032122747045741 -0.1927313373696285 0 -0.43099962817645188 -0.18319011649723049 0 -0.41834400919125792 -0.18158621355319651 0 -0.43099962817645188 -0.18319011649723049 0 -0.43495901877196291 -0.17485617288990979 0 -0.44455133712372419 -0.18300714728765441 0 -0.42549584187692119 -0.17333418479170171 0 -0.43099962817645188 -0.18319011649723049 0 -0.43495901877196291 -0.17485617288990979 0 -0.42549584187692119 -0.17333418479170171 0 -0.43495901877196291 -0.17485617288990979 0 -0.43155613508544272 -0.1669321437644439 0 -0.43495901877196291 -0.17485617288990979 0 -0.43155613508544272 -0.1669321437644439 0 -0.44219215159727421 -0.16781727210851849 0 -0.43155613508544272 -0.1669321437644439 0 -0.43166640735559808 -0.1552039120346444 0 -0.44219215159727421 -0.16781727210851849 0 -0.43155613508544272 -0.1669321437644439 0 -0.4214232379976206 -0.16216052115063159 0 -0.43166640735559808 -0.1552039120346444 0 -0.42549584187692119 -0.17333418479170171 0 -0.43155613508544272 -0.1669321437644439 0 -0.4214232379976206 -0.16216052115063159 0 -0.42549584187692119 -0.17333418479170171 0 -0.4214232379976206 -0.16216052115063159 0 -0.41110577652129249 -0.1670682470007229 0 -0.4214232379976206 -0.16216052115063159 0 -0.41110577652129249 -0.1670682470007229 0 -0.40669002996807779 -0.1495058137550834 0 -0.41110577652129249 -0.1670682470007229 0 -0.41834400919125792 -0.18158621355319651 0 -0.40730162077548249 -0.18407395049314179 0 -0.42549584187692119 -0.17333418479170171 0 -0.41110577652129249 -0.1670682470007229 0 -0.41834400919125792 -0.18158621355319651 0 -0.42032122747045741 -0.1927313373696285 0 -0.41834400919125792 -0.18158621355319651 0 -0.40730162077548249 -0.18407395049314179 0 -0.39543971762078378 -0.19194216334420211 0 -0.40730162077548249 -0.18407395049314179 0 -0.39267839793348491 -0.17927693187167279 0 -0.40730162077548249 -0.18407395049314179 0 -0.39267839793348491 -0.17927693187167279 0 -0.39387780121335469 -0.16444862508152899 0 -0.40730162077548249 -0.18407395049314179 0 -0.39387780121335469 -0.16444862508152899 0 -0.37378547386561772 -0.17392500984250869 0 -0.36895563931783232 -0.19259611207654981 0 -0.3831693110633177 -0.1873742460103984 0 -0.37378547386561772 -0.17392500984250869 0 -0.39267839793348491 -0.17927693187167279 0 -0.3831693110633177 -0.1873742460103984 0 -0.37378547386561772 -0.17392500984250869 0 -0.39267839793348491 -0.17927693187167279 0 -0.39387780121335469 -0.16444862508152899 0 -0.39543971762078378 -0.19194216334420211 0 -0.39267839793348491 -0.17927693187167279 0 -0.3831693110633177 -0.1873742460103984 0 -0.37378547386561772 -0.17392500984250869 0 -0.37839901512320262 -0.15996290040625341 0 -0.39387780121335469 -0.16444862508152899 0 -0.37839901512320262 -0.15996290040625341 0 -0.39387780121335469 -0.16444862508152899 0 -0.3804539816512269 -0.14482329966991631 0 -0.41110577652129249 -0.1670682470007229 0 -0.39387780121335469 -0.16444862508152899 0 -0.40669002996807779 -0.1495058137550834 0 -0.41110577652129249 -0.1670682470007229 0 -0.40730162077548249 -0.18407395049314179 0 -0.39387780121335469 -0.16444862508152899 0 -0.39387780121335469 -0.16444862508152899 0 -0.3804539816512269 -0.14482329966991631 0 -0.40669002996807779 -0.1495058137550834 0 -0.3804539816512269 -0.14482329966991631 0 -0.39647179587780151 -0.13189450107720049 0 -0.40669002996807779 -0.1495058137550834 0 -0.3804539816512269 -0.14482329966991631 0 -0.40669002996807779 -0.1495058137550834 0 -0.39387780121335469 -0.16444862508152899 0 -0.3804539816512269 -0.14482329966991631 0 -0.3804539816512269 -0.14482329966991631 0 -0.38278168804071749 -0.12940228238898679 0 -0.39647179587780151 -0.13189450107720049 0 -0.3804539816512269 -0.14482329966991631 0 -0.39647179587780151 -0.13189450107720049 0 -0.37212838853434238 -0.11808059788504249 0 -0.37028068739271691 -0.13083580994494901 0 -0.38278168804071749 -0.12940228238898679 0 -0.37028068739271691 -0.13083580994494901 0 -0.3804539816512269 -0.14482329966991631 0 -0.38278168804071749 -0.12940228238898679 0 -0.38278168804071749 -0.12940228238898679 0 -0.39647179587780151 -0.13189450107720049 0 -0.39044023874876249 -0.11757149150947201 0 -0.39647179587780151 -0.13189450107720049 0 -0.40828286160401828 -0.1310364195873514 0 -0.40669002996807779 -0.1495058137550834 0 -0.39647179587780151 -0.13189450107720049 0 -0.40828286160401828 -0.1310364195873514 0 -0.41122993917504558 -0.1199812866788818 0 -0.39647179587780151 -0.13189450107720049 0 -0.41122993917504558 -0.1199812866788818 0 -0.40828286160401828 -0.1310364195873514 0 -0.41930562378398423 -0.12797048681614909 0 -0.41122993917504558 -0.1199812866788818 0 -0.41930562378398423 -0.12797048681614909 0 -0.41533589961201212 -0.13938201891822019 0 -0.4273858072007774 -0.14414008567558009 0 -0.40828286160401828 -0.1310364195873514 0 -0.41533589961201212 -0.13938201891822019 0 -0.40669002996807779 -0.1495058137550834 0 -0.40828286160401828 -0.1310364195873514 0 -0.41930562378398423 -0.12797048681614909 0 -0.41533589961201212 -0.13938201891822019 0 -0.40669002996807779 -0.1495058137550834 0 -0.43166640735559808 -0.1552039120346444 0 -0.4214232379976206 -0.16216052115063159 0 -0.40669002996807779 -0.1495058137550834 0 -0.43166640735559808 -0.1552039120346444 0 -0.41533589961201212 -0.13938201891822019 0 -0.40669002996807779 -0.1495058137550834 0 -0.4273858072007774 -0.14414008567558009 0 -0.40669002996807779 -0.1495058137550834 0 -0.4273858072007774 -0.14414008567558009 0 -0.43166640735559808 -0.1552039120346444 0 -0.43166640735559808 -0.1552039120346444 0 -0.43525592456887258 -0.14374997194848471 0 -0.44410307239699631 -0.15282998285397989 0 -0.4273858072007774 -0.14414008567558009 0 -0.43166640735559808 -0.1552039120346444 0 -0.43525592456887258 -0.14374997194848471 0 -0.41930562378398423 -0.12797048681614909 0 -0.43525592456887258 -0.14374997194848471 0 -0.41930562378398423 -0.12797048681614909 0 -0.4273858072007774 -0.14414008567558009 0 -0.43525592456887258 -0.14374997194848471 0 -0.41930562378398423 -0.12797048681614909 0 -0.4273858072007774 -0.14414008567558009 0 -0.41930562378398423 -0.12797048681614909 0 -0.43525592456887258 -0.14374997194848471 0 -0.43389101300267191 -0.13422730327376839 0 -0.41930562378398423 -0.12797048681614909 0 -0.43389101300267191 -0.13422730327376839 0 -0.4149348530849476 -0.1169905694289516 0 -0.43389101300267191 -0.13422730327376839 0 -0.4149348530849476 -0.1169905694289516 0 -0.43389101300267191 -0.13422730327376839 0 -0.43160182387889101 -0.1187955019330571 0 -0.44085253015216358 -0.1237950587173612 0 -0.43389101300267191 -0.13422730327376839 0 -0.44872577578551592 -0.13320174295465559 0 -0.452847172920396 -0.1514640371185853 0 -0.44872577578551592 -0.13320174295465559 0 -0.45896755277767909 -0.12575633132281341 0 -0.45000974795797011 -0.119430952696417 0 -0.44872577578551592 -0.13320174295465559 0 -0.45000974795797011 -0.119430952696417 0 -0.44085253015216358 -0.1237950587173612 0 -0.43389101300267191 -0.13422730327376839 0 -0.44872577578551592 -0.13320174295465559 0 -0.44085253015216358 -0.1237950587173612 0 -0.43525592456887258 -0.14374997194848471 0 -0.43389101300267191 -0.13422730327376839 0 -0.452847172920396 -0.1514640371185853 0 -0.43525592456887258 -0.14374997194848471 0 -0.44410307239699631 -0.15282998285397989 0 -0.452847172920396 -0.1514640371185853 0 -0.44872577578551592 -0.13320174295465559 0 -0.452847172920396 -0.1514640371185853 0 -0.456386085566235 -0.14096643446963419 0 -0.43389101300267191 -0.13422730327376839 0 -0.452847172920396 -0.1514640371185853 0 -0.44410307239699631 -0.15282998285397989 0 -0.452847172920396 -0.1514640371185853 0 -0.45664278474311831 -0.16090201031420531 0 -0.452847172920396 -0.1514640371185853 0 -0.456386085566235 -0.14096643446963419 0 -0.46738274896045578 -0.15003021006820461 0 -0.452847172920396 -0.1514640371185853 0 -0.46738274896045578 -0.15003021006820461 0 -0.45664278474311831 -0.16090201031420531 0 -0.456386085566235 -0.14096643446963419 0 -0.46738274896045578 -0.15003021006820461 0 -0.47200539146090159 -0.13839174763128981 0 -0.456386085566235 -0.14096643446963419 0 -0.47200539146090159 -0.13839174763128981 0 -0.47750202174635031 -0.1215216316744509 0 -0.456386085566235 -0.14096643446963419 0 -0.45896755277767909 -0.12575633132281341 0 -0.47750202174635031 -0.1215216316744509 0 -0.456386085566235 -0.14096643446963419 0 -0.47750202174635031 -0.1215216316744509 0 -0.44872577578551592 -0.13320174295465559 0 -0.456386085566235 -0.14096643446963419 0 -0.45896755277767909 -0.12575633132281341 0 -0.47200539146090159 -0.13839174763128981 0 -0.48675070957056549 -0.14104871431286931 0 -0.47750202174635031 -0.1215216316744509 0 -0.50000000000000011 -0.12648838757554831 0 -0.48675070957056549 -0.14104871431286931 0 -0.5 -0.15043640832747529 0 -0.50000000000000011 -0.12648838757554831 0 -0.48675070957056549 -0.14104871431286931 0 -0.47750202174635031 -0.1215216316744509 0 -0.48675070957056549 -0.14104871431286931 0 -0.5 -0.15043640832747529 0 -0.48062174440056549 -0.15969986187448909 0 -0.46738274896045578 -0.15003021006820461 0 -0.47200539146090159 -0.13839174763128981 0 -0.48675070957056549 -0.14104871431286931 0 -0.48675070957056549 -0.14104871431286931 0 -0.48062174440056549 -0.15969986187448909 0 -0.46738274896045578 -0.15003021006820461 0 -0.48675070957056549 -0.14104871431286931 0 -0.48062174440056549 -0.15969986187448909 0 -0.48062174440056549 -0.15969986187448909 0 -0.46548313673471758 -0.16971310035941381 0 -0.46753260370971428 -0.1600862956540782 0 -0.46738274896045578 -0.15003021006820461 0 -0.48062174440056549 -0.15969986187448909 0 -0.46753260370971428 -0.1600862956540782 0 -0.48062174440056549 -0.15969986187448909 0 -0.47449277923056221 -0.17835100943610771 0 -0.46548313673471758 -0.16971310035941381 0 -0.48062174440056549 -0.15969986187448909 0 -0.47449277923056221 -0.17835100943610771 0 -0.5 -0.15043640832747529 0 -0.48062174440056549 -0.15969986187448909 0 -0.49999999999999828 -0.17438442907940241 0 -0.48062174440056549 -0.15969986187448909 0 -0.49999999999999828 -0.17438442907940241 0 -0.47449277923056221 -0.17835100943610771 0 -0.49999999999999828 -0.17438442907940241 0 -0.47449277923056221 -0.17835100943610771 0 -0.49999999999999828 -0.17438442907940241 0 -0.47449277923056221 -0.17835100943610771 0 -0.48549376880548989 -0.19132810400505559 0 -0.47449277923056221 -0.17835100943610771 0 -0.46892716456320649 -0.19528781647494389 0 -0.47449277923056221 -0.17835100943610771 0 -0.45952205817714309 -0.18067907836188021 0 -0.46892716456320649 -0.19528781647494389 0 -0.45952205817714309 -0.18067907836188021 0 -0.46548313673471758 -0.16971310035941381 0 -0.45289664290439807 -0.17180374819378549 0 -0.47449277923056221 -0.17835100943610771 0 -0.45952205817714309 -0.18067907836188021 0 -0.47449277923056221 -0.17835100943610771 0 -0.45952205817714309 -0.18067907836188021 0 -0.46548313673471758 -0.16971310035941381 0 -0.46548313673471758 -0.16971310035941381 0 -0.46753260370971428 -0.1600862956540782 0 -0.45664278474311831 -0.16090201031420531 0 -0.46738274896045578 -0.15003021006820461 0 -0.46753260370971428 -0.1600862956540782 0 -0.45664278474311831 -0.16090201031420531 0 -0.46548313673471758 -0.16971310035941381 0 -0.45664278474311831 -0.16090201031420531 0 -0.45289664290439807 -0.17180374819378549 0 -0.45664278474311831 -0.16090201031420531 0 -0.45289664290439807 -0.17180374819378549 0 -0.44219215159727421 -0.16781727210851849 0 -0.43166640735559808 -0.1552039120346444 0 -0.45664278474311831 -0.16090201031420531 0 -0.44219215159727421 -0.16781727210851849 0 -0.43166640735559808 -0.1552039120346444 0 -0.45664278474311831 -0.16090201031420531 0 -0.43166640735559808 -0.1552039120346444 0 -0.44410307239699631 -0.15282998285397989 0 -0.45664278474311831 -0.16090201031420531 0 -0.43495901877196291 -0.17485617288990979 0 -0.44219215159727421 -0.16781727210851849 0 -0.44455133712372419 -0.18300714728765441 0 -0.43099962817645188 -0.18319011649723049 0 -0.44455133712372419 -0.18300714728765441 0 -0.43833565968517207 -0.19112957676178299 0 -0.45952205817714309 -0.18067907836188021 0 -0.44455133712372419 -0.18300714728765441 0 -0.45396471697207569 -0.194241302212698 0 -0.45952205817714309 -0.18067907836188021 0 -0.44455133712372419 -0.18300714728765441 0 -0.45952205817714309 -0.18067907836188021 0 -0.45289664290439807 -0.17180374819378549 0 -0.44455133712372419 -0.18300714728765441 0 -0.45289664290439807 -0.17180374819378549 0 -0.44219215159727421 -0.16781727210851849 0 -0.44455133712372419 -0.18300714728765441 0 -0.44455133712372419 -0.18300714728765441 0 -0.43833565968517207 -0.19112957676178299 0 -0.45396471697207569 -0.194241302212698 0 -0.43833565968517207 -0.19112957676178299 0 -0.44184138868315109 -0.20247798044170351 0 -0.45396471697207569 -0.194241302212698 0 -0.44184138868315109 -0.20247798044170351 0 -0.46336154989584488 -0.2122246235137781 0 -0.45396471697207569 -0.194241302212698 0 -0.44184138868315109 -0.20247798044170351 0 -0.46336154989584488 -0.2122246235137781 0 -0.45338394269579491 -0.2190794284651259 0 -0.43378961613155448 -0.20908682079381441 0 -0.44184138868315109 -0.20247798044170351 0 -0.44166379455333399 -0.21604972156869759 0 -0.44184138868315109 -0.20247798044170351 0 -0.44166379455333399 -0.21604972156869759 0 -0.45338394269579491 -0.2190794284651259 0 -0.44184138868315109 -0.20247798044170351 0 -0.46336154989584488 -0.2122246235137781 0 -0.46336154989584488 -0.2122246235137781 0 -0.46892716456320649 -0.19528781647494389 0 -0.46336154989584488 -0.2122246235137781 0 -0.45396471697207569 -0.194241302212698 0 -0.46892716456320649 -0.19528781647494389 0 -0.45952205817714309 -0.18067907836188021 0 -0.45396471697207569 -0.194241302212698 0 -0.46892716456320649 -0.19528781647494389 0 -0.47449277923056221 -0.17835100943610771 0 -0.46892716456320649 -0.19528781647494389 0 -0.48549376880548989 -0.19132810400505559 0 -0.46892716456320649 -0.19528781647494389 0 -0.48549376880548989 -0.19132810400505559 0 -0.47978640147694102 -0.20418872613165631 0 -0.5 -0.20182215567114031 0 -0.48549376880548989 -0.19132810400505559 0 -0.47978640147694102 -0.20418872613165631 0 -0.49999999999999828 -0.17438442907940241 0 -0.5 -0.20182215567114031 0 -0.48549376880548989 -0.19132810400505559 0 -0.5 -0.20182215567114031 0 -0.48114952412016337 -0.22028093099336349 0 -0.49893749834448198 -0.22833723847294871 0 -0.5 -0.20182215567114031 0 -0.47978640147694102 -0.20418872613165631 0 -0.48114952412016337 -0.22028093099336349 0 -0.46336154989584488 -0.2122246235137781 0 -0.48114952412016337 -0.22028093099336349 0 -0.46336154989584488 -0.2122246235137781 0 -0.47978640147694102 -0.20418872613165631 0 -0.48114952412016337 -0.22028093099336349 0 -0.46336154989584488 -0.2122246235137781 0 -0.46892716456320649 -0.19528781647494389 0 -0.47978640147694102 -0.20418872613165631 0 -0.46336154989584488 -0.2122246235137781 0 -0.48114952412016337 -0.22028093099336349 0 -0.46857810181099829 -0.22486784275082261 0 -0.48114952412016337 -0.22028093099336349 0 -0.48798868478634799 -0.231470988200419 0 -0.47142395938804471 -0.23802335247430181 0 -0.48114952412016337 -0.22028093099336349 0 -0.47142395938804471 -0.23802335247430181 0 -0.46857810181099829 -0.22486784275082261 0 -0.48114952412016337 -0.22028093099336349 0 -0.48798868478634799 -0.231470988200419 0 -0.49893749834448198 -0.22833723847294871 0 -0.48114952412016337 -0.22028093099336349 0 -0.49893749834448198 -0.22833723847294871 0 -0.48798868478634799 -0.231470988200419 0 -0.49893749834448198 -0.22833723847294871 0 -0.4875835208682564 -0.24248539692068891 0 -0.5 -0.25669760885461612 0 -0.49893749834448198 -0.22833723847294871 0 -0.4875835208682564 -0.24248539692068891 0 -0.48798868478634799 -0.231470988200419 0 -0.4875835208682564 -0.24248539692068891 0 -0.47142395938804471 -0.23802335247430181 0 -0.47878778985378329 -0.25835102983948688 0 -0.4875835208682564 -0.24248539692068891 0 -0.47142395938804471 -0.23802335247430181 0 -0.45662330498375908 -0.25656877445722759 0 -0.47142395938804471 -0.23802335247430181 0 -0.45034617445999431 -0.24335722649563979 0 -0.47142395938804471 -0.23802335247430181 0 -0.45735065046854989 -0.23051648340969341 0 -0.45034617445999431 -0.24335722649563979 0 -0.46336154989584488 -0.2122246235137781 0 -0.46857810181099829 -0.22486784275082261 0 -0.45735065046854989 -0.23051648340969341 0 -0.46336154989584488 -0.2122246235137781 0 -0.45735065046854989 -0.23051648340969341 0 -0.47142395938804471 -0.23802335247430181 0 -0.46857810181099829 -0.22486784275082261 0 -0.45735065046854989 -0.23051648340969341 0 -0.46336154989584488 -0.2122246235137781 0 -0.45338394269579491 -0.2190794284651259 0 -0.45735065046854989 -0.23051648340969341 0 -0.45338394269579491 -0.2190794284651259 0 -0.45735065046854989 -0.23051648340969341 0 -0.43806130733353449 -0.23541812032183559 0 -0.44166379455333399 -0.21604972156869759 0 -0.43806130733353449 -0.23541812032183559 0 -0.44166379455333399 -0.21604972156869759 0 -0.45338394269579491 -0.2190794284651259 0 -0.43806130733353449 -0.23541812032183559 0 -0.45735065046854989 -0.23051648340969341 0 -0.45034617445999431 -0.24335722649563979 0 -0.43806130733353449 -0.23541812032183559 0 -0.43445882011373449 -0.25478651907497341 0 -0.45034617445999431 -0.24335722649563979 0 -0.43806130733353449 -0.23541812032183559 0 -0.41324955929443102 -0.038374170610562031 0 -0.41005136228565903 -0.05540387285823338 0 -0.42435348212729052 -0.04457483879584373 0 -0.41324955929443102 -0.038374170610562031 0 -0.41005136228565903 -0.05540387285823338 0 -0.39900851660089293 -0.046429079601448257 0 -0.41324955929443102 -0.038374170610562031 0 -0.40747857107326091 -0.02424585309778798 0 -0.40045416304880688 -0.034240371911693122 0 -0.41005136228565903 -0.05540387285823338 0 -0.4246600563061857 -0.059067830999859447 0 -0.41422906440869389 -0.068128229862373102 0 -0.41005136228565903 -0.05540387285823338 0 -0.4246600563061857 -0.059067830999859447 0 -0.42435348212729052 -0.04457483879584373 0 -0.4246600563061857 -0.059067830999859447 0 -0.42435348212729052 -0.04457483879584373 0 -0.43957367317472601 -0.045089571971719818 0 -0.4246600563061857 -0.059067830999859447 0 -0.43957367317472601 -0.045089571971719818 0 -0.44544580640037118 -0.056213229689383748 0 -0.41324955929443102 -0.038374170610562031 0 -0.42435348212729052 -0.04457483879584373 0 -0.42981912379901888 -0.030443092666165631 0 -0.42435348212729052 -0.04457483879584373 0 -0.42981912379901888 -0.030443092666165631 0 -0.43957367317472601 -0.045089571971719818 0 -0.41302196833726168 -0.01226972299954816 0 -0.4392085005598273 -0.024676348383282701 0 -0.42659341977192161 -0.010103830507352861 0 -0.41302196833726168 -0.01226972299954816 0 -0.4392085005598273 -0.024676348383282701 0 -0.42981912379901888 -0.030443092666165631 0 -0.41673372021425997 -0.022240754673565791 0 -0.4392085005598273 -0.024676348383282701 0 -0.41302196833726168 -0.01226972299954816 0 -0.41673372021425997 -0.022240754673565791 0 -0.4392085005598273 -0.024676348383282701 0 -0.43741768347029059 -0.01288367903972009 0 -0.42659341977192161 -0.010103830507352861 0 -0.4392085005598273 -0.024676348383282701 0 -0.4441818909265971 -0.00998157505946092 0 -0.42578104856505677 0.0031949168855625672 0 -0.43741768347029059 -0.01288367903972009 0 -0.4441818909265971 -0.00998157505946092 0 -0.42578104856505677 0.0031949168855625672 0 -0.43741768347029059 -0.01288367903972009 0 -0.42659341977192161 -0.010103830507352861 0 -0.42578104856505677 0.0031949168855625672 0 -0.43741768347029059 -0.01288367903972009 0 -0.42578104856505677 0.0031949168855625672 0 -0.42659341977192161 -0.010103830507352861 0 -0.41753789792717189 -0.0038843189997757009 0 -0.42578104856505677 0.0031949168855625672 0 -0.42659341977192161 -0.010103830507352861 0 -0.41753789792717189 -0.0038843189997757009 0 -0.41302196833726168 -0.01226972299954816 0 -0.41753789792717189 -0.0038843189997757009 0 -0.41302196833726168 -0.01226972299954816 0 -0.40771050441737638 -0.0035262849216432719 0 -0.41753789792717189 -0.0038843189997757009 0 -0.40771050441737638 -0.0035262849216432719 0 -0.41105156913745711 0.0034129409419674369 0 -0.42981912379901888 -0.030443092666165631 0 -0.40747857107326091 -0.02424585309778798 0 -0.41324955929443102 -0.038374170610562031 0 -0.42981912379901888 -0.030443092666165631 0 -0.40747857107326091 -0.02424585309778798 0 -0.42981912379901888 -0.030443092666165631 0 -0.41673372021425997 -0.022240754673565791 0 -0.40747857107326091 -0.02424585309778798 0 -0.41302196833726168 -0.01226972299954816 0 -0.41673372021425997 -0.022240754673565791 0 -0.40747857107326091 -0.02424585309778798 0 -0.41673372021425997 -0.022240754673565791 0 -0.40747857107326091 -0.02424585309778798 0 -0.40747857107326091 -0.02424585309778798 0 -0.38992317137517202 -0.02804917422583518 0 -0.40747857107326091 -0.02424585309778798 0 -0.38992317137517202 -0.02804917422583518 0 -0.38297625517291389 -0.017448943304264108 0 -0.40747857107326091 -0.02424585309778798 0 -0.38992317137517202 -0.02804917422583518 0 -0.40045416304880688 -0.034240371911693122 0 -0.40747857107326091 -0.02424585309778798 0 -0.39567459441968961 -0.012635194689989219 0 -0.38297625517291389 -0.017448943304264108 0 -0.40747857107326091 -0.02424585309778798 0 -0.38297625517291389 -0.017448943304264108 0 -0.41302196833726168 -0.01226972299954816 0 -0.40747857107326091 -0.02424585309778798 0 -0.39567459441968961 -0.012635194689989219 0 -0.41302196833726168 -0.01226972299954816 0 -0.40771050441737638 -0.0035262849216432719 0 -0.38683543611469601 0.0001369023841863784 0 -0.41302196833726168 -0.01226972299954816 0 -0.39567459441968961 -0.012635194689989219 0 -0.38683543611469601 0.0001369023841863784 0 -0.41302196833726168 -0.01226972299954816 0 -0.38683543611469601 0.0001369023841863784 0 -0.40771050441737638 -0.0035262849216432719 0 -0.38683543611469601 0.0001369023841863784 0 -0.40226596945639398 0.0014711925349297271 0 -0.39567459441968961 -0.012635194689989219 0 -0.38502252263107412 -0.0084426060797158468 0 -0.38683543611469601 0.0001369023841863784 0 -0.39567459441968961 -0.012635194689989219 0 -0.38502252263107412 -0.0084426060797158468 0 -0.38297625517291389 -0.017448943304264108 0 -0.38502252263107412 -0.0084426060797158468 0 -0.38009964520605882 -0.0090403485437739461 0 -0.38297625517291389 -0.017448943304264108 0 -0.37278444596104371 -0.0079457960458173115 0 -0.38009964520605882 -0.0090403485437739461 0 -0.38297625517291389 -0.017448943304264108 0 -0.37474494217865062 -0.0022388935110706832 0 -0.38502252263107412 -0.0084426060797158468 0 -0.38683543611469601 0.0001369023841863784 0 -0.37474494217865062 -0.0022388935110706832 0 -0.38502252263107412 -0.0084426060797158468 0 -0.38009964520605882 -0.0090403485437739461 0 -0.37474494217865062 -0.0022388935110706832 0 -0.37278444596104371 -0.0079457960458173115 0 -0.38009964520605882 -0.0090403485437739461 0 -0.37236777167708351 -0.031852495353884333 0 -0.38992317137517202 -0.02804917422583518 0 -0.37990921189048049 -0.023302515363219579 0 -0.37236777167708351 -0.031852495353884333 0 -0.38992317137517202 -0.02804917422583518 0 -0.38992317137517202 -0.02804917422583518 0 -0.38297625517291389 -0.017448943304264108 0 -0.37990921189048049 -0.023302515363219579 0 -0.3739022591900184 -0.02415390189740213 0 -0.38297625517291389 -0.017448943304264108 0 -0.37990921189048049 -0.023302515363219579 0 -0.37236777167708351 -0.031852495353884333 0 -0.3739022591900184 -0.02415390189740213 0 -0.37990921189048049 -0.023302515363219579 0 -0.37236777167708351 -0.031852495353884333 0 -0.37990921189048049 -0.023302515363219579 0 -0.38458287424021398 -0.039388642062709187 0 -0.39900851660089293 -0.046429079601448257 0 -0.3815482533063424 -0.052412606119804542 0 -0.37355784227175309 -0.045246792894939887 0 -0.37236777167708351 -0.031852495353884333 0 -0.38458287424021398 -0.039388642062709187 0 -0.37236777167708351 -0.031852495353884333 0 -0.38992317137517202 -0.02804917422583518 0 -0.38458287424021398 -0.039388642062709187 0 -0.37355784227175309 -0.045246792894939887 0 -0.38458287424021398 -0.039388642062709187 0 -0.3815482533063424 -0.052412606119804542 0 -0.38458287424021398 -0.039388642062709187 0 -0.39900851660089293 -0.046429079601448257 0 -0.40045416304880688 -0.034240371911693122 0 -0.38992317137517202 -0.02804917422583518 0 -0.38458287424021398 -0.039388642062709187 0 -0.40045416304880688 -0.034240371911693122 0 -0.41324955929443102 -0.038374170610562031 0 -0.39900851660089293 -0.046429079601448257 0 -0.40045416304880688 -0.034240371911693122 0 -0.39900851660089293 -0.046429079601448257 0 -0.39626447370361728 -0.06091275685647668 0 -0.3815482533063424 -0.052412606119804542 0 -0.41005136228565903 -0.05540387285823338 0 -0.39626447370361728 -0.06091275685647668 0 -0.40517181862379281 -0.066558370858305557 0 -0.41005136228565903 -0.05540387285823338 0 -0.39900851660089293 -0.046429079601448257 0 -0.39626447370361728 -0.06091275685647668 0 -0.36862349457690058 -0.057461967220355487 0 -0.3815482533063424 -0.052412606119804542 0 -0.37947166312044489 -0.067272628224985004 0 -0.3815482533063424 -0.052412606119804542 0 -0.37947166312044489 -0.067272628224985004 0 -0.39260231949431601 -0.074533368335879327 0 -0.36882665317829499 -0.078032107790563188 0 -0.39260231949431601 -0.074533368335879327 0 -0.39626447370361728 -0.06091275685647668 0 -0.3815482533063424 -0.052412606119804542 0 -0.39260231949431601 -0.074533368335879327 0 -0.3815482533063424 -0.052412606119804542 0 -0.39260231949431601 -0.074533368335879327 0 -0.36882665317829499 -0.078032107790563188 0 -0.37947166312044489 -0.067272628224985004 0 -0.39260231949431601 -0.074533368335879327 0 -0.36882665317829499 -0.078032107790563188 0 -0.39260231949431601 -0.074533368335879327 0 -0.39002829617667018 -0.099006697234722524 0 -0.36882665317829499 -0.078032107790563188 0 -0.39002829617667018 -0.099006697234722524 0 -0.37367929427193591 -0.1014825750548952 0 -0.36882665317829499 -0.078032107790563188 0 -0.39002829617667018 -0.099006697234722524 0 -0.39260231949431601 -0.074533368335879327 0 -0.39002829617667018 -0.099006697234722524 0 -0.39510370691593599 -0.098958215311000047 0 -0.39260231949431601 -0.074533368335879327 0 -0.40274583300482147 -0.094831984843681591 0 -0.39260231949431601 -0.074533368335879327 0 -0.39510370691593599 -0.098958215311000047 0 -0.40274583300482147 -0.094831984843681591 0 -0.40361170428446441 -0.083317353290434007 0 -0.39260231949431601 -0.074533368335879327 0 -0.40274583300482147 -0.094831984843681591 0 -0.40361170428446441 -0.083317353290434007 0 -0.39867569396630093 -0.073639632925658519 0 -0.40696916935602839 -0.074517235882718885 0 -0.39867569396630093 -0.073639632925658519 0 -0.40517181862379281 -0.066558370858305557 0 -0.40696916935602839 -0.074517235882718885 0 -0.39626447370361728 -0.06091275685647668 0 -0.39867569396630093 -0.073639632925658519 0 -0.40517181862379281 -0.066558370858305557 0 -0.39626447370361728 -0.06091275685647668 0 -0.39867569396630093 -0.073639632925658519 0 -0.39260231949431601 -0.074533368335879327 0 -0.40361170428446441 -0.083317353290434007 0 -0.39867569396630093 -0.073639632925658519 0 -0.39260231949431601 -0.074533368335879327 0 -0.39867569396630093 -0.073639632925658519 0 -0.39260231949431601 -0.074533368335879327 0 -0.37212838853434238 -0.11808059788504249 0 -0.38278168804071749 -0.12940228238898679 0 -0.39044023874876249 -0.11757149150947201 0 -0.37367929427193591 -0.1014825750548952 0 -0.37212838853434238 -0.11808059788504249 0 -0.39044023874876249 -0.11757149150947201 0 -0.37367929427193591 -0.1014825750548952 0 -0.39044023874876249 -0.11757149150947201 0 -0.39002829617667018 -0.099006697234722524 0 -0.39510370691593599 -0.098958215311000047 0 -0.40274583300482147 -0.094831984843681591 0 -0.41288934651532883 -0.11513060135148299 0 -0.39002829617667018 -0.099006697234722524 0 -0.39510370691593599 -0.098958215311000047 0 -0.41122993917504558 -0.1199812866788818 0 -0.39510370691593599 -0.098958215311000047 0 -0.41288934651532883 -0.11513060135148299 0 -0.39647179587780151 -0.13189450107720049 0 -0.39044023874876249 -0.11757149150947201 0 -0.41122993917504558 -0.1199812866788818 0 -0.39002829617667018 -0.099006697234722524 0 -0.41122993917504558 -0.1199812866788818 0 -0.39044023874876249 -0.11757149150947201 0 -0.39002829617667018 -0.099006697234722524 0 -0.41122993917504558 -0.1199812866788818 0 -0.39510370691593599 -0.098958215311000047 0 -0.41122993917504558 -0.1199812866788818 0 -0.41288934651532883 -0.11513060135148299 0 -0.41930562378398423 -0.12797048681614909 0 -0.41122993917504558 -0.1199812866788818 0 -0.4149348530849476 -0.1169905694289516 0 -0.41930562378398423 -0.12797048681614909 0 -0.41122993917504558 -0.1199812866788818 0 -0.41930562378398423 -0.12797048681614909 0 -0.4149348530849476 -0.1169905694289516 0 -0.41122993917504558 -0.1199812866788818 0 -0.41288934651532883 -0.11513060135148299 0 -0.4149348530849476 -0.1169905694289516 0 -0.41122993917504558 -0.1199812866788818 0 -0.4149348530849476 -0.1169905694289516 0 -0.41288934651532883 -0.11513060135148299 0 -0.4149348530849476 -0.1169905694289516 0 -0.41288934651532883 -0.11513060135148299 0 -0.4149348530849476 -0.1169905694289516 0 -0.41458672172207622 -0.10427776634057311 0 -0.40274583300482147 -0.094831984843681591 0 -0.41288934651532883 -0.11513060135148299 0 -0.4149348530849476 -0.1169905694289516 0 -0.41458672172207622 -0.10427776634057311 0 -0.43059848591229039 -0.1043464168163742 0 -0.40274583300482147 -0.094831984843681591 0 -0.41288934651532883 -0.11513060135148299 0 -0.41458672172207622 -0.10427776634057311 0 -0.41458672172207622 -0.10427776634057311 0 -0.41348552386521947 -0.090840815536544176 0 -0.43025813067654672 -0.08737754853092726 0 -0.40274583300482147 -0.094831984843681591 0 -0.41458672172207622 -0.10427776634057311 0 -0.41348552386521947 -0.090840815536544176 0 -0.43059848591229039 -0.1043464168163742 0 -0.43025813067654672 -0.08737754853092726 0 -0.44626211873963212 -0.091702264203795431 0 -0.41458672172207622 -0.10427776634057311 0 -0.43059848591229039 -0.1043464168163742 0 -0.43025813067654672 -0.08737754853092726 0 -0.41458672172207622 -0.10427776634057311 0 -0.43025813067654672 -0.08737754853092726 0 -0.4149348530849476 -0.1169905694289516 0 -0.43059848591229039 -0.1043464168163742 0 -0.43160182387889101 -0.1187955019330571 0 -0.4149348530849476 -0.1169905694289516 0 -0.43059848591229039 -0.1043464168163742 0 -0.43389101300267191 -0.13422730327376839 0 -0.4149348530849476 -0.1169905694289516 0 -0.43160182387889101 -0.1187955019330571 0 -0.43059848591229039 -0.1043464168163742 0 -0.43160182387889101 -0.1187955019330571 0 -0.44003429013576911 -0.11331979272890801 0 -0.43160182387889101 -0.1187955019330571 0 -0.44085253015216358 -0.1237950587173612 0 -0.44003429013576911 -0.11331979272890801 0 -0.41422906440869389 -0.068128229862373102 0 -0.41539885585273961 -0.080089681603359497 0 -0.42594434486026628 -0.073522222089585226 0 -0.4246600563061857 -0.059067830999859447 0 -0.41422906440869389 -0.068128229862373102 0 -0.42594434486026628 -0.073522222089585226 0 -0.41005136228565903 -0.05540387285823338 0 -0.40517181862379281 -0.066558370858305557 0 -0.41422906440869389 -0.068128229862373102 0 -0.40517181862379281 -0.066558370858305557 0 -0.41422906440869389 -0.068128229862373102 0 -0.40696916935602839 -0.074517235882718885 0 -0.41422906440869389 -0.068128229862373102 0 -0.40696916935602839 -0.074517235882718885 0 -0.41539885585273961 -0.080089681603359497 0 -0.41348552386521947 -0.090840815536544176 0 -0.41539885585273961 -0.080089681603359497 0 -0.43025813067654672 -0.08737754853092726 0 -0.40361170428446441 -0.083317353290434007 0 -0.41348552386521947 -0.090840815536544176 0 -0.41539885585273961 -0.080089681603359497 0 -0.40361170428446441 -0.083317353290434007 0 -0.40696916935602839 -0.074517235882718885 0 -0.41539885585273961 -0.080089681603359497 0 -0.40361170428446441 -0.083317353290434007 0 -0.40274583300482147 -0.094831984843681591 0 -0.41348552386521947 -0.090840815536544176 0 -0.41539885585273961 -0.080089681603359497 0 -0.43025813067654672 -0.08737754853092726 0 -0.42594434486026628 -0.073522222089585226 0 -0.4246600563061857 -0.059067830999859447 0 -0.44592953963101739 -0.07047733072128165 0 -0.43025813067654672 -0.08737754853092726 0 -0.42594434486026628 -0.073522222089585226 0 -0.44592953963101739 -0.07047733072128165 0 -0.4246600563061857 -0.059067830999859447 0 -0.42594434486026628 -0.073522222089585226 0 -0.44592953963101739 -0.07047733072128165 0 -0.44592953963101739 -0.07047733072128165 0 -0.45893666683642192 -0.056450303318209168 0 -0.44592953963101739 -0.07047733072128165 0 -0.44626211873963212 -0.091702264203795431 0 -0.46192575156697407 -0.079058111591217034 0 -0.43025813067654672 -0.08737754853092726 0 -0.44592953963101739 -0.07047733072128165 0 -0.43025813067654672 -0.08737754853092726 0 -0.44592953963101739 -0.07047733072128165 0 -0.44626211873963212 -0.091702264203795431 0 -0.44626211873963212 -0.091702264203795431 0 -0.46631049206888459 -0.091444160656324658 0 -0.46192575156697407 -0.079058111591217034 0 -0.44626211873963212 -0.091702264203795431 0 -0.46192575156697407 -0.079058111591217034 0 -0.46631049206888459 -0.091444160656324658 0 -0.46192575156697407 -0.079058111591217034 0 -0.47702460168979111 -0.087157524427869615 0 -0.44592953963101739 -0.07047733072128165 0 -0.46192575156697407 -0.079058111591217034 0 -0.45893666683642192 -0.056450303318209168 0 -0.46192575156697407 -0.079058111591217034 0 -0.47491389520024407 -0.068573693827893439 0 -0.45893666683642192 -0.056450303318209168 0 -0.46192575156697407 -0.079058111591217034 0 -0.47491389520024407 -0.068573693827893439 0 -0.44592953963101739 -0.07047733072128165 0 -0.46192575156697407 -0.079058111591217034 0 -0.45000974795797011 -0.119430952696417 0 -0.44085253015216358 -0.1237950587173612 0 -0.44003429013576911 -0.11331979272890801 0 -0.45000974795797011 -0.119430952696417 0 -0.44003429013576911 -0.11331979272890801 0 -0.44926481423485548 -0.10476542824413421 0 -0.43059848591229039 -0.1043464168163742 0 -0.44626211873963212 -0.091702264203795431 0 -0.43059848591229039 -0.1043464168163742 0 -0.44626211873963212 -0.091702264203795431 0 -0.44926481423485548 -0.10476542824413421 0 -0.43059848591229039 -0.1043464168163742 0 -0.44003429013576911 -0.11331979272890801 0 -0.44926481423485548 -0.10476542824413421 0 -0.44626211873963212 -0.091702264203795431 0 -0.44926481423485548 -0.10476542824413421 0 -0.46153012095291662 -0.1019472767233552 0 -0.44626211873963212 -0.091702264203795431 0 -0.46631049206888459 -0.091444160656324658 0 -0.46153012095291662 -0.1019472767233552 0 -0.46631049206888459 -0.091444160656324658 0 -0.46153012095291662 -0.1019472767233552 0 -0.4710589232177344 -0.098453604121520433 0 -0.46153012095291662 -0.1019472767233552 0 -0.46221413283232399 -0.11366089481890911 0 -0.47430793409480421 -0.10627177682285049 0 -0.44926481423485548 -0.10476542824413421 0 -0.46153012095291662 -0.1019472767233552 0 -0.46221413283232399 -0.11366089481890911 0 -0.45896755277767909 -0.12575633132281341 0 -0.46221413283232399 -0.11366089481890911 0 -0.47750202174635031 -0.1215216316744509 0 -0.45000974795797011 -0.119430952696417 0 -0.44926481423485548 -0.10476542824413421 0 -0.46221413283232399 -0.11366089481890911 0 -0.45896755277767909 -0.12575633132281341 0 -0.45000974795797011 -0.119430952696417 0 -0.46221413283232399 -0.11366089481890911 0 -0.47750202174635031 -0.1215216316744509 0 -0.47430793409480421 -0.10627177682285049 0 -0.48673501487359588 -0.1010237797652184 0 -0.46221413283232399 -0.11366089481890911 0 -0.47750202174635031 -0.1215216316744509 0 -0.47430793409480421 -0.10627177682285049 0 -0.47430793409480421 -0.10627177682285049 0 -0.47745372589702628 -0.099742000537211661 0 -0.48673501487359588 -0.1010237797652184 0 -0.46153012095291662 -0.1019472767233552 0 -0.47430793409480421 -0.10627177682285049 0 -0.4710589232177344 -0.098453604121520433 0 -0.46631049206888459 -0.091444160656324658 0 -0.4710589232177344 -0.098453604121520433 0 -0.47771303140197108 -0.093218841439257433 0 -0.47430793409480421 -0.10627177682285049 0 -0.4710589232177344 -0.098453604121520433 0 -0.47745372589702628 -0.099742000537211661 0 -0.4710589232177344 -0.098453604121520433 0 -0.47745372589702628 -0.099742000537211661 0 -0.47771303140197108 -0.093218841439257433 0 -0.47745372589702628 -0.099742000537211661 0 -0.48673501487359588 -0.1010237797652184 0 -0.47771303140197108 -0.093218841439257433 0 -0.48673501487359588 -0.1010237797652184 0 -0.47771303140197108 -0.093218841439257433 0 -0.47702460168979111 -0.087157524427869615 0 -0.47750202174635031 -0.1215216316744509 0 -0.48673501487359588 -0.1010237797652184 0 -0.4986179579264654 -0.1020768288792674 0 -0.48673501487359588 -0.1010237797652184 0 -0.49842317329231273 -0.098636270432611556 0 -0.47702460168979111 -0.087157524427869615 0 -0.48673501487359588 -0.1010237797652184 0 -0.49842317329231273 -0.098636270432611556 0 -0.4986179579264654 -0.1020768288792674 0 -0.49999999999999939 -0.099482120969144883 0 -0.49842317329231273 -0.098636270432611556 0 -0.4986179579264654 -0.1020768288792674 0 -0.49842317329231273 -0.098636270432611556 0 -0.4986179579264654 -0.1020768288792674 0 -0.49999999999999939 -0.099482120969144883 0 -0.49842317329231273 -0.098636270432611556 0 -0.50000000000000011 -0.12648838757554831 0 -0.47750202174635031 -0.1215216316744509 0 -0.4986179579264654 -0.1020768288792674 0 -0.47750202174635031 -0.1215216316744509 0 -0.4986179579264654 -0.1020768288792674 0 -0.47491389520024407 -0.068573693827893439 0 -0.47702460168979111 -0.087157524427869615 0 -0.4847984782487687 -0.075944598732494498 0 -0.47491389520024407 -0.068573693827893439 0 -0.47702460168979111 -0.087157524427869615 0 -0.47967839073812912 -0.064727650616396362 0 -0.4847984782487687 -0.075944598732494498 0 -0.48794163871831331 -0.064119883023254248 0 -0.47967839073812912 -0.064727650616396362 0 -0.47491389520024407 -0.068573693827893439 0 -0.4847984782487687 -0.075944598732494498 0 -0.47967839073812912 -0.064727650616396362 0 -0.47491389520024407 -0.068573693827893439 0 -0.46192575156697407 -0.079058111591217034 0 -0.47702460168979111 -0.087157524427869615 0 -0.46192575156697407 -0.079058111591217034 0 -0.47491389520024407 -0.068573693827893439 0 -0.47702460168979111 -0.087157524427869615 0 -0.46631049206888459 -0.091444160656324658 0 -0.47771303140197108 -0.093218841439257433 0 -0.47702460168979111 -0.087157524427869615 0 -0.47771303140197108 -0.093218841439257433 0 -0.47702460168979111 -0.087157524427869615 0 -0.49842317329231273 -0.098636270432611556 0 -0.49712708577170861 -0.075742961183477536 0 -0.4847984782487687 -0.075944598732494498 0 -0.49999999999999939 -0.099482120969144883 0 -0.49842317329231273 -0.098636270432611556 0 -0.5 -0.078030389970551228 0 -0.49842317329231273 -0.098636270432611556 0 -0.49712708577170861 -0.075742961183477536 0 -0.49842317329231273 -0.098636270432611556 0 -0.5 -0.078030389970551228 0 -0.49712708577170861 -0.075742961183477536 0 -0.49842317329231273 -0.098636270432611556 0 -0.47702460168979111 -0.087157524427869615 0 -0.4847984782487687 -0.075944598732494498 0 -0.49842317329231273 -0.098636270432611556 0 -0.47702460168979111 -0.087157524427869615 0 -0.5 -0.078030389970551228 0 -0.49712708577170861 -0.075742961183477536 0 -0.49999999999999928 -0.056578658971957581 0 -0.49712708577170861 -0.075742961183477536 0 -0.49583099825110311 -0.052849651934343489 0 -0.49712708577170861 -0.075742961183477536 0 -0.48794163871831331 -0.064119883023254248 0 -0.49583099825110311 -0.052849651934343489 0 -0.49712708577170861 -0.075742961183477536 0 -0.4847984782487687 -0.075944598732494498 0 -0.48794163871831331 -0.064119883023254248 0 -0.49712708577170861 -0.075742961183477536 0 -0.49999999999999928 -0.056578658971957581 0 -0.49583099825110311 -0.052849651934343489 0 -0.49583099825110311 -0.052849651934343489 0 -0.47748890114140963 -0.036443372127734748 0 -0.48227324058185622 -0.051334552649559453 0 -0.49999999999999928 -0.056578658971957581 0 -0.49583099825110311 -0.052849651934343489 0 -0.49999999999999928 -0.056578658971957581 0 -0.50000000000000144 -0.053559852644015388 0 -0.49583099825110311 -0.052849651934343489 0 -0.48794163871831331 -0.064119883023254248 0 -0.49583099825110311 -0.052849651934343489 0 -0.48227324058185622 -0.051334552649559453 0 -0.50000000000000144 -0.053559852644015388 0 -0.49583099825110311 -0.052849651934343489 0 -0.48598145264485831 -0.02728491224803695 0 -0.49583099825110311 -0.052849651934343489 0 -0.47748890114140963 -0.036443372127734748 0 -0.48598145264485831 -0.02728491224803695 0 -0.50000000000000144 -0.053559852644015388 0 -0.48598145264485831 -0.02728491224803695 0 -0.50000000000000144 -0.053559852644015388 0 -0.48598145264485831 -0.02728491224803695 0 -0.5 -0.025161366008633609 0 -0.49583099825110311 -0.052849651934343489 0 -0.47748890114140963 -0.036443372127734748 0 -0.47748890114140963 -0.036443372127734748 0 -0.48598145264485831 -0.02728491224803695 0 -0.47748890114140963 -0.036443372127734748 0 -0.47194379404182718 -0.042423275915137587 0 -0.48227324058185622 -0.051334552649559453 0 -0.47748890114140963 -0.036443372127734748 0 -0.47194379404182718 -0.042423275915137587 0 -0.47748890114140963 -0.036443372127734748 0 -0.47194379404182718 -0.042423275915137587 0 -0.47056077858213702 -0.03024644074295027 0 -0.47194379404182718 -0.042423275915137587 0 -0.46539503278239303 -0.037082973767017267 0 -0.47056077858213702 -0.03024644074295027 0 -0.47194379404182718 -0.042423275915137587 0 -0.47056077858213702 -0.03024644074295027 0 -0.47748890114140963 -0.036443372127734748 0 -0.47056077858213702 -0.03024644074295027 0 -0.47748890114140963 -0.036443372127734748 0 -0.47056077858213702 -0.03024644074295027 0 -0.47745882259212458 -0.028728106929589409 0 -0.47967839073812912 -0.064727650616396362 0 -0.47491389520024407 -0.068573693827893439 0 -0.47194379404182718 -0.042423275915137587 0 -0.47967839073812912 -0.064727650616396362 0 -0.47194379404182718 -0.042423275915137587 0 -0.48227324058185622 -0.051334552649559453 0 -0.47491389520024407 -0.068573693827893439 0 -0.47194379404182718 -0.042423275915137587 0 -0.47967839073812912 -0.064727650616396362 0 -0.48794163871831331 -0.064119883023254248 0 -0.48227324058185622 -0.051334552649559453 0 -0.47491389520024407 -0.068573693827893439 0 -0.47194379404182718 -0.042423275915137587 0 -0.45893666683642192 -0.056450303318209168 0 -0.45893666683642192 -0.056450303318209168 0 -0.45743491846808387 -0.04563500224908737 0 -0.44544580640037118 -0.056213229689383748 0 -0.47194379404182718 -0.042423275915137587 0 -0.45893666683642192 -0.056450303318209168 0 -0.45743491846808387 -0.04563500224908737 0 -0.47194379404182718 -0.042423275915137587 0 -0.45893666683642192 -0.056450303318209168 0 -0.46539503278239303 -0.037082973767017267 0 -0.44890774518284438 -0.02927164544362729 0 -0.46539503278239303 -0.037082973767017267 0 -0.45215967652477718 -0.036640332234541717 0 -0.44890774518284438 -0.02927164544362729 0 -0.46539503278239303 -0.037082973767017267 0 -0.44890774518284438 -0.02927164544362729 0 -0.46189821575704781 -0.02986243911986371 0 -0.47194379404182718 -0.042423275915137587 0 -0.46539503278239303 -0.037082973767017267 0 -0.45743491846808387 -0.04563500224908737 0 -0.46539503278239303 -0.037082973767017267 0 -0.46189821575704781 -0.02986243911986371 0 -0.47056077858213702 -0.03024644074295027 0 -0.46539503278239303 -0.037082973767017267 0 -0.45743491846808387 -0.04563500224908737 0 -0.45215967652477718 -0.036640332234541717 0 -0.42981912379901888 -0.030443092666165631 0 -0.45215967652477718 -0.036640332234541717 0 -0.45743491846808387 -0.04563500224908737 0 -0.45215967652477718 -0.036640332234541717 0 -0.43957367317472601 -0.045089571971719818 0 -0.42981912379901888 -0.030443092666165631 0 -0.45215967652477718 -0.036640332234541717 0 -0.43957367317472601 -0.045089571971719818 0 -0.45743491846808387 -0.04563500224908737 0 -0.43957367317472601 -0.045089571971719818 0 -0.44544580640037118 -0.056213229689383748 0 -0.4246600563061857 -0.059067830999859447 0 -0.44592953963101739 -0.07047733072128165 0 -0.44544580640037118 -0.056213229689383748 0 -0.44592953963101739 -0.07047733072128165 0 -0.45893666683642192 -0.056450303318209168 0 -0.44544580640037118 -0.056213229689383748 0 -0.4441818909265971 -0.00998157505946092 0 -0.45588653083934588 0.00041698580085632909 0 -0.44737850259376799 0.0077656591989471307 0 -0.4441818909265971 -0.00998157505946092 0 -0.4570262928383732 -0.018140378997512391 0 -0.45633913854906122 -0.0094275687658610888 0 -0.4441818909265971 -0.00998157505946092 0 -0.45633913854906122 -0.0094275687658610888 0 -0.45588653083934588 0.00041698580085632909 0 -0.43741768347029059 -0.01288367903972009 0 -0.4441818909265971 -0.00998157505946092 0 -0.44890774518284438 -0.02927164544362729 0 -0.42981912379901888 -0.030443092666165631 0 -0.45215967652477718 -0.036640332234541717 0 -0.4392085005598273 -0.024676348383282701 0 -0.4441818909265971 -0.00998157505946092 0 -0.44890774518284438 -0.02927164544362729 0 -0.46258273328813732 -0.023158067004484729 0 -0.43741768347029059 -0.01288367903972009 0 -0.44890774518284438 -0.02927164544362729 0 -0.43741768347029059 -0.01288367903972009 0 -0.4392085005598273 -0.024676348383282701 0 -0.44890774518284438 -0.02927164544362729 0 -0.4392085005598273 -0.024676348383282701 0 -0.44890774518284438 -0.02927164544362729 0 -0.45215967652477718 -0.036640332234541717 0 -0.4392085005598273 -0.024676348383282701 0 -0.44890774518284438 -0.02927164544362729 0 -0.4441818909265971 -0.00998157505946092 0 -0.46258273328813732 -0.023158067004484729 0 -0.46258273328813732 -0.023158067004484729 0 -0.46826183959192841 -0.01000530680732737 0 -0.47056077858213702 -0.03024644074295027 0 -0.4441818909265971 -0.00998157505946092 0 -0.4570262928383732 -0.018140378997512391 0 -0.46258273328813732 -0.023158067004484729 0 -0.4570262928383732 -0.018140378997512391 0 -0.46258273328813732 -0.023158067004484729 0 -0.44890774518284438 -0.02927164544362729 0 -0.46189821575704781 -0.02986243911986371 0 -0.46258273328813732 -0.023158067004484729 0 -0.46258273328813732 -0.023158067004484729 0 -0.47056077858213702 -0.03024644074295027 0 -0.46189821575704781 -0.02986243911986371 0 -0.46258273328813732 -0.023158067004484729 0 -0.47056077858213702 -0.03024644074295027 0 -0.4570262928383732 -0.018140378997512391 0 -0.46258273328813732 -0.023158067004484729 0 -0.46826183959192841 -0.01000530680732737 0 -0.4570262928383732 -0.018140378997512391 0 -0.46826183959192841 -0.01000530680732737 0 -0.45633913854906122 -0.0094275687658610888 0 -0.46826183959192841 -0.01000530680732737 0 -0.45633913854906122 -0.0094275687658610888 0 -0.45588653083934588 0.00041698580085632909 0 -0.46826183959192841 -0.01000530680732737 0 -0.47597217662329228 -0.0085245425598697612 0 -0.4659629006017233 0.010235827128295859 0 -0.46826183959192841 -0.01000530680732737 0 -0.47597217662329228 -0.0085245425598697612 0 -0.47580415800009379 -0.02093770259963601 0 -0.47597217662329228 -0.0085245425598697612 0 -0.48922725890134677 -0.010453537226696331 0 -0.48082517856277007 0.001845263919603602 0 -0.47597217662329228 -0.0085245425598697612 0 -0.47580415800009379 -0.02093770259963601 0 -0.48598145264485831 -0.02728491224803695 0 -0.47597217662329228 -0.0085245425598697612 0 -0.48598145264485831 -0.02728491224803695 0 -0.46826183959192841 -0.01000530680732737 0 -0.47056077858213702 -0.03024644074295027 0 -0.47580415800009379 -0.02093770259963601 0 -0.47597217662329228 -0.0085245425598697612 0 -0.48598145264485831 -0.02728491224803695 0 -0.4893389393206713 -0.02366416211133009 0 -0.46826183959192841 -0.01000530680732737 0 -0.47056077858213702 -0.03024644074295027 0 -0.47056077858213702 -0.03024644074295027 0 -0.47580415800009379 -0.02093770259963601 0 -0.47745882259212458 -0.028728106929589409 0 -0.47580415800009379 -0.02093770259963601 0 -0.47745882259212458 -0.028728106929589409 0 -0.48598145264485831 -0.02728491224803695 0 -0.47748890114140963 -0.036443372127734748 0 -0.47745882259212458 -0.028728106929589409 0 -0.48598145264485831 -0.02728491224803695 0 -0.48598145264485831 -0.02728491224803695 0 -0.4893389393206713 -0.02366416211133009 0 -0.5 -0.025161366008633609 0 -0.48598145264485831 -0.02728491224803695 0 -0.4893389393206713 -0.02366416211133009 0 -0.4893389393206713 -0.02366416211133009 0 -0.5 -0.025161366008633609 0 -0.48922725890134677 -0.010453537226696331 0 -0.48922725890134677 -0.010453537226696331 0 -0.5 0.0032371206267481911 0 -0.48082517856277007 0.001845263919603602 0 -0.5 -0.025161366008633609 0 -0.48922725890134677 -0.010453537226696331 0 -0.5 0.0032371206267481911 0 -0.47597217662329228 -0.0085245425598697612 0 -0.4893389393206713 -0.02366416211133009 0 -0.48922725890134677 -0.010453537226696331 0 -0.5 0.0032371206267481911 0 -0.48596576445654982 0.01457961489688041 0 -0.48082517856277007 0.001845263919603602 0 -0.48596576445654982 0.01457961489688041 0 -0.47541999506787802 0.025418180444172121 0 -0.5 0.031635607262129987 0 -0.5 0.0032371206267481911 0 -0.48596576445654982 0.01457961489688041 0 -0.5 0.031635607262129987 0 -0.48596576445654982 0.01457961489688041 0 -0.47541999506787802 0.025418180444172121 0 -0.47401658579892991 0.013489912392399149 0 -0.47541999506787802 0.025418180444172121 0 -0.46963945276383978 0.01793989872667965 0 -0.47401658579892991 0.013489912392399149 0 -0.47597217662329228 -0.0085245425598697612 0 -0.48082517856277007 0.001845263919603602 0 -0.4659629006017233 0.010235827128295859 0 -0.47401658579892991 0.013489912392399149 0 -0.48082517856277007 0.001845263919603602 0 -0.4659629006017233 0.010235827128295859 0 -0.46963945276383978 0.01793989872667965 0 -0.47401658579892991 0.013489912392399149 0 -0.4659629006017233 0.010235827128295859 0 -0.47597217662329228 -0.0085245425598697612 0 -0.4659629006017233 0.010235827128295859 0 -0.48596576445654982 0.01457961489688041 0 -0.47401658579892991 0.013489912392399149 0 -0.48082517856277007 0.001845263919603602 0 -0.5 0.060034093897511798 0 -0.47816362815030861 0.043832779932641487 0 -0.48068047186290208 0.063626500276227002 0 -0.47541999506787802 0.025418180444172121 0 -0.5 0.031635607262129987 0 -0.47816362815030861 0.043832779932641487 0 -0.5 0.060034093897511798 0 -0.5 0.031635607262129987 0 -0.47816362815030861 0.043832779932641487 0 -0.47541999506787802 0.025418180444172121 0 -0.47816362815030861 0.043832779932641487 0 -0.46442391639916691 0.036471327701905212 0 -0.47816362815030861 0.043832779932641487 0 -0.46119618507356652 0.049359273152949731 0 -0.48068047186290208 0.063626500276227002 0 -0.46119618507356652 0.049359273152949731 0 -0.46103932749027238 0.064238871702306077 0 -0.48068047186290208 0.063626500276227002 0 -0.46119618507356652 0.049359273152949731 0 -0.44286953411296898 0.045255716157198693 0 -0.46103932749027238 0.064238871702306077 0 -0.47816362815030861 0.043832779932641487 0 -0.46119618507356652 0.049359273152949731 0 -0.46442391639916691 0.036471327701905212 0 -0.46119618507356652 0.049359273152949731 0 -0.46442391639916691 0.036471327701905212 0 -0.45082509298125129 0.038608595210277222 0 -0.46442391639916691 0.036471327701905212 0 -0.45082509298125129 0.038608595210277222 0 -0.4583939967914884 0.024422211169287101 0 -0.45082509298125129 0.038608595210277222 0 -0.4583939967914884 0.024422211169287101 0 -0.46119618507356652 0.049359273152949731 0 -0.45082509298125129 0.038608595210277222 0 -0.44286953411296898 0.045255716157198693 0 -0.45082509298125129 0.038608595210277222 0 -0.4405409619944019 0.035432846457562263 0 -0.4458839614772655 0.023387518650519249 0 -0.45082509298125129 0.038608595210277222 0 -0.4405409619944019 0.035432846457562263 0 -0.44286953411296898 0.045255716157198693 0 -0.4405409619944019 0.035432846457562263 0 -0.44286953411296898 0.045255716157198693 0 -0.43229092530358848 0.04451632412921195 0 -0.44286953411296898 0.045255716157198693 0 -0.44282721760043869 0.062046251170956107 0 -0.46103932749027238 0.064238871702306077 0 -0.44286953411296898 0.045255716157198693 0 -0.44282721760043869 0.062046251170956107 0 -0.43188097302969042 0.056955122555226501 0 -0.44286953411296898 0.045255716157198693 0 -0.46103932749027238 0.064238871702306077 0 -0.46826183959192841 -0.01000530680732737 0 -0.45588653083934588 0.00041698580085632909 0 -0.4659629006017233 0.010235827128295859 0 -0.46826183959192841 -0.01000530680732737 0 -0.4659629006017233 0.010235827128295859 0 -0.45609316173783881 0.014082317838893479 0 -0.45588653083934588 0.00041698580085632909 0 -0.4659629006017233 0.010235827128295859 0 -0.46963945276383978 0.01793989872667965 0 -0.4659629006017233 0.010235827128295859 0 -0.4583939967914884 0.024422211169287101 0 -0.4659629006017233 0.010235827128295859 0 -0.4583939967914884 0.024422211169287101 0 -0.47541999506787802 0.025418180444172121 0 -0.46963945276383978 0.01793989872667965 0 -0.4583939967914884 0.024422211169287101 0 -0.47541999506787802 0.025418180444172121 0 -0.46442391639916691 0.036471327701905212 0 -0.4583939967914884 0.024422211169287101 0 -0.45609316173783881 0.014082317838893479 0 -0.4659629006017233 0.010235827128295859 0 -0.4583939967914884 0.024422211169287101 0 -0.45609316173783881 0.014082317838893479 0 -0.4583939967914884 0.024422211169287101 0 -0.4458839614772655 0.023387518650519249 0 -0.45082509298125129 0.038608595210277222 0 -0.4583939967914884 0.024422211169287101 0 -0.4458839614772655 0.023387518650519249 0 -0.4405409619944019 0.035432846457562263 0 -0.4458839614772655 0.023387518650519249 0 -0.43566193494816191 0.02574822372494872 0 -0.4458839614772655 0.023387518650519249 0 -0.4359559447540089 0.01018896392150693 0 -0.43566193494816191 0.02574822372494872 0 -0.4441818909265971 -0.00998157505946092 0 -0.44737850259376799 0.0077656591989471307 0 -0.4359559447540089 0.01018896392150693 0 -0.4458839614772655 0.023387518650519249 0 -0.44737850259376799 0.0077656591989471307 0 -0.4359559447540089 0.01018896392150693 0 -0.45609316173783881 0.014082317838893479 0 -0.4458839614772655 0.023387518650519249 0 -0.44737850259376799 0.0077656591989471307 0 -0.45609316173783881 0.014082317838893479 0 -0.45588653083934588 0.00041698580085632909 0 -0.44737850259376799 0.0077656591989471307 0 -0.4441818909265971 -0.00998157505946092 0 -0.4359559447540089 0.01018896392150693 0 -0.42578104856505677 0.0031949168855625672 0 -0.42578104856505677 0.0031949168855625672 0 -0.41622595309658328 0.016397403714119251 0 -0.42870406893849561 0.019163111370922251 0 -0.4359559447540089 0.01018896392150693 0 -0.42578104856505677 0.0031949168855625672 0 -0.42870406893849561 0.019163111370922251 0 -0.41753789792717189 -0.0038843189997757009 0 -0.42578104856505677 0.0031949168855625672 0 -0.41105156913745711 0.0034129409419674369 0 -0.42578104856505677 0.0031949168855625672 0 -0.40852807671777941 0.0155494406680463 0 -0.41622595309658328 0.016397403714119251 0 -0.42578104856505677 0.0031949168855625672 0 -0.40852807671777941 0.0155494406680463 0 -0.41105156913745711 0.0034129409419674369 0 -0.42578104856505677 0.0031949168855625672 0 -0.40852807671777941 0.0155494406680463 0 -0.42578104856505677 0.0031949168855625672 0 -0.41622595309658328 0.016397403714119251 0 -0.40852807671777941 0.0155494406680463 0 -0.41105156913745711 0.0034129409419674369 0 -0.40262572535869262 0.0089097845909437267 0 -0.40771050441737638 -0.0035262849216432719 0 -0.41105156913745711 0.0034129409419674369 0 -0.40226596945639398 0.0014711925349297271 0 -0.40667085762811028 0.029599890542676258 0 -0.41622595309658328 0.016397403714119251 0 -0.42870406893849561 0.019163111370922251 0 -0.40667085762811028 0.029599890542676258 0 -0.42870406893849561 0.019163111370922251 0 -0.40667085762811028 0.029599890542676258 0 -0.41990433555607742 0.03061685230769556 0 -0.42870406893849561 0.019163111370922251 0 -0.40852807671777941 0.0155494406680463 0 -0.40667085762811028 0.029599890542676258 0 -0.41622595309658328 0.016397403714119251 0 -0.40667085762811028 0.029599890542676258 0 -0.41622595309658328 0.016397403714119251 0 -0.41990433555607742 0.03061685230769556 0 -0.4284463216954002 0.029357354603554459 0 -0.42870406893849561 0.019163111370922251 0 -0.4359559447540089 0.01018896392150693 0 -0.42870406893849561 0.019163111370922251 0 -0.43566193494816191 0.02574822372494872 0 -0.4284463216954002 0.029357354603554459 0 -0.42870406893849561 0.019163111370922251 0 -0.43566193494816191 0.02574822372494872 0 -0.4284463216954002 0.029357354603554459 0 -0.43566193494816191 0.02574822372494872 0 -0.43264023121812112 0.033917661463996759 0 -0.4405409619944019 0.035432846457562263 0 -0.43264023121812112 0.033917661463996759 0 -0.43229092530358848 0.04451632412921195 0 -0.43264023121812112 0.033917661463996759 0 -0.43229092530358848 0.04451632412921195 0 -0.42532103781614489 0.037340924150209003 0 -0.4405409619944019 0.035432846457562263 0 -0.43566193494816191 0.02574822372494872 0 -0.43264023121812112 0.033917661463996759 0 -0.43229092530358848 0.04451632412921195 0 -0.42532103781614489 0.037340924150209003 0 -0.42042490988599091 0.046091327469671317 0 -0.4284463216954002 0.029357354603554459 0 -0.43264023121812112 0.033917661463996759 0 -0.42532103781614489 0.037340924150209003 0 -0.41990433555607742 0.03061685230769556 0 -0.4284463216954002 0.029357354603554459 0 -0.42532103781614489 0.037340924150209003 0 -0.43229092530358848 0.04451632412921195 0 -0.43188097302969042 0.056955122555226501 0 -0.42585725303016408 0.051510102087770737 0 -0.44286953411296898 0.045255716157198693 0 -0.43229092530358848 0.04451632412921195 0 -0.43188097302969042 0.056955122555226501 0 -0.43229092530358848 0.04451632412921195 0 -0.42585725303016408 0.051510102087770737 0 -0.42042490988599091 0.046091327469671317 0 -0.43188097302969042 0.056955122555226501 0 -0.41883220390138681 0.058477634196973202 0 -0.43131469147834472 0.070632617455275076 0 -0.43188097302969042 0.056955122555226501 0 -0.42585725303016408 0.051510102087770737 0 -0.41883220390138681 0.058477634196973202 0 -0.41883220390138681 0.058477634196973202 0 -0.40840220717331749 0.048304634434869917 0 -0.39985653820026013 0.060860810446949978 0 -0.42585725303016408 0.051510102087770737 0 -0.41883220390138681 0.058477634196973202 0 -0.42042490988599091 0.046091327469671317 0 -0.41883220390138681 0.058477634196973202 0 -0.40840220717331749 0.048304634434869917 0 -0.42042490988599091 0.046091327469671317 0 -0.41990433555607742 0.03061685230769556 0 -0.42532103781614489 0.037340924150209003 0 -0.4122967326089878 0.037821593301397609 0 -0.42532103781614489 0.037340924150209003 0 -0.42042490988599091 0.046091327469671317 0 -0.4122967326089878 0.037821593301397609 0 -0.40840220717331749 0.048304634434869917 0 -0.4122967326089878 0.037821593301397609 0 -0.40579981868685489 0.041495006097714962 0 -0.40840220717331749 0.048304634434869917 0 -0.42042490988599091 0.046091327469671317 0 -0.4122967326089878 0.037821593301397609 0 -0.4122967326089878 0.037821593301397609 0 -0.40278544391907911 0.034968452634622761 0 -0.40579981868685489 0.041495006097714962 0 -0.40667085762811028 0.029599890542676258 0 -0.4122967326089878 0.037821593301397609 0 -0.40278544391907911 0.034968452634622761 0 -0.40667085762811028 0.029599890542676258 0 -0.41990433555607742 0.03061685230769556 0 -0.4122967326089878 0.037821593301397609 0 -0.40667085762811028 0.029599890542676258 0 -0.40278544391907911 0.034968452634622761 0 -0.40667085762811028 0.029599890542676258 0 -0.38856614517843069 0.038175802748282091 0 -0.40667085762811028 0.029599890542676258 0 -0.38856614517843069 0.038175802748282091 0 -0.39127510487050182 0.027903964450529759 0 -0.40667085762811028 0.029599890542676258 0 -0.40278544391907911 0.034968452634622761 0 -0.38856614517843069 0.038175802748282091 0 -0.40278544391907911 0.034968452634622761 0 -0.40579981868685489 0.041495006097714962 0 -0.3977250587697031 0.045015474274426849 0 -0.40840220717331749 0.048304634434869917 0 -0.40579981868685489 0.041495006097714962 0 -0.3977250587697031 0.045015474274426849 0 -0.40278544391907911 0.034968452634622761 0 -0.3977250587697031 0.045015474274426849 0 -0.38856614517843069 0.038175802748282091 0 -0.40840220717331749 0.048304634434869917 0 -0.3977250587697031 0.045015474274426849 0 -0.39985653820026013 0.060860810446949978 0 -0.3977250587697031 0.045015474274426849 0 -0.39985653820026013 0.060860810446949978 0 -0.38472691017257071 0.052921849058569698 0 -0.39985653820026013 0.060860810446949978 0 -0.38472691017257071 0.052921849058569698 0 -0.38510762700538009 0.066428587654483159 0 -0.38472691017257071 0.052921849058569698 0 -0.37046143272875132 0.04675171495388801 0 -0.37000681959492809 0.05831264468359916 0 -0.38472691017257071 0.052921849058569698 0 -0.38510762700538009 0.066428587654483159 0 -0.37000681959492809 0.05831264468359916 0 -0.38856614517843069 0.038175802748282091 0 -0.37871402691879819 0.03757115751491092 0 -0.37046143272875132 0.04675171495388801 0 -0.38856614517843069 0.038175802748282091 0 -0.37046143272875132 0.04675171495388801 0 -0.38472691017257071 0.052921849058569698 0 -0.38856614517843069 0.038175802748282091 0 -0.37046143272875132 0.04675171495388801 0 -0.38856614517843069 0.038175802748282091 0 -0.38315308642314733 0.033917821982192238 0 -0.39127510487050182 0.027903964450529759 0 -0.38856614517843069 0.038175802748282091 0 -0.38315308642314733 0.033917821982192238 0 -0.37871402691879819 0.03757115751491092 0 -0.3977250587697031 0.045015474274426849 0 -0.38472691017257071 0.052921849058569698 0 -0.38856614517843069 0.038175802748282091 0 -0.37871402691879819 0.03757115751491092 0 -0.3764786745208083 0.032098692741998169 0 -0.37046143272875132 0.04675171495388801 0 -0.38315308642314733 0.033917821982192238 0 -0.3764786745208083 0.032098692741998169 0 -0.38155727091044611 0.028316364585127811 0 -0.38315308642314733 0.033917821982192238 0 -0.37871402691879819 0.03757115751491092 0 -0.3764786745208083 0.032098692741998169 0 -0.3764786745208083 0.032098692741998169 0 -0.38155727091044611 0.028316364585127811 0 -0.37960108001976323 0.022263106047543741 0 -0.37960108001976323 0.022263106047543741 0 -0.37998819155715241 0.0057865511937031933 0 -0.37123175334181557 0.027162262264614271 0 -0.3764786745208083 0.032098692741998169 0 -0.37960108001976323 0.022263106047543741 0 -0.37123175334181557 0.027162262264614271 0 -0.38155727091044611 0.028316364585127811 0 -0.38533699425949169 0.022674384769296389 0 -0.37960108001976323 0.022263106047543741 0 -0.38155727091044611 0.028316364585127811 0 -0.38533699425949169 0.022674384769296389 0 -0.39127510487050182 0.027903964450529759 0 -0.38315308642314733 0.033917821982192238 0 -0.38155727091044611 0.028316364585127811 0 -0.39127510487050182 0.027903964450529759 0 -0.39054146691731162 0.018060194648231769 0 -0.38533699425949169 0.022674384769296389 0 -0.39127510487050182 0.027903964450529759 0 -0.38533699425949169 0.022674384769296389 0 -0.3837100485794358 0.01682829411504885 0 -0.37960108001976323 0.022263106047543741 0 -0.39054146691731162 0.018060194648231769 0 -0.38533699425949169 0.022674384769296389 0 -0.3837100485794358 0.01682829411504885 0 -0.3837100485794358 0.01682829411504885 0 -0.37960108001976323 0.022263106047543741 0 -0.37998819155715241 0.0057865511937031933 0 -0.37998819155715241 0.0057865511937031933 0 -0.38683543611469601 0.0001369023841863784 0 -0.36064890389212972 0.0125435277679194 0 -0.37998819155715241 0.0057865511937031933 0 -0.38683543611469601 0.0001369023841863784 0 -0.38901012294298121 0.0062908016400105649 0 -0.38683543611469601 0.0001369023841863784 0 -0.38901012294298121 0.0062908016400105649 0 -0.39501457079486157 0.0055715078560810288 0 -0.37998819155715241 0.0057865511937031933 0 -0.38901012294298121 0.0062908016400105649 0 -0.38744744785130802 0.01185902438546781 0 -0.3837100485794358 0.01682829411504885 0 -0.37998819155715241 0.0057865511937031933 0 -0.38744744785130802 0.01185902438546781 0 -0.38901012294298121 0.0062908016400105649 0 -0.38744744785130802 0.01185902438546781 0 -0.39422738021243581 0.01127211946813913 0 -0.39054146691731162 0.018060194648231769 0 -0.3837100485794358 0.01682829411504885 0 -0.38744744785130802 0.01185902438546781 0 -0.39054146691731162 0.018060194648231769 0 -0.39422738021243581 0.01127211946813913 0 -0.39743955081534421 0.016339100765178138 0 -0.39054146691731162 0.018060194648231769 0 -0.38744744785130802 0.01185902438546781 0 -0.39422738021243581 0.01127211946813913 0 -0.39422738021243581 0.01127211946813913 0 -0.39501457079486157 0.0055715078560810288 0 -0.40262572535869262 0.0089097845909437267 0 -0.39422738021243581 0.01127211946813913 0 -0.40262572535869262 0.0089097845909437267 0 -0.39743955081534421 0.016339100765178138 0 -0.38683543611469601 0.0001369023841863784 0 -0.39501457079486157 0.0055715078560810288 0 -0.40226596945639398 0.0014711925349297271 0 -0.38901012294298121 0.0062908016400105649 0 -0.39422738021243581 0.01127211946813913 0 -0.39501457079486157 0.0055715078560810288 0 -0.41105156913745711 0.0034129409419674369 0 -0.40226596945639398 0.0014711925349297271 0 -0.40262572535869262 0.0089097845909437267 0 -0.39501457079486157 0.0055715078560810288 0 -0.40226596945639398 0.0014711925349297271 0 -0.40262572535869262 0.0089097845909437267 0 -0.40852807671777941 0.0155494406680463 0 -0.40262572535869262 0.0089097845909437267 0 -0.39743955081534421 0.016339100765178138 0 -0.40852807671777941 0.0155494406680463 0 -0.39127510487050182 0.027903964450529759 0 -0.40852807671777941 0.0155494406680463 0 -0.40667085762811028 0.029599890542676258 0 -0.39127510487050182 0.027903964450529759 0 -0.40852807671777941 0.0155494406680463 0 -0.39127510487050182 0.027903964450529759 0 -0.39743955081534421 0.016339100765178138 0 -0.39054146691731162 0.018060194648231769 0 -0.39127510487050182 0.027903964450529759 0 -0.39743955081534421 0.016339100765178138 0 -0.39792088922733271 0.1160922105611595 0 -0.40104213778508202 0.092866093853817611 0 -0.41467909406405851 0.1139188519362445 0 -0.39792088922733271 0.1160922105611595 0 -0.3782625711058698 0.101617738696854 0 -0.40104213778508202 0.092866093853817611 0 -0.3782625711058698 0.101617738696854 0 -0.38372255811484618 0.13025780258704611 0 -0.3782625711058698 0.101617738696854 0 -0.38372255811484618 0.13025780258704611 0 -0.36747352968705388 0.12273486311700831 0 -0.39792088922733271 0.1160922105611595 0 -0.3782625711058698 0.101617738696854 0 -0.38372255811484618 0.13025780258704611 0 -0.39792088922733271 0.1160922105611595 0 -0.3782625711058698 0.101617738696854 0 -0.3782625711058698 0.101617738696854 0 -0.40104213778508202 0.092866093853817611 0 -0.37470600383380392 0.082961959162170973 0 -0.39520328107527708 0.075997639864115257 0 -0.40104213778508202 0.092866093853817611 0 -0.37470600383380392 0.082961959162170973 0 -0.3782625711058698 0.101617738696854 0 -0.37470600383380392 0.082961959162170973 0 -0.40104213778508202 0.092866093853817611 0 -0.37470600383380392 0.082961959162170973 0 -0.38510762700538009 0.066428587654483159 0 -0.37000681959492809 0.05831264468359916 0 -0.37470600383380392 0.082961959162170973 0 -0.38510762700538009 0.066428587654483159 0 -0.39520328107527708 0.075997639864115257 0 -0.37470600383380392 0.082961959162170973 0 -0.39985653820026013 0.060860810446949978 0 -0.39520328107527708 0.075997639864115257 0 -0.41322693425173768 0.074694678089132868 0 -0.39985653820026013 0.060860810446949978 0 -0.38510762700538009 0.066428587654483159 0 -0.39520328107527708 0.075997639864115257 0 -0.39520328107527708 0.075997639864115257 0 -0.40104213778508202 0.092866093853817611 0 -0.41322693425173768 0.074694678089132868 0 -0.40104213778508202 0.092866093853817611 0 -0.41322693425173768 0.074694678089132868 0 -0.42957324029363853 0.085693113452461764 0 -0.41883220390138681 0.058477634196973202 0 -0.41322693425173768 0.074694678089132868 0 -0.43131469147834472 0.070632617455275076 0 -0.41883220390138681 0.058477634196973202 0 -0.39985653820026013 0.060860810446949978 0 -0.41322693425173768 0.074694678089132868 0 -0.43131469147834472 0.070632617455275076 0 -0.42957324029363853 0.085693113452461764 0 -0.4470315618909167 0.073148927984774167 0 -0.41322693425173768 0.074694678089132868 0 -0.43131469147834472 0.070632617455275076 0 -0.42957324029363853 0.085693113452461764 0 -0.44282721760043869 0.062046251170956107 0 -0.43188097302969042 0.056955122555226501 0 -0.43131469147834472 0.070632617455275076 0 -0.42957324029363853 0.085693113452461764 0 -0.42737827173636012 0.1027702285454639 0 -0.44343173260412461 0.097571970950778963 0 -0.40104213778508202 0.092866093853817611 0 -0.42737827173636012 0.1027702285454639 0 -0.41467909406405851 0.1139188519362445 0 -0.40104213778508202 0.092866093853817611 0 -0.42737827173636012 0.1027702285454639 0 -0.40104213778508202 0.092866093853817611 0 -0.42957324029363853 0.085693113452461764 0 -0.42737827173636012 0.1027702285454639 0 -0.39792088922733271 0.1160922105611595 0 -0.41467909406405851 0.1139188519362445 0 -0.417579207348795 0.13056668242546571 0 -0.39792088922733271 0.1160922105611595 0 -0.417579207348795 0.13056668242546571 0 -0.41467909406405851 0.1139188519362445 0 -0.42608096723388439 0.1205091241492761 0 -0.417579207348795 0.13056668242546571 0 -0.42737827173636012 0.1027702285454639 0 -0.41467909406405851 0.1139188519362445 0 -0.42608096723388439 0.1205091241492761 0 -0.42737827173636012 0.1027702285454639 0 -0.42608096723388439 0.1205091241492761 0 -0.43826405507869293 0.1195835460605416 0 -0.42608096723388439 0.1205091241492761 0 -0.43826405507869293 0.1195835460605416 0 -0.43293323699752101 0.1317554923945817 0 -0.43826405507869293 0.1195835460605416 0 -0.45371440568763749 0.1126743632371118 0 -0.44901593584904892 0.12912088192892021 0 -0.42737827173636012 0.1027702285454639 0 -0.43826405507869293 0.1195835460605416 0 -0.45371440568763749 0.1126743632371118 0 -0.4523882543875366 0.10983005993361 0 -0.45371440568763749 0.1126743632371118 0 -0.42737827173636012 0.1027702285454639 0 -0.4523882543875366 0.10983005993361 0 -0.44343173260412461 0.097571970950778963 0 -0.42737827173636012 0.1027702285454639 0 -0.4523882543875366 0.10983005993361 0 -0.45371440568763749 0.1126743632371118 0 -0.42737827173636012 0.1027702285454639 0 -0.45371440568763749 0.1126743632371118 0 -0.44343173260412461 0.097571970950778963 0 -0.45084974973894648 0.096020795281878568 0 -0.45306155814551219 0.1028275296158008 0 -0.44343173260412461 0.097571970950778963 0 -0.45084974973894648 0.096020795281878568 0 -0.44733932132275389 0.088290098875458828 0 -0.4523882543875366 0.10983005993361 0 -0.44343173260412461 0.097571970950778963 0 -0.45306155814551219 0.1028275296158008 0 -0.4523882543875366 0.10983005993361 0 -0.45306155814551219 0.1028275296158008 0 -0.45661100561120399 0.109540819014999 0 -0.45306155814551219 0.1028275296158008 0 -0.46084618436187341 0.10490351706993729 0 -0.45661100561120399 0.109540819014999 0 -0.45306155814551219 0.1028275296158008 0 -0.46084618436187341 0.10490351706993729 0 -0.45799439118323759 0.099220837031069903 0 -0.46084618436187341 0.10490351706993729 0 -0.4635407771028337 0.1124237257980706 0 -0.45661100561120399 0.109540819014999 0 -0.45799439118323759 0.099220837031069903 0 -0.46723244863383712 0.097971273043108306 0 -0.45594156200913483 0.091684632610025046 0 -0.45084974973894648 0.096020795281878568 0 -0.45799439118323759 0.099220837031069903 0 -0.45594156200913483 0.091684632610025046 0 -0.45084974973894648 0.096020795281878568 0 -0.45306155814551219 0.1028275296158008 0 -0.45799439118323759 0.099220837031069903 0 -0.46084618436187341 0.10490351706993729 0 -0.45799439118323759 0.099220837031069903 0 -0.46723244863383712 0.097971273043108306 0 -0.46084618436187341 0.10490351706993729 0 -0.46723244863383712 0.097971273043108306 0 -0.46686982756835349 0.1074114054382402 0 -0.46084618436187341 0.10490351706993729 0 -0.46686982756835349 0.1074114054382402 0 -0.4635407771028337 0.1124237257980706 0 -0.45371440568763749 0.1126743632371118 0 -0.46425598871103851 0.13528374379222011 0 -0.4635407771028337 0.1124237257980706 0 -0.45674497769142258 0.1138140594952527 0 -0.46958882025875243 0.12035793204680111 0 -0.46686982756835349 0.1074114054382402 0 -0.4635407771028337 0.1124237257980706 0 -0.47044075898603932 0.11380610730348489 0 -0.4635407771028337 0.1124237257980706 0 -0.46958882025875243 0.12035793204680111 0 -0.47044075898603932 0.11380610730348489 0 -0.45674497769142258 0.1138140594952527 0 -0.45371440568763749 0.1126743632371118 0 -0.46425598871103851 0.13528374379222011 0 -0.45674497769142258 0.1138140594952527 0 -0.46958882025875243 0.12035793204680111 0 -0.46425598871103851 0.13528374379222011 0 -0.4523882543875366 0.10983005993361 0 -0.45661100561120399 0.109540819014999 0 -0.45371440568763749 0.1126743632371118 0 -0.45674497769142258 0.1138140594952527 0 -0.45661100561120399 0.109540819014999 0 -0.45371440568763749 0.1126743632371118 0 -0.45674497769142258 0.1138140594952527 0 -0.45371440568763749 0.1126743632371118 0 -0.4635407771028337 0.1124237257980706 0 -0.45674497769142258 0.1138140594952527 0 -0.45661100561120399 0.109540819014999 0 -0.44282721760043869 0.062046251170956107 0 -0.4470315618909167 0.073148927984774167 0 -0.46103932749027238 0.064238871702306077 0 -0.44282721760043869 0.062046251170956107 0 -0.43131469147834472 0.070632617455275076 0 -0.4470315618909167 0.073148927984774167 0 -0.42957324029363853 0.085693113452461764 0 -0.44343173260412461 0.097571970950778963 0 -0.44733932132275389 0.088290098875458828 0 -0.42957324029363853 0.085693113452461764 0 -0.4470315618909167 0.073148927984774167 0 -0.44733932132275389 0.088290098875458828 0 -0.4470315618909167 0.073148927984774167 0 -0.44733932132275389 0.088290098875458828 0 -0.46047789149500767 0.082617330138573752 0 -0.45084974973894648 0.096020795281878568 0 -0.44733932132275389 0.088290098875458828 0 -0.45594156200913483 0.091684632610025046 0 -0.44733932132275389 0.088290098875458828 0 -0.45594156200913483 0.091684632610025046 0 -0.46047789149500767 0.082617330138573752 0 -0.46723244863383712 0.097971273043108306 0 -0.45594156200913483 0.091684632610025046 0 -0.46047789149500767 0.082617330138573752 0 -0.46047789149500767 0.082617330138573752 0 -0.46103932749027238 0.064238871702306077 0 -0.47920912086757578 0.083222027247413538 0 -0.4470315618909167 0.073148927984774167 0 -0.46047789149500767 0.082617330138573752 0 -0.46103932749027238 0.064238871702306077 0 -0.46103932749027238 0.064238871702306077 0 -0.48068047186290208 0.063626500276227002 0 -0.47920912086757578 0.083222027247413538 0 -0.46103932749027238 0.064238871702306077 0 -0.47920912086757578 0.083222027247413538 0 -0.46723244863383712 0.097971273043108306 0 -0.46047789149500767 0.082617330138573752 0 -0.47920912086757578 0.083222027247413538 0 -0.48068047186290208 0.063626500276227002 0 -0.47920912086757578 0.083222027247413538 0 -0.5 0.088432580532893601 0 -0.47920912086757578 0.083222027247413538 0 -0.49737891424487929 0.102205182792521 0 -0.47920912086757578 0.083222027247413538 0 -0.5 0.088432580532893601 0 -0.49737891424487929 0.102205182792521 0 -0.5 0.060034093897511798 0 -0.48068047186290208 0.063626500276227002 0 -0.5 0.088432580532893601 0 -0.47827810320487629 0.116675775998883 0 -0.48837893466537508 0.1117690854599766 0 -0.4842723158563047 0.1301441798928954 0 -0.47827810320487629 0.116675775998883 0 -0.47512549980118862 0.10796659812409699 0 -0.48837893466537508 0.1117690854599766 0 -0.47827810320487629 0.116675775998883 0 -0.46958882025875243 0.12035793204680111 0 -0.4842723158563047 0.1301441798928954 0 -0.47827810320487629 0.116675775998883 0 -0.47044075898603932 0.11380610730348489 0 -0.47512549980118862 0.10796659812409699 0 -0.46686982756835349 0.1074114054382402 0 -0.47044075898603932 0.11380610730348489 0 -0.47512549980118862 0.10796659812409699 0 -0.47827810320487629 0.116675775998883 0 -0.46958882025875243 0.12035793204680111 0 -0.47044075898603932 0.11380610730348489 0 -0.46723244863383712 0.097971273043108306 0 -0.47512549980118862 0.10796659812409699 0 -0.48162445158666772 0.1005823670901454 0 -0.46723244863383712 0.097971273043108306 0 -0.47920912086757578 0.083222027247413538 0 -0.48162445158666772 0.1005823670901454 0 -0.46723244863383712 0.097971273043108306 0 -0.46686982756835349 0.1074114054382402 0 -0.47512549980118862 0.10796659812409699 0 -0.47512549980118862 0.10796659812409699 0 -0.48162445158666772 0.1005823670901454 0 -0.48837893466537508 0.1117690854599766 0 -0.48162445158666772 0.1005823670901454 0 -0.49737891424487929 0.102205182792521 0 -0.48837893466537508 0.1117690854599766 0 -0.47920912086757578 0.083222027247413538 0 -0.48162445158666772 0.1005823670901454 0 -0.49737891424487929 0.102205182792521 0 -0.5 0.088432580532893601 0 -0.49737891424487929 0.102205182792521 0 -0.5 0.1168310671682755 0 -0.49737891424487929 0.102205182792521 0 -0.5 0.1168310671682755 0 -0.48837893466537508 0.1117690854599766 0 -0.5 0.1168310671682755 0 -0.48837893466537508 0.1117690854599766 0 -0.4842723158563047 0.1301441798928954 0 -0.5 0.1168310671682755 0 -0.4842723158563047 0.1301441798928954 0 -0.5 0.14522955380365729 0 -0.46958882025875243 0.12035793204680111 0 -0.4842723158563047 0.1301441798928954 0 -0.46425598871103851 0.13528374379222011 0 -0.4842723158563047 0.1301441798928954 0 -0.47479757173443998 0.15789312434732811 0 -0.46425598871103851 0.13528374379222011 0 -0.47479757173443998 0.15789312434732811 0 -0.46425598871103851 0.13528374379222011 0 -0.4842723158563047 0.1301441798928954 0 -0.5 0.14522955380365729 0 -0.47479757173443998 0.15789312434732811 0 -0.5 0.14522955380365729 0 -0.49999999999999972 0.17362804043903909 0 -0.47479757173443998 0.15789312434732811 0 -0.49999999999999972 0.17362804043903909 0 -0.47479757173443998 0.15789312434732811 0 -0.49999999999999972 0.17362804043903909 0 -0.49200992699072321 0.1743962810239672 0 -0.47479757173443998 0.15789312434732811 0 -0.48341269367675271 0.17637066895233999 0 -0.49170634683837577 0.1941587336203292 0 -0.49368671912131301 0.1828531969182482 0 -0.49999999999999972 0.17362804043903909 0 -0.5 0.19278741936367841 0 -0.49368671912131301 0.1828531969182482 0 -0.48341269367675271 0.17637066895233999 0 -0.49170634683837577 0.1941587336203292 0 -0.49368671912131301 0.1828531969182482 0 -0.49999999999999972 0.17362804043903909 0 -0.49200992699072321 0.1743962810239672 0 -0.49200992699072321 0.1743962810239672 0 -0.48341269367675271 0.17637066895233999 0 -0.49368671912131301 0.1828531969182482 0 -0.49200992699072321 0.1743962810239672 0 -0.48341269367675271 0.17637066895233999 0 -0.48341269367675271 0.17637066895233999 0 -0.45591042926964898 0.18268667049205081 0 -0.47274380268756999 0.19288508587190861 0 -0.48341269367675271 0.17637066895233999 0 -0.45591042926964898 0.18268667049205081 0 -0.49200992699072321 0.1743962810239672 0 -0.48341269367675271 0.17637066895233999 0 -0.47479757173443998 0.15789312434732811 0 -0.48341269367675271 0.17637066895233999 0 -0.47479757173443998 0.15789312434732811 0 -0.48341269367675271 0.17637066895233999 0 -0.47479757173443998 0.15789312434732811 0 -0.45723956394668003 0.16387676974864759 0 -0.48341269367675271 0.17637066895233999 0 -0.45723956394668003 0.16387676974864759 0 -0.45591042926964898 0.18268667049205081 0 -0.45591042926964898 0.18268667049205081 0 -0.43992511097516529 0.17411109905454999 0 -0.4284081648625454 0.1890026720317621 0 -0.45591042926964898 0.18268667049205081 0 -0.4284081648625454 0.1890026720317621 0 -0.45723956394668003 0.16387676974864759 0 -0.45591042926964898 0.18268667049205081 0 -0.43992511097516529 0.17411109905454999 0 -0.45723956394668003 0.16387676974864759 0 -0.43992511097516529 0.17411109905454999 0 -0.43892522612619872 0.15930650560997939 0 -0.43892522612619872 0.15930650560997939 0 -0.43796764784210812 0.14528805014891141 0 -0.45386540436598038 0.14482430837095511 0 -0.45723956394668003 0.16387676974864759 0 -0.43892522612619872 0.15930650560997939 0 -0.45386540436598038 0.14482430837095511 0 -0.45386540436598038 0.14482430837095511 0 -0.43293323699752101 0.1317554923945817 0 -0.43826405507869293 0.1195835460605416 0 -0.44901593584904892 0.12912088192892021 0 -0.43293323699752101 0.1317554923945817 0 -0.43796764784210812 0.14528805014891141 0 -0.45386540436598038 0.14482430837095511 0 -0.43293323699752101 0.1317554923945817 0 -0.44901593584904892 0.12912088192892021 0 -0.45386540436598038 0.14482430837095511 0 -0.43293323699752101 0.1317554923945817 0 -0.45371440568763749 0.1126743632371118 0 -0.44901593584904892 0.12912088192892021 0 -0.46425598871103851 0.13528374379222011 0 -0.44901593584904892 0.12912088192892021 0 -0.46425598871103851 0.13528374379222011 0 -0.45386540436598038 0.14482430837095511 0 -0.47479757173443998 0.15789312434732811 0 -0.45723956394668003 0.16387676974864759 0 -0.45386540436598038 0.14482430837095511 0 -0.47479757173443998 0.15789312434732811 0 -0.46425598871103851 0.13528374379222011 0 -0.45386540436598038 0.14482430837095511 0 -0.47479757173443998 0.15789312434732811 0 -0.45386540436598038 0.14482430837095511 0 -0.48226153920099157 0.23766317590200001 0 -0.47864167104372218 0.246590621409366 0 -0.48932095354102823 0.25454658797793611 0 -0.47315400564016008 0.2364435414805684 0 -0.47864167104372218 0.246590621409366 0 -0.46938038244821267 0.25133041049185839 0 -0.47315400564016008 0.2364435414805684 0 -0.48226153920099157 0.23766317590200001 0 -0.47864167104372218 0.246590621409366 0 -0.49106398183666961 0.22759324404760359 0 -0.48932095354102823 0.25454658797793611 0 -0.5 0.23810140997737081 0 -0.49106398183666961 0.22759324404760359 0 -0.48932095354102823 0.25454658797793611 0 -0.48226153920099157 0.23766317590200001 0 -0.49106398183666961 0.22759324404760359 0 -0.48932095354102823 0.25454658797793611 0 -0.5 0.23810140997737081 0 -0.49106398183666961 0.22759324404760359 0 -0.50000000000000022 0.21194679828831781 0 -0.49106398183666961 0.22759324404760359 0 -0.47912708394337772 0.2231418845945258 0 -0.48726644121087642 0.21298690825741631 0 -0.48226153920099157 0.23766317590200001 0 -0.49106398183666961 0.22759324404760359 0 -0.47912708394337772 0.2231418845945258 0 -0.47315400564016008 0.2364435414805684 0 -0.48226153920099157 0.23766317590200001 0 -0.47912708394337772 0.2231418845945258 0 -0.47315400564016008 0.2364435414805684 0 -0.47912708394337772 0.2231418845945258 0 -0.46764368341616458 0.22415830119077751 0 -0.47912708394337772 0.2231418845945258 0 -0.47360767850491831 0.20951316246361981 0 -0.46764368341616458 0.22415830119077751 0 -0.47360767850491831 0.20951316246361981 0 -0.48726644121087642 0.21298690825741631 0 -0.49170634683837577 0.1941587336203292 0 -0.47912708394337772 0.2231418845945258 0 -0.47360767850491831 0.20951316246361981 0 -0.48726644121087642 0.21298690825741631 0 -0.49106398183666961 0.22759324404760359 0 -0.50000000000000022 0.21194679828831781 0 -0.48726644121087642 0.21298690825741631 0 -0.50000000000000022 0.21194679828831781 0 -0.48726644121087642 0.21298690825741631 0 -0.49170634683837577 0.1941587336203292 0 -0.50000000000000022 0.21194679828831781 0 -0.49170634683837577 0.1941587336203292 0 -0.50000000000000022 0.21194679828831781 0 -0.5 0.19278741936367841 0 -0.49170634683837577 0.1941587336203292 0 -0.49368671912131301 0.1828531969182482 0 -0.5 0.19278741936367841 0 -0.49170634683837577 0.1941587336203292 0 -0.48341269367675271 0.17637066895233999 0 -0.49170634683837577 0.1941587336203292 0 -0.47274380268756999 0.19288508587190861 0 -0.47360767850491831 0.20951316246361981 0 -0.49170634683837577 0.1941587336203292 0 -0.47274380268756999 0.19288508587190861 0 -0.47360767850491831 0.20951316246361981 0 -0.47274380268756999 0.19288508587190861 0 -0.45820261548712909 0.20353130823034371 0 -0.45591042926964898 0.18268667049205081 0 -0.47274380268756999 0.19288508587190861 0 -0.45820261548712909 0.20353130823034371 0 -0.45591042926964898 0.18268667049205081 0 -0.43516662619925378 0.20614333559983469 0 -0.4284081648625454 0.1890026720317621 0 -0.45591042926964898 0.18268667049205081 0 -0.45820261548712909 0.20353130823034371 0 -0.43516662619925378 0.20614333559983469 0 -0.44192508753596349 0.22328399916790689 0 -0.43516662619925378 0.20614333559983469 0 -0.45032248765871591 0.2151961798839368 0 -0.44192508753596349 0.22328399916790689 0 -0.43516662619925378 0.20614333559983469 0 -0.45032248765871591 0.2151961798839368 0 -0.45820261548712909 0.20353130823034371 0 -0.43516662619925378 0.20614333559983469 0 -0.45032248765871591 0.2151961798839368 0 -0.46109406183397039 0.21551848415653921 0 -0.45620465585954723 0.2251951411450015 0 -0.45032248765871591 0.2151961798839368 0 -0.45820261548712909 0.20353130823034371 0 -0.46109406183397039 0.21551848415653921 0 -0.47360767850491831 0.20951316246361981 0 -0.45820261548712909 0.20353130823034371 0 -0.46109406183397039 0.21551848415653921 0 -0.47360767850491831 0.20951316246361981 0 -0.46109406183397039 0.21551848415653921 0 -0.46764368341616458 0.22415830119077751 0 -0.47315400564016008 0.2364435414805684 0 -0.46764368341616458 0.22415830119077751 0 -0.45925329591452863 0.2407771106774913 0 -0.46764368341616458 0.22415830119077751 0 -0.45620465585954723 0.2251951411450015 0 -0.45925329591452863 0.2407771106774913 0 -0.46109406183397039 0.21551848415653921 0 -0.46764368341616458 0.22415830119077751 0 -0.45620465585954723 0.2251951411450015 0 -0.45032248765871591 0.2151961798839368 0 -0.45620465585954723 0.2251951411450015 0 -0.44192508753596349 0.22328399916790689 0 -0.44192508753596349 0.22328399916790689 0 -0.44062222049055039 0.24203477259657111 0 -0.43146145522804691 0.2313120115293863 0 -0.45620465585954723 0.2251951411450015 0 -0.44062222049055039 0.24203477259657111 0 -0.45620465585954723 0.2251951411450015 0 -0.44192508753596349 0.22328399916790689 0 -0.44062222049055039 0.24203477259657111 0 -0.44062222049055039 0.24203477259657111 0 -0.45046339488490522 0.249057113070103 0 -0.44442574262614493 0.25832327296872359 0 -0.44062222049055039 0.24203477259657111 0 -0.45046339488490522 0.249057113070103 0 -0.45925329591452863 0.2407771106774913 0 -0.45620465585954723 0.2251951411450015 0 -0.44062222049055039 0.24203477259657111 0 -0.45925329591452863 0.2407771106774913 0 -0.45046339488490522 0.249057113070103 0 -0.45925329591452863 0.2407771106774913 0 -0.45807104112411212 0.25534721177055669 0 -0.45925329591452863 0.2407771106774913 0 -0.46938038244821267 0.25133041049185839 0 -0.45807104112411212 0.25534721177055669 0 -0.47315400564016008 0.2364435414805684 0 -0.45925329591452863 0.2407771106774913 0 -0.46938038244821267 0.25133041049185839 0 -0.4198454647722451 0.23985190764030939 0 -0.40081965837488509 0.24074316727492401 0 -0.40585136056822319 0.25674789398696107 0 -0.4198454647722451 0.23985190764030939 0 -0.405480724964072 0.22581663549259839 0 -0.40081965837488509 0.24074316727492401 0 -0.44062222049055039 0.24203477259657111 0 -0.4198454647722451 0.23985190764030939 0 -0.42503978512155383 0.25887440404814072 0 -0.44062222049055039 0.24203477259657111 0 -0.4198454647722451 0.23985190764030939 0 -0.43146145522804691 0.2313120115293863 0 -0.4198454647722451 0.23985190764030939 0 -0.43146145522804691 0.2313120115293863 0 -0.42370673975344808 0.22056464269113771 0 -0.44192508753596349 0.22328399916790689 0 -0.43146145522804691 0.2313120115293863 0 -0.42370673975344808 0.22056464269113771 0 -0.4198454647722451 0.23985190764030939 0 -0.42370673975344808 0.22056464269113771 0 -0.405480724964072 0.22581663549259839 0 -0.42370673975344808 0.22056464269113771 0 -0.40708390191205951 0.20882890034131879 0 -0.405480724964072 0.22581663549259839 0 -0.42370673975344808 0.22056464269113771 0 -0.40708390191205951 0.20882890034131879 0 -0.42107335870595469 0.2022269477122331 0 -0.44192508753596349 0.22328399916790689 0 -0.42370673975344808 0.22056464269113771 0 -0.43516662619925378 0.20614333559983469 0 -0.42370673975344808 0.22056464269113771 0 -0.43516662619925378 0.20614333559983469 0 -0.42107335870595469 0.2022269477122331 0 -0.43516662619925378 0.20614333559983469 0 -0.4284081648625454 0.1890026720317621 0 -0.42107335870595469 0.2022269477122331 0 -0.43516662619925378 0.20614333559983469 0 -0.4284081648625454 0.1890026720317621 0 -0.4284081648625454 0.1890026720317621 0 -0.40915969581062839 0.19342315750049971 0 -0.4284081648625454 0.1890026720317621 0 -0.42107335870595469 0.2022269477122331 0 -0.40915969581062839 0.19342315750049971 0 -0.40708390191205951 0.20882890034131879 0 -0.42107335870595469 0.2022269477122331 0 -0.40915969581062839 0.19342315750049971 0 -0.40708390191205951 0.20882890034131879 0 -0.40915969581062839 0.19342315750049971 0 -0.38991122675871148 0.19784364296923759 0 -0.40915969581062839 0.19342315750049971 0 -0.38991122675871148 0.19784364296923759 0 -0.40915969581062839 0.19342315750049971 0 -0.38991122675871148 0.19784364296923759 0 -0.39569501158598158 0.17813944679546001 0 -0.39158905321283283 0.2136173787495643 0 -0.38435338999826391 0.22831720607051781 0 -0.36414166766971379 0.2074649771098355 0 -0.38991122675871148 0.19784364296923759 0 -0.39158905321283283 0.2136173787495643 0 -0.36414166766971379 0.2074649771098355 0 -0.40708390191205951 0.20882890034131879 0 -0.39158905321283283 0.2136173787495643 0 -0.405480724964072 0.22581663549259839 0 -0.40708390191205951 0.20882890034131879 0 -0.38991122675871148 0.19784364296923759 0 -0.39158905321283283 0.2136173787495643 0 -0.405480724964072 0.22581663549259839 0 -0.38435338999826391 0.22831720607051781 0 -0.40081965837488509 0.24074316727492401 0 -0.39158905321283283 0.2136173787495643 0 -0.405480724964072 0.22581663549259839 0 -0.38435338999826391 0.22831720607051781 0 -0.37619177155740557 0.24036243622333081 0 -0.38790582398472923 0.24962922847932231 0 -0.36318679658289171 0.25196182354824148 0 -0.38435338999826391 0.22831720607051781 0 -0.37619177155740557 0.24036243622333081 0 -0.38790582398472923 0.24962922847932231 0 -0.38435338999826391 0.22831720607051781 0 -0.38790582398472923 0.24962922847932231 0 -0.40081965837488509 0.24074316727492401 0 -0.38790582398472923 0.24962922847932231 0 -0.40081965837488509 0.24074316727492401 0 -0.40585136056822319 0.25674789398696107 0 -0.40926453963391513 0.14045102348790381 0 -0.42614672387873248 0.14526589422012931 0 -0.41883635224822963 0.16472684775983329 0 -0.40926453963391513 0.14045102348790381 0 -0.41883635224822963 0.16472684775983329 0 -0.40926453963391513 0.14045102348790381 0 -0.41883635224822963 0.16472684775983329 0 -0.40029434983296169 0.15790366282291429 0 -0.40926453963391513 0.14045102348790381 0 -0.417579207348795 0.13056668242546571 0 -0.40026410281127539 0.13237877311027449 0 -0.40926453963391513 0.14045102348790381 0 -0.417579207348795 0.13056668242546571 0 -0.42614672387873248 0.14526589422012931 0 -0.417579207348795 0.13056668242546571 0 -0.43293323699752101 0.1317554923945817 0 -0.42614672387873248 0.14526589422012931 0 -0.42608096723388439 0.1205091241492761 0 -0.417579207348795 0.13056668242546571 0 -0.43293323699752101 0.1317554923945817 0 -0.43796764784210812 0.14528805014891141 0 -0.43293323699752101 0.1317554923945817 0 -0.42614672387873248 0.14526589422012931 0 -0.43892522612619872 0.15930650560997939 0 -0.43796764784210812 0.14528805014891141 0 -0.42614672387873248 0.14526589422012931 0 -0.43892522612619872 0.15930650560997939 0 -0.42614672387873248 0.14526589422012931 0 -0.41883635224822963 0.16472684775983329 0 -0.43992511097516529 0.17411109905454999 0 -0.43892522612619872 0.15930650560997939 0 -0.41883635224822963 0.16472684775983329 0 -0.4284081648625454 0.1890026720317621 0 -0.41883635224822963 0.16472684775983329 0 -0.43992511097516529 0.17411109905454999 0 -0.4284081648625454 0.1890026720317621 0 -0.41883635224822963 0.16472684775983329 0 -0.40915969581062839 0.19342315750049971 0 -0.41883635224822963 0.16472684775983329 0 -0.39569501158598158 0.17813944679546001 0 -0.4284081648625454 0.1890026720317621 0 -0.40915969581062839 0.19342315750049971 0 -0.41883635224822963 0.16472684775983329 0 -0.40029434983296169 0.15790366282291429 0 -0.39569501158598158 0.17813944679546001 0 -0.38484252596519369 0.16167484958157691 0 -0.41883635224822963 0.16472684775983329 0 -0.40029434983296169 0.15790366282291429 0 -0.39569501158598158 0.17813944679546001 0 -0.39569501158598158 0.17813944679546001 0 -0.38484252596519369 0.16167484958157691 0 -0.36525228834216061 0.17922160577889321 0 -0.38991122675871148 0.19784364296923759 0 -0.39569501158598158 0.17813944679546001 0 -0.36525228834216061 0.17922160577889321 0 -0.39283331973148827 0.14452614648979731 0 -0.38372255811484618 0.13025780258704611 0 -0.36636290901460722 0.1509782344479508 0 -0.38484252596519369 0.16167484958157691 0 -0.39283331973148827 0.14452614648979731 0 -0.36636290901460722 0.1509782344479508 0 -0.40029434983296169 0.15790366282291429 0 -0.38484252596519369 0.16167484958157691 0 -0.39283331973148827 0.14452614648979731 0 -0.40926453963391513 0.14045102348790381 0 -0.40029434983296169 0.15790366282291429 0 -0.39283331973148827 0.14452614648979731 0 -0.39283331973148827 0.14452614648979731 0 -0.40026410281127539 0.13237877311027449 0 -0.38372255811484618 0.13025780258704611 0 -0.39792088922733271 0.1160922105611595 0 -0.417579207348795 0.13056668242546571 0 -0.40026410281127539 0.13237877311027449 0 -0.39792088922733271 0.1160922105611595 0 -0.40026410281127539 0.13237877311027449 0 -0.38372255811484618 0.13025780258704611 0 -0.40926453963391513 0.14045102348790381 0 -0.39283331973148827 0.14452614648979731 0 -0.40026410281127539 0.13237877311027449 0 -0.38372255811484618 0.13025780258704611 0 -0.36636290901460722 0.1509782344479508 0 -0.36747352968705388 0.12273486311700831 0 -0.36636290901460722 0.1509782344479508 0 -0.36747352968705388 0.12273486311700831 0 -0.35528769071996391 0.12689780186549679 0 -0.36636290901460722 0.1509782344479508 0 -0.36747352968705388 0.12273486311700831 0 -0.35528769071996391 0.12689780186549679 0 -0.33512599087492562 0.1447950320020088 0 -0.35528769071996391 0.12689780186549679 0 -0.35168351666373848 0.14314256241625531 0 -0.33512599087492562 0.1447950320020088 0 -0.35528769071996391 0.12689780186549679 0 -0.33512599087492562 0.1447950320020088 0 -0.34115039425197219 0.12498493974687711 0 -0.35528769071996391 0.12689780186549679 0 -0.35168351666373848 0.14314256241625531 0 -0.36636290901460722 0.1509782344479508 0 -0.35168351666373848 0.14314256241625531 0 -0.36636290901460722 0.1509782344479508 0 -0.34333519974196419 0.16612441953572921 0 -0.38484252596519369 0.16167484958157691 0 -0.36636290901460722 0.1509782344479508 0 -0.36525228834216061 0.17922160577889321 0 -0.36636290901460722 0.1509782344479508 0 -0.36525228834216061 0.17922160577889321 0 -0.36525228834216061 0.17922160577889321 0 -0.34333519974196419 0.16612441953572921 0 -0.34654591437965571 0.19533490523866279 0 -0.36636290901460722 0.1509782344479508 0 -0.36525228834216061 0.17922160577889321 0 -0.34333519974196419 0.16612441953572921 0 -0.34333519974196419 0.16612441953572921 0 -0.31496429102988749 0.16269226213852109 0 -0.33512599087492562 0.1447950320020088 0 -0.34333519974196419 0.16612441953572921 0 -0.34654591437965571 0.19533490523866279 0 -0.32412519241006588 0.1878495682783011 0 -0.31496429102988749 0.16269226213852109 0 -0.32412519241006588 0.1878495682783011 0 -0.34333519974196419 0.16612441953572921 0 -0.31496429102988749 0.16269226213852109 0 -0.32412519241006588 0.1878495682783011 0 -0.31303823693556859 0.17707572181323081 0 -0.31496429102988749 0.16269226213852109 0 -0.32412519241006588 0.1878495682783011 0 -0.31303823693556859 0.17707572181323081 0 -0.32412519241006588 0.1878495682783011 0 -0.3108046026399135 0.18379038091696129 0 -0.31496429102988749 0.16269226213852109 0 -0.31353256245119709 0.1587605055712967 0 -0.31354631638020197 0.13395604467094269 0 -0.33512599087492562 0.1447950320020088 0 -0.3122891553291075 0.14635758184588041 0 -0.31353256245119709 0.1587605055712967 0 -0.33512599087492562 0.1447950320020088 0 -0.3122891553291075 0.14635758184588041 0 -0.31496429102988749 0.16269226213852109 0 -0.31353256245119709 0.1587605055712967 0 -0.33512599087492562 0.1447950320020088 0 -0.31496429102988749 0.16269226213852109 0 -0.33512599087492562 0.1447950320020088 0 -0.31354631638020197 0.13395604467094269 0 -0.32917568526667751 0.12578156900391591 0 -0.33512599087492562 0.1447950320020088 0 -0.31354631638020197 0.13395604467094269 0 -0.32917568526667751 0.12578156900391591 0 -0.32114709127587232 0.11611322513389059 0 -0.32917568526667751 0.12578156900391591 0 -0.33512599087492562 0.1447950320020088 0 -0.34115039425197219 0.12498493974687711 0 -0.35168351666373848 0.14314256241625531 0 -0.34333519974196419 0.16612441953572921 0 -0.33512599087492562 0.1447950320020088 0 -0.36303104699726713 0.23570834844077809 0 -0.34244699517042121 0.23816418055786151 0 -0.36318679658289171 0.25196182354824148 0 -0.34244699517042121 0.23816418055786151 0 -0.36318679658289171 0.25196182354824148 0 -0.33952374355129727 0.25899057541505788 0 -0.37619177155740557 0.24036243622333081 0 -0.36303104699726713 0.23570834844077809 0 -0.36318679658289171 0.25196182354824148 0 -0.38435338999826391 0.22831720607051781 0 -0.37619177155740557 0.24036243622333081 0 -0.36303104699726713 0.23570834844077809 0 -0.38435338999826391 0.22831720607051781 0 -0.36303104699726713 0.23570834844077809 0 -0.36414166766971379 0.2074649771098355 0 -0.36303104699726713 0.23570834844077809 0 -0.36414166766971379 0.2074649771098355 0 -0.36303104699726713 0.23570834844077809 0 -0.35084793517488477 0.2210857468323085 0 -0.34244699517042121 0.23816418055786151 0 -0.36303104699726713 0.23570834844077809 0 -0.35084793517488477 0.2210857468323085 0 -0.36414166766971379 0.2074649771098355 0 -0.35084793517488477 0.2210857468323085 0 -0.36414166766971379 0.2074649771098355 0 -0.34654591437965571 0.19533490523866279 0 -0.36525228834216061 0.17922160577889321 0 -0.36414166766971379 0.2074649771098355 0 -0.38991122675871148 0.19784364296923759 0 -0.36525228834216061 0.17922160577889321 0 -0.36414166766971379 0.2074649771098355 0 -0.36525228834216061 0.17922160577889321 0 -0.36414166766971379 0.2074649771098355 0 -0.34654591437965571 0.19533490523866279 0 -0.32412519241006588 0.1878495682783011 0 -0.33328609379024349 0.2130068744180813 0 -0.34654591437965571 0.19533490523866279 0 -0.32412519241006588 0.1878495682783011 0 -0.33328609379024349 0.2130068744180813 0 -0.32412519241006588 0.1878495682783011 0 -0.33328609379024349 0.2130068744180813 0 -0.31080006153106382 0.20197173666100501 0 -0.32412519241006588 0.1878495682783011 0 -0.31080006153106382 0.20197173666100501 0 -0.3108046026399135 0.18379038091696129 0 -0.33328609379024349 0.2130068744180813 0 -0.31873218963182409 0.22654972870499029 0 -0.31080006153106382 0.20197173666100501 0 -0.35084793517488477 0.2210857468323085 0 -0.34654591437965571 0.19533490523866279 0 -0.33328609379024349 0.2130068744180813 0 -0.35084793517488477 0.2210857468323085 0 -0.33328609379024349 0.2130068744180813 0 -0.34244699517042121 0.23816418055786151 0 -0.33328609379024349 0.2130068744180813 0 -0.34244699517042121 0.23816418055786151 0 -0.33328609379024349 0.2130068744180813 0 -0.31873218963182409 0.22654972870499029 0 -0.34244699517042121 0.23816418055786151 0 -0.31873218963182409 0.22654972870499029 0 -0.32200613725511351 0.24850726385495631 0 -0.34244699517042121 0.23816418055786151 0 -0.31873218963182409 0.22654972870499029 0 -0.32200613725511351 0.24850726385495631 0 -0.30672251365844311 0.23743048015470111 0 -0.32200613725511351 0.24850726385495631 0 -0.34244699517042121 0.23816418055786151 0 -0.33952374355129727 0.25899057541505788 0 -0.29125564533142001 0.24067530578368901 0 -0.30672251365844311 0.23743048015470111 0 -0.30640548876467488 0.25787073169030861 0 -0.32200613725511351 0.24850726385495631 0 -0.30672251365844311 0.23743048015470111 0 -0.30640548876467488 0.25787073169030861 0 -0.29125564533142001 0.24067530578368901 0 -0.30672251365844311 0.23743048015470111 0 -0.29521310730918271 0.21354937073956171 0 -0.31873218963182409 0.22654972870499029 0 -0.30672251365844311 0.23743048015470111 0 -0.29521310730918271 0.21354937073956171 0 -0.29125564533142001 0.24067530578368901 0 -0.29521310730918271 0.21354937073956171 0 -0.29125564533142001 0.24067530578368901 0 -0.29521310730918271 0.21354937073956171 0 -0.27258595833473342 0.22149207507906341 0 -0.29521310730918271 0.21354937073956171 0 -0.28878760701375322 0.1984352968903606 0 -0.27490594785389072 0.20112241201531189 0 -0.31873218963182409 0.22654972870499029 0 -0.29521310730918271 0.21354937073956171 0 -0.31080006153106382 0.20197173666100501 0 -0.29521310730918271 0.21354937073956171 0 -0.29917056928694541 0.1864234356954344 0 -0.29521310730918271 0.21354937073956171 0 -0.31080006153106382 0.20197173666100501 0 -0.29917056928694541 0.1864234356954344 0 -0.31080006153106382 0.20197173666100501 0 -0.3108046026399135 0.18379038091696129 0 -0.29917056928694541 0.1864234356954344 0 -0.28878760701375322 0.1984352968903606 0 -0.29917056928694541 0.1864234356954344 0 -0.28955343229492791 0.1852490896997587 0 -0.29521310730918271 0.21354937073956171 0 -0.28878760701375322 0.1984352968903606 0 -0.29917056928694541 0.1864234356954344 0 -0.28878760701375322 0.1984352968903606 0 -0.27938784373491388 0.18917199981814359 0 -0.28955343229492791 0.1852490896997587 0 -0.27938784373491388 0.18917199981814359 0 -0.27490594785389072 0.20112241201531189 0 -0.26439180367967152 0.18225540552070321 0 -0.28878760701375322 0.1984352968903606 0 -0.27938784373491388 0.18917199981814359 0 -0.27490594785389072 0.20112241201531189 0 -0.27490594785389072 0.20112241201531189 0 -0.25370102580463139 0.2052288024824625 0 -0.26439180367967152 0.18225540552070321 0 -0.25370102580463139 0.2052288024824625 0 -0.26439180367967152 0.18225540552070321 0 -0.23359887481107691 0.1809086922627815 0 -0.27490594785389072 0.20112241201531189 0 -0.25370102580463139 0.2052288024824625 0 -0.27258595833473342 0.22149207507906341 0 -0.29521310730918271 0.21354937073956171 0 -0.27490594785389072 0.20112241201531189 0 -0.27258595833473342 0.22149207507906341 0 -0.29125564533142001 0.24067530578368901 0 -0.27258595833473342 0.22149207507906341 0 -0.26834113505385238 0.23837358332174549 0 -0.27258595833473342 0.22149207507906341 0 -0.25272375818517617 0.22994970808158929 0 -0.26834113505385238 0.23837358332174549 0 -0.25370102580463139 0.2052288024824625 0 -0.27258595833473342 0.22149207507906341 0 -0.25272375818517617 0.22994970808158929 0 -0.25272375818517617 0.22994970808158929 0 -0.25621817608628389 0.2460965770837312 0 -0.26834113505385238 0.23837358332174549 0 -0.25621817608628389 0.2460965770837312 0 -0.26834113505385238 0.23837358332174549 0 -0.26892213733164849 0.25365425058065472 0 -0.29125564533142001 0.24067530578368901 0 -0.26834113505385238 0.23837358332174549 0 -0.26892213733164849 0.25365425058065472 0 -0.29370567785695612 0.15770531643225719 0 -0.28412418886142132 0.16518528890623771 0 -0.28065913062351988 0.14575155473079041 0 -0.30159211447790629 0.14759241864651959 0 -0.29370567785695612 0.15770531643225719 0 -0.28065913062351988 0.14575155473079041 0 -0.29682817834931757 0.13068013418198679 0 -0.30159211447790629 0.14759241864651959 0 -0.28065913062351988 0.14575155473079041 0 -0.29682817834931757 0.13068013418198679 0 -0.28065913062351988 0.14575155473079041 0 -0.28285123447775751 0.1183560919224374 0 -0.31354631638020197 0.13395604467094269 0 -0.29682817834931757 0.13068013418198679 0 -0.30159211447790629 0.14759241864651959 0 -0.31354631638020197 0.13395604467094269 0 -0.3122891553291075 0.14635758184588041 0 -0.30159211447790629 0.14759241864651959 0 -0.31353256245119709 0.1587605055712967 0 -0.3122891553291075 0.14635758184588041 0 -0.30159211447790629 0.14759241864651959 0 -0.31496429102988749 0.16269226213852109 0 -0.31353256245119709 0.1587605055712967 0 -0.30488677357152572 0.1641353808659653 0 -0.30159211447790629 0.14759241864651959 0 -0.30488677357152572 0.1641353808659653 0 -0.29370567785695612 0.15770531643225719 0 -0.31353256245119709 0.1587605055712967 0 -0.30159211447790629 0.14759241864651959 0 -0.30488677357152572 0.1641353808659653 0 -0.31496429102988749 0.16269226213852109 0 -0.30225886166240762 0.17397067591913981 0 -0.31303823693556859 0.17707572181323081 0 -0.31496429102988749 0.16269226213852109 0 -0.30225886166240762 0.17397067591913981 0 -0.31496429102988749 0.16269226213852109 0 -0.30488677357152572 0.1641353808659653 0 -0.30225886166240762 0.17397067591913981 0 -0.30488677357152572 0.1641353808659653 0 -0.30225886166240762 0.17397067591913981 0 -0.29597535979189887 0.1670989905046398 0 -0.30488677357152572 0.1641353808659653 0 -0.29370567785695612 0.15770531643225719 0 -0.29597535979189887 0.1670989905046398 0 -0.31303823693556859 0.17707572181323081 0 -0.3108046026399135 0.18379038091696129 0 -0.30225886166240762 0.17397067591913981 0 -0.30225886166240762 0.17397067591913981 0 -0.29917056928694541 0.1864234356954344 0 -0.28955343229492791 0.1852490896997587 0 -0.3108046026399135 0.18379038091696129 0 -0.30225886166240762 0.17397067591913981 0 -0.29917056928694541 0.1864234356954344 0 -0.30225886166240762 0.17397067591913981 0 -0.28955343229492791 0.1852490896997587 0 -0.30225886166240762 0.17397067591913981 0 -0.28955343229492791 0.1852490896997587 0 -0.29024545837739651 0.173916500811098 0 -0.28955343229492791 0.1852490896997587 0 -0.29024545837739651 0.173916500811098 0 -0.27889874324695868 0.17762520371433099 0 -0.29024545837739651 0.173916500811098 0 -0.28412418886142132 0.16518528890623771 0 -0.27889874324695868 0.17762520371433099 0 -0.27938784373491388 0.18917199981814359 0 -0.28955343229492791 0.1852490896997587 0 -0.27889874324695868 0.17762520371433099 0 -0.29370567785695612 0.15770531643225719 0 -0.29597535979189887 0.1670989905046398 0 -0.28412418886142132 0.16518528890623771 0 -0.30225886166240762 0.17397067591913981 0 -0.29024545837739651 0.173916500811098 0 -0.29597535979189887 0.1670989905046398 0 -0.29024545837739651 0.173916500811098 0 -0.29597535979189887 0.1670989905046398 0 -0.28412418886142132 0.16518528890623771 0 -0.28412418886142132 0.16518528890623771 0 -0.26844272787379447 0.16268744982768751 0 -0.27889874324695868 0.17762520371433099 0 -0.28412418886142132 0.16518528890623771 0 -0.26844272787379447 0.16268744982768751 0 -0.28065913062351988 0.14575155473079041 0 -0.26844272787379447 0.16268744982768751 0 -0.27889874324695868 0.17762520371433099 0 -0.26439180367967152 0.18225540552070321 0 -0.27938784373491388 0.18917199981814359 0 -0.27889874324695868 0.17762520371433099 0 -0.26439180367967152 0.18225540552070321 0 -0.26844272787379447 0.16268744982768751 0 -0.26439180367967152 0.18225540552070321 0 -0.247018622616726 0.15992587597476091 0 -0.26844272787379447 0.16268744982768751 0 -0.25846103874104392 0.14702121199507179 0 -0.247018622616726 0.15992587597476091 0 -0.26844272787379447 0.16268744982768751 0 -0.25846103874104392 0.14702121199507179 0 -0.28065913062351988 0.14575155473079041 0 -0.25846103874104392 0.14702121199507179 0 -0.28065913062351988 0.14575155473079041 0 -0.25922316449870308 0.12628093809151891 0 -0.28065913062351988 0.14575155473079041 0 -0.25922316449870308 0.12628093809151891 0 -0.28285123447775751 0.1183560919224374 0 -0.25846103874104392 0.14702121199507179 0 -0.25922316449870308 0.12628093809151891 0 -0.2369615480924761 0.1404602413506009 0 -0.25922316449870308 0.12628093809151891 0 -0.25136603029008331 0.1103208693098497 0 -0.26687835675477128 0.1014348965859585 0 -0.25136603029008331 0.1103208693098497 0 -0.26687835675477128 0.1014348965859585 0 -0.24377998071086901 0.096378574065869249 0 -0.26687835675477128 0.1014348965859585 0 -0.28737892951993471 0.098967158637655914 0 -0.27569457229827071 0.081243623470509244 0 -0.26687835675477128 0.1014348965859585 0 -0.28285123447775751 0.1183560919224374 0 -0.28737892951993471 0.098967158637655914 0 -0.25922316449870308 0.12628093809151891 0 -0.26687835675477128 0.1014348965859585 0 -0.28285123447775751 0.1183560919224374 0 -0.29682817834931757 0.13068013418198679 0 -0.28285123447775751 0.1183560919224374 0 -0.30549209578720232 0.10774456093924389 0 -0.28285123447775751 0.1183560919224374 0 -0.28737892951993471 0.098967158637655914 0 -0.30549209578720232 0.10774456093924389 0 -0.28737892951993471 0.098967158637655914 0 -0.30549209578720232 0.10774456093924389 0 -0.29743787519420251 0.08153307720754506 0 -0.30549209578720232 0.10774456093924389 0 -0.29743787519420251 0.08153307720754506 0 -0.31354631638020197 0.13395604467094269 0 -0.29682817834931757 0.13068013418198679 0 -0.30549209578720232 0.10774456093924389 0 -0.31354631638020197 0.13395604467094269 0 -0.30549209578720232 0.10774456093924389 0 -0.29926204670725021 0.066629363318123747 0 -0.30931237829482389 0.073252958087475881 0 -0.31697319293959142 0.061410437985649477 0 -0.29926204670725021 0.066629363318123747 0 -0.30931237829482389 0.073252958087475881 0 -0.29743787519420251 0.08153307720754506 0 -0.30549209578720232 0.10774456093924389 0 -0.29743787519420251 0.08153307720754506 0 -0.31312795334666071 0.083579729522452809 0 -0.30931237829482389 0.073252958087475881 0 -0.29743787519420251 0.08153307720754506 0 -0.31312795334666071 0.083579729522452809 0 -0.28737892951993471 0.098967158637655914 0 -0.29743787519420251 0.08153307720754506 0 -0.27569457229827071 0.081243623470509244 0 -0.29743787519420251 0.08153307720754506 0 -0.28743776060402371 0.060458689408765323 0 -0.28938365460120269 0.05532159347584624 0 -0.29743787519420251 0.08153307720754506 0 -0.28938365460120269 0.05532159347584624 0 -0.29926204670725021 0.066629363318123747 0 -0.29743787519420251 0.08153307720754506 0 -0.28938365460120269 0.05532159347584624 0 -0.29743787519420251 0.08153307720754506 0 -0.27569457229827071 0.081243623470509244 0 -0.28743776060402371 0.060458689408765323 0 -0.27569457229827071 0.081243623470509244 0 -0.26257114212692878 0.06573449919026883 0 -0.28743776060402371 0.060458689408765323 0 -0.26257114212692878 0.06573449919026883 0 -0.28743776060402371 0.060458689408765323 0 -0.26687835675477128 0.1014348965859585 0 -0.25261226255175379 0.080423606239198905 0 -0.24377998071086901 0.096378574065869249 0 -0.26687835675477128 0.1014348965859585 0 -0.27569457229827071 0.081243623470509244 0 -0.25261226255175379 0.080423606239198905 0 -0.26257114212692878 0.06573449919026883 0 -0.23770452364983391 0.071010308971772351 0 -0.25261226255175379 0.080423606239198905 0 -0.26257114212692878 0.06573449919026883 0 -0.23770452364983391 0.071010308971772351 0 -0.27569457229827071 0.081243623470509244 0 -0.25261226255175379 0.080423606239198905 0 -0.26257114212692878 0.06573449919026883 0 -0.2522816967992324 0.037264740289820159 0 -0.27263172987273521 0.051913181220590639 0 -0.24906194248509719 0.058488871325365822 0 -0.26257114212692878 0.06573449919026883 0 -0.27263172987273521 0.051913181220590639 0 -0.24906194248509719 0.058488871325365822 0 -0.2522816967992324 0.037264740289820159 0 -0.2684979789729644 0.03593820420606865 0 -0.27263172987273521 0.051913181220590639 0 -0.2684979789729644 0.03593820420606865 0 -0.27263172987273521 0.051913181220590639 0 -0.28132943400820298 0.02911010974414751 0 -0.27263172987273521 0.051913181220590639 0 -0.28132943400820298 0.02911010974414751 0 -0.28938365460120269 0.05532159347584624 0 -0.26257114212692878 0.06573449919026883 0 -0.27263172987273521 0.051913181220590639 0 -0.28743776060402371 0.060458689408765323 0 -0.25267499080189931 -0.0034516002120552492 0 -0.26909988492935111 -0.0018655285383734981 0 -0.25157722050270093 0.012682655753942951 0 -0.26909988492935111 -0.0018655285383734981 0 -0.25157722050270093 0.012682655753942951 0 -0.27200359261247947 0.017754051058092819 0 -0.2522816967992324 0.037264740289820159 0 -0.25157722050270093 0.012682655753942951 0 -0.27200359261247947 0.017754051058092819 0 -0.2522816967992324 0.037264740289820159 0 -0.2684979789729644 0.03593820420606865 0 -0.27200359261247947 0.017754051058092819 0 -0.2522816967992324 0.037264740289820159 0 -0.27200359261247947 0.017754051058092819 0 -0.27200359261247947 0.017754051058092819 0 -0.28831373269731447 0.017122983851404761 0 -0.28132943400820298 0.02911010974414751 0 -0.2684979789729644 0.03593820420606865 0 -0.27200359261247947 0.017754051058092819 0 -0.28132943400820298 0.02911010974414751 0 -0.26909988492935111 -0.0018655285383734981 0 -0.2917254884257266 -0.0017566381736345419 0 -0.27200359261247947 0.017754051058092819 0 -0.2917254884257266 -0.0017566381736345419 0 -0.27200359261247947 0.017754051058092819 0 -0.28831373269731447 0.017122983851404761 0 -0.2917254884257266 -0.0017566381736345419 0 -0.28831373269731447 0.017122983851404761 0 -0.29997880334656019 0.01439552450637107 0 -0.2917254884257266 -0.0017566381736345419 0 -0.27200359261247947 0.017754051058092819 0 -0.28831373269731447 0.017122983851404761 0 -0.29656482898857922 0.02610767777843559 0 -0.29997880334656019 0.01439552450637107 0 -0.28831373269731447 0.017122983851404761 0 -0.28132943400820298 0.02911010974414751 0 -0.29656482898857922 0.02610767777843559 0 -0.28132943400820298 0.02911010974414751 0 -0.29656482898857922 0.02610767777843559 0 -0.29344050585463782 0.03493273697686209 0 -0.29656482898857922 0.02610767777843559 0 -0.31039051656375261 0.022327184027059441 0 -0.30541723396373921 0.038711125382435783 0 -0.31039051656375261 0.022327184027059441 0 -0.30541723396373921 0.038711125382435783 0 -0.32038394146944787 0.031620215762440292 0 -0.29656482898857922 0.02610767777843559 0 -0.31039051656375261 0.022327184027059441 0 -0.29997880334656019 0.01439552450637107 0 -0.31039051656375261 0.022327184027059441 0 -0.31177688145040278 0.0050359958776742568 0 -0.29997880334656019 0.01439552450637107 0 -0.2917254884257266 -0.0017566381736345419 0 -0.31177688145040278 0.0050359958776742568 0 -0.29997880334656019 0.01439552450637107 0 -0.27263172987273521 0.051913181220590639 0 -0.28743776060402371 0.060458689408765323 0 -0.28938365460120269 0.05532159347584624 0 -0.28938365460120269 0.05532159347584624 0 -0.29045052645802971 0.045802035002429492 0 -0.29738278035354182 0.050541329601553678 0 -0.28938365460120269 0.05532159347584624 0 -0.29738278035354182 0.050541329601553678 0 -0.29780899910201009 0.056562827273038227 0 -0.29926204670725021 0.066629363318123747 0 -0.28938365460120269 0.05532159347584624 0 -0.29780899910201009 0.056562827273038227 0 -0.28132943400820298 0.02911010974414751 0 -0.28938365460120269 0.05532159347584624 0 -0.29045052645802971 0.045802035002429492 0 -0.28132943400820298 0.02911010974414751 0 -0.28938365460120269 0.05532159347584624 0 -0.28132943400820298 0.02911010974414751 0 -0.29344050585463782 0.03493273697686209 0 -0.29045052645802971 0.045802035002429492 0 -0.29344050585463782 0.03493273697686209 0 -0.29045052645802971 0.045802035002429492 0 -0.30541723396373921 0.038711125382435783 0 -0.29045052645802971 0.045802035002429492 0 -0.30541723396373921 0.038711125382435783 0 -0.29738278035354182 0.050541329601553678 0 -0.29045052645802971 0.045802035002429492 0 -0.30541723396373921 0.038711125382435783 0 -0.29656482898857922 0.02610767777843559 0 -0.29344050585463782 0.03493273697686209 0 -0.30541723396373921 0.038711125382435783 0 -0.30541723396373921 0.038711125382435783 0 -0.30520751474604563 0.05375902269662923 0 -0.31780711793698518 0.045521831715634557 0 -0.29926204670725021 0.066629363318123747 0 -0.30520751474604563 0.05375902269662923 0 -0.31697319293959142 0.061410437985649477 0 -0.30541723396373921 0.038711125382435783 0 -0.30520751474604563 0.05375902269662923 0 -0.29738278035354182 0.050541329601553678 0 -0.30520751474604563 0.05375902269662923 0 -0.29738278035354182 0.050541329601553678 0 -0.29780899910201009 0.056562827273038227 0 -0.29926204670725021 0.066629363318123747 0 -0.30520751474604563 0.05375902269662923 0 -0.29780899910201009 0.056562827273038227 0 -0.32553678940662539 0.052415823907368687 0 -0.31780711793698518 0.045521831715634557 0 -0.33422422494732851 0.04449049745268327 0 -0.31697319293959142 0.061410437985649477 0 -0.32553678940662539 0.052415823907368687 0 -0.31780711793698518 0.045521831715634557 0 -0.30520751474604563 0.05375902269662923 0 -0.31697319293959142 0.061410437985649477 0 -0.31780711793698518 0.045521831715634557 0 -0.31697319293959142 0.061410437985649477 0 -0.32808937753058609 0.059947696530402161 0 -0.32553678940662539 0.052415823907368687 0 -0.31780711793698518 0.045521831715634557 0 -0.32038394146944787 0.031620215762440292 0 -0.33422422494732851 0.04449049745268327 0 -0.30541723396373921 0.038711125382435783 0 -0.31780711793698518 0.045521831715634557 0 -0.32038394146944787 0.031620215762440292 0 -0.30541723396373921 0.038711125382435783 0 -0.32038394146944787 0.031620215762440292 0 -0.32038394146944787 0.031620215762440292 0 -0.33422422494732851 0.04449049745268327 0 -0.33422422494732851 0.04449049745268327 0 -0.34051642268078958 0.02208187176518148 0 -0.34924074101412461 0.03711639968071382 0 -0.32038394146944787 0.031620215762440292 0 -0.33422422494732851 0.04449049745268327 0 -0.34051642268078958 0.02208187176518148 0 -0.33422422494732851 0.04449049745268327 0 -0.34715076893326918 0.04673829876922056 0 -0.34924074101412461 0.03711639968071382 0 -0.33422422494732851 0.04449049745268327 0 -0.34806450842520742 0.057360779142928031 0 -0.34715076893326918 0.04673829876922056 0 -0.33422422494732851 0.04449049745268327 0 -0.34806450842520742 0.057360779142928031 0 -0.33422422494732851 0.04449049745268327 0 -0.33482930480244999 0.055095026294593591 0 -0.34806450842520742 0.057360779142928031 0 -0.3407399656121517 0.06083029771636933 0 -0.33482930480244999 0.055095026294593591 0 -0.33440717105718593 0.063083878638897639 0 -0.3407399656121517 0.06083029771636933 0 -0.33482930480244999 0.055095026294593591 0 -0.34806450842520742 0.057360779142928031 0 -0.32808937753058609 0.059947696530402161 0 -0.33482930480244999 0.055095026294593591 0 -0.33440717105718593 0.063083878638897639 0 -0.32808937753058609 0.059947696530402161 0 -0.32553678940662539 0.052415823907368687 0 -0.33482930480244999 0.055095026294593591 0 -0.32553678940662539 0.052415823907368687 0 -0.33422422494732851 0.04449049745268327 0 -0.33482930480244999 0.055095026294593591 0 -0.31039051656375261 0.022327184027059441 0 -0.31177688145040278 0.0050359958776742568 0 -0.3261420213634148 0.01391490981329808 0 -0.32828291010712762 -0.0049346835118845543 0 -0.31177688145040278 0.0050359958776742568 0 -0.3261420213634148 0.01391490981329808 0 -0.31039051656375261 0.022327184027059441 0 -0.32038394146944787 0.031620215762440292 0 -0.3261420213634148 0.01391490981329808 0 -0.31039051656375261 0.022327184027059441 0 -0.32038394146944787 0.031620215762440292 0 -0.32038394146944787 0.031620215762440292 0 -0.34051642268078958 0.02208187176518148 0 -0.32038394146944787 0.031620215762440292 0 -0.3261420213634148 0.01391490981329808 0 -0.34051642268078958 0.02208187176518148 0 -0.3261420213634148 0.01391490981329808 0 -0.34051642268078958 0.02208187176518148 0 -0.34055428987364128 0.0059527955302196532 0 -0.32828291010712762 -0.0049346835118845543 0 -0.3261420213634148 0.01391490981329808 0 -0.34055428987364128 0.0059527955302196532 0 -0.34051642268078958 0.02208187176518148 0 -0.34055428987364128 0.0059527955302196532 0 -0.36064890389212972 0.0125435277679194 0 -0.34718119132474479 -0.01384164818341615 0 -0.34055428987364128 0.0059527955302196532 0 -0.36064890389212972 0.0125435277679194 0 -0.34051642268078958 0.02208187176518148 0 -0.36064890389212972 0.0125435277679194 0 -0.34051642268078958 0.02208187176518148 0 -0.35699945364537122 0.027147445145089769 0 -0.34924074101412461 0.03711639968071382 0 -0.34051642268078958 0.02208187176518148 0 -0.35699945364537122 0.027147445145089769 0 -0.36064890389212972 0.0125435277679194 0 -0.35699945364537122 0.027147445145089769 0 -0.36163302121541668 0.029781402687577421 0 -0.35940737946489582 0.035374977024224222 0 -0.37998819155715241 0.0057865511937031933 0 -0.36738966121720701 0.029980518529024301 0 -0.37123175334181557 0.027162262264614271 0 -0.37998819155715241 0.0057865511937031933 0 -0.36738966121720701 0.029980518529024301 0 -0.3645477689834325 0.020181962352102071 0 -0.37998819155715241 0.0057865511937031933 0 -0.36738966121720701 0.029980518529024301 0 -0.36273559053419291 0.026622670051971411 0 -0.36738966121720701 0.029980518529024301 0 -0.3645477689834325 0.020181962352102071 0 -0.35699945364537122 0.027147445145089769 0 -0.36163302121541668 0.029781402687577421 0 -0.36273559053419291 0.026622670051971411 0 -0.35699945364537122 0.027147445145089769 0 -0.36273559053419291 0.026622670051971411 0 -0.3645477689834325 0.020181962352102071 0 -0.36163302121541668 0.029781402687577421 0 -0.36273559053419291 0.026622670051971411 0 -0.36738966121720701 0.029980518529024301 0 -0.35699945364537122 0.027147445145089769 0 -0.3645477689834325 0.020181962352102071 0 -0.36064890389212972 0.0125435277679194 0 -0.3645477689834325 0.020181962352102071 0 -0.36064890389212972 0.0125435277679194 0 -0.37998819155715241 0.0057865511937031933 0 -0.3645477689834325 0.020181962352102071 0 -0.36064890389212972 0.0125435277679194 0 -0.38683543611469601 0.0001369023841863784 0 -0.36064890389212972 0.0125435277679194 0 -0.37474494217865062 -0.0022388935110706832 0 -0.38683543611469601 0.0001369023841863784 0 -0.36064890389212972 0.0125435277679194 0 -0.37474494217865062 -0.0022388935110706832 0 -0.36307869926690151 -0.00068504054922277494 0 -0.36064890389212972 0.0125435277679194 0 -0.35479113087726238 0.05417448586434577 0 -0.34715076893326918 0.04673829876922056 0 -0.35593663516940488 0.04278932274017315 0 -0.35479113087726238 0.05417448586434577 0 -0.35147867423579721 0.06053566178096708 0 -0.3622197730044176 0.060127746183944272 0 -0.35479113087726238 0.05417448586434577 0 -0.35147867423579721 0.06053566178096708 0 -0.35479113087726238 0.05417448586434577 0 -0.34806450842520742 0.057360779142928031 0 -0.35147867423579721 0.06053566178096708 0 -0.35479113087726238 0.05417448586434577 0 -0.34806450842520742 0.057360779142928031 0 -0.34806450842520742 0.057360779142928031 0 -0.35147867423579721 0.06053566178096708 0 -0.3447014191436914 0.063951910484466787 0 -0.34806450842520742 0.057360779142928031 0 -0.35147867423579721 0.06053566178096708 0 -0.3407399656121517 0.06083029771636933 0 -0.34806450842520742 0.057360779142928031 0 -0.3407399656121517 0.06083029771636933 0 -0.34806450842520742 0.057360779142928031 0 -0.3447014191436914 0.063951910484466787 0 -0.35479113087726238 0.05417448586434577 0 -0.34806450842520742 0.057360779142928031 0 -0.34715076893326918 0.04673829876922056 0 -0.34715076893326918 0.04673829876922056 0 -0.34924074101412461 0.03711639968071382 0 -0.35593663516940488 0.04278932274017315 0 -0.36738966121720701 0.029980518529024301 0 -0.35479113087726238 0.05417448586434577 0 -0.35593663516940488 0.04278932274017315 0 -0.35699945364537122 0.027147445145089769 0 -0.34924074101412461 0.03711639968071382 0 -0.35940737946489582 0.035374977024224222 0 -0.34924074101412461 0.03711639968071382 0 -0.35593663516940488 0.04278932274017315 0 -0.35940737946489582 0.035374977024224222 0 -0.36738966121720701 0.029980518529024301 0 -0.35479113087726238 0.05417448586434577 0 -0.36677646394688163 0.041367990420506082 0 -0.37123175334181557 0.027162262264614271 0 -0.37046143272875132 0.04675171495388801 0 -0.36738966121720701 0.029980518529024301 0 -0.35479113087726238 0.05417448586434577 0 -0.37123175334181557 0.027162262264614271 0 -0.36677646394688163 0.041367990420506082 0 -0.37046143272875132 0.04675171495388801 0 -0.3764786745208083 0.032098692741998169 0 -0.37123175334181557 0.027162262264614271 0 -0.37046143272875132 0.04675171495388801 0 -0.36163302121541668 0.029781402687577421 0 -0.36738966121720701 0.029980518529024301 0 -0.35940737946489582 0.035374977024224222 0 -0.36738966121720701 0.029980518529024301 0 -0.35593663516940488 0.04278932274017315 0 -0.35940737946489582 0.035374977024224222 0 -0.36738966121720701 0.029980518529024301 0 -0.37123175334181557 0.027162262264614271 0 -0.36677646394688163 0.041367990420506082 0 -0.36677646394688163 0.041367990420506082 0 -0.37046143272875132 0.04675171495388801 0 -0.36802302346639398 0.047906750352184523 0 -0.36677646394688163 0.041367990420506082 0 -0.36802302346639398 0.047906750352184523 0 -0.37046143272875132 0.04675171495388801 0 -0.37000681959492809 0.05831264468359916 0 -0.36802302346639398 0.047906750352184523 0 -0.37000681959492809 0.05831264468359916 0 -0.37046143272875132 0.04675171495388801 0 -0.36802302346639398 0.047906750352184523 0 -0.37000681959492809 0.05831264468359916 0 -0.37046143272875132 0.04675171495388801 0 -0.36802302346639398 0.047906750352184523 0 -0.35479113087726238 0.05417448586434577 0 -0.36802302346639398 0.047906750352184523 0 -0.35479113087726238 0.05417448586434577 0 -0.36802302346639398 0.047906750352184523 0 -0.3622197730044176 0.060127746183944272 0 -0.35479113087726238 0.05417448586434577 0 -0.36677646394688163 0.041367990420506082 0 -0.36802302346639398 0.047906750352184523 0 -0.36802302346639398 0.047906750352184523 0 -0.3622197730044176 0.060127746183944272 0 -0.37000681959492809 0.05831264468359916 0 -0.35147867423579721 0.06053566178096708 0 -0.36926886504626422 0.077079019973005369 0 -0.3622197730044176 0.060127746183944272 0 -0.37000681959492809 0.05831264468359916 0 -0.36926886504626422 0.077079019973005369 0 -0.37000681959492809 0.05831264468359916 0 -0.36926886504626422 0.077079019973005369 0 -0.37079498002478778 0.078498176574577722 0 -0.36926886504626422 0.077079019973005369 0 -0.34551673285671652 0.071984855543133663 0 -0.36912013352382872 0.080861301107253064 0 -0.37000681959492809 0.05831264468359916 0 -0.37079498002478778 0.078498176574577722 0 -0.37470600383380392 0.082961959162170973 0 -0.35147867423579721 0.06053566178096708 0 -0.3622197730044176 0.060127746183944272 0 -0.36926886504626422 0.077079019973005369 0 -0.37000681959492809 0.05831264468359916 0 -0.37470600383380392 0.082961959162170973 0 -0.37000681959492809 0.05831264468359916 0 -0.36926886504626422 0.077079019973005369 0 -0.36926886504626422 0.077079019973005369 0 -0.37079498002478778 0.078498176574577722 0 -0.34551673285671652 0.071984855543133663 0 -0.34763839367566191 0.079069075487607554 0 -0.36912013352382872 0.080861301107253064 0 -0.34551673285671652 0.071984855543133663 0 -0.36912013352382872 0.080861301107253064 0 -0.35147867423579721 0.06053566178096708 0 -0.36926886504626422 0.077079019973005369 0 -0.34551673285671652 0.071984855543133663 0 -0.34408269824063842 0.074738747125954852 0 -0.34763839367566191 0.079069075487607554 0 -0.34179116264722731 0.080399472229040897 0 -0.34408269824063842 0.074738747125954852 0 -0.34551673285671652 0.071984855543133663 0 -0.34763839367566191 0.079069075487607554 0 -0.34408269824063842 0.074738747125954852 0 -0.34551673285671652 0.071984855543133663 0 -0.35147867423579721 0.06053566178096708 0 -0.34551673285671652 0.071984855543133663 0 -0.3447014191436914 0.063951910484466787 0 -0.35147867423579721 0.06053566178096708 0 -0.34551673285671652 0.071984855543133663 0 -0.34763839367566191 0.079069075487607554 0 -0.36858415035949882 0.094491491786065696 0 -0.34763839367566191 0.079069075487607554 0 -0.36858415035949882 0.094491491786065696 0 -0.35198293914272999 0.094145145766245733 0 -0.34456144318064219 0.08667329674911145 0 -0.34763839367566191 0.079069075487607554 0 -0.35198293914272999 0.094145145766245733 0 -0.34456144318064219 0.08667329674911145 0 -0.35198293914272999 0.094145145766245733 0 -0.34431035454597703 0.093789606507308373 0 -0.34456144318064219 0.08667329674911145 0 -0.34763839367566191 0.079069075487607554 0 -0.34179116264722731 0.080399472229040897 0 -0.3782625711058698 0.101617738696854 0 -0.37470600383380392 0.082961959162170973 0 -0.36858415035949882 0.094491491786065696 0 -0.34763839367566191 0.079069075487607554 0 -0.36912013352382872 0.080861301107253064 0 -0.36858415035949882 0.094491491786065696 0 -0.36926886504626422 0.077079019973005369 0 -0.37079498002478778 0.078498176574577722 0 -0.36912013352382872 0.080861301107253064 0 -0.36926886504626422 0.077079019973005369 0 -0.36912013352382872 0.080861301107253064 0 -0.36912013352382872 0.080861301107253064 0 -0.37470600383380392 0.082961959162170973 0 -0.37079498002478778 0.078498176574577722 0 -0.36912013352382872 0.080861301107253064 0 -0.37470600383380392 0.082961959162170973 0 -0.36912013352382872 0.080861301107253064 0 -0.37470600383380392 0.082961959162170973 0 -0.36858415035949882 0.094491491786065696 0 -0.36912013352382872 0.080861301107253064 0 -0.36858415035949882 0.094491491786065696 0 -0.36858415035949882 0.094491491786065696 0 -0.36747352968705388 0.12273486311700831 0 -0.3782625711058698 0.101617738696854 0 -0.36858415035949882 0.094491491786065696 0 -0.36858415035949882 0.094491491786065696 0 -0.36006702585218792 0.10838608290929221 0 -0.35198293914272999 0.094145145766245733 0 -0.36858415035949882 0.094491491786065696 0 -0.36006702585218792 0.10838608290929221 0 -0.36747352968705388 0.12273486311700831 0 -0.3782625711058698 0.101617738696854 0 -0.36858415035949882 0.094491491786065696 0 -0.36747352968705388 0.12273486311700831 0 -0.36006702585218792 0.10838608290929221 0 -0.36747352968705388 0.12273486311700831 0 -0.35832203275528268 0.1183511860346923 0 -0.35528769071996391 0.12689780186549679 0 -0.36747352968705388 0.12273486311700831 0 -0.35832203275528268 0.1183511860346923 0 -0.35528769071996391 0.12689780186549679 0 -0.35832203275528268 0.1183511860346923 0 -0.35045988476192508 0.115385996246972 0 -0.36006702585218792 0.10838608290929221 0 -0.35832203275528268 0.1183511860346923 0 -0.35045988476192508 0.115385996246972 0 -0.35045988476192508 0.115385996246972 0 -0.34547580274860562 0.10394098399483009 0 -0.33570271963636877 0.11206429961599181 0 -0.35528769071996391 0.12689780186549679 0 -0.35045988476192508 0.115385996246972 0 -0.34115039425197219 0.12498493974687711 0 -0.36006702585218792 0.10838608290929221 0 -0.35198293914272999 0.094145145766245733 0 -0.34547580274860562 0.10394098399483009 0 -0.36006702585218792 0.10838608290929221 0 -0.35045988476192508 0.115385996246972 0 -0.34547580274860562 0.10394098399483009 0 -0.35198293914272999 0.094145145766245733 0 -0.34547580274860562 0.10394098399483009 0 -0.34431035454597703 0.093789606507308373 0 -0.34547580274860562 0.10394098399483009 0 -0.34431035454597703 0.093789606507308373 0 -0.335413749579693 0.097286071719103154 0 -0.34547580274860562 0.10394098399483009 0 -0.335413749579693 0.097286071719103154 0 -0.33570271963636877 0.11206429961599181 0 -0.335413749579693 0.097286071719103154 0 -0.33570271963636877 0.11206429961599181 0 -0.32444247844199348 0.1047035033472971 0 -0.35045988476192508 0.115385996246972 0 -0.34115039425197219 0.12498493974687711 0 -0.33570271963636877 0.11206429961599181 0 -0.32917568526667751 0.12578156900391591 0 -0.33570271963636877 0.11206429961599181 0 -0.32114709127587232 0.11611322513389059 0 -0.32917568526667751 0.12578156900391591 0 -0.34115039425197219 0.12498493974687711 0 -0.33570271963636877 0.11206429961599181 0 -0.31354631638020197 0.13395604467094269 0 -0.30549209578720232 0.10774456093924389 0 -0.32114709127587232 0.11611322513389059 0 -0.30549209578720232 0.10774456093924389 0 -0.32114709127587232 0.11611322513389059 0 -0.32444247844199348 0.1047035033472971 0 -0.33570271963636877 0.11206429961599181 0 -0.32114709127587232 0.11611322513389059 0 -0.32444247844199348 0.1047035033472971 0 -0.30549209578720232 0.10774456093924389 0 -0.32444247844199348 0.1047035033472971 0 -0.32445673593083119 0.090309359328255762 0 -0.30549209578720232 0.10774456093924389 0 -0.32445673593083119 0.090309359328255762 0 -0.31312795334666071 0.083579729522452809 0 -0.335413749579693 0.097286071719103154 0 -0.32444247844199348 0.1047035033472971 0 -0.32445673593083119 0.090309359328255762 0 -0.32445673593083119 0.090309359328255762 0 -0.3275606083710243 0.080211281293741998 0 -0.31312795334666071 0.083579729522452809 0 -0.3275606083710243 0.080211281293741998 0 -0.31312795334666071 0.083579729522452809 0 -0.31976082328641481 0.073112182403608325 0 -0.30931237829482389 0.073252958087475881 0 -0.31312795334666071 0.083579729522452809 0 -0.31976082328641481 0.073112182403608325 0 -0.30931237829482389 0.073252958087475881 0 -0.31697319293959142 0.061410437985649477 0 -0.31976082328641481 0.073112182403608325 0 -0.31697319293959142 0.061410437985649477 0 -0.31976082328641481 0.073112182403608325 0 -0.32886731949388731 0.069155273298144179 0 -0.31697319293959142 0.061410437985649477 0 -0.32808937753058609 0.059947696530402161 0 -0.32886731949388731 0.069155273298144179 0 -0.3275606083710243 0.080211281293741998 0 -0.31976082328641481 0.073112182403608325 0 -0.32886731949388731 0.069155273298144179 0 -0.32886731949388731 0.069155273298144179 0 -0.33770721458858299 0.069047958238937293 0 -0.336378655355973 0.076693290193422539 0 -0.3275606083710243 0.080211281293741998 0 -0.32886731949388731 0.069155273298144179 0 -0.336378655355973 0.076693290193422539 0 -0.33440717105718593 0.063083878638897639 0 -0.32886731949388731 0.069155273298144179 0 -0.33770721458858299 0.069047958238937293 0 -0.32808937753058609 0.059947696530402161 0 -0.33440717105718593 0.063083878638897639 0 -0.32886731949388731 0.069155273298144179 0 -0.3407399656121517 0.06083029771636933 0 -0.33440717105718593 0.063083878638897639 0 -0.33770721458858299 0.069047958238937293 0 -0.3407399656121517 0.06083029771636933 0 -0.3447014191436914 0.063951910484466787 0 -0.33770721458858299 0.069047958238937293 0 -0.34551673285671652 0.071984855543133663 0 -0.3447014191436914 0.063951910484466787 0 -0.33770721458858299 0.069047958238937293 0 -0.34408269824063842 0.074738747125954852 0 -0.33770721458858299 0.069047958238937293 0 -0.336378655355973 0.076693290193422539 0 -0.34408269824063842 0.074738747125954852 0 -0.34551673285671652 0.071984855543133663 0 -0.33770721458858299 0.069047958238937293 0 -0.34551673285671652 0.071984855543133663 0 -0.33770721458858299 0.069047958238937293 0 -0.34408269824063842 0.074738747125954852 0 -0.336378655355973 0.076693290193422539 0 -0.34179116264722731 0.080399472229040897 0 -0.336378655355973 0.076693290193422539 0 -0.34179116264722731 0.080399472229040897 0 -0.33708436589161489 0.085963183755354639 0 -0.34456144318064219 0.08667329674911145 0 -0.34179116264722731 0.080399472229040897 0 -0.33708436589161489 0.085963183755354639 0 -0.34456144318064219 0.08667329674911145 0 -0.34431035454597703 0.093789606507308373 0 -0.33708436589161489 0.085963183755354639 0 -0.34431035454597703 0.093789606507308373 0 -0.335413749579693 0.097286071719103154 0 -0.33708436589161489 0.085963183755354639 0 -0.335413749579693 0.097286071719103154 0 -0.32445673593083119 0.090309359328255762 0 -0.33708436589161489 0.085963183755354639 0 -0.32445673593083119 0.090309359328255762 0 -0.3275606083710243 0.080211281293741998 0 -0.33708436589161489 0.085963183755354639 0 -0.3275606083710243 0.080211281293741998 0 -0.336378655355973 0.076693290193422539 0 -0.33708436589161489 0.085963183755354639 0 -0.38891458820749281 0.47713565504117422 0 -0.42172655890518862 0.5 0 -0.3640375775585698 0.5 0 -0.38891458820749281 0.47713565504117422 0 -0.37103467036260362 0.45695891695805302 0 -0.36943712044780219 0.47475959506207249 0 -0.39694697642853649 0.45370639251272787 0 -0.37103467036260362 0.45695891695805302 0 -0.38891458820749281 0.47713565504117422 0 -0.39694697642853649 0.45370639251272787 0 -0.37103467036260362 0.45695891695805302 0 -0.38249991962136642 0.44345487931465249 0 -0.39694697642853649 0.45370639251272787 0 -0.37103467036260362 0.45695891695805302 0 -0.38249991962136642 0.44345487931465249 0 -0.39694697642853649 0.45370639251272787 0 -0.40464661760035381 0.43350824459614162 0 -0.38891458820749281 0.47713565504117422 0 -0.39694697642853649 0.45370639251272787 0 -0.41631826774707797 0.4711213942969617 0 -0.39694697642853649 0.45370639251272787 0 -0.42285928249446952 0.45045386806740279 0 -0.41631826774707797 0.4711213942969617 0 -0.42285928249446952 0.45045386806740279 0 -0.42501824733507809 0.43459816807542118 0 -0.40464661760035381 0.43350824459614162 0 -0.39694697642853649 0.45370639251272787 0 -0.42285928249446952 0.45045386806740279 0 -0.39694697642853649 0.45370639251272787 0 -0.42285928249446952 0.45045386806740279 0 -0.40464661760035381 0.43350824459614162 0 -0.42285928249446952 0.45045386806740279 0 -0.43521244088076849 0.46107148678855758 0 -0.44877158856040261 0.44720134362207808 0 -0.42285928249446952 0.45045386806740279 0 -0.44877158856040261 0.44720134362207808 0 -0.42285928249446952 0.45045386806740279 0 -0.43592409671607729 0.44045812782560079 0 -0.44877158856040261 0.44720134362207808 0 -0.42285928249446952 0.45045386806740279 0 -0.43592409671607729 0.44045812782560079 0 -0.42501824733507809 0.43459816807542118 0 -0.42285928249446952 0.45045386806740279 0 -0.43521244088076849 0.46107148678855758 0 -0.41631826774707797 0.4711213942969617 0 -0.41631826774707797 0.4711213942969617 0 -0.42172655890518862 0.5 0 -0.43935827984199688 0.47473889959161758 0 -0.43521244088076849 0.46107148678855758 0 -0.41631826774707797 0.4711213942969617 0 -0.43935827984199688 0.47473889959161758 0 -0.38891458820749281 0.47713565504117422 0 -0.41631826774707797 0.4711213942969617 0 -0.42172655890518862 0.5 0 -0.42172655890518862 0.5 0 -0.43935827984199688 0.47473889959161758 0 -0.47784082473980471 0.47626967285504462 0 -0.42172655890518862 0.5 0 -0.5 0.5 0 -0.47784082473980471 0.47626967285504462 0 -0.43935827984199688 0.47473889959161758 0 -0.47784082473980471 0.47626967285504462 0 -0.4487547857598953 0.46184192836472759 0 -0.5 0.5 0 -0.47784082473980471 0.47626967285504462 0 -0.49999999999999589 0.44077113011354369 0 -0.47784082473980471 0.47626967285504462 0 -0.47438579428019922 0.44398623686781052 0 -0.4627013265822788 0.4545376326069438 0 -0.47784082473980471 0.47626967285504462 0 -0.49999999999999589 0.44077113011354369 0 -0.47438579428019922 0.44398623686781052 0 -0.49999999999999589 0.44077113011354369 0 -0.47438579428019922 0.44398623686781052 0 -0.48180565015534738 0.42787197640755792 0 -0.49999999999999589 0.44077113011354369 0 -0.47438579428019922 0.44398623686781052 0 -0.47438579428019922 0.44398623686781052 0 -0.4627013265822788 0.4545376326069438 0 -0.44877158856040261 0.44720134362207808 0 -0.47438579428019922 0.44398623686781052 0 -0.44877158856040261 0.44720134362207808 0 -0.47438579428019922 0.44398623686781052 0 -0.44877158856040261 0.44720134362207808 0 -0.46289485375526918 0.43579199928955081 0 -0.44877158856040261 0.44720134362207808 0 -0.44878504691792248 0.43547483269414872 0 -0.46289485375526918 0.43579199928955081 0 -0.47784082473980471 0.47626967285504462 0 -0.4627013265822788 0.4545376326069438 0 -0.4487547857598953 0.46184192836472759 0 -0.4627013265822788 0.4545376326069438 0 -0.4487547857598953 0.46184192836472759 0 -0.44877158856040261 0.44720134362207808 0 -0.4487547857598953 0.46184192836472759 0 -0.44877158856040261 0.44720134362207808 0 -0.43521244088076849 0.46107148678855758 0 -0.4487547857598953 0.46184192836472759 0 -0.44877158856040261 0.44720134362207808 0 -0.43521244088076849 0.46107148678855758 0 -0.43935827984199688 0.47473889959161758 0 -0.4487547857598953 0.46184192836472759 0 -0.44877158856040261 0.44720134362207808 0 -0.44508566455651338 0.43839632914573512 0 -0.44878504691792248 0.43547483269414872 0 -0.44877158856040261 0.44720134362207808 0 -0.44878504691792248 0.43547483269414872 0 -0.43592409671607729 0.44045812782560079 0 -0.44877158856040261 0.44720134362207808 0 -0.44508566455651338 0.43839632914573512 0 -0.44531233658805403 0.42513554986162888 0 -0.44878504691792248 0.43547483269414872 0 -0.44880957839306629 0.41410011360809668 0 -0.44878504691792248 0.43547483269414872 0 -0.44880957839306629 0.41410011360809668 0 -0.43788570063392329 0.43164093021736671 0 -0.44531233658805403 0.42513554986162888 0 -0.44878504691792248 0.43547483269414872 0 -0.43592409671607729 0.44045812782560079 0 -0.44508566455651338 0.43839632914573512 0 -0.43788570063392329 0.43164093021736671 0 -0.44508566455651338 0.43839632914573512 0 -0.43788570063392329 0.43164093021736671 0 -0.44878504691792248 0.43547483269414872 0 -0.44508566455651338 0.43839632914573512 0 -0.44878504691792248 0.43547483269414872 0 -0.44531233658805403 0.42513554986162888 0 -0.44880957839306629 0.41410011360809668 0 -0.42391867717568832 0.41711337076656618 0 -0.44880957839306629 0.41410011360809668 0 -0.46585669794528167 0.42199291516666237 0 -0.4641229039382897 0.40091036417177778 0 -0.44878504691792248 0.43547483269414872 0 -0.46585669794528167 0.42199291516666237 0 -0.44878504691792248 0.43547483269414872 0 -0.44880957839306629 0.41410011360809668 0 -0.46585669794528167 0.42199291516666237 0 -0.44878504691792248 0.43547483269414872 0 -0.46585669794528167 0.42199291516666237 0 -0.46289485375526918 0.43579199928955081 0 -0.47438579428019922 0.44398623686781052 0 -0.46289485375526918 0.43579199928955081 0 -0.48180565015534738 0.42787197640755792 0 -0.46585669794528167 0.42199291516666237 0 -0.46289485375526918 0.43579199928955081 0 -0.48180565015534738 0.42787197640755792 0 -0.46585669794528167 0.42199291516666237 0 -0.48292834897264081 0.4085109976391762 0 -0.4641229039382897 0.40091036417177778 0 -0.46585669794528167 0.42199291516666237 0 -0.48292834897264081 0.4085109976391762 0 -0.46585669794528167 0.42199291516666237 0 -0.48180565015534738 0.42787197640755792 0 -0.48292834897264081 0.4085109976391762 0 -0.48292834897264081 0.4085109976391762 0 -0.5 0.41790010511261683 0 -0.5 0.39502908011169002 0 -0.48180565015534738 0.42787197640755792 0 -0.48292834897264081 0.4085109976391762 0 -0.5 0.41790010511261683 0 -0.49999999999999589 0.44077113011354369 0 -0.48180565015534738 0.42787197640755792 0 -0.5 0.41790010511261683 0 -0.48850556386005051 0.3766603246979251 0 -0.5 0.39502908011169002 0 -0.47832653283541199 0.38608194873200979 0 -0.48850556386005051 0.3766603246979251 0 -0.5 0.39502908011169002 0 -0.5 0.36887446842263683 0 -0.48292834897264081 0.4085109976391762 0 -0.5 0.39502908011169002 0 -0.47832653283541199 0.38608194873200979 0 -0.48292834897264081 0.4085109976391762 0 -0.5 0.39502908011169002 0 -0.48292834897264081 0.4085109976391762 0 -0.47832653283541199 0.38608194873200979 0 -0.4641229039382897 0.40091036417177778 0 -0.48850556386005051 0.3766603246979251 0 -0.47832653283541199 0.38608194873200979 0 -0.48259334700195489 0.36409898273387958 0 -0.47832653283541199 0.38608194873200979 0 -0.46059005399087027 0.38292215568240928 0 -0.4641229039382897 0.40091036417177778 0 -0.47832653283541199 0.38608194873200979 0 -0.46059005399087027 0.38292215568240928 0 -0.46572599417265398 0.36772482908493609 0 -0.44880957839306629 0.41410011360809668 0 -0.4641229039382897 0.40091036417177778 0 -0.44883410986820999 0.3927253945220448 0 -0.46059005399087027 0.38292215568240928 0 -0.4641229039382897 0.40091036417177778 0 -0.44883410986820999 0.3927253945220448 0 -0.44880957839306629 0.41410011360809668 0 -0.44883410986820999 0.3927253945220448 0 -0.43699833754743561 0.40294499431243458 0 -0.44880957839306629 0.41410011360809668 0 -0.44883410986820999 0.3927253945220448 0 -0.44883410986820999 0.3927253945220448 0 -0.43978391516082421 0.3912231797547942 0 -0.43699833754743561 0.40294499431243458 0 -0.44883410986820999 0.3927253945220448 0 -0.43978391516082421 0.3912231797547942 0 -0.44802713623065987 0.37645115623263098 0 -0.44883410986820999 0.3927253945220448 0 -0.44885864134335329 0.37135067543599282 0 -0.44883410986820999 0.3927253945220448 0 -0.44802713623065987 0.37645115623263098 0 -0.44885864134335329 0.37135067543599282 0 -0.43978391516082421 0.3912231797547942 0 -0.44802713623065987 0.37645115623263098 0 -0.42527607699699133 0.39277117395206662 0 -0.46059005399087027 0.38292215568240928 0 -0.44883410986820999 0.3927253945220448 0 -0.44885864134335329 0.37135067543599282 0 -0.44802713623065987 0.37645115623263098 0 -0.4250431626101242 0.37647010748543319 0 -0.42527607699699133 0.39277117395206662 0 -0.44802713623065987 0.37645115623263098 0 -0.42527607699699133 0.39277117395206662 0 -0.4250431626101242 0.37647010748543319 0 -0.4134887672477453 0.38574914578498593 0 -0.40122768387689522 0.38158953953487368 0 -0.4250431626101242 0.37647010748543319 0 -0.40122768387689522 0.38158953953487368 0 -0.4250431626101242 0.37647010748543319 0 -0.4134887672477453 0.38574914578498593 0 -0.42527607699699133 0.39277117395206662 0 -0.4250431626101242 0.37647010748543319 0 -0.40122768387689522 0.38158953953487368 0 -0.40086489287733429 0.37467411733839928 0 -0.4134887672477453 0.38574914578498593 0 -0.40798835104355652 0.39359067917546098 0 -0.40557429982823212 0.38794008425198068 0 -0.4134887672477453 0.38574914578498593 0 -0.40122768387689522 0.38158953953487368 0 -0.40557429982823212 0.38794008425198068 0 -0.40798835104355652 0.39359067917546098 0 -0.42527607699699133 0.39277117395206662 0 -0.40252501776332311 0.40909119167150271 0 -0.42527607699699133 0.39277117395206662 0 -0.40252501776332311 0.40909119167150271 0 -0.4134887672477453 0.38574914578498593 0 -0.40798835104355652 0.39359067917546098 0 -0.42527607699699133 0.39277117395206662 0 -0.42527607699699133 0.39277117395206662 0 -0.43699833754743561 0.40294499431243458 0 -0.42391867717568832 0.41711337076656618 0 -0.43978391516082421 0.3912231797547942 0 -0.42527607699699133 0.39277117395206662 0 -0.43699833754743561 0.40294499431243458 0 -0.44880957839306629 0.41410011360809668 0 -0.43699833754743561 0.40294499431243458 0 -0.42391867717568832 0.41711337076656618 0 -0.44531233658805403 0.42513554986162888 0 -0.42391867717568832 0.41711337076656618 0 -0.43788570063392329 0.43164093021736671 0 -0.44531233658805403 0.42513554986162888 0 -0.42391867717568832 0.41711337076656618 0 -0.43788570063392329 0.43164093021736671 0 -0.42391867717568832 0.41711337076656618 0 -0.42501824733507809 0.43459816807542118 0 -0.43592409671607729 0.44045812782560079 0 -0.43788570063392329 0.43164093021736671 0 -0.42501824733507809 0.43459816807542118 0 -0.42391867717568832 0.41711337076656618 0 -0.42501824733507809 0.43459816807542118 0 -0.40464661760035381 0.43350824459614162 0 -0.42527607699699133 0.39277117395206662 0 -0.42391867717568832 0.41711337076656618 0 -0.40252501776332311 0.40909119167150271 0 -0.42391867717568832 0.41711337076656618 0 -0.40252501776332311 0.40909119167150271 0 -0.40464661760035381 0.43350824459614162 0 -0.42391867717568832 0.41711337076656618 0 -0.40252501776332311 0.40909119167150271 0 -0.40252501776332311 0.40909119167150271 0 -0.37875820238401509 0.42613984176471847 0 -0.40252501776332311 0.40909119167150271 0 -0.40464661760035381 0.43350824459614162 0 -0.37875820238401509 0.42613984176471847 0 -0.38249991962136642 0.44345487931465249 0 -0.40464661760035381 0.43350824459614162 0 -0.37875820238401509 0.42613984176471847 0 -0.40252501776332311 0.40909119167150271 0 -0.37875820238401509 0.42613984176471847 0 -0.37769092578324193 0.39977892163450779 0 -0.37769092578324193 0.39977892163450779 0 -0.38963770449155072 0.39285491215608792 0 -0.37686086334024771 0.38257038446795849 0 -0.40252501776332311 0.40909119167150271 0 -0.37769092578324193 0.39977892163450779 0 -0.38963770449155072 0.39285491215608792 0 -0.40252501776332311 0.40909119167150271 0 -0.37769092578324193 0.39977892163450779 0 -0.37686086334024771 0.38257038446795849 0 -0.39363670834615189 0.38450398520198442 0 -0.40086489287733429 0.37467411733839928 0 -0.38963770449155072 0.39285491215608792 0 -0.37686086334024771 0.38257038446795849 0 -0.39363670834615189 0.38450398520198442 0 -0.37686086334024771 0.38257038446795849 0 -0.40086489287733429 0.37467411733839928 0 -0.37686086334024771 0.38257038446795849 0 -0.40086489287733429 0.37467411733839928 0 -0.39033592763893787 0.37070590072739279 0 -0.39363670834615189 0.38450398520198442 0 -0.40122768387689522 0.38158953953487368 0 -0.39959239714473138 0.39083097251260251 0 -0.38963770449155072 0.39285491215608792 0 -0.39363670834615189 0.38450398520198442 0 -0.39959239714473138 0.39083097251260251 0 -0.39363670834615189 0.38450398520198442 0 -0.40122768387689522 0.38158953953487368 0 -0.40086489287733429 0.37467411733839928 0 -0.40122768387689522 0.38158953953487368 0 -0.40557429982823212 0.38794008425198068 0 -0.39959239714473138 0.39083097251260251 0 -0.40798835104355652 0.39359067917546098 0 -0.40557429982823212 0.38794008425198068 0 -0.39959239714473138 0.39083097251260251 0 -0.40252501776332311 0.40909119167150271 0 -0.38963770449155072 0.39285491215608792 0 -0.39959239714473138 0.39083097251260251 0 -0.40798835104355652 0.39359067917546098 0 -0.40252501776332311 0.40909119167150271 0 -0.39959239714473138 0.39083097251260251 0 -0.3926828114571661 0.35541775914535301 0 -0.40105078960399698 0.34662517948293931 0 -0.40586906590548888 0.3393029225754271 0 -0.3926828114571661 0.35541775914535301 0 -0.39400561065841477 0.34382680172727831 0 -0.40586906590548888 0.3393029225754271 0 -0.3926828114571661 0.35541775914535301 0 -0.40586906590548888 0.3393029225754271 0 -0.3926828114571661 0.35541775914535301 0 -0.39969836615416421 0.35756427730283669 0 -0.39341808057325789 0.36431669671432632 0 -0.3926828114571661 0.35541775914535301 0 -0.40105078960399698 0.34662517948293931 0 -0.39969836615416421 0.35756427730283669 0 -0.3926828114571661 0.35541775914535301 0 -0.39400561065841477 0.34382680172727831 0 -0.38539473684528258 0.34837828204789067 0 -0.40105078960399698 0.34662517948293931 0 -0.40525205349158999 0.35429039595711992 0 -0.40888688292129022 0.34941903462410451 0 -0.40105078960399698 0.34662517948293931 0 -0.4080564418273247 0.34368885170405422 0 -0.40888688292129022 0.34941903462410451 0 -0.40105078960399698 0.34662517948293931 0 -0.40525205349158999 0.35429039595711992 0 -0.39969836615416421 0.35756427730283669 0 -0.40525205349158999 0.35429039595711992 0 -0.39969836615416421 0.35756427730283669 0 -0.40553625032349627 0.36037170931698131 0 -0.40553625032349627 0.36037170931698131 0 -0.40544017780568847 0.3661562974108753 0 -0.40025021147547779 0.36436392320030081 0 -0.40544017780568847 0.3661562974108753 0 -0.40025021147547779 0.36436392320030081 0 -0.397742957241214 0.36844985128713797 0 -0.39969836615416421 0.35756427730283669 0 -0.40553625032349627 0.36037170931698131 0 -0.40025021147547779 0.36436392320030081 0 -0.40544017780568847 0.3661562974108753 0 -0.40086489287733429 0.37467411733839928 0 -0.397742957241214 0.36844985128713797 0 -0.40086489287733429 0.37467411733839928 0 -0.397742957241214 0.36844985128713797 0 -0.39033592763893787 0.37070590072739279 0 -0.397742957241214 0.36844985128713797 0 -0.39341808057325789 0.36431669671432632 0 -0.39033592763893787 0.37070590072739279 0 -0.39969836615416421 0.35756427730283669 0 -0.40025021147547779 0.36436392320030081 0 -0.39341808057325789 0.36431669671432632 0 -0.40025021147547779 0.36436392320030081 0 -0.397742957241214 0.36844985128713797 0 -0.39341808057325789 0.36431669671432632 0 -0.3926828114571661 0.35541775914535301 0 -0.39341808057325789 0.36431669671432632 0 -0.37949655700884349 0.37153259571527891 0 -0.37949655700884349 0.37153259571527891 0 -0.37823932191431281 0.35548757599615399 0 -0.37024808467873749 0.36543132639488701 0 -0.3926828114571661 0.35541775914535301 0 -0.37949655700884349 0.37153259571527891 0 -0.37823932191431281 0.35548757599615399 0 -0.3926828114571661 0.35541775914535301 0 -0.37949655700884349 0.37153259571527891 0 -0.39341808057325789 0.36431669671432632 0 -0.39033592763893787 0.37070590072739279 0 -0.37949655700884349 0.37153259571527891 0 -0.37686086334024771 0.38257038446795849 0 -0.39033592763893787 0.37070590072739279 0 -0.37949655700884349 0.37153259571527891 0 -0.37823932191431281 0.35548757599615399 0 -0.38539473684528258 0.34837828204789067 0 -0.3787015959315434 0.33902802614693439 0 -0.3926828114571661 0.35541775914535301 0 -0.37823932191431281 0.35548757599615399 0 -0.38539473684528258 0.34837828204789067 0 -0.3787015959315434 0.33902802614693439 0 -0.37816355277066899 0.32985684687273281 0 -0.39158393304450312 0.32769252248945308 0 -0.39400561065841477 0.34382680172727831 0 -0.38539473684528258 0.34837828204789067 0 -0.3787015959315434 0.33902802614693439 0 -0.39158393304450312 0.32769252248945308 0 -0.37442838800096029 0.32044424157556423 0 -0.37816355277066899 0.32985684687273281 0 -0.39158393304450312 0.32769252248945308 0 -0.37442838800096029 0.32044424157556423 0 -0.38613629988198012 0.31665983269396758 0 -0.39158393304450312 0.32769252248945308 0 -0.37442838800096029 0.32044424157556423 0 -0.38613629988198012 0.31665983269396758 0 -0.37442838800096029 0.32044424157556423 0 -0.37415321332832258 0.31386652142517069 0 -0.39158393304450312 0.32769252248945308 0 -0.4039094095666334 0.320812311378052 0 -0.40925887999808552 0.33516025262174892 0 -0.38613629988198012 0.31665983269396758 0 -0.39830358576524327 0.31266849694114901 0 -0.39158393304450312 0.32769252248945308 0 -0.39830358576524327 0.31266849694114901 0 -0.39158393304450312 0.32769252248945308 0 -0.4039094095666334 0.320812311378052 0 -0.39830358576524327 0.31266849694114901 0 -0.4039094095666334 0.320812311378052 0 -0.40826549608127172 0.31275764886218971 0 -0.3787015959315434 0.33902802614693439 0 -0.40777024278950652 0.33697950655941222 0 -0.39158393304450312 0.32769252248945308 0 -0.40925887999808552 0.33516025262174892 0 -0.39158393304450312 0.32769252248945308 0 -0.40777024278950652 0.33697950655941222 0 -0.40925887999808552 0.33516025262174892 0 -0.3787015959315434 0.33902802614693439 0 -0.39158393304450312 0.32769252248945308 0 -0.40777024278950652 0.33697950655941222 0 -0.39400561065841477 0.34382680172727831 0 -0.3787015959315434 0.33902802614693439 0 -0.40777024278950652 0.33697950655941222 0 -0.39400561065841477 0.34382680172727831 0 -0.40586906590548888 0.3393029225754271 0 -0.40777024278950652 0.33697950655941222 0 -0.40105078960399698 0.34662517948293931 0 -0.40586906590548888 0.3393029225754271 0 -0.40105078960399698 0.34662517948293931 0 -0.40586906590548888 0.3393029225754271 0 -0.4080564418273247 0.34368885170405422 0 -0.4080564418273247 0.34368885170405422 0 -0.41125860555200922 0.34134685969384471 0 -0.40895905381070002 0.33957121871677393 0 -0.40586906590548888 0.3393029225754271 0 -0.4080564418273247 0.34368885170405422 0 -0.40895905381070002 0.33957121871677393 0 -0.4080564418273247 0.34368885170405422 0 -0.41125860555200922 0.34134685969384471 0 -0.41366919887348358 0.34576378073699821 0 -0.41125860555200922 0.34134685969384471 0 -0.41273643032526569 0.33662953043248711 0 -0.41433336845197538 0.3415594658204692 0 -0.41125860555200922 0.34134685969384471 0 -0.41433336845197538 0.3415594658204692 0 -0.41366919887348358 0.34576378073699821 0 -0.41125860555200922 0.34134685969384471 0 -0.41273643032526569 0.33662953043248711 0 -0.40895905381070002 0.33957121871677393 0 -0.41273643032526569 0.33662953043248711 0 -0.40777024278950652 0.33697950655941222 0 -0.41273643032526569 0.33662953043248711 0 -0.40895905381070002 0.33957121871677393 0 -0.40777024278950652 0.33697950655941222 0 -0.41273643032526569 0.33662953043248711 0 -0.40777024278950652 0.33697950655941222 0 -0.40925887999808552 0.33516025262174892 0 -0.40777024278950652 0.33697950655941222 0 -0.40925887999808552 0.33516025262174892 0 -0.40586906590548888 0.3393029225754271 0 -0.40895905381070002 0.33957121871677393 0 -0.40777024278950652 0.33697950655941222 0 -0.40586906590548888 0.3393029225754271 0 -0.40777024278950652 0.33697950655941222 0 -0.41273643032526569 0.33662953043248711 0 -0.40925887999808552 0.33516025262174892 0 -0.40925887999808552 0.33516025262174892 0 -0.42024067891477529 0.32173946694831868 0 -0.40925887999808552 0.33516025262174892 0 -0.42071708592719742 0.33131558094746122 0 -0.42024067891477529 0.32173946694831868 0 -0.41273643032526569 0.33662953043248711 0 -0.40925887999808552 0.33516025262174892 0 -0.42071708592719742 0.33131558094746122 0 -0.41273643032526569 0.33662953043248711 0 -0.4199209072431685 0.34318781838679219 0 -0.41433336845197538 0.3415594658204692 0 -0.4199209072431685 0.34318781838679219 0 -0.41433336845197538 0.3415594658204692 0 -0.41366919887348358 0.34576378073699821 0 -0.40925887999808552 0.33516025262174892 0 -0.41892768793075841 0.31754462100172592 0 -0.42141481873501418 0.31567829233095179 0 -0.40925887999808552 0.33516025262174892 0 -0.411263050936583 0.31954773430139438 0 -0.41892768793075841 0.31754462100172592 0 -0.40925887999808552 0.33516025262174892 0 -0.42141481873501418 0.31567829233095179 0 -0.40925887999808552 0.33516025262174892 0 -0.42024067891477529 0.32173946694831868 0 -0.42141481873501418 0.31567829233095179 0 -0.411263050936583 0.31954773430139438 0 -0.40826549608127172 0.31275764886218971 0 -0.41647318301620623 0.31168328686166002 0 -0.4039094095666334 0.320812311378052 0 -0.411263050936583 0.31954773430139438 0 -0.40826549608127172 0.31275764886218971 0 -0.4039094095666334 0.320812311378052 0 -0.40925887999808552 0.33516025262174892 0 -0.411263050936583 0.31954773430139438 0 -0.411263050936583 0.31954773430139438 0 -0.41892768793075841 0.31754462100172592 0 -0.41647318301620623 0.31168328686166002 0 -0.41892768793075841 0.31754462100172592 0 -0.42141481873501418 0.31567829233095179 0 -0.41892768793075841 0.31754462100172592 0 -0.42141481873501418 0.31567829233095179 0 -0.41647318301620623 0.31168328686166002 0 -0.42024067891477529 0.32173946694831868 0 -0.43790895006943947 0.32081412042189511 0 -0.43122247783146522 0.30831868127488848 0 -0.42024067891477529 0.32173946694831868 0 -0.42938605365092247 0.3272194948190838 0 -0.43790895006943947 0.32081412042189511 0 -0.42024067891477529 0.32173946694831868 0 -0.42141481873501418 0.31567829233095179 0 -0.43122247783146522 0.30831868127488848 0 -0.42024067891477529 0.32173946694831868 0 -0.43122247783146522 0.30831868127488848 0 -0.42071708592719742 0.33131558094746122 0 -0.42024067891477529 0.32173946694831868 0 -0.42938605365092247 0.3272194948190838 0 -0.42938605365092247 0.3272194948190838 0 -0.43674098495811231 0.33493788649063261 0 -0.43790895006943947 0.32081412042189511 0 -0.43790895006943947 0.32081412042189511 0 -0.4401847358662575 0.3127477530096977 0 -0.43122247783146522 0.30831868127488848 0 -0.41273643032526569 0.33662953043248711 0 -0.43674098495811231 0.33493788649063261 0 -0.42071708592719742 0.33131558094746122 0 -0.42938605365092247 0.3272194948190838 0 -0.43674098495811231 0.33493788649063261 0 -0.41273643032526569 0.33662953043248711 0 -0.4199209072431685 0.34318781838679219 0 -0.43385085243219867 0.34555045147446217 0 -0.41273643032526569 0.33662953043248711 0 -0.42071708592719742 0.33131558094746122 0 -0.43674098495811231 0.33493788649063261 0 -0.41273643032526569 0.33662953043248711 0 -0.43385085243219867 0.34555045147446217 0 -0.41273643032526569 0.33662953043248711 0 -0.43674098495811231 0.33493788649063261 0 -0.43385085243219867 0.34555045147446217 0 -0.43385085243219867 0.34555045147446217 0 -0.4302486007270056 0.35272204188882378 0 -0.42573384958437638 0.34916959158482058 0 -0.43385085243219867 0.34555045147446217 0 -0.43539550265875948 0.35741731211322858 0 -0.44110397924445488 0.35756373905142852 0 -0.43539550265875948 0.35741731211322858 0 -0.4302486007270056 0.35272204188882378 0 -0.42757171946388478 0.35850981688022993 0 -0.43385085243219867 0.34555045147446217 0 -0.43539550265875948 0.35741731211322858 0 -0.4302486007270056 0.35272204188882378 0 -0.4302486007270056 0.35272204188882378 0 -0.42480748600639012 0.35482075793933809 0 -0.42573384958437638 0.34916959158482058 0 -0.4302486007270056 0.35272204188882378 0 -0.42757171946388478 0.35850981688022993 0 -0.42480748600639012 0.35482075793933809 0 -0.42757171946388478 0.35850981688022993 0 -0.42480748600639012 0.35482075793933809 0 -0.42195212413097077 0.36043988011418487 0 -0.4199209072431685 0.34318781838679219 0 -0.43385085243219867 0.34555045147446217 0 -0.42573384958437638 0.34916959158482058 0 -0.42480748600639012 0.35482075793933809 0 -0.42573384958437638 0.34916959158482058 0 -0.41984140151311927 0.3495668882346864 0 -0.4199209072431685 0.34318781838679219 0 -0.42573384958437638 0.34916959158482058 0 -0.41984140151311927 0.3495668882346864 0 -0.4199209072431685 0.34318781838679219 0 -0.41984140151311927 0.3495668882346864 0 -0.41366919887348358 0.34576378073699821 0 -0.41984140151311927 0.3495668882346864 0 -0.41366919887348358 0.34576378073699821 0 -0.41404230344944593 0.35073751764187411 0 -0.42480748600639012 0.35482075793933809 0 -0.41984140151311927 0.3495668882346864 0 -0.41755863725870102 0.35684421707679032 0 -0.42480748600639012 0.35482075793933809 0 -0.41755863725870102 0.35684421707679032 0 -0.42195212413097077 0.36043988011418487 0 -0.41984140151311927 0.3495668882346864 0 -0.41755863725870102 0.35684421707679032 0 -0.41404230344944593 0.35073751764187411 0 -0.41755863725870102 0.35684421707679032 0 -0.41125051028190041 0.35540848222164118 0 -0.41404230344944593 0.35073751764187411 0 -0.41125051028190041 0.35540848222164118 0 -0.40888688292129022 0.34941903462410451 0 -0.41404230344944593 0.35073751764187411 0 -0.41755863725870102 0.35684421707679032 0 -0.41125051028190041 0.35540848222164118 0 -0.41142088061722581 0.36176204086772412 0 -0.40553625032349627 0.36037170931698131 0 -0.41125051028190041 0.35540848222164118 0 -0.41142088061722581 0.36176204086772412 0 -0.40525205349158999 0.35429039595711992 0 -0.40553625032349627 0.36037170931698131 0 -0.41125051028190041 0.35540848222164118 0 -0.40525205349158999 0.35429039595711992 0 -0.41125051028190041 0.35540848222164118 0 -0.40888688292129022 0.34941903462410451 0 -0.4080564418273247 0.34368885170405422 0 -0.40888688292129022 0.34941903462410451 0 -0.41366919887348358 0.34576378073699821 0 -0.40888688292129022 0.34941903462410451 0 -0.41366919887348358 0.34576378073699821 0 -0.41404230344944593 0.35073751764187411 0 -0.4250431626101242 0.37647010748543319 0 -0.40086489287733429 0.37467411733839928 0 -0.42486892241442098 0.36677785020884007 0 -0.40086489287733429 0.37467411733839928 0 -0.42486892241442098 0.36677785020884007 0 -0.40086489287733429 0.37467411733839928 0 -0.41378193274770297 0.36450427419225789 0 -0.42486892241442098 0.36677785020884007 0 -0.40544017780568847 0.3661562974108753 0 -0.40086489287733429 0.37467411733839928 0 -0.41378193274770297 0.36450427419225789 0 -0.40544017780568847 0.3661562974108753 0 -0.41142088061722581 0.36176204086772412 0 -0.41378193274770297 0.36450427419225789 0 -0.40553625032349627 0.36037170931698131 0 -0.40544017780568847 0.3661562974108753 0 -0.41142088061722581 0.36176204086772412 0 -0.41755863725870102 0.35684421707679032 0 -0.41378193274770297 0.36450427419225789 0 -0.42195212413097077 0.36043988011418487 0 -0.41378193274770297 0.36450427419225789 0 -0.42486892241442098 0.36677785020884007 0 -0.42195212413097077 0.36043988011418487 0 -0.41755863725870102 0.35684421707679032 0 -0.41142088061722581 0.36176204086772412 0 -0.41378193274770297 0.36450427419225789 0 -0.4250431626101242 0.37647010748543319 0 -0.44885864134335329 0.37135067543599282 0 -0.4250431626101242 0.37647010748543319 0 -0.42486892241442098 0.36677785020884007 0 -0.44885864134335329 0.37135067543599282 0 -0.42486892241442098 0.36677785020884007 0 -0.448872951951507 0.35888158307927881 0 -0.43539550265875948 0.35741731211322858 0 -0.42486892241442098 0.36677785020884007 0 -0.44110397924445488 0.35756373905142852 0 -0.43539550265875948 0.35741731211322858 0 -0.42757171946388478 0.35850981688022993 0 -0.42486892241442098 0.36677785020884007 0 -0.42757171946388478 0.35850981688022993 0 -0.42486892241442098 0.36677785020884007 0 -0.42195212413097077 0.36043988011418487 0 -0.42486892241442098 0.36677785020884007 0 -0.44885864134335329 0.37135067543599282 0 -0.448872951951507 0.35888158307927881 0 -0.44802713623065987 0.37645115623263098 0 -0.4250431626101242 0.37647010748543319 0 -0.44885864134335329 0.37135067543599282 0 -0.42486892241442098 0.36677785020884007 0 -0.44110397924445488 0.35756373905142852 0 -0.448872951951507 0.35888158307927881 0 -0.44885864134335329 0.37135067543599282 0 -0.448872951951507 0.35888158307927881 0 -0.44885864134335329 0.37135067543599282 0 -0.448872951951507 0.35888158307927881 0 -0.45634368000688869 0.36512471152292858 0 -0.43385085243219867 0.34555045147446217 0 -0.45496527453913199 0.35447137251643651 0 -0.44889299330712729 0.34242966823447613 0 -0.43385085243219867 0.34555045147446217 0 -0.45496527453913199 0.35447137251643651 0 -0.43385085243219867 0.34555045147446217 0 -0.44887533288597797 0.35680703170406669 0 -0.45496527453913199 0.35447137251643651 0 -0.43385085243219867 0.34555045147446217 0 -0.44110397924445488 0.35756373905142852 0 -0.44887533288597797 0.35680703170406669 0 -0.44110397924445488 0.35756373905142852 0 -0.44887533288597797 0.35680703170406669 0 -0.448872951951507 0.35888158307927881 0 -0.44887533288597797 0.35680703170406669 0 -0.448872951951507 0.35888158307927881 0 -0.44887533288597797 0.35680703170406669 0 -0.448872951951507 0.35888158307927881 0 -0.45496527453913199 0.35447137251643651 0 -0.448872951951507 0.35888158307927881 0 -0.45496527453913199 0.35447137251643651 0 -0.47186707529616939 0.3513175305497272 0 -0.448872951951507 0.35888158307927881 0 -0.47186707529616939 0.3513175305497272 0 -0.448872951951507 0.35888158307927881 0 -0.45634368000688869 0.36512471152292858 0 -0.47186707529616939 0.3513175305497272 0 -0.45911772068334677 0.34536620346235469 0 -0.45496527453913199 0.35447137251643651 0 -0.47186707529616939 0.3513175305497272 0 -0.45911772068334677 0.34536620346235469 0 -0.45496527453913199 0.35447137251643651 0 -0.44889299330712729 0.34242966823447613 0 -0.46572599417265398 0.36772482908493609 0 -0.45634368000688869 0.36512471152292858 0 -0.47186707529616939 0.3513175305497272 0 -0.46059005399087027 0.38292215568240928 0 -0.44885864134335329 0.37135067543599282 0 -0.46572599417265398 0.36772482908493609 0 -0.44885864134335329 0.37135067543599282 0 -0.46572599417265398 0.36772482908493609 0 -0.44885864134335329 0.37135067543599282 0 -0.46572599417265398 0.36772482908493609 0 -0.45634368000688869 0.36512471152292858 0 -0.47832653283541199 0.38608194873200979 0 -0.46572599417265398 0.36772482908493609 0 -0.48259334700195489 0.36409898273387958 0 -0.46572599417265398 0.36772482908493609 0 -0.48259334700195489 0.36409898273387958 0 -0.47186707529616939 0.3513175305497272 0 -0.46572599417265398 0.36772482908493609 0 -0.48259334700195489 0.36409898273387958 0 -0.47186707529616939 0.3513175305497272 0 -0.494861198640831 0.34375347802017348 0 -0.47186707529616939 0.3513175305497272 0 -0.48536711719674469 0.35339641184703091 0 -0.494861198640831 0.34375347802017348 0 -0.48259334700195489 0.36409898273387958 0 -0.47186707529616939 0.3513175305497272 0 -0.48536711719674469 0.35339641184703091 0 -0.48259334700195489 0.36409898273387958 0 -0.49214684784802371 0.35441565608434311 0 -0.48536711719674469 0.35339641184703091 0 -0.49214684784802371 0.35441565608434311 0 -0.5 0.36887446842263683 0 -0.5 0.34271985673358363 0 -0.49214684784802371 0.35441565608434311 0 -0.48536711719674469 0.35339641184703091 0 -0.494861198640831 0.34375347802017348 0 -0.49214684784802371 0.35441565608434311 0 -0.494861198640831 0.34375347802017348 0 -0.5 0.34271985673358363 0 -0.48850556386005051 0.3766603246979251 0 -0.48259334700195489 0.36409898273387958 0 -0.5 0.36887446842263683 0 -0.48259334700195489 0.36409898273387958 0 -0.49214684784802371 0.35441565608434311 0 -0.5 0.36887446842263683 0 -0.485708092488497 0.3189911195031831 0 -0.5 0.31656524504453032 0 -0.48475009422380527 0.3315545986069256 0 -0.485708092488497 0.3189911195031831 0 -0.5 0.31656524504453032 0 -0.48583489694974541 0.30845327583860088 0 -0.5 0.31656524504453032 0 -0.5 0.34271985673358363 0 -0.48475009422380527 0.3315545986069256 0 -0.494861198640831 0.34375347802017348 0 -0.5 0.34271985673358363 0 -0.48475009422380527 0.3315545986069256 0 -0.48475009422380527 0.3315545986069256 0 -0.46074553959095882 0.3332462425487791 0 -0.47186707529616939 0.3513175305497272 0 -0.494861198640831 0.34375347802017348 0 -0.48475009422380527 0.3315545986069256 0 -0.47186707529616939 0.3513175305497272 0 -0.48475009422380527 0.3315545986069256 0 -0.46074553959095882 0.3332462425487791 0 -0.48475009422380527 0.3315545986069256 0 -0.47224737878043732 0.31939135852267558 0 -0.46074553959095882 0.3332462425487791 0 -0.485708092488497 0.3189911195031831 0 -0.48475009422380527 0.3315545986069256 0 -0.47224737878043732 0.31939135852267558 0 -0.485708092488497 0.3189911195031831 0 -0.47224737878043732 0.31939135852267558 0 -0.48583489694974541 0.30845327583860088 0 -0.47224737878043732 0.31939135852267558 0 -0.46258830912673421 0.31343425170936878 0 -0.46074553959095882 0.3332462425487791 0 -0.46258830912673421 0.31343425170936878 0 -0.46074553959095882 0.3332462425487791 0 -0.45107709460752138 0.31557533431346357 0 -0.45911772068334677 0.34536620346235469 0 -0.47186707529616939 0.3513175305497272 0 -0.46074553959095882 0.3332462425487791 0 -0.45911772068334677 0.34536620346235469 0 -0.46074553959095882 0.3332462425487791 0 -0.44889299330712729 0.34242966823447613 0 -0.43674098495811231 0.33493788649063261 0 -0.46074553959095882 0.3332462425487791 0 -0.43674098495811231 0.33493788649063261 0 -0.46074553959095882 0.3332462425487791 0 -0.44889299330712729 0.34242966823447613 0 -0.43674098495811231 0.33493788649063261 0 -0.46074553959095882 0.3332462425487791 0 -0.43790895006943947 0.32081412042189511 0 -0.43674098495811231 0.33493788649063261 0 -0.43385085243219867 0.34555045147446217 0 -0.44889299330712729 0.34242966823447613 0 -0.46074553959095882 0.3332462425487791 0 -0.45107709460752138 0.31557533431346357 0 -0.43790895006943947 0.32081412042189511 0 -0.45107709460752138 0.31557533431346357 0 -0.43790895006943947 0.32081412042189511 0 -0.4401847358662575 0.3127477530096977 0 -0.44444415583193408 0.29216055381020578 0 -0.43122247783146522 0.30831868127488848 0 -0.44810052680614793 0.29565349026271098 0 -0.43122247783146522 0.30831868127488848 0 -0.44368336155109173 0.30649675881006838 0 -0.44810052680614793 0.29565349026271098 0 -0.43122247783146522 0.30831868127488848 0 -0.4401847358662575 0.3127477530096977 0 -0.44368336155109173 0.30649675881006838 0 -0.43122247783146522 0.30831868127488848 0 -0.44444415583193408 0.29216055381020578 0 -0.44810052680614793 0.29565349026271098 0 -0.43122247783146522 0.30831868127488848 0 -0.45107709460752138 0.31557533431346357 0 -0.4401847358662575 0.3127477530096977 0 -0.44368336155109173 0.30649675881006838 0 -0.44368336155109173 0.30649675881006838 0 -0.44996115485610377 0.3015940899144034 0 -0.4551770389262465 0.30483297142504889 0 -0.44368336155109173 0.30649675881006838 0 -0.44996115485610377 0.3015940899144034 0 -0.44810052680614793 0.29565349026271098 0 -0.45288369214092922 0.29939313915978533 0 -0.44996115485610377 0.3015940899144034 0 -0.44810052680614793 0.29565349026271098 0 -0.45288369214092922 0.29939313915978533 0 -0.44996115485610377 0.3015940899144034 0 -0.4551770389262465 0.30483297142504889 0 -0.45107709460752138 0.31557533431346357 0 -0.44368336155109173 0.30649675881006838 0 -0.4551770389262465 0.30483297142504889 0 -0.44702735364695217 0.27675533545947301 0 -0.43422108619098299 0.29621681389521232 0 -0.44444415583193408 0.29216055381020578 0 -0.44702735364695217 0.27675533545947301 0 -0.43422108619098299 0.29621681389521232 0 -0.44702735364695217 0.27675533545947301 0 -0.43274811138672559 0.28469846643612018 0 -0.43422108619098299 0.29621681389521232 0 -0.44810052680614793 0.29565349026271098 0 -0.4493542421043164 0.28919027156790111 0 -0.45395006383388498 0.28587005882998617 0 -0.44444415583193408 0.29216055381020578 0 -0.44810052680614793 0.29565349026271098 0 -0.4493542421043164 0.28919027156790111 0 -0.44444415583193408 0.29216055381020578 0 -0.4493542421043164 0.28919027156790111 0 -0.44702735364695217 0.27675533545947301 0 -0.4493542421043164 0.28919027156790111 0 -0.45395006383388498 0.28587005882998617 0 -0.44702735364695217 0.27675533545947301 0 -0.44810052680614793 0.29565349026271098 0 -0.45395006383388498 0.28587005882998617 0 -0.46497857578083068 0.28298829925053381 0 -0.44810052680614793 0.29565349026271098 0 -0.4593999708052337 0.29480301670676529 0 -0.46497857578083068 0.28298829925053381 0 -0.44810052680614793 0.29565349026271098 0 -0.46497857578083068 0.28298829925053381 0 -0.45288369214092922 0.29939313915978533 0 -0.44810052680614793 0.29565349026271098 0 -0.4593999708052337 0.29480301670676529 0 -0.4593999708052337 0.29480301670676529 0 -0.46827174088950307 0.29409138505043392 0 -0.46497857578083068 0.28298829925053381 0 -0.46258830912673421 0.31343425170936878 0 -0.45107709460752138 0.31557533431346357 0 -0.4551770389262465 0.30483297142504889 0 -0.45288369214092922 0.29939313915978533 0 -0.4593999708052337 0.29480301670676529 0 -0.4551770389262465 0.30483297142504889 0 -0.4593999708052337 0.29480301670676529 0 -0.4551770389262465 0.30483297142504889 0 -0.46625021185001803 0.30380681263807602 0 -0.4593999708052337 0.29480301670676529 0 -0.46827174088950307 0.29409138505043392 0 -0.46625021185001803 0.30380681263807602 0 -0.47224737878043732 0.31939135852267558 0 -0.46258830912673421 0.31343425170936878 0 -0.46625021185001803 0.30380681263807602 0 -0.46258830912673421 0.31343425170936878 0 -0.4551770389262465 0.30483297142504889 0 -0.46625021185001803 0.30380681263807602 0 -0.47551717359816043 0.30301602212345602 0 -0.4769183937012712 0.29196404103452073 0 -0.48583489694974541 0.30845327583860088 0 -0.47224737878043732 0.31939135852267558 0 -0.46625021185001803 0.30380681263807602 0 -0.47551717359816043 0.30301602212345602 0 -0.47224737878043732 0.31939135852267558 0 -0.47551717359816043 0.30301602212345602 0 -0.48583489694974541 0.30845327583860088 0 -0.46827174088950307 0.29409138505043392 0 -0.46625021185001803 0.30380681263807602 0 -0.47551717359816043 0.30301602212345602 0 -0.46827174088950307 0.29409138505043392 0 -0.46497857578083068 0.28298829925053381 0 -0.4769183937012712 0.29196404103452073 0 -0.4769183937012712 0.29196404103452073 0 -0.48757792524538679 0.2814999319082685 0 -0.48583489694974541 0.30845327583860088 0 -0.46827174088950307 0.29409138505043392 0 -0.47551717359816043 0.30301602212345602 0 -0.4769183937012712 0.29196404103452073 0 -0.46497857578083068 0.28298829925053381 0 -0.47783287987075052 0.28169384510791978 0 -0.4769183937012712 0.29196404103452073 0 -0.47783287987075052 0.28169384510791978 0 -0.4769183937012712 0.29196404103452073 0 -0.48757792524538679 0.2814999319082685 0 -0.5 0.29041063335547701 0 -0.48757792524538679 0.2814999319082685 0 -0.48583489694974541 0.30845327583860088 0 -0.48757792524538679 0.2814999319082685 0 -0.48583489694974541 0.30845327583860088 0 -0.5 0.31656524504453032 0 -0.5 0.29041063335547701 0 -0.48583489694974541 0.30845327583860088 0 -0.5 0.23810140997737081 0 -0.5 0.26425602166642381 0 -0.48932095354102823 0.25454658797793611 0 -0.48757792524538679 0.2814999319082685 0 -0.48932095354102823 0.25454658797793611 0 -0.48366697684514259 0.26703881783025729 0 -0.48757792524538679 0.2814999319082685 0 -0.5 0.26425602166642381 0 -0.48932095354102823 0.25454658797793611 0 -0.48757792524538679 0.2814999319082685 0 -0.48932095354102823 0.25454658797793611 0 -0.5 0.29041063335547701 0 -0.48757792524538679 0.2814999319082685 0 -0.5 0.26425602166642381 0 -0.46497857578083068 0.28298829925053381 0 -0.48185662475551339 0.27032310823835648 0 -0.46497857578083068 0.28298829925053381 0 -0.47783287987075052 0.28169384510791978 0 -0.48185662475551339 0.27032310823835648 0 -0.48366697684514259 0.26703881783025729 0 -0.45893043448094739 0.2699305570534084 0 -0.48757792524538679 0.2814999319082685 0 -0.48366697684514259 0.26703881783025729 0 -0.48185662475551339 0.27032310823835648 0 -0.48366697684514259 0.26703881783025729 0 -0.48185662475551339 0.27032310823835648 0 -0.47235815296560851 0.27257019559313889 0 -0.46497857578083068 0.28298829925053381 0 -0.48185662475551339 0.27032310823835648 0 -0.47235815296560851 0.27257019559313889 0 -0.48366697684514259 0.26703881783025729 0 -0.46959483388743167 0.25994315597580908 0 -0.45893043448094739 0.2699305570534084 0 -0.48366697684514259 0.26703881783025729 0 -0.47235815296560851 0.27257019559313889 0 -0.45893043448094739 0.2699305570534084 0 -0.47783287987075052 0.28169384510791978 0 -0.48757792524538679 0.2814999319082685 0 -0.48185662475551339 0.27032310823835648 0 -0.48932095354102823 0.25454658797793611 0 -0.48366697684514259 0.26703881783025729 0 -0.47792533453874358 0.25606878273296479 0 -0.48366697684514259 0.26703881783025729 0 -0.46959483388743167 0.25994315597580908 0 -0.47792533453874358 0.25606878273296479 0 -0.47864167104372218 0.246590621409366 0 -0.48932095354102823 0.25454658797793611 0 -0.47792533453874358 0.25606878273296479 0 -0.47864167104372218 0.246590621409366 0 -0.47792533453874358 0.25606878273296479 0 -0.46938038244821267 0.25133041049185839 0 -0.46959483388743167 0.25994315597580908 0 -0.47792533453874358 0.25606878273296479 0 -0.46938038244821267 0.25133041049185839 0 -0.46959483388743167 0.25994315597580908 0 -0.46938038244821267 0.25133041049185839 0 -0.45807104112411212 0.25534721177055669 0 -0.46959483388743167 0.25994315597580908 0 -0.45807104112411212 0.25534721177055669 0 -0.45893043448094739 0.2699305570534084 0 -0.45807104112411212 0.25534721177055669 0 -0.45893043448094739 0.2699305570534084 0 -0.44442574262614493 0.25832327296872359 0 -0.45395006383388498 0.28587005882998617 0 -0.46497857578083068 0.28298829925053381 0 -0.45893043448094739 0.2699305570534084 0 -0.45395006383388498 0.28587005882998617 0 -0.45893043448094739 0.2699305570534084 0 -0.44702735364695217 0.27675533545947301 0 -0.46497857578083068 0.28298829925053381 0 -0.47235815296560851 0.27257019559313889 0 -0.45893043448094739 0.2699305570534084 0 -0.45893043448094739 0.2699305570534084 0 -0.43419389211675241 0.27282229627655952 0 -0.45893043448094739 0.2699305570534084 0 -0.44442574262614493 0.25832327296872359 0 -0.43419389211675241 0.27282229627655952 0 -0.45893043448094739 0.2699305570534084 0 -0.44702735364695217 0.27675533545947301 0 -0.43419389211675241 0.27282229627655952 0 -0.44702735364695217 0.27675533545947301 0 -0.43419389211675241 0.27282229627655952 0 -0.43274811138672559 0.28469846643612018 0 -0.45046339488490522 0.249057113070103 0 -0.45807104112411212 0.25534721177055669 0 -0.44442574262614493 0.25832327296872359 0 -0.44062222049055039 0.24203477259657111 0 -0.44442574262614493 0.25832327296872359 0 -0.42503978512155383 0.25887440404814072 0 -0.44062222049055039 0.24203477259657111 0 -0.42503978512155383 0.25887440404814072 0 -0.44442574262614493 0.25832327296872359 0 -0.42503978512155383 0.25887440404814072 0 -0.43419389211675241 0.27282229627655952 0 -0.42503978512155383 0.25887440404814072 0 -0.40945734975255721 0.27571403549971041 0 -0.40585136056822319 0.25674789398696107 0 -0.4198454647722451 0.23985190764030939 0 -0.42503978512155383 0.25887440404814072 0 -0.40585136056822319 0.25674789398696107 0 -0.40945734975255721 0.27571403549971041 0 -0.43419389211675241 0.27282229627655952 0 -0.42503978512155383 0.25887440404814072 0 -0.40945734975255721 0.27571403549971041 0 -0.42503978512155383 0.25887440404814072 0 -0.40945734975255721 0.27571403549971041 0 -0.43419389211675241 0.27282229627655952 0 -0.40945734975255721 0.27571403549971041 0 -0.43419389211675241 0.27282229627655952 0 -0.4229835889384117 0.28415291652507912 0 -0.43419389211675241 0.27282229627655952 0 -0.43274811138672559 0.28469846643612018 0 -0.4229835889384117 0.28415291652507912 0 -0.43274811138672559 0.28469846643612018 0 -0.43422108619098299 0.29621681389521232 0 -0.42519236151645012 0.29288975242762622 0 -0.43274811138672559 0.28469846643612018 0 -0.42519236151645012 0.29288975242762622 0 -0.4229835889384117 0.28415291652507912 0 -0.42141481873501418 0.31567829233095179 0 -0.43422108619098299 0.29621681389521232 0 -0.42141481873501418 0.31567829233095179 0 -0.43422108619098299 0.29621681389521232 0 -0.42237726971740519 0.30236741203524931 0 -0.44444415583193408 0.29216055381020578 0 -0.43422108619098299 0.29621681389521232 0 -0.43122247783146522 0.30831868127488848 0 -0.42141481873501418 0.31567829233095179 0 -0.43422108619098299 0.29621681389521232 0 -0.43122247783146522 0.30831868127488848 0 -0.43422108619098299 0.29621681389521232 0 -0.42519236151645012 0.29288975242762622 0 -0.42237726971740519 0.30236741203524931 0 -0.42141481873501418 0.31567829233095179 0 -0.43122247783146522 0.30831868127488848 0 -0.42237726971740519 0.30236741203524931 0 -0.41647318301620623 0.31168328686166002 0 -0.40812109447663159 0.30329838776079099 0 -0.42141481873501418 0.31567829233095179 0 -0.42237726971740519 0.30236741203524931 0 -0.41647318301620623 0.31168328686166002 0 -0.42237726971740519 0.30236741203524931 0 -0.40812109447663159 0.30329838776079099 0 -0.41256551749876041 0.29129965580367562 0 -0.40826549608127172 0.31275764886218971 0 -0.41647318301620623 0.31168328686166002 0 -0.40812109447663159 0.30329838776079099 0 -0.40945734975255721 0.27571403549971041 0 -0.4229835889384117 0.28415291652507912 0 -0.41256551749876041 0.29129965580367562 0 -0.42519236151645012 0.29288975242762622 0 -0.4229835889384117 0.28415291652507912 0 -0.41256551749876041 0.29129965580367562 0 -0.42519236151645012 0.29288975242762622 0 -0.42237726971740519 0.30236741203524931 0 -0.41256551749876041 0.29129965580367562 0 -0.40945734975255721 0.27571403549971041 0 -0.39180528154043992 0.29479027846244049 0 -0.39350738277932218 0.27757861076756318 0 -0.40945734975255721 0.27571403549971041 0 -0.39180528154043992 0.29479027846244049 0 -0.40812109447663159 0.30329838776079099 0 -0.41256551749876041 0.29129965580367562 0 -0.39180528154043992 0.29479027846244049 0 -0.40945734975255721 0.27571403549971041 0 -0.41256551749876041 0.29129965580367562 0 -0.39180528154043992 0.29479027846244049 0 -0.38613629988198012 0.31665983269396758 0 -0.39830358576524327 0.31266849694114901 0 -0.39180528154043992 0.29479027846244049 0 -0.39830358576524327 0.31266849694114901 0 -0.40812109447663159 0.30329838776079099 0 -0.39180528154043992 0.29479027846244049 0 -0.39830358576524327 0.31266849694114901 0 -0.40826549608127172 0.31275764886218971 0 -0.40812109447663159 0.30329838776079099 0 -0.39180528154043992 0.29479027846244049 0 -0.37819889022761238 0.29924868842846319 0 -0.37415321332832258 0.31386652142517069 0 -0.38613629988198012 0.31665983269396758 0 -0.39180528154043992 0.29479027846244049 0 -0.37415321332832258 0.31386652142517069 0 -0.39180528154043992 0.29479027846244049 0 -0.37415321332832258 0.31386652142517069 0 -0.39180528154043992 0.29479027846244049 0 -0.37819889022761238 0.29924868842846319 0 -0.37870614451813112 0.28175948497688769 0 -0.39180528154043992 0.29479027846244049 0 -0.37870614451813112 0.28175948497688769 0 -0.39350738277932218 0.27757861076756318 0 -0.37870614451813112 0.28175948497688769 0 -0.37647038179830861 0.26645711442365799 0 -0.39350738277932218 0.27757861076756318 0 -0.37647038179830861 0.26645711442365799 0 -0.39336972403141229 0.26369738761855421 0 -0.39350738277932218 0.27757861076756318 0 -0.38790582398472923 0.24962922847932231 0 -0.37647038179830861 0.26645711442365799 0 -0.39336972403141229 0.26369738761855421 0 -0.38790582398472923 0.24962922847932231 0 -0.37647038179830861 0.26645711442365799 0 -0.36318679658289171 0.25196182354824148 0 -0.40945734975255721 0.27571403549971041 0 -0.40585136056822319 0.25674789398696107 0 -0.39336972403141229 0.26369738761855421 0 -0.38790582398472923 0.24962922847932231 0 -0.40585136056822319 0.25674789398696107 0 -0.39336972403141229 0.26369738761855421 0 -0.40945734975255721 0.27571403549971041 0 -0.39336972403141229 0.26369738761855421 0 -0.39350738277932218 0.27757861076756318 0 -0.40945734975255721 0.27571403549971041 0 -0.39350738277932218 0.27757861076756318 0 -0.35583614606747688 0.27501819518035592 0 -0.36318679658289171 0.25196182354824148 0 -0.33952374355129727 0.25899057541505788 0 -0.37647038179830861 0.26645711442365799 0 -0.35583614606747688 0.27501819518035592 0 -0.36318679658289171 0.25196182354824148 0 -0.37870614451813112 0.28175948497688769 0 -0.37647038179830861 0.26645711442365799 0 -0.35583614606747688 0.27501819518035592 0 -0.37819889022761238 0.29924868842846319 0 -0.37870614451813112 0.28175948497688769 0 -0.36775571630023218 0.2927315942663431 0 -0.37870614451813112 0.28175948497688769 0 -0.35583614606747688 0.27501819518035592 0 -0.36775571630023218 0.2927315942663431 0 -0.37819889022761238 0.29924868842846319 0 -0.36899777432263853 0.30469822459034263 0 -0.37415321332832258 0.31386652142517069 0 -0.36899777432263853 0.30469822459034263 0 -0.36272901898995358 0.31473918551029578 0 -0.37415321332832258 0.31386652142517069 0 -0.37819889022761238 0.29924868842846319 0 -0.36775571630023218 0.2927315942663431 0 -0.36899777432263853 0.30469822459034263 0 -0.36775571630023218 0.2927315942663431 0 -0.36899777432263853 0.30469822459034263 0 -0.35931620367806588 0.30475084950198522 0 -0.36775571630023218 0.2927315942663431 0 -0.35931620367806588 0.30475084950198522 0 -0.35261706249820868 0.29381533636168528 0 -0.36899777432263853 0.30469822459034263 0 -0.35931620367806588 0.30475084950198522 0 -0.36272901898995358 0.31473918551029578 0 -0.35931620367806588 0.30475084950198522 0 -0.35261706249820868 0.29381533636168528 0 -0.34344143829887858 0.30736403781452232 0 -0.35931620367806588 0.30475084950198522 0 -0.34344143829887858 0.30736403781452232 0 -0.35467675850453528 0.31743756764607989 0 -0.35931620367806588 0.30475084950198522 0 -0.35467675850453528 0.31743756764607989 0 -0.36272901898995358 0.31473918551029578 0 -0.35583614606747688 0.27501819518035592 0 -0.36775571630023218 0.2927315942663431 0 -0.35261706249820868 0.29381533636168528 0 -0.35583614606747688 0.27501819518035592 0 -0.35261706249820868 0.29381533636168528 0 -0.33673580814638959 0.28921200504521999 0 -0.35261706249820868 0.29381533636168528 0 -0.33673580814638959 0.28921200504521999 0 -0.34344143829887858 0.30736403781452232 0 -0.33673580814638959 0.28921200504521999 0 -0.32075162894010661 0.28280614760534989 0 -0.33379142081270979 0.2734424933293601 0 -0.34344143829887858 0.30736403781452232 0 -0.31699951866320542 0.30755322334125379 0 -0.34344143829887858 0.30736403781452232 0 -0.31699951866320542 0.30755322334125379 0 -0.33459812393413729 0.32207732583041709 0 -0.33673580814638959 0.28921200504521999 0 -0.34344143829887858 0.30736403781452232 0 -0.31699951866320542 0.30755322334125379 0 -0.33673580814638959 0.28921200504521999 0 -0.31699951866320542 0.30755322334125379 0 -0.32075162894010661 0.28280614760534989 0 -0.31699951866320542 0.30755322334125379 0 -0.32075162894010661 0.28280614760534989 0 -0.30493521127791462 0.28695781074044469 0 -0.32075162894010661 0.28280614760534989 0 -0.31931282352829687 0.26617321261290411 0 -0.33379142081270979 0.2734424933293601 0 -0.32075162894010661 0.28280614760534989 0 -0.31931282352829687 0.26617321261290411 0 -0.30493521127791462 0.28695781074044469 0 -0.35583614606747688 0.27501819518035592 0 -0.33673580814638959 0.28921200504521999 0 -0.33379142081270979 0.2734424933293601 0 -0.35583614606747688 0.27501819518035592 0 -0.33379142081270979 0.2734424933293601 0 -0.33952374355129727 0.25899057541505788 0 -0.31931282352829687 0.26617321261290411 0 -0.33379142081270979 0.2734424933293601 0 -0.33952374355129727 0.25899057541505788 0 -0.32200613725511351 0.24850726385495631 0 -0.31931282352829687 0.26617321261290411 0 -0.33952374355129727 0.25899057541505788 0 -0.32200613725511351 0.24850726385495631 0 -0.31931282352829687 0.26617321261290411 0 -0.30640548876467488 0.25787073169030861 0 -0.31931282352829687 0.26617321261290411 0 -0.30640548876467488 0.25787073169030861 0 -0.3010630097917536 0.27273037638764702 0 -0.31931282352829687 0.26617321261290411 0 -0.3010630097917536 0.27273037638764702 0 -0.30493521127791462 0.28695781074044469 0 -0.31931282352829687 0.26617321261290411 0 -0.30493521127791462 0.28695781074044469 0 -0.3010630097917536 0.27273037638764702 0 -0.29309283898050847 0.28048055459605348 0 -0.30493521127791462 0.28695781074044469 0 -0.3010630097917536 0.27273037638764702 0 -0.29309283898050847 0.28048055459605348 0 -0.28156868640737281 0.27216957229852412 0 -0.30640548876467488 0.25787073169030861 0 -0.3010630097917536 0.27273037638764702 0 -0.28156868640737281 0.27216957229852412 0 -0.30640548876467488 0.25787073169030861 0 -0.28156868640737281 0.27216957229852412 0 -0.28729818335365731 0.26780124082781631 0 -0.28156868640737281 0.27216957229852412 0 -0.28729818335365731 0.26780124082781631 0 -0.27880962639343299 0.26078065685839158 0 -0.29309283898050847 0.28048055459605348 0 -0.28156868640737281 0.27216957229852412 0 -0.28401529333418091 0.28255904946725641 0 -0.30640548876467488 0.25787073169030861 0 -0.28156868640737281 0.27216957229852412 0 -0.29125564533142001 0.24067530578368901 0 -0.30640548876467488 0.25787073169030861 0 -0.28729818335365731 0.26780124082781631 0 -0.29125564533142001 0.24067530578368901 0 -0.28729818335365731 0.26780124082781631 0 -0.27880962639343299 0.26078065685839158 0 -0.29125564533142001 0.24067530578368901 0 -0.28729818335365731 0.26780124082781631 0 -0.29125564533142001 0.24067530578368901 0 -0.26892213733164849 0.25365425058065472 0 -0.27880962639343299 0.26078065685839158 0 -0.26892213733164849 0.25365425058065472 0 -0.27880962639343299 0.26078065685839158 0 -0.26500347954306669 0.26960291480127369 0 -0.28156868640737281 0.27216957229852412 0 -0.25673188405007052 0.28646841290673969 0 -0.28156868640737281 0.27216957229852412 0 -0.26500347954306669 0.26960291480127369 0 -0.25673188405007052 0.28646841290673969 0 -0.28156868640737281 0.27216957229852412 0 -0.27880962639343299 0.26078065685839158 0 -0.26500347954306669 0.26960291480127369 0 -0.28156868640737281 0.27216957229852412 0 -0.27479408276187339 0.28687287199942368 0 -0.28401529333418091 0.28255904946725641 0 -0.26500347954306669 0.26960291480127369 0 -0.25265925142613249 0.26128234508680298 0 -0.25673188405007052 0.28646841290673969 0 -0.26892213733164849 0.25365425058065472 0 -0.26500347954306669 0.26960291480127369 0 -0.25265925142613249 0.26128234508680298 0 -0.25621817608628389 0.2460965770837312 0 -0.26892213733164849 0.25365425058065472 0 -0.25265925142613249 0.26128234508680298 0 -0.25505401324638421 0.30366623925853881 0 -0.26661761067819428 0.2958317928062858 0 -0.26721257633701828 0.30790943684761429 0 -0.25505401324638421 0.30366623925853881 0 -0.26721257633701828 0.30790943684761429 0 -0.25901197930261888 0.31383205914145501 0 -0.26721257633701828 0.30790943684761429 0 -0.25901197930261888 0.31383205914145501 0 -0.26528599585519008 0.31471464054907522 0 -0.25505401324638421 0.30366623925853881 0 -0.25901197930261888 0.31383205914145501 0 -0.24885494741763489 0.31718848033418301 0 -0.25505401324638421 0.30366623925853881 0 -0.25673188405007052 0.28646841290673969 0 -0.26661761067819428 0.2958317928062858 0 -0.26661761067819428 0.2958317928062858 0 -0.27573637841232751 0.29432500902679382 0 -0.27326763327687947 0.30016750757533939 0 -0.28156868640737281 0.27216957229852412 0 -0.25673188405007052 0.28646841290673969 0 -0.27479408276187339 0.28687287199942368 0 -0.26661761067819428 0.2958317928062858 0 -0.27479408276187339 0.28687287199942368 0 -0.27573637841232751 0.29432500902679382 0 -0.25673188405007052 0.28646841290673969 0 -0.26661761067819428 0.2958317928062858 0 -0.27479408276187339 0.28687287199942368 0 -0.27479408276187339 0.28687287199942368 0 -0.28401529333418091 0.28255904946725641 0 -0.28313816676434478 0.29069510378855717 0 -0.27479408276187339 0.28687287199942368 0 -0.27573637841232751 0.29432500902679382 0 -0.28313816676434478 0.29069510378855717 0 -0.27573637841232751 0.29432500902679382 0 -0.28086439858034518 0.29805776896436298 0 -0.28313816676434478 0.29069510378855717 0 -0.28086439858034518 0.29805776896436298 0 -0.27753065875984329 0.30327410754998058 0 -0.28274061889410179 0.30278083970340541 0 -0.27753065875984329 0.30327410754998058 0 -0.27514776209796898 0.30785266251660498 0 -0.28274061889410179 0.30278083970340541 0 -0.27753065875984329 0.30327410754998058 0 -0.27326763327687947 0.30016750757533939 0 -0.27348155140824082 0.30658246875079598 0 -0.28086439858034518 0.29805776896436298 0 -0.27753065875984329 0.30327410754998058 0 -0.27326763327687947 0.30016750757533939 0 -0.27573637841232751 0.29432500902679382 0 -0.28086439858034518 0.29805776896436298 0 -0.27326763327687947 0.30016750757533939 0 -0.26661761067819428 0.2958317928062858 0 -0.27326763327687947 0.30016750757533939 0 -0.26721257633701828 0.30790943684761429 0 -0.26721257633701828 0.30790943684761429 0 -0.27514776209796898 0.30785266251660498 0 -0.27123720609067609 0.3158529302113221 0 -0.26721257633701828 0.30790943684761429 0 -0.27348155140824082 0.30658246875079598 0 -0.27514776209796898 0.30785266251660498 0 -0.26721257633701828 0.30790943684761429 0 -0.27514776209796898 0.30785266251660498 0 -0.27326763327687947 0.30016750757533939 0 -0.26721257633701828 0.30790943684761429 0 -0.27348155140824082 0.30658246875079598 0 -0.27514776209796898 0.30785266251660498 0 -0.2851872012256097 0.31550597615259851 0 -0.27753065875984329 0.30327410754998058 0 -0.27348155140824082 0.30658246875079598 0 -0.27514776209796898 0.30785266251660498 0 -0.27348155140824082 0.30658246875079598 0 -0.27514776209796898 0.30785266251660498 0 -0.27514776209796898 0.30785266251660498 0 -0.2905575990275322 0.30774240886798532 0 -0.27514776209796898 0.30785266251660498 0 -0.2905575990275322 0.30774240886798532 0 -0.2851872012256097 0.31550597615259851 0 -0.2896026760048197 0.2969772506180926 0 -0.2905575990275322 0.30774240886798532 0 -0.30493521127791462 0.28695781074044469 0 -0.27514776209796898 0.30785266251660498 0 -0.28274061889410179 0.30278083970340541 0 -0.2905575990275322 0.30774240886798532 0 -0.2905575990275322 0.30774240886798532 0 -0.2851872012256097 0.31550597615259851 0 -0.28274061889410179 0.30278083970340541 0 -0.2896026760048197 0.2969772506180926 0 -0.2905575990275322 0.30774240886798532 0 -0.28086439858034518 0.29805776896436298 0 -0.28274061889410179 0.30278083970340541 0 -0.2896026760048197 0.2969772506180926 0 -0.28401529333418091 0.28255904946725641 0 -0.28313816676434478 0.29069510378855717 0 -0.29095683727235372 0.28753395384208091 0 -0.28086439858034518 0.29805776896436298 0 -0.2896026760048197 0.2969772506180926 0 -0.28313816676434478 0.29069510378855717 0 -0.2896026760048197 0.2969772506180926 0 -0.28313816676434478 0.29069510378855717 0 -0.29095683727235372 0.28753395384208091 0 -0.2896026760048197 0.2969772506180926 0 -0.29095683727235372 0.28753395384208091 0 -0.30493521127791462 0.28695781074044469 0 -0.29309283898050847 0.28048055459605348 0 -0.29095683727235372 0.28753395384208091 0 -0.30493521127791462 0.28695781074044469 0 -0.29309283898050847 0.28048055459605348 0 -0.28401529333418091 0.28255904946725641 0 -0.29095683727235372 0.28753395384208091 0 -0.31699951866320542 0.30755322334125379 0 -0.2905575990275322 0.30774240886798532 0 -0.30563014257680821 0.31779627416788381 0 -0.31699951866320542 0.30755322334125379 0 -0.2905575990275322 0.30774240886798532 0 -0.2905575990275322 0.30774240886798532 0 -0.30493521127791462 0.28695781074044469 0 -0.31699951866320542 0.30755322334125379 0 -0.2905575990275322 0.30774240886798532 0 -0.30493521127791462 0.28695781074044469 0 -0.30538608464820588 0.33090408634228141 0 -0.28942706780696309 0.31873813168532672 0 -0.30563014257680821 0.31779627416788381 0 -0.30538608464820588 0.33090408634228141 0 -0.31811651498789978 0.32488887006413791 0 -0.30563014257680821 0.31779627416788381 0 -0.30538608464820588 0.33090408634228141 0 -0.2937791937433501 0.31637108240395312 0 -0.30538608464820588 0.33090408634228141 0 -0.3017933608705089 0.344447887165377 0 -0.32134510148944728 0.34307004099923799 0 -0.30538608464820588 0.33090408634228141 0 -0.29093013722955491 0.33661105704622479 0 -0.3017933608705089 0.344447887165377 0 -0.30538608464820588 0.33090408634228141 0 -0.29093013722955491 0.33661105704622479 0 -0.2885751077852815 0.32830696870384862 0 -0.29093013722955491 0.33661105704622479 0 -0.28224162025157051 0.34582573333151501 0 -0.3017933608705089 0.344447887165377 0 -0.2885751077852815 0.32830696870384862 0 -0.28146834572906437 0.33465123959114113 0 -0.2790455690922089 0.3243844570517187 0 -0.29093013722955491 0.33661105704622479 0 -0.2885751077852815 0.32830696870384862 0 -0.28146834572906437 0.33465123959114113 0 -0.29093013722955491 0.33661105704622479 0 -0.28146834572906437 0.33465123959114113 0 -0.28224162025157051 0.34582573333151501 0 -0.30538608464820588 0.33090408634228141 0 -0.2885751077852815 0.32830696870384862 0 -0.28942706780696309 0.31873813168532672 0 -0.30538608464820588 0.33090408634228141 0 -0.28942706780696309 0.31873813168532672 0 -0.2937791937433501 0.31637108240395312 0 -0.28942706780696309 0.31873813168532672 0 -0.2937791937433501 0.31637108240395312 0 -0.2851872012256097 0.31550597615259851 0 -0.2905575990275322 0.30774240886798532 0 -0.30563014257680821 0.31779627416788381 0 -0.2937791937433501 0.31637108240395312 0 -0.2905575990275322 0.30774240886798532 0 -0.2937791937433501 0.31637108240395312 0 -0.2851872012256097 0.31550597615259851 0 -0.28942706780696309 0.31873813168532672 0 -0.2937791937433501 0.31637108240395312 0 -0.2885751077852815 0.32830696870384862 0 -0.28942706780696309 0.31873813168532672 0 -0.2790455690922089 0.3243844570517187 0 -0.28942706780696309 0.31873813168532672 0 -0.2790455690922089 0.3243844570517187 0 -0.2851872012256097 0.31550597615259851 0 -0.2790455690922089 0.3243844570517187 0 -0.28942706780696309 0.31873813168532672 0 -0.2851872012256097 0.31550597615259851 0 -0.2790455690922089 0.3243844570517187 0 -0.28942706780696309 0.31873813168532672 0 -0.2851872012256097 0.31550597615259851 0 -0.27514776209796898 0.30785266251660498 0 -0.2851872012256097 0.31550597615259851 0 -0.27699557949655113 0.31645322234696882 0 -0.2851872012256097 0.31550597615259851 0 -0.27699557949655113 0.31645322234696882 0 -0.2790455690922089 0.3243844570517187 0 -0.27514776209796898 0.30785266251660498 0 -0.27699557949655113 0.31645322234696882 0 -0.27123720609067609 0.3158529302113221 0 -0.27001263578126711 0.32263717043347712 0 -0.2790455690922089 0.3243844570517187 0 -0.25910260253645218 0.33523110656146687 0 -0.26721257633701828 0.30790943684761429 0 -0.27123720609067609 0.3158529302113221 0 -0.26528599585519008 0.31471464054907522 0 -0.27699557949655113 0.31645322234696882 0 -0.27123720609067609 0.3158529302113221 0 -0.27001263578126711 0.32263717043347712 0 -0.27123720609067609 0.3158529302113221 0 -0.26528599585519008 0.31471464054907522 0 -0.26368222169044719 0.32126413599590953 0 -0.27123720609067609 0.3158529302113221 0 -0.27001263578126711 0.32263717043347712 0 -0.26368222169044719 0.32126413599590953 0 -0.27699557949655113 0.31645322234696882 0 -0.27001263578126711 0.32263717043347712 0 -0.2790455690922089 0.3243844570517187 0 -0.2790455690922089 0.3243844570517187 0 -0.25910260253645218 0.33523110656146687 0 -0.2790455690922089 0.3243844570517187 0 -0.26824012707650141 0.34000504592112352 0 -0.28146834572906437 0.33465123959114113 0 -0.2790455690922089 0.3243844570517187 0 -0.26824012707650141 0.34000504592112352 0 -0.2790455690922089 0.3243844570517187 0 -0.26824012707650141 0.34000504592112352 0 -0.25910260253645218 0.33523110656146687 0 -0.28146834572906437 0.33465123959114113 0 -0.26824012707650141 0.34000504592112352 0 -0.28224162025157051 0.34582573333151501 0 -0.25910260253645218 0.33523110656146687 0 -0.25407523553642281 0.3497448278934856 0 -0.23915963598069589 0.34607775607121571 0 -0.25910260253645218 0.33523110656146687 0 -0.25407523553642281 0.3497448278934856 0 -0.26309588156361569 0.34576168367824162 0 -0.26824012707650141 0.34000504592112352 0 -0.25910260253645218 0.33523110656146687 0 -0.26309588156361569 0.34576168367824162 0 -0.25910260253645218 0.33523110656146687 0 -0.25451497659773847 0.32559442806853028 0 -0.24843663428782739 0.33758714710907461 0 -0.25451497659773847 0.32559442806853028 0 -0.25901197930261888 0.31383205914145501 0 -0.24885494741763489 0.31718848033418301 0 -0.25451497659773847 0.32559442806853028 0 -0.25901197930261888 0.31383205914145501 0 -0.26368222169044719 0.32126413599590953 0 -0.25901197930261888 0.31383205914145501 0 -0.26528599585519008 0.31471464054907522 0 -0.26368222169044719 0.32126413599590953 0 -0.27001263578126711 0.32263717043347712 0 -0.25910260253645218 0.33523110656146687 0 -0.26368222169044719 0.32126413599590953 0 -0.25910260253645218 0.33523110656146687 0 -0.25451497659773847 0.32559442806853028 0 -0.26368222169044719 0.32126413599590953 0 -0.26470209097228098 0.37140351159401941 0 -0.25562758441007077 0.36194187249828802 0 -0.266880351992417 0.3582272519812631 0 -0.26470209097228098 0.37140351159401941 0 -0.25213085833087667 0.37355178257669552 0 -0.25562758441007077 0.36194187249828802 0 -0.25213085833087667 0.37355178257669552 0 -0.25562758441007077 0.36194187249828802 0 -0.24329038266145239 0.36134909741814653 0 -0.25562758441007077 0.36194187249828802 0 -0.25407523553642281 0.3497448278934856 0 -0.24329038266145239 0.36134909741814653 0 -0.25407523553642281 0.3497448278934856 0 -0.26309588156361569 0.34576168367824162 0 -0.266880351992417 0.3582272519812631 0 -0.25562758441007077 0.36194187249828802 0 -0.25407523553642281 0.3497448278934856 0 -0.266880351992417 0.3582272519812631 0 -0.266880351992417 0.3582272519812631 0 -0.27640009279511962 0.35155878343443242 0 -0.28837447244510311 0.36628710188532532 0 -0.26309588156361569 0.34576168367824162 0 -0.266880351992417 0.3582272519812631 0 -0.27640009279511962 0.35155878343443242 0 -0.26824012707650141 0.34000504592112352 0 -0.26309588156361569 0.34576168367824162 0 -0.27640009279511962 0.35155878343443242 0 -0.26824012707650141 0.34000504592112352 0 -0.27640009279511962 0.35155878343443242 0 -0.28224162025157051 0.34582573333151501 0 -0.266880351992417 0.3582272519812631 0 -0.28837447244510311 0.36628710188532532 0 -0.266880351992417 0.3582272519812631 0 -0.28837447244510311 0.36628710188532532 0 -0.27747916353329311 0.37529003384729942 0 -0.26470209097228098 0.37140351159401941 0 -0.266880351992417 0.3582272519812631 0 -0.27747916353329311 0.37529003384729942 0 -0.28837447244510311 0.36628710188532532 0 -0.28714059247178902 0.37543321948423419 0 -0.27747916353329311 0.37529003384729942 0 -0.28837447244510311 0.36628710188532532 0 -0.28956810344150979 0.35324588380912608 0 -0.30292150033679799 0.36018321991941088 0 -0.28837447244510311 0.36628710188532532 0 -0.29874239202075642 0.37528196759933868 0 -0.28714059247178902 0.37543321948423419 0 -0.28224162025157051 0.34582573333151501 0 -0.3017933608705089 0.344447887165377 0 -0.28224162025157051 0.34582573333151501 0 -0.28956810344150979 0.35324588380912608 0 -0.3017933608705089 0.344447887165377 0 -0.27640009279511962 0.35155878343443242 0 -0.28224162025157051 0.34582573333151501 0 -0.28956810344150979 0.35324588380912608 0 -0.27640009279511962 0.35155878343443242 0 -0.28837447244510311 0.36628710188532532 0 -0.28956810344150979 0.35324588380912608 0 -0.3017933608705089 0.344447887165377 0 -0.31193410579265052 0.3536039280541286 0 -0.30292150033679799 0.36018321991941088 0 -0.28956810344150979 0.35324588380912608 0 -0.3017933608705089 0.344447887165377 0 -0.30292150033679799 0.36018321991941088 0 -0.3017933608705089 0.344447887165377 0 -0.32134510148944728 0.34307004099923799 0 -0.3017933608705089 0.344447887165377 0 -0.31193410579265052 0.3536039280541286 0 -0.32134510148944728 0.34307004099923799 0 -0.31193410579265052 0.3536039280541286 0 -0.30292150033679799 0.36018321991941088 0 -0.31340485972314069 0.36375751913665871 0 -0.28837447244510311 0.36628710188532532 0 -0.30292150033679799 0.36018321991941088 0 -0.30986859289778912 0.37434695178938759 0 -0.28837447244510311 0.36628710188532532 0 -0.30986859289778912 0.37434695178938759 0 -0.28837447244510311 0.36628710188532532 0 -0.30986859289778912 0.37434695178938759 0 -0.29874239202075642 0.37528196759933868 0 -0.30292150033679799 0.36018321991941088 0 -0.30986859289778912 0.37434695178938759 0 -0.31340485972314069 0.36375751913665871 0 -0.30986859289778912 0.37434695178938759 0 -0.31340485972314069 0.36375751913665871 0 -0.32167824364597858 0.36970754211250728 0 -0.31340485972314069 0.36375751913665871 0 -0.32243327870136801 0.35950699838777223 0 -0.32167824364597858 0.36970754211250728 0 -0.32243327870136801 0.35950699838777223 0 -0.32167824364597858 0.36970754211250728 0 -0.33132177355711989 0.36851943955526861 0 -0.32167824364597858 0.36970754211250728 0 -0.33132177355711989 0.36851943955526861 0 -0.33136271335047512 0.38240680169344993 0 -0.32243327870136801 0.35950699838777223 0 -0.33132177355711989 0.36851943955526861 0 -0.33989838930305449 0.35721367281084643 0 -0.33132177355711989 0.36851943955526861 0 -0.34304766554360439 0.37232322735168022 0 -0.33136271335047512 0.38240680169344993 0 -0.33132177355711989 0.36851943955526861 0 -0.34304766554360439 0.37232322735168022 0 -0.33989838930305449 0.35721367281084643 0 -0.33989838930305449 0.35721367281084643 0 -0.32134510148944728 0.34307004099923799 0 -0.33989838930305449 0.35721367281084643 0 -0.32134510148944728 0.34307004099923799 0 -0.3500233487104954 0.34104903357308669 0 -0.32243327870136801 0.35950699838777223 0 -0.33989838930305449 0.35721367281084643 0 -0.32134510148944728 0.34307004099923799 0 -0.31193410579265052 0.3536039280541286 0 -0.32243327870136801 0.35950699838777223 0 -0.32134510148944728 0.34307004099923799 0 -0.31193410579265052 0.3536039280541286 0 -0.31340485972314069 0.36375751913665871 0 -0.32243327870136801 0.35950699838777223 0 -0.30538608464820588 0.33090408634228141 0 -0.32134510148944728 0.34307004099923799 0 -0.30538608464820588 0.33090408634228141 0 -0.32134510148944728 0.34307004099923799 0 -0.31811651498789978 0.32488887006413791 0 -0.32134510148944728 0.34307004099923799 0 -0.31811651498789978 0.32488887006413791 0 -0.33459812393413729 0.32207732583041709 0 -0.31699951866320542 0.30755322334125379 0 -0.30563014257680821 0.31779627416788381 0 -0.31811651498789978 0.32488887006413791 0 -0.31699951866320542 0.30755322334125379 0 -0.31811651498789978 0.32488887006413791 0 -0.33459812393413729 0.32207732583041709 0 -0.32134510148944728 0.34307004099923799 0 -0.34342889555096417 0.33131534648734451 0 -0.3500233487104954 0.34104903357308669 0 -0.32134510148944728 0.34307004099923799 0 -0.33459812393413729 0.32207732583041709 0 -0.34342889555096417 0.33131534648734451 0 -0.32134510148944728 0.34307004099923799 0 -0.3500233487104954 0.34104903357308669 0 -0.3500233487104954 0.34104903357308669 0 -0.35650114511620551 0.33294276438790088 0 -0.36794029410566942 0.33226259727897972 0 -0.34342889555096417 0.33131534648734451 0 -0.3500233487104954 0.34104903357308669 0 -0.35650114511620551 0.33294276438790088 0 -0.33459812393413729 0.32207732583041709 0 -0.34342889555096417 0.33131534648734451 0 -0.35467675850453528 0.31743756764607989 0 -0.34344143829887858 0.30736403781452232 0 -0.33459812393413729 0.32207732583041709 0 -0.35467675850453528 0.31743756764607989 0 -0.35650114511620551 0.33294276438790088 0 -0.35467675850453528 0.31743756764607989 0 -0.36272901898995358 0.31473918551029578 0 -0.34342889555096417 0.33131534648734451 0 -0.35650114511620551 0.33294276438790088 0 -0.35467675850453528 0.31743756764607989 0 -0.35650114511620551 0.33294276438790088 0 -0.36272901898995358 0.31473918551029578 0 -0.37415321332832258 0.31386652142517069 0 -0.35650114511620551 0.33294276438790088 0 -0.37415321332832258 0.31386652142517069 0 -0.35650114511620551 0.33294276438790088 0 -0.37442838800096029 0.32044424157556423 0 -0.37415321332832258 0.31386652142517069 0 -0.37816355277066899 0.32985684687273281 0 -0.37442838800096029 0.32044424157556423 0 -0.36794029410566942 0.33226259727897972 0 -0.3787015959315434 0.33902802614693439 0 -0.3500233487104954 0.34104903357308669 0 -0.36794029410566942 0.33226259727897972 0 -0.35650114511620551 0.33294276438790088 0 -0.37442838800096029 0.32044424157556423 0 -0.36794029410566942 0.33226259727897972 0 -0.3787015959315434 0.33902802614693439 0 -0.3500233487104954 0.34104903357308669 0 -0.3787015959315434 0.33902802614693439 0 -0.37816355277066899 0.32985684687273281 0 -0.36794029410566942 0.33226259727897972 0 -0.3787015959315434 0.33902802614693439 0 -0.3500233487104954 0.34104903357308669 0 -0.36501658974902518 0.35367198233662939 0 -0.37823932191431281 0.35548757599615399 0 -0.3787015959315434 0.33902802614693439 0 -0.36501658974902518 0.35367198233662939 0 -0.37823932191431281 0.35548757599615399 0 -0.36501658974902518 0.35367198233662939 0 -0.37024808467873749 0.36543132639488701 0 -0.36501658974902518 0.35367198233662939 0 -0.37024808467873749 0.36543132639488701 0 -0.35845167711666143 0.37135730462245548 0 -0.37949655700884349 0.37153259571527891 0 -0.37024808467873749 0.36543132639488701 0 -0.36758280318953013 0.37627165255961892 0 -0.37024808467873749 0.36543132639488701 0 -0.35845167711666143 0.37135730462245548 0 -0.36758280318953013 0.37627165255961892 0 -0.36501658974902518 0.35367198233662939 0 -0.35845167711666143 0.37135730462245548 0 -0.35334750121980912 0.35582299833575448 0 -0.34304766554360439 0.37232322735168022 0 -0.33989838930305449 0.35721367281084643 0 -0.35845167711666143 0.37135730462245548 0 -0.33989838930305449 0.35721367281084643 0 -0.35845167711666143 0.37135730462245548 0 -0.35334750121980912 0.35582299833575448 0 -0.33989838930305449 0.35721367281084643 0 -0.35845167711666143 0.37135730462245548 0 -0.33989838930305449 0.35721367281084643 0 -0.3500233487104954 0.34104903357308669 0 -0.35334750121980912 0.35582299833575448 0 -0.3500233487104954 0.34104903357308669 0 -0.36501658974902518 0.35367198233662939 0 -0.35334750121980912 0.35582299833575448 0 -0.35285683380316007 0.39046665159751448 0 -0.36027192889352422 0.40897543894708011 0 -0.34270265381785459 0.40768080501023862 0 -0.34304766554360439 0.37232322735168022 0 -0.35845167711666143 0.37135730462245548 0 -0.35285683380316007 0.39046665159751448 0 -0.37686086334024771 0.38257038446795849 0 -0.35285683380316007 0.39046665159751448 0 -0.37686086334024771 0.38257038446795849 0 -0.35285683380316007 0.39046665159751448 0 -0.36758280318953013 0.37627165255961892 0 -0.35845167711666143 0.37135730462245548 0 -0.35285683380316007 0.39046665159751448 0 -0.36758280318953013 0.37627165255961892 0 -0.37686086334024771 0.38257038446795849 0 -0.37949655700884349 0.37153259571527891 0 -0.36758280318953013 0.37627165255961892 0 -0.37769092578324193 0.39977892163450779 0 -0.35285683380316007 0.39046665159751448 0 -0.37769092578324193 0.39977892163450779 0 -0.37686086334024771 0.38257038446795849 0 -0.35285683380316007 0.39046665159751448 0 -0.37769092578324193 0.39977892163450779 0 -0.35285683380316007 0.39046665159751448 0 -0.36027192889352422 0.40897543894708011 0 -0.37875820238401509 0.42613984176471847 0 -0.37769092578324193 0.39977892163450779 0 -0.36027192889352422 0.40897543894708011 0 -0.37875820238401509 0.42613984176471847 0 -0.36027192889352422 0.40897543894708011 0 -0.36048507512927641 0.42545129427310208 0 -0.37875820238401509 0.42613984176471847 0 -0.36048507512927641 0.42545129427310208 0 -0.35499138700470761 0.44318849185793469 0 -0.37875820238401509 0.42613984176471847 0 -0.35499138700470761 0.44318849185793469 0 -0.34691622899781399 0.42161541908905831 0 -0.33223168701086447 0.43660936806356893 0 -0.35499138700470761 0.44318849185793469 0 -0.36048507512927641 0.42545129427310208 0 -0.34691622899781399 0.42161541908905831 0 -0.35499138700470761 0.44318849185793469 0 -0.36027192889352422 0.40897543894708011 0 -0.34691622899781399 0.42161541908905831 0 -0.34270265381785459 0.40768080501023862 0 -0.36027192889352422 0.40897543894708011 0 -0.36048507512927641 0.42545129427310208 0 -0.34691622899781399 0.42161541908905831 0 -0.34270265381785459 0.40768080501023862 0 -0.32841174735063311 0.41773478988879181 0 -0.32505653004414181 0.39961172552874852 0 -0.34691622899781399 0.42161541908905831 0 -0.34270265381785459 0.40768080501023862 0 -0.32841174735063311 0.41773478988879181 0 -0.34691622899781399 0.42161541908905831 0 -0.32841174735063311 0.41773478988879181 0 -0.33223168701086447 0.43660936806356893 0 -0.32841174735063311 0.41773478988879181 0 -0.33223168701086447 0.43660936806356893 0 -0.31148998866141242 0.43181261152586448 0 -0.32841174735063311 0.41773478988879181 0 -0.31441363705571701 0.41408607272300291 0 -0.32505653004414181 0.39961172552874852 0 -0.32841174735063311 0.41773478988879181 0 -0.31441363705571701 0.41408607272300291 0 -0.31148998866141242 0.43181261152586448 0 -0.32505653004414181 0.39961172552874852 0 -0.31219235154091651 0.39185403334122892 0 -0.30619500853749271 0.39725637532293351 0 -0.32505653004414181 0.39961172552874852 0 -0.31778050989885959 0.38527433798844479 0 -0.31219235154091651 0.39185403334122892 0 -0.35285683380316007 0.39046665159751448 0 -0.32505653004414181 0.39961172552874852 0 -0.33136271335047512 0.38240680169344993 0 -0.35285683380316007 0.39046665159751448 0 -0.34270265381785459 0.40768080501023862 0 -0.32505653004414181 0.39961172552874852 0 -0.35285683380316007 0.39046665159751448 0 -0.32505653004414181 0.39961172552874852 0 -0.35285683380316007 0.39046665159751448 0 -0.33136271335047512 0.38240680169344993 0 -0.34304766554360439 0.37232322735168022 0 -0.35285683380316007 0.39046665159751448 0 -0.33136271335047512 0.38240680169344993 0 -0.30986859289778912 0.37434695178938759 0 -0.32167824364597858 0.36970754211250728 0 -0.33136271335047512 0.38240680169344993 0 -0.30986859289778912 0.37434695178938759 0 -0.33136271335047512 0.38240680169344993 0 -0.32505653004414181 0.39961172552874852 0 -0.33136271335047512 0.38240680169344993 0 -0.31778050989885959 0.38527433798844479 0 -0.30986859289778912 0.37434695178938759 0 -0.33136271335047512 0.38240680169344993 0 -0.31778050989885959 0.38527433798844479 0 -0.30986859289778912 0.37434695178938759 0 -0.31778050989885959 0.38527433798844479 0 -0.30574515252343709 0.38648905476423068 0 -0.30986859289778912 0.37434695178938759 0 -0.30574515252343709 0.38648905476423068 0 -0.29874239202075642 0.37528196759933868 0 -0.30574515252343709 0.38648905476423068 0 -0.29874239202075642 0.37528196759933868 0 -0.29146244090030071 0.40289140707507309 0 -0.31778050989885959 0.38527433798844479 0 -0.30574515252343709 0.38648905476423068 0 -0.31219235154091651 0.39185403334122892 0 -0.32505653004414181 0.39961172552874852 0 -0.30619500853749271 0.39725637532293351 0 -0.29725622628512233 0.40875679945997928 0 -0.32505653004414181 0.39961172552874852 0 -0.29725622628512233 0.40875679945997928 0 -0.30574515252343709 0.38648905476423068 0 -0.30619500853749271 0.39725637532293351 0 -0.29146244090030071 0.40289140707507309 0 -0.30574515252343709 0.38648905476423068 0 -0.31219235154091651 0.39185403334122892 0 -0.30619500853749271 0.39725637532293351 0 -0.30619500853749271 0.39725637532293351 0 -0.29146244090030071 0.40289140707507309 0 -0.29725622628512233 0.40875679945997928 0 -0.29146244090030071 0.40289140707507309 0 -0.2882496590958894 0.39023794275143442 0 -0.278827461574497 0.39790462172635238 0 -0.28396634188800352 0.38487377460497352 0 -0.2882496590958894 0.39023794275143442 0 -0.278827461574497 0.39790462172635238 0 -0.29146244090030071 0.40289140707507309 0 -0.278827461574497 0.39790462172635238 0 -0.27940045790464241 0.41220012044695847 0 -0.29874239202075642 0.37528196759933868 0 -0.29146244090030071 0.40289140707507309 0 -0.29874239202075642 0.37528196759933868 0 -0.29146244090030071 0.40289140707507309 0 -0.2882496590958894 0.39023794275143442 0 -0.29874239202075642 0.37528196759933868 0 -0.28396634188800352 0.38487377460497352 0 -0.28714059247178902 0.37543321948423419 0 -0.29874239202075642 0.37528196759933868 0 -0.28396634188800352 0.38487377460497352 0 -0.2882496590958894 0.39023794275143442 0 -0.28396634188800352 0.38487377460497352 0 -0.28714059247178902 0.37543321948423419 0 -0.27747916353329311 0.37529003384729942 0 -0.28396634188800352 0.38487377460497352 0 -0.27747916353329311 0.37529003384729942 0 -0.26775424033426293 0.38456849691175748 0 -0.28396634188800352 0.38487377460497352 0 -0.26775424033426293 0.38456849691175748 0 -0.278827461574497 0.39790462172635238 0 -0.26470209097228098 0.37140351159401941 0 -0.27747916353329311 0.37529003384729942 0 -0.26775424033426293 0.38456849691175748 0 -0.278827461574497 0.39790462172635238 0 -0.26298604578065232 0.3973558675440883 0 -0.2677584473194361 0.40899541659639099 0 -0.26775424033426293 0.38456849691175748 0 -0.278827461574497 0.39790462172635238 0 -0.26298604578065232 0.3973558675440883 0 -0.26298604578065232 0.3973558675440883 0 -0.25152819264859128 0.38883491631829081 0 -0.2490618870264745 0.40647588616764979 0 -0.26298604578065232 0.3973558675440883 0 -0.2677584473194361 0.40899541659639099 0 -0.2490618870264745 0.40647588616764979 0 -0.25213085833087667 0.37355178257669552 0 -0.26775424033426293 0.38456849691175748 0 -0.25152819264859128 0.38883491631829081 0 -0.26775424033426293 0.38456849691175748 0 -0.26298604578065232 0.3973558675440883 0 -0.25152819264859128 0.38883491631829081 0 -0.26470209097228098 0.37140351159401941 0 -0.25213085833087667 0.37355178257669552 0 -0.26775424033426293 0.38456849691175748 0 -0.2572482915111563 0.42152384209731297 0 -0.26330490497154813 0.43976041958731371 0 -0.24092688658692171 0.43286849171069308 0 -0.2572482915111563 0.42152384209731297 0 -0.27163392734069919 0.42205675226444578 0 -0.26330490497154813 0.43976041958731371 0 -0.2572482915111563 0.42152384209731297 0 -0.2677584473194361 0.40899541659639099 0 -0.2490618870264745 0.40647588616764979 0 -0.2572482915111563 0.42152384209731297 0 -0.2677584473194361 0.40899541659639099 0 -0.27163392734069919 0.42205675226444578 0 -0.27940045790464241 0.41220012044695847 0 -0.27163392734069919 0.42205675226444578 0 -0.28418248977984512 0.43050084655080739 0 -0.2677584473194361 0.40899541659639099 0 -0.27940045790464241 0.41220012044695847 0 -0.27163392734069919 0.42205675226444578 0 -0.278827461574497 0.39790462172635238 0 -0.2677584473194361 0.40899541659639099 0 -0.27940045790464241 0.41220012044695847 0 -0.27163392734069919 0.42205675226444578 0 -0.28418248977984512 0.43050084655080739 0 -0.26330490497154813 0.43976041958731371 0 -0.28418248977984512 0.43050084655080739 0 -0.29943060469912958 0.42576946359573847 0 -0.28981068171355151 0.44369098771903792 0 -0.29146244090030071 0.40289140707507309 0 -0.28418248977984512 0.43050084655080739 0 -0.29146244090030071 0.40289140707507309 0 -0.27940045790464241 0.41220012044695847 0 -0.28418248977984512 0.43050084655080739 0 -0.28418248977984512 0.43050084655080739 0 -0.29725622628512233 0.40875679945997928 0 -0.29943060469912958 0.42576946359573847 0 -0.29146244090030071 0.40289140707507309 0 -0.28418248977984512 0.43050084655080739 0 -0.29725622628512233 0.40875679945997928 0 -0.31441363705571701 0.41408607272300291 0 -0.32505653004414181 0.39961172552874852 0 -0.29725622628512233 0.40875679945997928 0 -0.31441363705571701 0.41408607272300291 0 -0.29725622628512233 0.40875679945997928 0 -0.29943060469912958 0.42576946359573847 0 -0.31441363705571701 0.41408607272300291 0 -0.29943060469912958 0.42576946359573847 0 -0.31148998866141242 0.43181261152586448 0 -0.29943060469912958 0.42576946359573847 0 -0.31148998866141242 0.43181261152586448 0 -0.28981068171355151 0.44369098771903792 0 -0.31148998866141242 0.43181261152586448 0 -0.30120616623050861 0.45239726712555162 0 -0.31718999816658727 0.45065056632578487 0 -0.31148998866141242 0.43181261152586448 0 -0.30120616623050861 0.45239726712555162 0 -0.31148998866141242 0.43181261152586448 0 -0.30120616623050861 0.45239726712555162 0 -0.28981068171355151 0.44369098771903792 0 -0.30120616623050861 0.45239726712555162 0 -0.29092234379960469 0.47298192272523881 0 -0.30745775624609217 0.47728579204436761 0 -0.30120616623050861 0.45239726712555162 0 -0.30745775624609217 0.47728579204436761 0 -0.31718999816658727 0.45065056632578487 0 -0.2852957606144535 0.45730244818253718 0 -0.28186649269177161 0.46567885888970018 0 -0.29092234379960469 0.47298192272523881 0 -0.30120616623050861 0.45239726712555162 0 -0.29092234379960469 0.47298192272523881 0 -0.30120616623050861 0.45239726712555162 0 -0.2852957606144535 0.45730244818253718 0 -0.29092234379960469 0.47298192272523881 0 -0.2852957606144535 0.45730244818253718 0 -0.28186649269177161 0.46567885888970018 0 -0.27690253865938408 0.45811028602654041 0 -0.28418248977984512 0.43050084655080739 0 -0.28981068171355151 0.44369098771903792 0 -0.27690253865938408 0.45811028602654041 0 -0.30120616623050861 0.45239726712555162 0 -0.2852957606144535 0.45730244818253718 0 -0.28981068171355151 0.44369098771903792 0 -0.2852957606144535 0.45730244818253718 0 -0.28981068171355151 0.44369098771903792 0 -0.27690253865938408 0.45811028602654041 0 -0.28418248977984512 0.43050084655080739 0 -0.27690253865938408 0.45811028602654041 0 -0.28418248977984512 0.43050084655080739 0 -0.27690253865938408 0.45811028602654041 0 -0.26330490497154813 0.43976041958731371 0 -0.2852957606144535 0.45730244818253718 0 -0.27690253865938408 0.45811028602654041 0 -0.28186649269177161 0.46567885888970018 0 -0.27690253865938408 0.45811028602654041 0 -0.27835780074514338 0.47366975871288508 0 -0.27690253865938408 0.45811028602654041 0 -0.25345677561811758 0.46036691342989022 0 -0.27690253865938408 0.45811028602654041 0 -0.25345677561811758 0.46036691342989022 0 -0.26590293397843329 0.47057525233348851 0 -0.25345677561811758 0.46036691342989022 0 -0.25315469521642581 0.4750486889203015 0 -0.26590293397843329 0.47057525233348851 0 -0.25345677561811758 0.46036691342989022 0 -0.26330490497154813 0.43976041958731371 0 -0.24129970279445639 0.44943490890582899 0 -0.27690253865938408 0.45811028602654041 0 -0.25345677561811758 0.46036691342989022 0 -0.26330490497154813 0.43976041958731371 0 -0.26169037092037989 0.4910190989046625 0 -0.25397816739109252 0.5 0 -0.27113802145370669 0.49283981386083792 0 -0.26169037092037989 0.4910190989046625 0 -0.25474868654415728 0.48692894813519849 0 -0.26689660829256312 0.48430763362261348 0 -0.26169037092037989 0.4910190989046625 0 -0.25397816739109252 0.5 0 -0.25474868654415728 0.48692894813519849 0 -0.25315469521642581 0.4750486889203015 0 -0.26689660829256312 0.48430763362261348 0 -0.25315469521642581 0.4750486889203015 0 -0.26689660829256312 0.48430763362261348 0 -0.26590293397843329 0.47057525233348851 0 -0.25474868654415728 0.48692894813519849 0 -0.25315469521642581 0.4750486889203015 0 -0.26689660829256312 0.48430763362261348 0 -0.27690253865938408 0.45811028602654041 0 -0.26590293397843329 0.47057525233348851 0 -0.26946370716205509 0.4860372782758946 0 -0.27690253865938408 0.45811028602654041 0 -0.26946370716205509 0.4860372782758946 0 -0.27690253865938408 0.45811028602654041 0 -0.27835780074514338 0.47366975871288508 0 -0.26946370716205509 0.4860372782758946 0 -0.26689660829256312 0.48430763362261348 0 -0.26590293397843329 0.47057525233348851 0 -0.26946370716205509 0.4860372782758946 0 -0.28186649269177161 0.46567885888970018 0 -0.27835780074514338 0.47366975871288508 0 -0.28298297564177088 0.4743823417855309 0 -0.27835780074514338 0.47366975871288508 0 -0.2798907507987049 0.48286402398659151 0 -0.28298297564177088 0.4743823417855309 0 -0.27835780074514338 0.47366975871288508 0 -0.2798907507987049 0.48286402398659151 0 -0.26946370716205509 0.4860372782758946 0 -0.26946370716205509 0.4860372782758946 0 -0.28063852136870049 0.49356657832492562 0 -0.26946370716205509 0.4860372782758946 0 -0.27113802145370669 0.49283981386083792 0 -0.28063852136870049 0.49356657832492562 0 -0.2798907507987049 0.48286402398659151 0 -0.26946370716205509 0.4860372782758946 0 -0.28063852136870049 0.49356657832492562 0 -0.25397816739109252 0.5 0 -0.27113802145370669 0.49283981386083792 0 -0.27742446875513049 0.50000000000000155 0 -0.26689660829256312 0.48430763362261348 0 -0.26946370716205509 0.4860372782758946 0 -0.27113802145370669 0.49283981386083792 0 -0.26169037092037989 0.4910190989046625 0 -0.26689660829256312 0.48430763362261348 0 -0.27113802145370669 0.49283981386083792 0 -0.26689660829256312 0.48430763362261348 0 -0.26946370716205509 0.4860372782758946 0 -0.27113802145370669 0.49283981386083792 0 -0.28063852136870049 0.49356657832492562 0 -0.27742446875513049 0.50000000000000155 0 -0.28063852136870049 0.49356657832492562 0 -0.27742446875513049 0.50000000000000155 0 -0.28063852136870049 0.49356657832492562 0 -0.27742446875513049 0.50000000000000155 0 -0.29018685806186229 0.50000000000000122 0 -0.28063852136870049 0.49356657832492562 0 -0.29018685806186229 0.50000000000000122 0 -0.29092234379960469 0.47298192272523881 0 -0.28063852136870049 0.49356657832492562 0 -0.29018685806186229 0.50000000000000122 0 -0.29018685806186229 0.50000000000000122 0 -0.29092234379960469 0.47298192272523881 0 -0.30745775624609217 0.47728579204436761 0 -0.28063852136870049 0.49356657832492562 0 -0.29092234379960469 0.47298192272523881 0 -0.2798907507987049 0.48286402398659151 0 -0.28063852136870049 0.49356657832492562 0 -0.29092234379960469 0.47298192272523881 0 -0.28186649269177161 0.46567885888970018 0 -0.28298297564177088 0.4743823417855309 0 -0.29092234379960469 0.47298192272523881 0 -0.2798907507987049 0.48286402398659151 0 -0.28298297564177088 0.4743823417855309 0 -0.29092234379960469 0.47298192272523881 0 -0.29018685806186229 0.50000000000000122 0 -0.30745775624609217 0.47728579204436761 0 -0.3640375775585698 0.5 0 -0.30745775624609217 0.47728579204436761 0 -0.33122457162539992 0.46023714195115112 0 -0.3640375775585698 0.5 0 -0.30745775624609217 0.47728579204436761 0 -0.33122457162539992 0.46023714195115112 0 -0.30745775624609217 0.47728579204436761 0 -0.31718999816658727 0.45065056632578487 0 -0.33122457162539992 0.46023714195115112 0 -0.33223168701086447 0.43660936806356893 0 -0.31148998866141242 0.43181261152586448 0 -0.31718999816658727 0.45065056632578487 0 -0.33223168701086447 0.43660936806356893 0 -0.31718999816658727 0.45065056632578487 0 -0.33122457162539992 0.46023714195115112 0 -0.33122457162539992 0.46023714195115112 0 -0.35499138700470761 0.44318849185793469 0 -0.33223168701086447 0.43660936806356893 0 -0.33122457162539992 0.46023714195115112 0 -0.35499138700470761 0.44318849185793469 0 -0.33122457162539992 0.46023714195115112 0 -0.35376164566254242 0.46494380824906301 0 -0.35499138700470761 0.44318849185793469 0 -0.38249991962136642 0.44345487931465249 0 -0.35499138700470761 0.44318849185793469 0 -0.37103467036260362 0.45695891695805302 0 -0.38249991962136642 0.44345487931465249 0 -0.37875820238401509 0.42613984176471847 0 -0.35499138700470761 0.44318849185793469 0 -0.35376164566254242 0.46494380824906301 0 -0.35499138700470761 0.44318849185793469 0 -0.37103467036260362 0.45695891695805302 0 -0.35376164566254242 0.46494380824906301 0 -0.37103467036260362 0.45695891695805302 0 -0.36943712044780219 0.47475959506207249 0 -0.33122457162539992 0.46023714195115112 0 -0.35376164566254242 0.46494380824906301 0 -0.3640375775585698 0.5 0 -0.38891458820749281 0.47713565504117422 0 -0.36943712044780219 0.47475959506207249 0 -0.3640375775585698 0.5 0 -0.35376164566254242 0.46494380824906301 0 -0.36943712044780219 0.47475959506207249 0 -0.3640375775585698 0.5 0 -0.1410608215807003 0.47118489318428192 0 -0.1506389915883973 0.47451242435581331 0 -0.15779819732271971 0.4695739402503486 0 -0.1410608215807003 0.47118489318428192 0 -0.15779819732271971 0.4695739402503486 0 -0.1455325599989582 0.47665965757352818 0 -0.14983465253105441 0.48099067897208148 0 -0.1405957742956809 0.47995063378193648 0 -0.14983465253105441 0.48099067897208148 0 -0.14427471349546869 0.48965289008050411 0 -0.1405957742956809 0.47995063378193648 0 -0.1455325599989582 0.47665965757352818 0 -0.1410608215807003 0.47118489318428192 0 -0.1506389915883973 0.47451242435581331 0 -0.1455325599989582 0.47665965757352818 0 -0.1410608215807003 0.47118489318428192 0 -0.1405957742956809 0.47995063378193648 0 -0.1506389915883973 0.47451242435581331 0 -0.15682389603308189 0.47748605108520858 0 -0.15779819732271971 0.4695739402503486 0 -0.1506389915883973 0.47451242435581331 0 -0.14983465253105441 0.48099067897208148 0 -0.15682389603308189 0.47748605108520858 0 -0.1455325599989582 0.47665965757352818 0 -0.1506389915883973 0.47451242435581331 0 -0.14983465253105441 0.48099067897208148 0 -0.14983465253105441 0.48099067897208148 0 -0.1558122254133027 0.48316327461493752 0 -0.15682389603308189 0.47748605108520858 0 -0.14983465253105441 0.48099067897208148 0 -0.1558122254133027 0.48316327461493752 0 -0.15140604362779489 0.486968875654338 0 -0.1558122254133027 0.48316327461493752 0 -0.15140604362779489 0.486968875654338 0 -0.15545271364459581 0.49281799385228547 0 -0.14983465253105441 0.48099067897208148 0 -0.15140604362779489 0.486968875654338 0 -0.14427471349546869 0.48965289008050411 0 -0.15140604362779489 0.486968875654338 0 -0.15545271364459581 0.49281799385228547 0 -0.14427471349546869 0.48965289008050411 0 -0.15453849507163009 0.5 0 -0.14427471349546869 0.48965289008050411 0 -0.12543772684428189 0.5 0 -0.15453849507163009 0.5 0 -0.15545271364459581 0.49281799385228547 0 -0.14427471349546869 0.48965289008050411 0 -0.14427471349546869 0.48965289008050411 0 -0.12543772684428189 0.5 0 -0.13178312884530541 0.48627570230508688 0 -0.14427471349546869 0.48965289008050411 0 -0.13178312884530541 0.48627570230508688 0 -0.1405957742956809 0.47995063378193648 0 -0.13178312884530541 0.48627570230508688 0 -0.1317912103042716 0.47600940211286807 0 -0.11642361318749669 0.48420448820259387 0 -0.1317912103042716 0.47600940211286807 0 -0.14083201439797821 0.46516349611765162 0 -0.12052644250191399 0.4682622397032008 0 -0.13178312884530541 0.48627570230508688 0 -0.1405957742956809 0.47995063378193648 0 -0.1317912103042716 0.47600940211286807 0 -0.1410608215807003 0.47118489318428192 0 -0.1405957742956809 0.47995063378193648 0 -0.1317912103042716 0.47600940211286807 0 -0.1410608215807003 0.47118489318428192 0 -0.1317912103042716 0.47600940211286807 0 -0.14083201439797821 0.46516349611765162 0 -0.12618187852634369 0.45882241462805679 0 -0.14083201439797821 0.46516349611765162 0 -0.12052644250191399 0.4682622397032008 0 -0.14083201439797821 0.46516349611765162 0 -0.12052644250191399 0.4682622397032008 0 -0.12618187852634369 0.45882241462805679 0 -0.13621980461969219 0.45775649261309698 0 -0.13482926781972801 0.45201676164804122 0 -0.13621980461969219 0.45775649261309698 0 -0.13482926781972801 0.45201676164804122 0 -0.1430360577347192 0.45502329805863873 0 -0.13621980461969219 0.45775649261309698 0 -0.14083201439797821 0.46516349611765162 0 -0.1430360577347192 0.45502329805863873 0 -0.12618187852634369 0.45882241462805679 0 -0.13621980461969219 0.45775649261309698 0 -0.14083201439797821 0.46516349611765162 0 -0.12618187852634369 0.45882241462805679 0 -0.13482926781972801 0.45201676164804122 0 -0.1248743097581413 0.44162978393037222 0 -0.13482926781972801 0.45201676164804122 0 -0.13973201497409549 0.44099892737807922 0 -0.1415241139788854 0.4488412036993919 0 -0.13482926781972801 0.45201676164804122 0 -0.1415241139788854 0.4488412036993919 0 -0.1430360577347192 0.45502329805863873 0 -0.13973201497409549 0.44099892737807922 0 -0.13491063247587859 0.43073185275000708 0 -0.1248743097581413 0.44162978393037222 0 -0.13482926781972801 0.45201676164804122 0 -0.13973201497409549 0.44099892737807922 0 -0.1248743097581413 0.44162978393037222 0 -0.13973201497409549 0.44099892737807922 0 -0.14849911538699881 0.44732582771280882 0 -0.14949031039727409 0.43903968606904947 0 -0.14849911538699881 0.44732582771280882 0 -0.1430360577347192 0.45502329805863873 0 -0.15230793746503779 0.45507497120342549 0 -0.13973201497409549 0.44099892737807922 0 -0.1415241139788854 0.4488412036993919 0 -0.14849911538699881 0.44732582771280882 0 -0.1415241139788854 0.4488412036993919 0 -0.14849911538699881 0.44732582771280882 0 -0.1430360577347192 0.45502329805863873 0 -0.14849911538699881 0.44732582771280882 0 -0.15230793746503779 0.45507497120342549 0 -0.15767924869329919 0.44641741059368378 0 -0.14949031039727409 0.43903968606904947 0 -0.15767924869329919 0.44641741059368378 0 -0.15912083936695831 0.4347249498771325 0 -0.14849911538699881 0.44732582771280882 0 -0.14949031039727409 0.43903968606904947 0 -0.15767924869329919 0.44641741059368378 0 -0.14083201439797821 0.46516349611765162 0 -0.16113758629404229 0.46206475253210239 0 -0.15779819732271971 0.4695739402503486 0 -0.1410608215807003 0.47118489318428192 0 -0.14083201439797821 0.46516349611765162 0 -0.15779819732271971 0.4695739402503486 0 -0.14083201439797821 0.46516349611765162 0 -0.16113758629404229 0.46206475253210239 0 -0.14083201439797821 0.46516349611765162 0 -0.15230793746503779 0.45507497120342549 0 -0.16113758629404229 0.46206475253210239 0 -0.14083201439797821 0.46516349611765162 0 -0.1430360577347192 0.45502329805863873 0 -0.15230793746503779 0.45507497120342549 0 -0.16113758629404229 0.46206475253210239 0 -0.16940388650370539 0.44815354093755089 0 -0.18144315819010631 0.45896600894655282 0 -0.16113758629404229 0.46206475253210239 0 -0.18144315819010631 0.45896600894655282 0 -0.16113758629404229 0.46206475253210239 0 -0.17453557306473899 0.46796298731641428 0 -0.15779819732271971 0.4695739402503486 0 -0.15230793746503779 0.45507497120342549 0 -0.16113758629404229 0.46206475253210239 0 -0.16013216473902109 0.45292766881669072 0 -0.16113758629404229 0.46206475253210239 0 -0.16013216473902109 0.45292766881669072 0 -0.16940388650370539 0.44815354093755089 0 -0.15767924869329919 0.44641741059368378 0 -0.16940388650370539 0.44815354093755089 0 -0.15912083936695831 0.4347249498771325 0 -0.15230793746503779 0.45507497120342549 0 -0.16013216473902109 0.45292766881669072 0 -0.15767924869329919 0.44641741059368378 0 -0.16013216473902109 0.45292766881669072 0 -0.15767924869329919 0.44641741059368378 0 -0.16940388650370539 0.44815354093755089 0 -0.1829590266345629 0.45699162349075462 0 -0.18255950863604661 0.43173185523385532 0 -0.1829590266345629 0.45699162349075462 0 -0.19557533522393281 0.44055915781337712 0 -0.18255950863604661 0.43173185523385532 0 -0.16940388650370539 0.44815354093755089 0 -0.1829590266345629 0.45699162349075462 0 -0.18255950863604661 0.43173185523385532 0 -0.16113758629404229 0.46206475253210239 0 -0.17453557306473899 0.46796298731641428 0 -0.18144315819010631 0.45896600894655282 0 -0.17453557306473899 0.46796298731641428 0 -0.18144315819010631 0.45896600894655282 0 -0.17453557306473899 0.46796298731641428 0 -0.18311948649431831 0.46713679563994498 0 -0.16940388650370539 0.44815354093755089 0 -0.18144315819010631 0.45896600894655282 0 -0.1829590266345629 0.45699162349075462 0 -0.18144315819010631 0.45896600894655282 0 -0.1829590266345629 0.45699162349075462 0 -0.18144315819010631 0.45896600894655282 0 -0.1829865290739871 0.45873048193697258 0 -0.1829590266345629 0.45699162349075462 0 -0.18144315819010631 0.45896600894655282 0 -0.1829865290739871 0.45873048193697258 0 -0.1829865290739871 0.45873048193697258 0 -0.1829590266345629 0.45699162349075462 0 -0.17453557306473899 0.46796298731641428 0 -0.18144315819010631 0.45896600894655282 0 -0.18311948649431831 0.46713679563994498 0 -0.1829865290739871 0.45873048193697258 0 -0.18311948649431831 0.46713679563994498 0 -0.18144315819010631 0.45896600894655282 0 -0.1829865290739871 0.45873048193697258 0 -0.18311948649431831 0.46713679563994498 0 -0.18311948649431831 0.46713679563994498 0 -0.18337937489664821 0.48356839781997168 0 -0.19511197543601369 0.47606725323690458 0 -0.18311948649431831 0.46713679563994498 0 -0.18337937489664821 0.48356839781997168 0 -0.18311948649431831 0.46713679563994498 0 -0.18337937489664821 0.48356839781997168 0 -0.17485937494801759 0.47808814193434568 0 -0.17453557306473899 0.46796298731641428 0 -0.18311948649431831 0.46713679563994498 0 -0.17485937494801759 0.47808814193434568 0 -0.17453557306473899 0.46796298731641428 0 -0.15779819732271971 0.4695739402503486 0 -0.17453557306473899 0.46796298731641428 0 -0.16499414335466689 0.48039049058434952 0 -0.17453557306473899 0.46796298731641428 0 -0.16499414335466689 0.48039049058434952 0 -0.15779819732271971 0.4695739402503486 0 -0.17453557306473899 0.46796298731641428 0 -0.17485937494801759 0.47808814193434568 0 -0.16499414335466689 0.48039049058434952 0 -0.17485937494801759 0.47808814193434568 0 -0.16499414335466689 0.48039049058434952 0 -0.1699453859209171 0.49288017845899518 0 -0.1558122254133027 0.48316327461493752 0 -0.16499414335466689 0.48039049058434952 0 -0.15682389603308189 0.47748605108520858 0 -0.16499414335466689 0.48039049058434952 0 -0.15682389603308189 0.47748605108520858 0 -0.15779819732271971 0.4695739402503486 0 -0.15453849507163009 0.5 0 -0.1699453859209171 0.49288017845899518 0 -0.18363926329897839 0.49999999999999828 0 -0.15453849507163009 0.5 0 -0.15545271364459581 0.49281799385228547 0 -0.1699453859209171 0.49288017845899518 0 -0.15545271364459581 0.49281799385228547 0 -0.16499414335466689 0.48039049058434952 0 -0.1699453859209171 0.49288017845899518 0 -0.15545271364459581 0.49281799385228547 0 -0.16499414335466689 0.48039049058434952 0 -0.1558122254133027 0.48316327461493752 0 -0.15545271364459581 0.49281799385228547 0 -0.16499414335466689 0.48039049058434952 0 -0.18337937489664821 0.48356839781997168 0 -0.18363926329897839 0.49999999999999828 0 -0.18337937489664821 0.48356839781997168 0 -0.1699453859209171 0.49288017845899518 0 -0.18363926329897839 0.49999999999999828 0 -0.18337937489664821 0.48356839781997168 0 -0.17485937494801759 0.47808814193434568 0 -0.1699453859209171 0.49288017845899518 0 -0.18337937489664821 0.48356839781997168 0 -0.18363926329897839 0.49999999999999828 0 -0.19848883175809501 0.48685236178056529 0 -0.18363926329897839 0.49999999999999828 0 -0.19848883175809501 0.48685236178056529 0 -0.20708556466301639 0.5 0 -0.18311948649431831 0.46713679563994498 0 -0.19511197543601369 0.47606725323690458 0 -0.20656524953558469 0.46488016823659339 0 -0.18337937489664821 0.48356839781997168 0 -0.19848883175809501 0.48685236178056529 0 -0.19511197543601369 0.47606725323690458 0 -0.19848883175809501 0.48685236178056529 0 -0.19511197543601369 0.47606725323690458 0 -0.206747867840962 0.47700509082497228 0 -0.19511197543601369 0.47606725323690458 0 -0.206747867840962 0.47700509082497228 0 -0.20656524953558469 0.46488016823659339 0 -0.19848883175809501 0.48685236178056529 0 -0.206747867840962 0.47700509082497228 0 -0.21585796601610141 0.48648558657266339 0 -0.206747867840962 0.47700509082497228 0 -0.21852396914967101 0.47285401242330122 0 -0.20656524953558469 0.46488016823659339 0 -0.206747867840962 0.47700509082497228 0 -0.21852396914967101 0.47285401242330122 0 -0.21585796601610141 0.48648558657266339 0 -0.20708556466301639 0.5 0 -0.21585796601610141 0.48648558657266339 0 -0.23053186602705439 0.5 0 -0.19848883175809501 0.48685236178056529 0 -0.20708556466301639 0.5 0 -0.21585796601610141 0.48648558657266339 0 -0.21585796601610141 0.48648558657266339 0 -0.23053186602705439 0.5 0 -0.2373192826940049 0.48342253064983348 0 -0.21852396914967101 0.47285401242330122 0 -0.2373192826940049 0.48342253064983348 0 -0.23001101257685119 0.46262354083324181 0 -0.21852396914967101 0.47285401242330122 0 -0.21585796601610141 0.48648558657266339 0 -0.2373192826940049 0.48342253064983348 0 -0.25474868654415728 0.48692894813519849 0 -0.25315469521642581 0.4750486889203015 0 -0.2373192826940049 0.48342253064983348 0 -0.25315469521642581 0.4750486889203015 0 -0.2373192826940049 0.48342253064983348 0 -0.23001101257685119 0.46262354083324181 0 -0.25397816739109252 0.5 0 -0.23053186602705439 0.5 0 -0.2373192826940049 0.48342253064983348 0 -0.25397816739109252 0.5 0 -0.25474868654415728 0.48692894813519849 0 -0.2373192826940049 0.48342253064983348 0 -0.26330490497154813 0.43976041958731371 0 -0.24129970279445639 0.44943490890582899 0 -0.24092688658692171 0.43286849171069308 0 -0.24129970279445639 0.44943490890582899 0 -0.2242493546558077 0.44235471361969553 0 -0.24092688658692171 0.43286849171069308 0 -0.25345677561811758 0.46036691342989022 0 -0.23001101257685119 0.46262354083324181 0 -0.25345677561811758 0.46036691342989022 0 -0.24129970279445639 0.44943490890582899 0 -0.23001101257685119 0.46262354083324181 0 -0.25345677561811758 0.46036691342989022 0 -0.25315469521642581 0.4750486889203015 0 -0.23001101257685119 0.46262354083324181 0 -0.24129970279445639 0.44943490890582899 0 -0.23001101257685119 0.46262354083324181 0 -0.2242493546558077 0.44235471361969553 0 -0.23001101257685119 0.46262354083324181 0 -0.2242493546558077 0.44235471361969553 0 -0.2144914677851314 0.45380351874251162 0 -0.2242493546558077 0.44235471361969553 0 -0.20880164963731279 0.443380440886459 0 -0.2144914677851314 0.45380351874251162 0 -0.20880164963731279 0.443380440886459 0 -0.2144914677851314 0.45380351874251162 0 -0.20415969833182021 0.45549933815243238 0 -0.23001101257685119 0.46262354083324181 0 -0.2144914677851314 0.45380351874251162 0 -0.20656524953558469 0.46488016823659339 0 -0.21852396914967101 0.47285401242330122 0 -0.23001101257685119 0.46262354083324181 0 -0.20656524953558469 0.46488016823659339 0 -0.23001101257685119 0.46262354083324181 0 -0.20656524953558469 0.46488016823659339 0 -0.2144914677851314 0.45380351874251162 0 -0.20415969833182021 0.45549933815243238 0 -0.20656524953558469 0.46488016823659339 0 -0.1829865290739871 0.45873048193697258 0 -0.1829590266345629 0.45699162349075462 0 -0.20415969833182021 0.45549933815243238 0 -0.1829865290739871 0.45873048193697258 0 -0.20415969833182021 0.45549933815243238 0 -0.18311948649431831 0.46713679563994498 0 -0.20415969833182021 0.45549933815243238 0 -0.20656524953558469 0.46488016823659339 0 -0.1829865290739871 0.45873048193697258 0 -0.18311948649431831 0.46713679563994498 0 -0.20415969833182021 0.45549933815243238 0 -0.18311948649431831 0.46713679563994498 0 -0.20656524953558469 0.46488016823659339 0 -0.1829590266345629 0.45699162349075462 0 -0.19557533522393281 0.44055915781337712 0 -0.1829590266345629 0.45699162349075462 0 -0.20415969833182021 0.45549933815243238 0 -0.19557533522393281 0.44055915781337712 0 -0.20880164963731279 0.443380440886459 0 -0.20415969833182021 0.45549933815243238 0 -0.19557533522393281 0.44055915781337712 0 -0.19557533522393281 0.44055915781337712 0 -0.20819164381331129 0.42412669213600601 0 -0.19557533522393281 0.44055915781337712 0 -0.19413142888046839 0.4217351031076268 0 -0.18255950863604661 0.43173185523385532 0 -0.19557533522393281 0.44055915781337712 0 -0.19413142888046839 0.4217351031076268 0 -0.20819164381331129 0.42412669213600601 0 -0.19413142888046839 0.4217351031076268 0 -0.20819164381331129 0.42412669213600601 0 -0.2021706660915297 0.40578572337793972 0 -0.19413142888046839 0.4217351031076268 0 -0.2021706660915297 0.40578572337793972 0 -0.18215999063752189 0.40647208697695608 0 -0.20819164381331129 0.42412669213600601 0 -0.22405449890785839 0.40643558214578251 0 -0.2021706660915297 0.40578572337793972 0 -0.20880164963731279 0.443380440886459 0 -0.19557533522393281 0.44055915781337712 0 -0.20819164381331129 0.42412669213600601 0 -0.2242493546558077 0.44235471361969553 0 -0.20880164963731279 0.443380440886459 0 -0.20819164381331129 0.42412669213600601 0 -0.2242493546558077 0.44235471361969553 0 -0.20819164381331129 0.42412669213600601 0 -0.22600929792909111 0.42518400498706249 0 -0.2242493546558077 0.44235471361969553 0 -0.22600929792909111 0.42518400498706249 0 -0.24092688658692171 0.43286849171069308 0 -0.20819164381331129 0.42412669213600601 0 -0.22600929792909111 0.42518400498706249 0 -0.22405449890785839 0.40643558214578251 0 -0.22600929792909111 0.42518400498706249 0 -0.22405449890785839 0.40643558214578251 0 -0.2382988550227183 0.41778448946306668 0 -0.2572482915111563 0.42152384209731297 0 -0.2382988550227183 0.41778448946306668 0 -0.2490618870264745 0.40647588616764979 0 -0.22405449890785839 0.40643558214578251 0 -0.2382988550227183 0.41778448946306668 0 -0.2490618870264745 0.40647588616764979 0 -0.2572482915111563 0.42152384209731297 0 -0.2382988550227183 0.41778448946306668 0 -0.24092688658692171 0.43286849171069308 0 -0.22600929792909111 0.42518400498706249 0 -0.2382988550227183 0.41778448946306668 0 -0.24092688658692171 0.43286849171069308 0 -0.24000210142933509 0.37809552861286783 0 -0.23801773827758249 0.39392053259368742 0 -0.22567210936962789 0.38582584627882549 0 -0.25152819264859128 0.38883491631829081 0 -0.24000210142933509 0.37809552861286783 0 -0.23801773827758249 0.39392053259368742 0 -0.25213085833087667 0.37355178257669552 0 -0.25152819264859128 0.38883491631829081 0 -0.24000210142933509 0.37809552861286783 0 -0.25152819264859128 0.38883491631829081 0 -0.2490618870264745 0.40647588616764979 0 -0.23801773827758249 0.39392053259368742 0 -0.22405449890785839 0.40643558214578251 0 -0.2490618870264745 0.40647588616764979 0 -0.23801773827758249 0.39392053259368742 0 -0.22405449890785839 0.40643558214578251 0 -0.22567210936962789 0.38582584627882549 0 -0.2099895612515065 0.38861519238670661 0 -0.22405449890785839 0.40643558214578251 0 -0.23801773827758249 0.39392053259368742 0 -0.22567210936962789 0.38582584627882549 0 -0.22567210936962789 0.38582584627882549 0 -0.21752164111765379 0.37637519474985792 0 -0.23054114355980421 0.3681661286558337 0 -0.24000210142933509 0.37809552861286783 0 -0.22567210936962789 0.38582584627882549 0 -0.23054114355980421 0.3681661286558337 0 -0.22567210936962789 0.38582584627882549 0 -0.21752164111765379 0.37637519474985792 0 -0.2099895612515065 0.38861519238670661 0 -0.21752164111765379 0.37637519474985792 0 -0.2099895612515065 0.38861519238670661 0 -0.20825127389149589 0.37038948781896619 0 -0.2099895612515065 0.38861519238670661 0 -0.1956253707180633 0.37355818799515828 0 -0.20825127389149589 0.37038948781896619 0 -0.22405449890785839 0.40643558214578251 0 -0.2099895612515065 0.38861519238670661 0 -0.2021706660915297 0.40578572337793972 0 -0.2021706660915297 0.40578572337793972 0 -0.19434121226752371 0.39112870189136351 0 -0.18215999063752189 0.40647208697695608 0 -0.2099895612515065 0.38861519238670661 0 -0.2021706660915297 0.40578572337793972 0 -0.19434121226752371 0.39112870189136351 0 -0.2099895612515065 0.38861519238670661 0 -0.19434121226752371 0.39112870189136351 0 -0.1956253707180633 0.37355818799515828 0 -0.19434121226752371 0.39112870189136351 0 -0.18176047263899719 0.38121231872005679 0 -0.1956253707180633 0.37355818799515828 0 -0.18176047263899719 0.38121231872005679 0 -0.16585623702428451 0.39107516703040651 0 -0.16689278400863089 0.37048631692620287 0 -0.16585623702428451 0.39107516703040651 0 -0.1532541744773912 0.375434017343177 0 -0.15169756500005979 0.38990146883471011 0 -0.16585623702428451 0.39107516703040651 0 -0.1532541744773912 0.375434017343177 0 -0.16689278400863089 0.37048631692620287 0 -0.16585623702428451 0.39107516703040651 0 -0.1665369108918931 0.40914444316194981 0 -0.1556916669008335 0.40278409093046019 0 -0.16585623702428451 0.39107516703040651 0 -0.18215999063752189 0.40647208697695608 0 -0.1665369108918931 0.40914444316194981 0 -0.16585623702428451 0.39107516703040651 0 -0.15169756500005979 0.38990146883471011 0 -0.1556916669008335 0.40278409093046019 0 -0.18176047263899719 0.38121231872005679 0 -0.16585623702428451 0.39107516703040651 0 -0.18215999063752189 0.40647208697695608 0 -0.18176047263899719 0.38121231872005679 0 -0.18215999063752189 0.40647208697695608 0 -0.19434121226752371 0.39112870189136351 0 -0.18176047263899719 0.38121231872005679 0 -0.18215999063752189 0.40647208697695608 0 -0.18215999063752189 0.40647208697695608 0 -0.18255950863604661 0.43173185523385532 0 -0.18215999063752189 0.40647208697695608 0 -0.16958367679162159 0.42493542776846188 0 -0.1665369108918931 0.40914444316194981 0 -0.19413142888046839 0.4217351031076268 0 -0.18215999063752189 0.40647208697695608 0 -0.18255950863604661 0.43173185523385532 0 -0.18215999063752189 0.40647208697695608 0 -0.18255950863604661 0.43173185523385532 0 -0.16958367679162159 0.42493542776846188 0 -0.16940388650370539 0.44815354093755089 0 -0.18255950863604661 0.43173185523385532 0 -0.16958367679162159 0.42493542776846188 0 -0.16940388650370539 0.44815354093755089 0 -0.16958367679162159 0.42493542776846188 0 -0.15912083936695831 0.4347249498771325 0 -0.16958367679162159 0.42493542776846188 0 -0.15912083936695831 0.4347249498771325 0 -0.15604886632200479 0.41831593774319042 0 -0.16958367679162159 0.42493542776846188 0 -0.1665369108918931 0.40914444316194981 0 -0.15604886632200479 0.41831593774319042 0 -0.1665369108918931 0.40914444316194981 0 -0.15604886632200479 0.41831593774319042 0 -0.1556916669008335 0.40278409093046019 0 -0.15604886632200479 0.41831593774319042 0 -0.14768726638806501 0.40958107086639878 0 -0.1556916669008335 0.40278409093046019 0 -0.15604886632200479 0.41831593774319042 0 -0.1455440964649429 0.41771164433310332 0 -0.14575226394851429 0.42876386523653243 0 -0.15604886632200479 0.41831593774319042 0 -0.1455440964649429 0.41771164433310332 0 -0.14768726638806501 0.40958107086639878 0 -0.1455440964649429 0.41771164433310332 0 -0.14768726638806501 0.40958107086639878 0 -0.13820848934052041 0.41088683445876423 0 -0.15912083936695831 0.4347249498771325 0 -0.15604886632200479 0.41831593774319042 0 -0.14575226394851429 0.42876386523653243 0 -0.14949031039727409 0.43903968606904947 0 -0.15912083936695831 0.4347249498771325 0 -0.14575226394851429 0.42876386523653243 0 -0.1455440964649429 0.41771164433310332 0 -0.14575226394851429 0.42876386523653243 0 -0.13557398954387551 0.42076075412316039 0 -0.13973201497409549 0.44099892737807922 0 -0.14949031039727409 0.43903968606904947 0 -0.14575226394851429 0.42876386523653243 0 -0.13491063247587859 0.43073185275000708 0 -0.1242188050129694 0.42501783294758849 0 -0.1248743097581413 0.44162978393037222 0 -0.13973201497409549 0.44099892737807922 0 -0.14575226394851429 0.42876386523653243 0 -0.13491063247587859 0.43073185275000708 0 -0.14575226394851429 0.42876386523653243 0 -0.13491063247587859 0.43073185275000708 0 -0.13557398954387551 0.42076075412316039 0 -0.13491063247587859 0.43073185275000708 0 -0.13557398954387551 0.42076075412316039 0 -0.1242188050129694 0.42501783294758849 0 -0.13820848934052041 0.41088683445876423 0 -0.13557398954387551 0.42076075412316039 0 -0.12623023605756489 0.41143854881348008 0 -0.1455440964649429 0.41771164433310332 0 -0.13820848934052041 0.41088683445876423 0 -0.13557398954387551 0.42076075412316039 0 -0.13557398954387551 0.42076075412316039 0 -0.12623023605756489 0.41143854881348008 0 -0.1242188050129694 0.42501783294758849 0 -0.13820848934052041 0.41088683445876423 0 -0.12623023605756489 0.41143854881348008 0 -0.13398515235888339 0.40371564514020769 0 -0.12997925716256209 0.39431640422262348 0 -0.14074253368576661 0.38200722200303072 0 -0.1429432129120235 0.39820684686647628 0 -0.12623023605756489 0.41143854881348008 0 -0.13398515235888339 0.40371564514020769 0 -0.12997925716256209 0.39431640422262348 0 -0.13398515235888339 0.40371564514020769 0 -0.12997925716256209 0.39431640422262348 0 -0.1429432129120235 0.39820684686647628 0 -0.13820848934052041 0.41088683445876423 0 -0.13398515235888339 0.40371564514020769 0 -0.1429432129120235 0.39820684686647628 0 -0.12997925716256209 0.39431640422262348 0 -0.14074253368576661 0.38200722200303072 0 -0.12523428666698541 0.37069662222368049 0 -0.12997925716256209 0.39431640422262348 0 -0.12523428666698541 0.37069662222368049 0 -0.12103247972044499 0.39311621374447298 0 -0.14074253368576661 0.38200722200303072 0 -0.15169756500005979 0.38990146883471011 0 -0.1429432129120235 0.39820684686647628 0 -0.14074253368576661 0.38200722200303072 0 -0.1532541744773912 0.375434017343177 0 -0.15169756500005979 0.38990146883471011 0 -0.15169756500005979 0.38990146883471011 0 -0.1556916669008335 0.40278409093046019 0 -0.1429432129120235 0.39820684686647628 0 -0.14768726638806501 0.40958107086639878 0 -0.1556916669008335 0.40278409093046019 0 -0.1429432129120235 0.39820684686647628 0 -0.14768726638806501 0.40958107086639878 0 -0.13820848934052041 0.41088683445876423 0 -0.1429432129120235 0.39820684686647628 0 -0.14407255521749979 0.34403263722221961 0 -0.15504053286571459 0.3545366000593369 0 -0.14129669608781389 0.36249735492572199 0 -0.14407255521749979 0.34403263722221961 0 -0.15504053286571459 0.3545366000593369 0 -0.1549481930100888 0.34056708499864929 0 -0.14074253368576661 0.38200722200303072 0 -0.1532541744773912 0.375434017343177 0 -0.14129669608781389 0.36249735492572199 0 -0.1532541744773912 0.375434017343177 0 -0.15504053286571459 0.3545366000593369 0 -0.14129669608781389 0.36249735492572199 0 -0.14129669608781389 0.36249735492572199 0 -0.12523428666698541 0.37069662222368049 0 -0.1294360936135257 0.3482770307028879 0 -0.12523428666698541 0.37069662222368049 0 -0.1294360936135257 0.3482770307028879 0 -0.14074253368576661 0.38200722200303072 0 -0.14129669608781389 0.36249735492572199 0 -0.12523428666698541 0.37069662222368049 0 -0.14407255521749979 0.34403263722221961 0 -0.14129669608781389 0.36249735492572199 0 -0.1294360936135257 0.3482770307028879 0 -0.1294360936135257 0.3482770307028879 0 -0.13363790056006589 0.32585743918209531 0 -0.14407255521749979 0.34403263722221961 0 -0.1294360936135257 0.3482770307028879 0 -0.13363790056006589 0.32585743918209531 0 -0.1294360936135257 0.3482770307028879 0 -0.13363790056006589 0.32585743918209531 0 -0.1154499742120704 0.34086754873962172 0 -0.12722248981549561 0.3181430308760943 0 -0.13363790056006589 0.32585743918209531 0 -0.1360408951285694 0.3130357752318072 0 -0.12722248981549561 0.3181430308760943 0 -0.1360408951285694 0.3130357752318072 0 -0.12136448477009221 0.30951812845445109 0 -0.12722248981549561 0.3181430308760943 0 -0.13363790056006589 0.32585743918209531 0 -0.12142985306419619 0.32461006626398298 0 -0.13363790056006589 0.32585743918209531 0 -0.12142985306419619 0.32461006626398298 0 -0.13363790056006589 0.32585743918209531 0 -0.1360408951285694 0.3130357752318072 0 -0.14290423209994971 0.32095809222069871 0 -0.13363790056006589 0.32585743918209531 0 -0.1360408951285694 0.3130357752318072 0 -0.14290423209994971 0.32095809222069871 0 -0.1532404752523272 0.32269894785805692 0 -0.1464174014568787 0.29836992735667278 0 -0.13363790056006589 0.32585743918209531 0 -0.14290423209994971 0.32095809222069871 0 -0.15729966860100811 0.32827511069417059 0 -0.13363790056006589 0.32585743918209531 0 -0.15729966860100811 0.32827511069417059 0 -0.14290423209994971 0.32095809222069871 0 -0.1532404752523272 0.32269894785805692 0 -0.15729966860100811 0.32827511069417059 0 -0.1532404752523272 0.32269894785805692 0 -0.15943794807189979 0.31595908059817063 0 -0.1547819877644892 0.3091453549012102 0 -0.14407255521749979 0.34403263722221961 0 -0.13363790056006589 0.32585743918209531 0 -0.14748957934716561 0.33468306802428371 0 -0.13363790056006589 0.32585743918209531 0 -0.14748957934716561 0.33468306802428371 0 -0.15729966860100811 0.32827511069417059 0 -0.14748957934716561 0.33468306802428371 0 -0.1549481930100888 0.34056708499864929 0 -0.15729966860100811 0.32827511069417059 0 -0.14407255521749979 0.34403263722221961 0 -0.14748957934716561 0.33468306802428371 0 -0.1549481930100888 0.34056708499864929 0 -0.15729966860100811 0.32827511069417059 0 -0.18096143664194889 0.33069278220625808 0 -0.1549481930100888 0.34056708499864929 0 -0.15729966860100811 0.32827511069417059 0 -0.16781010436956259 0.34240718275037813 0 -0.15729966860100811 0.32827511069417059 0 -0.16781010436956259 0.34240718275037813 0 -0.18096143664194889 0.33069278220625808 0 -0.15729966860100811 0.32827511069417059 0 -0.17028988351433311 0.32233995817617028 0 -0.18096143664194889 0.33069278220625808 0 -0.15943794807189979 0.31595908059817063 0 -0.16495134068588049 0.31685297469802859 0 -0.1638395481514221 0.30983277085387728 0 -0.1532404752523272 0.32269894785805692 0 -0.15943794807189979 0.31595908059817063 0 -0.16037638850537991 0.32126535467967993 0 -0.15943794807189979 0.31595908059817063 0 -0.16037638850537991 0.32126535467967993 0 -0.16495134068588049 0.31685297469802859 0 -0.15729966860100811 0.32827511069417059 0 -0.16037638850537991 0.32126535467967993 0 -0.17028988351433311 0.32233995817617028 0 -0.1532404752523272 0.32269894785805692 0 -0.15729966860100811 0.32827511069417059 0 -0.16037638850537991 0.32126535467967993 0 -0.16495134068588049 0.31685297469802859 0 -0.17285953122972289 0.31090601179704258 0 -0.1638395481514221 0.30983277085387728 0 -0.17028988351433311 0.32233995817617028 0 -0.16495134068588049 0.31685297469802859 0 -0.17285953122972289 0.31090601179704258 0 -0.16037638850537991 0.32126535467967993 0 -0.17028988351433311 0.32233995817617028 0 -0.16495134068588049 0.31685297469802859 0 -0.18077272512400111 0.31876138179813301 0 -0.17285953122972289 0.31090601179704258 0 -0.17028988351433311 0.32233995817617028 0 -0.18077272512400111 0.31876138179813301 0 -0.17285953122972289 0.31090601179704258 0 -0.17028988351433311 0.32233995817617028 0 -0.18077272512400111 0.31876138179813301 0 -0.18096143664194889 0.33069278220625808 0 -0.18077272512400111 0.31876138179813301 0 -0.19386790912735871 0.33176087567547108 0 -0.18077272512400111 0.31876138179813301 0 -0.18096143664194889 0.33069278220625808 0 -0.18077272512400111 0.31876138179813301 0 -0.18096143664194889 0.33069278220625808 0 -0.19386790912735871 0.33176087567547108 0 -0.18096143664194889 0.33069278220625808 0 -0.1813609546404725 0.35595255046315749 0 -0.18096143664194889 0.33069278220625808 0 -0.1813609546404725 0.35595255046315749 0 -0.19258948339875709 0.33633707034479371 0 -0.16781010436956259 0.34240718275037813 0 -0.18096143664194889 0.33069278220625808 0 -0.1813609546404725 0.35595255046315749 0 -0.18096143664194889 0.33069278220625808 0 -0.19386790912735871 0.33176087567547108 0 -0.15504053286571459 0.3545366000593369 0 -0.16781010436956259 0.34240718275037813 0 -0.1813609546404725 0.35595255046315749 0 -0.15504053286571459 0.3545366000593369 0 -0.1549481930100888 0.34056708499864929 0 -0.16781010436956259 0.34240718275037813 0 -0.1532541744773912 0.375434017343177 0 -0.15504053286571459 0.3545366000593369 0 -0.16689278400863089 0.37048631692620287 0 -0.15504053286571459 0.3545366000593369 0 -0.1813609546404725 0.35595255046315749 0 -0.16689278400863089 0.37048631692620287 0 -0.18176047263899719 0.38121231872005679 0 -0.1813609546404725 0.35595255046315749 0 -0.18176047263899719 0.38121231872005679 0 -0.1813609546404725 0.35595255046315749 0 -0.1956253707180633 0.37355818799515828 0 -0.18176047263899719 0.38121231872005679 0 -0.1813609546404725 0.35595255046315749 0 -0.16689278400863089 0.37048631692620287 0 -0.1813609546404725 0.35595255046315749 0 -0.1956253707180633 0.37355818799515828 0 -0.2000380028121157 0.35856944723279938 0 -0.1956253707180633 0.37355818799515828 0 -0.2000380028121157 0.35856944723279938 0 -0.20825127389149589 0.37038948781896619 0 -0.1813609546404725 0.35595255046315749 0 -0.1951678646333711 0.34883535218340811 0 -0.19258948339875709 0.33633707034479371 0 -0.1813609546404725 0.35595255046315749 0 -0.1951678646333711 0.34883535218340811 0 -0.2000380028121157 0.35856944723279938 0 -0.1951678646333711 0.34883535218340811 0 -0.2000380028121157 0.35856944723279938 0 -0.20668301768213909 0.34448234069288158 0 -0.20668301768213909 0.34448234069288158 0 -0.2120127789660084 0.36084248239747968 0 -0.21921666942493959 0.3569244055809645 0 -0.2000380028121157 0.35856944723279938 0 -0.20668301768213909 0.34448234069288158 0 -0.2120127789660084 0.36084248239747968 0 -0.2120127789660084 0.36084248239747968 0 -0.21921666942493959 0.3569244055809645 0 -0.20668301768213909 0.34448234069288158 0 -0.21921666942493959 0.3569244055809645 0 -0.22158808080033929 0.34557455345049992 0 -0.20668301768213909 0.34448234069288158 0 -0.21921666942493959 0.3569244055809645 0 -0.2000380028121157 0.35856944723279938 0 -0.20825127389149589 0.37038948781896619 0 -0.2120127789660084 0.36084248239747968 0 -0.2120127789660084 0.36084248239747968 0 -0.2199937556016836 0.36693485901855288 0 -0.21921666942493959 0.3569244055809645 0 -0.20825127389149589 0.37038948781896619 0 -0.2120127789660084 0.36084248239747968 0 -0.2199937556016836 0.36693485901855288 0 -0.21752164111765379 0.37637519474985792 0 -0.20825127389149589 0.37038948781896619 0 -0.2199937556016836 0.36693485901855288 0 -0.21752164111765379 0.37637519474985792 0 -0.23054114355980421 0.3681661286558337 0 -0.2199937556016836 0.36693485901855288 0 -0.23054114355980421 0.3681661286558337 0 -0.21921666942493959 0.3569244055809645 0 -0.23305195790672301 0.35812934693154008 0 -0.23054114355980421 0.3681661286558337 0 -0.2199937556016836 0.36693485901855288 0 -0.21921666942493959 0.3569244055809645 0 -0.23054114355980421 0.3681661286558337 0 -0.21921666942493959 0.3569244055809645 0 -0.21921666942493959 0.3569244055809645 0 -0.22158808080033929 0.34557455345049992 0 -0.23915963598069589 0.34607775607121571 0 -0.21921666942493959 0.3569244055809645 0 -0.23915963598069589 0.34607775607121571 0 -0.21921666942493959 0.3569244055809645 0 -0.23305195790672301 0.35812934693154008 0 -0.23915963598069589 0.34607775607121571 0 -0.23305195790672301 0.35812934693154008 0 -0.23915963598069589 0.34607775607121571 0 -0.24329038266145239 0.36134909741814653 0 -0.25407523553642281 0.3497448278934856 0 -0.23915963598069589 0.34607775607121571 0 -0.24329038266145239 0.36134909741814653 0 -0.25213085833087667 0.37355178257669552 0 -0.24000210142933509 0.37809552861286783 0 -0.24329038266145239 0.36134909741814653 0 -0.24000210142933509 0.37809552861286783 0 -0.23054114355980421 0.3681661286558337 0 -0.24329038266145239 0.36134909741814653 0 -0.23054114355980421 0.3681661286558337 0 -0.23305195790672301 0.35812934693154008 0 -0.24329038266145239 0.36134909741814653 0 -0.23582541811145999 0.32679902143390172 0 -0.24885494741763489 0.31718848033418301 0 -0.23189508169276829 0.30076725351495531 0 -0.23582541811145999 0.32679902143390172 0 -0.24885494741763489 0.31718848033418301 0 -0.24633099797708269 0.32737693631841108 0 -0.25451497659773847 0.32559442806853028 0 -0.24885494741763489 0.31718848033418301 0 -0.24633099797708269 0.32737693631841108 0 -0.24843663428782739 0.33758714710907461 0 -0.22129300011358269 0.33481371145693772 0 -0.25451497659773847 0.32559442806853028 0 -0.24633099797708269 0.32737693631841108 0 -0.24843663428782739 0.33758714710907461 0 -0.25910260253645218 0.33523110656146687 0 -0.23915963598069589 0.34607775607121571 0 -0.23582541811145999 0.32679902143390172 0 -0.24633099797708269 0.32737693631841108 0 -0.24843663428782739 0.33758714710907461 0 -0.25910260253645218 0.33523110656146687 0 -0.23915963598069589 0.34607775607121571 0 -0.24843663428782739 0.33758714710907461 0 -0.23582541811145999 0.32679902143390172 0 -0.24843663428782739 0.33758714710907461 0 -0.22129300011358269 0.33481371145693772 0 -0.23915963598069589 0.34607775607121571 0 -0.24843663428782739 0.33758714710907461 0 -0.22129300011358269 0.33481371145693772 0 -0.22158808080033929 0.34557455345049992 0 -0.23915963598069589 0.34607775607121571 0 -0.22129300011358269 0.33481371145693772 0 -0.23582541811145999 0.32679902143390172 0 -0.21954464392232159 0.31820766509236142 0 -0.23189508169276829 0.30076725351495531 0 -0.23582541811145999 0.32679902143390172 0 -0.22129300011358269 0.33481371145693772 0 -0.21954464392232159 0.31820766509236142 0 -0.21954464392232159 0.31820766509236142 0 -0.20492818889453221 0.32276220977772679 0 -0.20060783596013981 0.3076349397264902 0 -0.22129300011358269 0.33481371145693772 0 -0.21954464392232159 0.31820766509236142 0 -0.20492818889453221 0.32276220977772679 0 -0.22129300011358269 0.33481371145693772 0 -0.20492818889453221 0.32276220977772679 0 -0.19386790912735871 0.33176087567547108 0 -0.22129300011358269 0.33481371145693772 0 -0.19386790912735871 0.33176087567547108 0 -0.20668301768213909 0.34448234069288158 0 -0.22129300011358269 0.33481371145693772 0 -0.19386790912735871 0.33176087567547108 0 -0.20668301768213909 0.34448234069288158 0 -0.22158808080033929 0.34557455345049992 0 -0.22129300011358269 0.33481371145693772 0 -0.20668301768213909 0.34448234069288158 0 -0.19386790912735871 0.33176087567547108 0 -0.19258948339875709 0.33633707034479371 0 -0.20668301768213909 0.34448234069288158 0 -0.19386790912735871 0.33176087567547108 0 -0.1951678646333711 0.34883535218340811 0 -0.20668301768213909 0.34448234069288158 0 -0.19258948339875709 0.33633707034479371 0 -0.18096143664194889 0.33069278220625808 0 -0.19386790912735871 0.33176087567547108 0 -0.19258948339875709 0.33633707034479371 0 -0.19386790912735871 0.33176087567547108 0 -0.19258948339875709 0.33633707034479371 0 -0.18077272512400111 0.31876138179813301 0 -0.19386790912735871 0.33176087567547108 0 -0.20060783596013981 0.3076349397264902 0 -0.20492818889453221 0.32276220977772679 0 -0.19386790912735871 0.33176087567547108 0 -0.20060783596013981 0.3076349397264902 0 -0.19386790912735871 0.33176087567547108 0 -0.20060783596013981 0.3076349397264902 0 -0.20060783596013981 0.3076349397264902 0 -0.20734776279292019 0.28350900377750898 0 -0.23189508169276829 0.30076725351495531 0 -0.21954464392232159 0.31820766509236142 0 -0.20060783596013981 0.3076349397264902 0 -0.23189508169276829 0.30076725351495531 0 -0.20060783596013981 0.3076349397264902 0 -0.20734776279292019 0.28350900377750898 0 -0.18034630435624241 0.29180066960649809 0 -0.20734776279292019 0.28350900377750898 0 -0.19375927737912041 0.2730469699042487 0 -0.18034630435624241 0.29180066960649809 0 -0.20060783596013981 0.3076349397264902 0 -0.20734776279292019 0.28350900377750898 0 -0.20734776279292019 0.28350900377750898 0 -0.23189508169276829 0.30076725351495531 0 -0.22396762922540969 0.27514125130055722 0 -0.23189508169276829 0.30076725351495531 0 -0.2378434694439332 0.28391349183279069 0 -0.22396762922540969 0.27514125130055722 0 -0.25673188405007052 0.28646841290673969 0 -0.23189508169276829 0.30076725351495531 0 -0.2378434694439332 0.28391349183279069 0 -0.25673188405007052 0.28646841290673969 0 -0.23189508169276829 0.30076725351495531 0 -0.25505401324638421 0.30366623925853881 0 -0.25673188405007052 0.28646841290673969 0 -0.23189508169276829 0.30076725351495531 0 -0.25505401324638421 0.30366623925853881 0 -0.24885494741763489 0.31718848033418301 0 -0.23189508169276829 0.30076725351495531 0 -0.25265925142613249 0.26128234508680298 0 -0.23885305679183191 0.2684477152547543 0 -0.23951274761537589 0.2474853768326048 0 -0.23885305679183191 0.2684477152547543 0 -0.22811192938500721 0.25829645972706228 0 -0.23951274761537589 0.2474853768326048 0 -0.25621817608628389 0.2460965770837312 0 -0.25265925142613249 0.26128234508680298 0 -0.23951274761537589 0.2474853768326048 0 -0.25673188405007052 0.28646841290673969 0 -0.2378434694439332 0.28391349183279069 0 -0.23885305679183191 0.2684477152547543 0 -0.25265925142613249 0.26128234508680298 0 -0.25673188405007052 0.28646841290673969 0 -0.23885305679183191 0.2684477152547543 0 -0.23885305679183191 0.2684477152547543 0 -0.22396762922540969 0.27514125130055722 0 -0.22811192938500721 0.25829645972706228 0 -0.2378434694439332 0.28391349183279069 0 -0.23885305679183191 0.2684477152547543 0 -0.22396762922540969 0.27514125130055722 0 -0.22811192938500721 0.25829645972706228 0 -0.22371849106378741 0.2462845034026982 0 -0.23951274761537589 0.2474853768326048 0 -0.22396762922540969 0.27514125130055722 0 -0.22811192938500721 0.25829645972706228 0 -0.21408768962570049 0.25938306782852782 0 -0.22811192938500721 0.25829645972706228 0 -0.21408768962570049 0.25938306782852782 0 -0.22371849106378741 0.2462845034026982 0 -0.21408768962570049 0.25938306782852782 0 -0.19928355658839081 0.25766712263582692 0 -0.2066863838603582 0.24242880758937649 0 -0.21408768962570049 0.25938306782852782 0 -0.20163280817849061 0.26608937016207479 0 -0.19928355658839081 0.25766712263582692 0 -0.20734776279292019 0.28350900377750898 0 -0.21408768962570049 0.25938306782852782 0 -0.20734776279292019 0.28350900377750898 0 -0.22396762922540969 0.27514125130055722 0 -0.21408768962570049 0.25938306782852782 0 -0.20734776279292019 0.28350900377750898 0 -0.21408768962570049 0.25938306782852782 0 -0.20163280817849061 0.26608937016207479 0 -0.20734776279292019 0.28350900377750898 0 -0.20163280817849061 0.26608937016207479 0 -0.19375927737912041 0.2730469699042487 0 -0.20163280817849061 0.26608937016207479 0 -0.19375927737912041 0.2730469699042487 0 -0.19160269433399771 0.26436194023610149 0 -0.19375927737912041 0.2730469699042487 0 -0.19160269433399771 0.26436194023610149 0 -0.17991988358848049 0.26483995741486333 0 -0.19928355658839081 0.25766712263582692 0 -0.18259587964237009 0.2606558300825601 0 -0.2066863838603582 0.24242880758937649 0 -0.18259587964237009 0.2606558300825601 0 -0.19333963139412971 0.24385714112684301 0 -0.19928355658839081 0.25766712263582692 0 -0.19160269433399771 0.26436194023610149 0 -0.18259587964237009 0.2606558300825601 0 -0.18259587964237009 0.2606558300825601 0 -0.2066863838603582 0.24242880758937649 0 -0.20163280817849061 0.26608937016207479 0 -0.19928355658839081 0.25766712263582692 0 -0.19160269433399771 0.26436194023610149 0 -0.17991988358848049 0.26483995741486333 0 -0.17951502337729761 0.2392424245160312 0 -0.17991988358848049 0.26483995741486333 0 -0.17042143569771079 0.26099360542817968 0 -0.17951502337729761 0.2392424245160312 0 -0.18259587964237009 0.2606558300825601 0 -0.17991988358848049 0.26483995741486333 0 -0.17951502337729761 0.2392424245160312 0 -0.19160269433399771 0.26436194023610149 0 -0.18259587964237009 0.2606558300825601 0 -0.17991988358848049 0.26483995741486333 0 -0.18259587964237009 0.2606558300825601 0 -0.17991988358848049 0.26483995741486333 0 -0.17991988358848049 0.26483995741486333 0 -0.17042143569771079 0.26099360542817968 0 -0.17716480609589361 0.26914773470870201 0 -0.17042143569771079 0.26099360542817968 0 -0.1627301728603629 0.26968240911070368 0 -0.1532221513837192 0.25419418888983192 0 -0.17042143569771079 0.26099360542817968 0 -0.1532221513837192 0.25419418888983192 0 -0.17951502337729761 0.2392424245160312 0 -0.1627301728603629 0.26968240911070368 0 -0.1620479085915319 0.28265904931380531 0 -0.15271877240598841 0.27446820953958367 0 -0.17042143569771079 0.26099360542817968 0 -0.1627301728603629 0.26968240911070368 0 -0.1699765768805111 0.26885491792894611 0 -0.1627301728603629 0.26968240911070368 0 -0.1699765768805111 0.26885491792894611 0 -0.16860704672851359 0.27535934789532951 0 -0.1627301728603629 0.26968240911070368 0 -0.16860704672851359 0.27535934789532951 0 -0.1620479085915319 0.28265904931380531 0 -0.16860704672851359 0.27535934789532951 0 -0.17077339862397739 0.28423195702734899 0 -0.1620479085915319 0.28265904931380531 0 -0.17991988358848049 0.26483995741486333 0 -0.18034630435624241 0.29180066960649809 0 -0.17991988358848049 0.26483995741486333 0 -0.17716480609589361 0.26914773470870201 0 -0.18034630435624241 0.29180066960649809 0 -0.16860704672851359 0.27535934789532951 0 -0.17716480609589361 0.26914773470870201 0 -0.17077339862397739 0.28423195702734899 0 -0.19375927737912041 0.2730469699042487 0 -0.17991988358848049 0.26483995741486333 0 -0.18034630435624241 0.29180066960649809 0 -0.17042143569771079 0.26099360542817968 0 -0.1699765768805111 0.26885491792894611 0 -0.17716480609589361 0.26914773470870201 0 -0.1699765768805111 0.26885491792894611 0 -0.16860704672851359 0.27535934789532951 0 -0.17716480609589361 0.26914773470870201 0 -0.17991988358848049 0.26483995741486333 0 -0.17716480609589361 0.26914773470870201 0 -0.17716480609589361 0.26914773470870201 0 -0.18034630435624241 0.29180066960649809 0 -0.17077339862397739 0.28423195702734899 0 -0.18034630435624241 0.29180066960649809 0 -0.16501618616712291 0.29775164083812761 0 -0.17077339862397739 0.28423195702734899 0 -0.18077272512400111 0.31876138179813301 0 -0.18034630435624241 0.29180066960649809 0 -0.18077272512400111 0.31876138179813301 0 -0.18034630435624241 0.29180066960649809 0 -0.17285953122972289 0.31090601179704258 0 -0.18034630435624241 0.29180066960649809 0 -0.17285953122972289 0.31090601179704258 0 -0.16501618616712291 0.29775164083812761 0 -0.18077272512400111 0.31876138179813301 0 -0.20060783596013981 0.3076349397264902 0 -0.18034630435624241 0.29180066960649809 0 -0.16501618616712291 0.29775164083812761 0 -0.15329008091572741 0.28945008379417048 0 -0.1547819877644892 0.3091453549012102 0 -0.17285953122972289 0.31090601179704258 0 -0.16501618616712291 0.29775164083812761 0 -0.1638395481514221 0.30983277085387728 0 -0.16501618616712291 0.29775164083812761 0 -0.1638395481514221 0.30983277085387728 0 -0.1547819877644892 0.3091453549012102 0 -0.15943794807189979 0.31595908059817063 0 -0.1638395481514221 0.30983277085387728 0 -0.1547819877644892 0.3091453549012102 0 -0.16501618616712291 0.29775164083812761 0 -0.17077339862397739 0.28423195702734899 0 -0.1620479085915319 0.28265904931380531 0 -0.16501618616712291 0.29775164083812761 0 -0.1620479085915319 0.28265904931380531 0 -0.15329008091572741 0.28945008379417048 0 -0.1464174014568787 0.29836992735667278 0 -0.13959432766143021 0.2740409068552887 0 -0.1620479085915319 0.28265904931380531 0 -0.15329008091572741 0.28945008379417048 0 -0.15271877240598841 0.27446820953958367 0 -0.15329008091572741 0.28945008379417048 0 -0.1464174014568787 0.29836992735667278 0 -0.13959432766143021 0.2740409068552887 0 -0.15329008091572741 0.28945008379417048 0 -0.1464174014568787 0.29836992735667278 0 -0.1547819877644892 0.3091453549012102 0 -0.1532404752523272 0.32269894785805692 0 -0.1464174014568787 0.29836992735667278 0 -0.1360408951285694 0.3130357752318072 0 -0.14290423209994971 0.32095809222069871 0 -0.1464174014568787 0.29836992735667278 0 -0.1532404752523272 0.32269894785805692 0 -0.1464174014568787 0.29836992735667278 0 -0.1547819877644892 0.3091453549012102 0 -0.1360408951285694 0.3130357752318072 0 -0.1264253840414637 0.29528772621663357 0 -0.12136448477009221 0.30951812845445109 0 -0.1360408951285694 0.3130357752318072 0 -0.1464174014568787 0.29836992735667278 0 -0.1264253840414637 0.29528772621663357 0 -0.1464174014568787 0.29836992735667278 0 -0.1264253840414637 0.29528772621663357 0 -0.13959432766143021 0.2740409068552887 0 -0.1264253840414637 0.29528772621663357 0 -0.13959432766143021 0.2740409068552887 0 -0.1185373796182298 0.27837978510360878 0 -0.13959432766143021 0.2740409068552887 0 -0.1327712538659816 0.24971188635390451 0 -0.13959432766143021 0.2740409068552887 0 -0.116744543106582 0.25728181003509248 0 -0.1327712538659816 0.24971188635390451 0 -0.13959432766143021 0.2740409068552887 0 -0.1532221513837192 0.25419418888983192 0 -0.1327712538659816 0.24971188635390451 0 -0.1627301728603629 0.26968240911070368 0 -0.1532221513837192 0.25419418888983192 0 -0.15271877240598841 0.27446820953958367 0 -0.13959432766143021 0.2740409068552887 0 -0.1532221513837192 0.25419418888983192 0 -0.15271877240598841 0.27446820953958367 0 -0.15329008091572741 0.28945008379417048 0 -0.13959432766143021 0.2740409068552887 0 -0.15271877240598841 0.27446820953958367 0 -0.1061606963602142 0.26761343855331338 0 -0.1001789302111205 0.27974269320078388 0 -0.1185373796182298 0.27837978510360878 0 -0.1061606963602142 0.26761343855331338 0 -0.1001789302111205 0.27974269320078388 0 -0.092613028744971265 0.26767711662392979 0 -0.1061606963602142 0.26761343855331338 0 -0.10005120432924321 0.25626016583208688 0 -0.116744543106582 0.25728181003509248 0 -0.1061606963602142 0.26761343855331338 0 -0.10005120432924321 0.25626016583208688 0 -0.092613028744971265 0.26767711662392979 0 -0.10005120432924321 0.25626016583208688 0 -0.116744543106582 0.25728181003509248 0 -0.1045487088169635 0.24438495162540061 0 -0.13959432766143021 0.2740409068552887 0 -0.116744543106582 0.25728181003509248 0 -0.1185373796182298 0.27837978510360878 0 -0.1061606963602142 0.26761343855331338 0 -0.116744543106582 0.25728181003509248 0 -0.1185373796182298 0.27837978510360878 0 -0.1264253840414637 0.29528772621663357 0 -0.1127724140037699 0.30190213115774378 0 -0.1091517300735869 0.29135078386346752 0 -0.1264253840414637 0.29528772621663357 0 -0.1185373796182298 0.27837978510360878 0 -0.1091517300735869 0.29135078386346752 0 -0.1264253840414637 0.29528772621663357 0 -0.12136448477009221 0.30951812845445109 0 -0.1127724140037699 0.30190213115774378 0 -0.12136448477009221 0.30951812845445109 0 -0.1127724140037699 0.30190213115774378 0 -0.1061991548417472 0.31213959050036899 0 -0.1127724140037699 0.30190213115774378 0 -0.1061991548417472 0.31213959050036899 0 -0.1005146973405663 0.30141191014932889 0 -0.1127724140037699 0.30190213115774378 0 -0.1005146973405663 0.30141191014932889 0 -0.1091517300735869 0.29135078386346752 0 -0.1005146973405663 0.30141191014932889 0 -0.094430836728355921 0.29177030977787999 0 -0.089068024122243669 0.30112896568664949 0 -0.1061991548417472 0.31213959050036899 0 -0.1005146973405663 0.30141191014932889 0 -0.090928135519314904 0.31087631578889069 0 -0.1001789302111205 0.27974269320078388 0 -0.1185373796182298 0.27837978510360878 0 -0.1091517300735869 0.29135078386346752 0 -0.1005146973405663 0.30141191014932889 0 -0.1091517300735869 0.29135078386346752 0 -0.094430836728355921 0.29177030977787999 0 -0.1001789302111205 0.27974269320078388 0 -0.1091517300735869 0.29135078386346752 0 -0.094430836728355921 0.29177030977787999 0 -0.1001789302111205 0.27974269320078388 0 -0.094430836728355921 0.29177030977787999 0 -0.086145563619835275 0.2816538088019015 0 -0.094430836728355921 0.29177030977787999 0 -0.086145563619835275 0.2816538088019015 0 -0.081526075002782958 0.29533369696514911 0 -0.094430836728355921 0.29177030977787999 0 -0.081526075002782958 0.29533369696514911 0 -0.089068024122243669 0.30112896568664949 0 -0.086145563619835275 0.2816538088019015 0 -0.081526075002782958 0.29533369696514911 0 -0.070830210313899522 0.29195808219782299 0 -0.090928135519314904 0.31087631578889069 0 -0.079482369404140468 0.30560554845979909 0 -0.074915307566508993 0.31649039264194578 0 -0.090928135519314904 0.31087631578889069 0 -0.089068024122243669 0.30112896568664949 0 -0.079482369404140468 0.30560554845979909 0 -0.1005146973405663 0.30141191014932889 0 -0.090928135519314904 0.31087631578889069 0 -0.089068024122243669 0.30112896568664949 0 -0.081526075002782958 0.29533369696514911 0 -0.089068024122243669 0.30112896568664949 0 -0.079482369404140468 0.30560554845979909 0 -0.054647974243728172 0.30430181459310768 0 -0.074915307566508993 0.31649039264194578 0 -0.079482369404140468 0.30560554845979909 0 -0.068661557073843291 0.3005821027458685 0 -0.074915307566508993 0.31649039264194578 0 -0.068661557073843291 0.3005821027458685 0 -0.054647974243728172 0.30430181459310768 0 -0.074915307566508993 0.31649039264194578 0 -0.081526075002782958 0.29533369696514911 0 -0.079482369404140468 0.30560554845979909 0 -0.068661557073843291 0.3005821027458685 0 -0.070830210313899522 0.29195808219782299 0 -0.067453711470644842 0.27023673344429472 0 -0.052574645638654917 0.28480468584225688 0 -0.081526075002782958 0.29533369696514911 0 -0.068661557073843291 0.3005821027458685 0 -0.070830210313899522 0.29195808219782299 0 -0.068661557073843291 0.3005821027458685 0 -0.070830210313899522 0.29195808219782299 0 -0.068661557073843291 0.3005821027458685 0 -0.070830210313899522 0.29195808219782299 0 -0.059610011597539182 0.29372125904316332 0 -0.086145563619835275 0.2816538088019015 0 -0.070830210313899522 0.29195808219782299 0 -0.077256670317037021 0.26667642926106078 0 -0.070830210313899522 0.29195808219782299 0 -0.067453711470644842 0.27023673344429472 0 -0.070830210313899522 0.29195808219782299 0 -0.077256670317037021 0.26667642926106078 0 -0.070830210313899522 0.29195808219782299 0 -0.067453711470644842 0.27023673344429472 0 -0.077256670317037021 0.26667642926106078 0 -0.086145563619835275 0.2816538088019015 0 -0.077256670317037021 0.26667642926106078 0 -0.092613028744971265 0.26767711662392979 0 -0.1001789302111205 0.27974269320078388 0 -0.086145563619835275 0.2816538088019015 0 -0.092613028744971265 0.26767711662392979 0 -0.077256670317037021 0.26667642926106078 0 -0.086302411784292182 0.25447467192259482 0 -0.083666647235009842 0.24139059785004849 0 -0.077256670317037021 0.26667642926106078 0 -0.083666647235009842 0.24139059785004849 0 -0.10005120432924321 0.25626016583208688 0 -0.086302411784292182 0.25447467192259482 0 -0.094679029848152713 0.24609146959404629 0 -0.10005120432924321 0.25626016583208688 0 -0.092613028744971265 0.26767711662392979 0 -0.086302411784292182 0.25447467192259482 0 -0.077256670317037021 0.26667642926106078 0 -0.092613028744971265 0.26767711662392979 0 -0.086302411784292182 0.25447467192259482 0 -0.077256670317037021 0.26667642926106078 0 -0.064077212627390134 0.24851538469076631 0 -0.083666647235009842 0.24139059785004849 0 -0.067453711470644842 0.27023673344429472 0 -0.077256670317037021 0.26667642926106078 0 -0.064077212627390134 0.24851538469076631 0 -0.067453711470644842 0.27023673344429472 0 -0.064077212627390134 0.24851538469076631 0 -0.067453711470644842 0.27023673344429472 0 -0.04634179854296408 0.26632715615711849 0 -0.064077212627390134 0.24851538469076631 0 -0.04634179854296408 0.26632715615711849 0 -0.064077212627390134 0.24851538469076631 0 -0.046578861792199937 0.24361118962503389 0 -0.067453711470644842 0.27023673344429472 0 -0.04634179854296408 0.26632715615711849 0 -0.052574645638654917 0.28480468584225688 0 -0.04634179854296408 0.26632715615711849 0 -0.034380640920947357 0.29211323654426968 0 -0.052574645638654917 0.28480468584225688 0 -0.04634179854296408 0.26632715615711849 0 -0.022607631921228569 0.27169805167723737 0 -0.034380640920947357 0.29211323654426968 0 -0.04634179854296408 0.26632715615711849 0 -0.03068766995985707 0.25286978792993342 0 -0.022607631921228569 0.27169805167723737 0 -0.04634179854296408 0.26632715615711849 0 -0.03068766995985707 0.25286978792993342 0 -0.046578861792199937 0.24361118962503389 0 -0.03068766995985707 0.25286978792993342 0 -0.022607631921228569 0.27169805167723737 0 -0.0098044441781452579 0.25473951632571468 0 -0.022607631921228569 0.27169805167723737 0 -0.015153941911089409 0.29208252597919021 0 3.3590645499582607e-05 0.27236849017123349 0 -0.022607631921228569 0.27169805167723737 0 -0.0098044441781452579 0.25473951632571468 0 3.3590645499582607e-05 0.27236849017123349 0 -0.0098044441781452579 0.25473951632571468 0 0.0073806355134042019 0.25529449578482938 0 3.3590645499582607e-05 0.27236849017123349 0 -0.0088759444352828343 0.31092800175718183 0 -0.015153941911089409 0.29208252597919021 0 0.0083336089875100904 0.29343585490586271 0 -0.015153941911089409 0.29208252597919021 0 0.0083336089875100904 0.29343585490586271 0 3.3590645499582607e-05 0.27236849017123349 0 -0.022607631921228569 0.27169805167723737 0 -0.015153941911089409 0.29208252597919021 0 -0.034380640920947357 0.29211323654426968 0 -0.0088759444352828343 0.31092800175718183 0 -0.015153941911089409 0.29208252597919021 0 -0.03508050583840458 0.3127012881250415 0 -0.015153941911089409 0.29208252597919021 0 -0.034380640920947357 0.29211323654426968 0 -0.03508050583840458 0.3127012881250415 0 -0.034380640920947357 0.29211323654426968 0 -0.054647974243728172 0.30430181459310768 0 -0.034380640920947357 0.29211323654426968 0 -0.054647974243728172 0.30430181459310768 0 -0.03508050583840458 0.3127012881250415 0 -0.034380640920947357 0.29211323654426968 0 -0.052574645638654917 0.28480468584225688 0 -0.054647974243728172 0.30430181459310768 0 -0.052574645638654917 0.28480468584225688 0 -0.059610011597539182 0.29372125904316332 0 -0.054647974243728172 0.30430181459310768 0 -0.070830210313899522 0.29195808219782299 0 -0.052574645638654917 0.28480468584225688 0 -0.059610011597539182 0.29372125904316332 0 -0.068661557073843291 0.3005821027458685 0 -0.059610011597539182 0.29372125904316332 0 -0.054647974243728172 0.30430181459310768 0 -0.058679851530075752 0.32054224196392622 0 -0.045885169747561752 0.33132665820789581 0 -0.073191842414501496 0.33174208285196288 0 -0.054647974243728172 0.30430181459310768 0 -0.058679851530075752 0.32054224196392622 0 -0.03508050583840458 0.3127012881250415 0 -0.045885169747561752 0.33132665820789581 0 -0.067541502003893042 0.3482616942848048 0 -0.073191842414501496 0.33174208285196288 0 -0.045885169747561752 0.33132665820789581 0 -0.073191842414501496 0.33174208285196288 0 -0.045885169747561752 0.33132665820789581 0 -0.018578497080621779 0.33091123356382868 0 -0.045885169747561752 0.33132665820789581 0 -0.03508050583840458 0.3127012881250415 0 -0.018578497080621779 0.33091123356382868 0 -0.058679851530075752 0.32054224196392622 0 -0.045885169747561752 0.33132665820789581 0 -0.03508050583840458 0.3127012881250415 0 -0.0088759444352828343 0.31092800175718183 0 -0.03508050583840458 0.3127012881250415 0 -0.018578497080621779 0.33091123356382868 0 -0.018578497080621779 0.33091123356382868 0 -0.0050552824635438226 0.34569829691311771 0 -0.02749858990914332 0.35301881799134821 0 -0.045885169747561752 0.33132665820789581 0 -0.018578497080621779 0.33091123356382868 0 -0.02749858990914332 0.35301881799134821 0 -0.018578497080621779 0.33091123356382868 0 -0.0050552824635438226 0.34569829691311771 0 0.0064742168078369342 0.3347740657525386 0 -0.018578497080621779 0.33091123356382868 0 0.0087281755863181168 0.33049580891976171 0 -0.018578497080621779 0.33091123356382868 0 0.0064742168078369342 0.3347740657525386 0 0.0087281755863181168 0.33049580891976171 0 -0.018578497080621779 0.33091123356382868 0 -0.003280447873963227 0.32161399115684158 0 0.0087281755863181168 0.33049580891976171 0 -0.0088759444352828343 0.31092800175718183 0 -0.018578497080621779 0.33091123356382868 0 -0.003280447873963227 0.32161399115684158 0 -0.0088759444352828343 0.31092800175718183 0 -0.003280447873963227 0.32161399115684158 0 0.0056044744337335906 0.31412092038659428 0 -0.0052616759920083916 0.36132776784546622 0 -0.0045342830833226501 0.3863935686212247 0 -0.0052616759920083916 0.36132776784546622 0 -0.024169526760701381 0.37267007813580277 0 -0.0045342830833226501 0.3863935686212247 0 -0.0052616759920083916 0.36132776784546622 0 -0.0045342830833226501 0.3863935686212247 0 0.0079023355216259559 0.37348921158265391 0 -0.0052616759920083916 0.36132776784546622 0 -0.0050552824635438226 0.34569829691311771 0 0.0061318462344260851 0.35417601161121459 0 -0.0052616759920083916 0.36132776784546622 0 -0.0050552824635438226 0.34569829691311771 0 -0.02749858990914332 0.35301881799134821 0 -0.02749858990914332 0.35301881799134821 0 -0.024169526760701381 0.37267007813580277 0 -0.04149310004589906 0.37124785083274592 0 -0.0052616759920083916 0.36132776784546622 0 -0.02749858990914332 0.35301881799134821 0 -0.024169526760701381 0.37267007813580277 0 -0.02749858990914332 0.35301881799134821 0 -0.04149310004589906 0.37124785083274592 0 -0.051818441616049399 0.35735321764765782 0 -0.045885169747561752 0.33132665820789581 0 -0.02749858990914332 0.35301881799134821 0 -0.051818441616049399 0.35735321764765782 0 -0.045885169747561752 0.33132665820789581 0 -0.051818441616049399 0.35735321764765782 0 -0.067541502003893042 0.3482616942848048 0 -0.04149310004589906 0.37124785083274592 0 -0.051818441616049399 0.35735321764765782 0 -0.056875823715872062 0.37631267096962301 0 -0.051818441616049399 0.35735321764765782 0 -0.069616273344600341 0.3650636543096733 0 -0.056875823715872062 0.37631267096962301 0 -0.069616273344600341 0.3650636543096733 0 -0.085055645225370236 0.37193713089684588 0 -0.071788917171084016 0.3809272333041443 0 -0.069616273344600341 0.3650636543096733 0 -0.071788917171084016 0.3809272333041443 0 -0.056875823715872062 0.37631267096962301 0 -0.069616273344600341 0.3650636543096733 0 -0.085055645225370236 0.37193713089684588 0 -0.084100884505446297 0.3554636863979832 0 -0.085055645225370236 0.37193713089684588 0 -0.084100884505446297 0.3554636863979832 0 -0.1008292236537022 0.36036332390371462 0 -0.084100884505446297 0.3554636863979832 0 -0.067541502003893042 0.3482616942848048 0 -0.085709514220790303 0.34113927750747819 0 -0.084100884505446297 0.3554636863979832 0 -0.085709514220790303 0.34113927750747819 0 -0.099722393067727538 0.34687368244968458 0 -0.069616273344600341 0.3650636543096733 0 -0.084100884505446297 0.3554636863979832 0 -0.067541502003893042 0.3482616942848048 0 -0.051818441616049399 0.35735321764765782 0 -0.069616273344600341 0.3650636543096733 0 -0.067541502003893042 0.3482616942848048 0 -0.067541502003893042 0.3482616942848048 0 -0.073191842414501496 0.33174208285196288 0 -0.085709514220790303 0.34113927750747819 0 -0.058679851530075752 0.32054224196392622 0 -0.073191842414501496 0.33174208285196288 0 -0.074915307566508993 0.31649039264194578 0 -0.054647974243728172 0.30430181459310768 0 -0.058679851530075752 0.32054224196392622 0 -0.074915307566508993 0.31649039264194578 0 -0.073191842414501496 0.33174208285196288 0 -0.074915307566508993 0.31649039264194578 0 -0.095182640889289766 0.32867897069078372 0 -0.090928135519314904 0.31087631578889069 0 -0.074915307566508993 0.31649039264194578 0 -0.095182640889289766 0.32867897069078372 0 -0.074915307566508993 0.31649039264194578 0 -0.095182640889289766 0.32867897069078372 0 -0.073191842414501496 0.33174208285196288 0 -0.085709514220790303 0.34113927750747819 0 -0.095182640889289766 0.32867897069078372 0 -0.085709514220790303 0.34113927750747819 0 -0.095182640889289766 0.32867897069078372 0 -0.099722393067727538 0.34687368244968458 0 -0.095182640889289766 0.32867897069078372 0 -0.1154499742120704 0.34086754873962172 0 -0.095182640889289766 0.32867897069078372 0 -0.1098512680755149 0.32470257897991811 0 -0.1154499742120704 0.34086754873962172 0 -0.095182640889289766 0.32867897069078372 0 -0.1154499742120704 0.34086754873962172 0 -0.099722393067727538 0.34687368244968458 0 -0.1061991548417472 0.31213959050036899 0 -0.090928135519314904 0.31087631578889069 0 -0.095182640889289766 0.32867897069078372 0 -0.1061991548417472 0.31213959050036899 0 -0.095182640889289766 0.32867897069078372 0 -0.1098512680755149 0.32470257897991811 0 -0.1061991548417472 0.31213959050036899 0 -0.115330384384618 0.31728312261503783 0 -0.1098512680755149 0.32470257897991811 0 -0.12136448477009221 0.30951812845445109 0 -0.1061991548417472 0.31213959050036899 0 -0.115330384384618 0.31728312261503783 0 -0.115330384384618 0.31728312261503783 0 -0.1098512680755149 0.32470257897991811 0 -0.12142985306419619 0.32461006626398298 0 -0.12722248981549561 0.3181430308760943 0 -0.115330384384618 0.31728312261503783 0 -0.12142985306419619 0.32461006626398298 0 -0.12722248981549561 0.3181430308760943 0 -0.12136448477009221 0.30951812845445109 0 -0.115330384384618 0.31728312261503783 0 -0.1098512680755149 0.32470257897991811 0 -0.12142985306419619 0.32461006626398298 0 -0.1154499742120704 0.34086754873962172 0 -0.13363790056006589 0.32585743918209531 0 -0.12142985306419619 0.32461006626398298 0 -0.1154499742120704 0.34086754873962172 0 -0.12523428666698541 0.37069662222368049 0 -0.1294360936135257 0.3482770307028879 0 -0.1154159689866658 0.35521970897278921 0 -0.1154499742120704 0.34086754873962172 0 -0.1154159689866658 0.35521970897278921 0 -0.099722393067727538 0.34687368244968458 0 -0.1294360936135257 0.3482770307028879 0 -0.1154499742120704 0.34086754873962172 0 -0.1154159689866658 0.35521970897278921 0 -0.12523428666698541 0.37069662222368049 0 -0.1154159689866658 0.35521970897278921 0 -0.11117961403065831 0.36839673047223442 0 -0.12523428666698541 0.37069662222368049 0 -0.11117961403065831 0.36839673047223442 0 -0.1123930043347208 0.38073562172137532 0 -0.11117961403065831 0.36839673047223442 0 -0.1008292236537022 0.36036332390371462 0 -0.09970079949094271 0.37763208900548878 0 -0.1154159689866658 0.35521970897278921 0 -0.11117961403065831 0.36839673047223442 0 -0.1008292236537022 0.36036332390371462 0 -0.085055645225370236 0.37193713089684588 0 -0.1008292236537022 0.36036332390371462 0 -0.09970079949094271 0.37763208900548878 0 -0.084100884505446297 0.3554636863979832 0 -0.1008292236537022 0.36036332390371462 0 -0.099722393067727538 0.34687368244968458 0 -0.1154159689866658 0.35521970897278921 0 -0.1008292236537022 0.36036332390371462 0 -0.099722393067727538 0.34687368244968458 0 -0.1036554482544351 0.39516830989393792 0 -0.1102807352191843 0.41378788895710661 0 -0.09259379641793411 0.40948313349934218 0 -0.1036554482544351 0.39516830989393792 0 -0.09970079949094271 0.37763208900548878 0 -0.1123930043347208 0.38073562172137532 0 -0.1036554482544351 0.39516830989393792 0 -0.09970079949094271 0.37763208900548878 0 -0.084297773186445962 0.39217279846007119 0 -0.11117961403065831 0.36839673047223442 0 -0.09970079949094271 0.37763208900548878 0 -0.1123930043347208 0.38073562172137532 0 -0.12523428666698541 0.37069662222368049 0 -0.1123930043347208 0.38073562172137532 0 -0.12103247972044499 0.39311621374447298 0 -0.1036554482544351 0.39516830989393792 0 -0.1123930043347208 0.38073562172137532 0 -0.12103247972044499 0.39311621374447298 0 -0.12523428666698541 0.37069662222368049 0 -0.12103247972044499 0.39311621374447298 0 -0.1036554482544351 0.39516830989393792 0 -0.12103247972044499 0.39311621374447298 0 -0.1102807352191843 0.41378788895710661 0 -0.12997925716256209 0.39431640422262348 0 -0.1102807352191843 0.41378788895710661 0 -0.12997925716256209 0.39431640422262348 0 -0.12103247972044499 0.39311621374447298 0 -0.1102807352191843 0.41378788895710661 0 -0.12623023605756489 0.41143854881348008 0 -0.1102807352191843 0.41378788895710661 0 -0.1242188050129694 0.42501783294758849 0 -0.12623023605756489 0.41143854881348008 0 -0.12997925716256209 0.39431640422262348 0 -0.1102807352191843 0.41378788895710661 0 -0.1102807352191843 0.41378788895710661 0 -0.1104760497445479 0.43296770510105842 0 -0.1242188050129694 0.42501783294758849 0 -0.1104760497445479 0.43296770510105842 0 -0.1242188050129694 0.42501783294758849 0 -0.1248743097581413 0.44162978393037222 0 -0.1102807352191843 0.41378788895710661 0 -0.090582213275806372 0.43325937369158968 0 -0.1102807352191843 0.41378788895710661 0 -0.1104760497445479 0.43296770510105842 0 -0.090582213275806372 0.43325937369158968 0 -0.1102807352191843 0.41378788895710661 0 -0.09259379641793411 0.40948313349934218 0 -0.090582213275806372 0.43325937369158968 0 -0.09259379641793411 0.40948313349934218 0 -0.090582213275806372 0.43325937369158968 0 -0.074152812153798875 0.41302729649400538 0 -0.090582213275806372 0.43325937369158968 0 -0.066022972602334681 0.42956105407568013 0 -0.074152812153798875 0.41302729649400538 0 -0.066022972602334681 0.42956105407568013 0 -0.074152812153798875 0.41302729649400538 0 -0.049329429094603867 0.41198700835812702 0 -0.074152812153798875 0.41302729649400538 0 -0.063154715464804681 0.39516467689365731 0 -0.084297773186445962 0.39217279846007119 0 -0.09259379641793411 0.40948313349934218 0 -0.074152812153798875 0.41302729649400538 0 -0.084297773186445962 0.39217279846007119 0 -0.1036554482544351 0.39516830989393792 0 -0.09259379641793411 0.40948313349934218 0 -0.084297773186445962 0.39217279846007119 0 -0.085055645225370236 0.37193713089684588 0 -0.09970079949094271 0.37763208900548878 0 -0.084297773186445962 0.39217279846007119 0 -0.085055645225370236 0.37193713089684588 0 -0.084297773186445962 0.39217279846007119 0 -0.071788917171084016 0.3809272333041443 0 -0.063154715464804681 0.39516467689365731 0 -0.084297773186445962 0.39217279846007119 0 -0.071788917171084016 0.3809272333041443 0 -0.063154715464804681 0.39516467689365731 0 -0.071788917171084016 0.3809272333041443 0 -0.056875823715872062 0.37631267096962301 0 -0.04149310004589906 0.37124785083274592 0 -0.056875823715872062 0.37631267096962301 0 -0.04338349465279491 0.38811939282985902 0 -0.063154715464804681 0.39516467689365731 0 -0.056875823715872062 0.37631267096962301 0 -0.04338349465279491 0.38811939282985902 0 -0.063154715464804681 0.39516467689365731 0 -0.04338349465279491 0.38811939282985902 0 -0.049329429094603867 0.41198700835812702 0 -0.04338349465279491 0.38811939282985902 0 -0.024844401122877391 0.39948633252540261 0 -0.049329429094603867 0.41198700835812702 0 -0.024169526760701381 0.37267007813580277 0 -0.04149310004589906 0.37124785083274592 0 -0.04338349465279491 0.38811939282985902 0 -0.024169526760701381 0.37267007813580277 0 -0.04338349465279491 0.38811939282985902 0 -0.024844401122877391 0.39948633252540261 0 -0.024169526760701381 0.37267007813580277 0 -0.024844401122877391 0.39948633252540261 0 -0.0045342830833226501 0.3863935686212247 0 -0.024844401122877391 0.39948633252540261 0 -0.0045342830833226501 0.3863935686212247 0 -0.0038092142255275289 0.41137928311071797 0 -0.0045342830833226501 0.3863935686212247 0 -0.0038092142255275289 0.41137928311071797 0 -0.024169526760701381 0.37267007813580277 0 -0.0045342830833226501 0.3863935686212247 0 -0.0030841453677343121 0.43636499760021141 0 -0.0038092142255275289 0.41137928311071797 0 -0.026324668085478481 0.42779129271708288 0 -0.0030841453677343121 0.43636499760021141 0 -0.0038092142255275289 0.41137928311071797 0 -0.024844401122877391 0.39948633252540261 0 -0.0038092142255275289 0.41137928311071797 0 -0.026324668085478481 0.42779129271708288 0 -0.026324668085478481 0.42779129271708288 0 -0.049329429094603867 0.41198700835812702 0 -0.049413859365407042 0.43472239834070731 0 -0.024844401122877391 0.39948633252540261 0 -0.026324668085478481 0.42779129271708288 0 -0.049329429094603867 0.41198700835812702 0 -0.074152812153798875 0.41302729649400538 0 -0.063154715464804681 0.39516467689365731 0 -0.049329429094603867 0.41198700835812702 0 -0.066022972602334681 0.42956105407568013 0 -0.049329429094603867 0.41198700835812702 0 -0.049413859365407042 0.43472239834070731 0 -0.066022972602334681 0.42956105407568013 0 -0.049413859365407042 0.43472239834070731 0 -0.0708836913324285 0.45273085842607269 0 -0.0393713920190637 0.45112048084748302 0 -0.052402143273794041 0.47435943831340011 0 -0.0708836913324285 0.45273085842607269 0 -0.049413859365407042 0.43472239834070731 0 -0.0393713920190637 0.45112048084748302 0 -0.0708836913324285 0.45273085842607269 0 -0.0393713920190637 0.45112048084748302 0 -0.02876560419008364 0.47203163756026523 0 -0.052402143273794041 0.47435943831340011 0 -0.026324668085478481 0.42779129271708288 0 -0.049413859365407042 0.43472239834070731 0 -0.0393713920190637 0.45112048084748302 0 -0.0030841453677343121 0.43636499760021141 0 -0.026324668085478481 0.42779129271708288 0 -0.01888650882967766 0.45329231687868837 0 -0.026324668085478481 0.42779129271708288 0 -0.0393713920190637 0.45112048084748302 0 -0.01888650882967766 0.45329231687868837 0 -0.0393713920190637 0.45112048084748302 0 -0.01888650882967766 0.45329231687868837 0 -0.02876560419008364 0.47203163756026523 0 -0.01888650882967766 0.45329231687868837 0 -0.01341416680576474 0.47109478045738301 0 -0.02876560419008364 0.47203163756026523 0 -0.01888650882967766 0.45329231687868837 0 -0.002359076509941094 0.46135071208970457 0 -0.01341416680576474 0.47109478045738301 0 -0.0030841453677343121 0.43636499760021141 0 -0.01888650882967766 0.45329231687868837 0 -0.002359076509941094 0.46135071208970457 0 -0.0030841453677343121 0.43636499760021141 0 -0.002359076509941094 0.46135071208970457 0 -0.0090346539348886701 0.5 0 -0.0016340076521478781 0.48633642657919801 0 -0.017460482120078509 0.48648722646036041 0 -0.0016340076521478781 0.48633642657919801 0 -0.01341416680576474 0.47109478045738301 0 -0.017460482120078509 0.48648722646036041 0 -0.002359076509941094 0.46135071208970457 0 -0.0016340076521478781 0.48633642657919801 0 -0.01341416680576474 0.47109478045738301 0 -0.002359076509941094 0.46135071208970457 0 -0.0016340076521478781 0.48633642657919801 0 -0.002359076509941094 0.46135071208970457 0 -0.0016340076521478781 0.48633642657919801 0 0.0036787250480955699 0.47408322248379448 0 -0.01341416680576474 0.47109478045738301 0 -0.02876560419008364 0.47203163756026523 0 -0.017460482120078509 0.48648722646036041 0 -0.02876560419008364 0.47203163756026523 0 -0.017460482120078509 0.48648722646036041 0 -0.038135422162237087 0.5 0 -0.0090346539348886701 0.5 0 -0.017460482120078509 0.48648722646036041 0 -0.038135422162237087 0.5 0 -0.02876560419008364 0.47203163756026523 0 -0.038135422162237087 0.5 0 -0.052402143273794041 0.47435943831340011 0 -0.038135422162237087 0.5 0 -0.052402143273794041 0.47435943831340011 0 -0.067236190389585393 0.5 0 -0.052402143273794041 0.47435943831340011 0 -0.067236190389585393 0.5 0 -0.073349005429332273 0.47921852398434828 0 -0.067236190389585393 0.5 0 -0.073349005429332273 0.47921852398434828 0 -0.096336958616933588 0.5 0 -0.073349005429332273 0.47921852398434828 0 -0.096336958616933588 0.5 0 -0.093805091172543903 0.47224368257650851 0 -0.052402143273794041 0.47435943831340011 0 -0.073349005429332273 0.47921852398434828 0 -0.0708836913324285 0.45273085842607269 0 -0.0708836913324285 0.45273085842607269 0 -0.1043361340672995 0.45358667135048331 0 -0.093805091172543903 0.47224368257650851 0 -0.090582213275806372 0.43325937369158968 0 -0.0708836913324285 0.45273085842607269 0 -0.1043361340672995 0.45358667135048331 0 -0.090582213275806372 0.43325937369158968 0 -0.066022972602334681 0.42956105407568013 0 -0.0708836913324285 0.45273085842607269 0 -0.090582213275806372 0.43325937369158968 0 -0.0708836913324285 0.45273085842607269 0 -0.073349005429332273 0.47921852398434828 0 -0.0708836913324285 0.45273085842607269 0 -0.093805091172543903 0.47224368257650851 0 -0.1043361340672995 0.45358667135048331 0 -0.12052644250191399 0.4682622397032008 0 -0.093805091172543903 0.47224368257650851 0 -0.1104760497445479 0.43296770510105842 0 -0.090582213275806372 0.43325937369158968 0 -0.1043361340672995 0.45358667135048331 0 -0.12618187852634369 0.45882241462805679 0 -0.1043361340672995 0.45358667135048331 0 -0.1248743097581413 0.44162978393037222 0 -0.1104760497445479 0.43296770510105842 0 -0.1043361340672995 0.45358667135048331 0 -0.1248743097581413 0.44162978393037222 0 -0.12618187852634369 0.45882241462805679 0 -0.1043361340672995 0.45358667135048331 0 -0.12052644250191399 0.4682622397032008 0 -0.1317912103042716 0.47600940211286807 0 -0.12052644250191399 0.4682622397032008 0 -0.11642361318749669 0.48420448820259387 0 -0.12052644250191399 0.4682622397032008 0 -0.11642361318749669 0.48420448820259387 0 -0.093805091172543903 0.47224368257650851 0 -0.12543772684428189 0.5 0 -0.11642361318749669 0.48420448820259387 0 -0.096336958616933588 0.5 0 -0.12543772684428189 0.5 0 -0.13178312884530541 0.48627570230508688 0 -0.11642361318749669 0.48420448820259387 0 -0.11642361318749669 0.48420448820259387 0 -0.096336958616933588 0.5 0 -0.093805091172543903 0.47224368257650851 0 -0.1693268494853358 0.079538523923443544 0 -0.16945340910355561 0.089496265134995978 0 -0.1618062267740645 0.07958177760614682 0 -0.16945340910355561 0.089496265134995978 0 -0.1618062267740645 0.07958177760614682 0 -0.1616157516695074 0.095139316102685473 0 -0.1618062267740645 0.07958177760614682 0 -0.1616157516695074 0.095139316102685473 0 -0.14767322655010931 0.084806545451415583 0 -0.1618062267740645 0.07958177760614682 0 -0.16640070467345031 0.07104807823334372 0 -0.15517576509654349 0.068304766057398533 0 -0.16640070467345031 0.07104807823334372 0 -0.15517576509654349 0.068304766057398533 0 -0.16451238623864939 0.061110077383343737 0 -0.16640070467345031 0.07104807823334372 0 -0.17354141001077031 0.063798093567348918 0 -0.16451238623864939 0.061110077383343737 0 -0.17157411485926041 0.074087910936242465 0 -0.16640070467345031 0.07104807823334372 0 -0.17354141001077031 0.063798093567348918 0 -0.1693268494853358 0.079538523923443544 0 -0.17157411485926041 0.074087910936242465 0 -0.16640070467345031 0.07104807823334372 0 -0.1693268494853358 0.079538523923443544 0 -0.1618062267740645 0.07958177760614682 0 -0.16640070467345031 0.07104807823334372 0 -0.17354141001077031 0.063798093567348918 0 -0.17702749526748529 0.081966948020833708 0 -0.17656426821359539 0.052679136019797047 0 -0.18185637422210199 0.067243003367259677 0 -0.17702749526748529 0.081966948020833708 0 -0.17656426821359539 0.052679136019797047 0 -0.17702749526748529 0.081966948020833708 0 -0.17656426821359539 0.052679136019797047 0 -0.17157411485926041 0.074087910936242465 0 -0.17354141001077031 0.063798093567348918 0 -0.17702749526748529 0.081966948020833708 0 -0.18185637422210199 0.067243003367259677 0 -0.1853153676200878 0.058850167416455039 0 -0.18892740292417859 0.064703221589215376 0 -0.18185637422210199 0.067243003367259677 0 -0.19050021368002351 0.072419239531055349 0 -0.18892740292417859 0.064703221589215376 0 -0.18185637422210199 0.067243003367259677 0 -0.18141962227324601 0.075216957450553817 0 -0.17702749526748529 0.081966948020833708 0 -0.18185637422210199 0.067243003367259677 0 -0.18141962227324601 0.075216957450553817 0 -0.19050021368002351 0.072419239531055349 0 -0.18141962227324601 0.075216957450553817 0 -0.1867192510276118 0.077748512173410014 0 -0.19050021368002351 0.072419239531055349 0 -0.18141962227324601 0.075216957450553817 0 -0.1867192510276118 0.077748512173410014 0 -0.1819129998543452 0.079414551687582866 0 -0.18248563084903771 0.082725789105533951 0 -0.17702749526748529 0.081966948020833708 0 -0.17749072232138041 0.1112547600218704 0 -0.1867192510276118 0.077748512173410014 0 -0.18248563084903771 0.082725789105533951 0 -0.1819129998543452 0.079414551687582866 0 -0.18141962227324601 0.075216957450553817 0 -0.1819129998543452 0.079414551687582866 0 -0.17702749526748529 0.081966948020833708 0 -0.18248563084903771 0.082725789105533951 0 -0.1819129998543452 0.079414551687582866 0 -0.17702749526748529 0.081966948020833708 0 -0.1693268494853358 0.079538523923443544 0 -0.16945340910355561 0.089496265134995978 0 -0.17702749526748529 0.081966948020833708 0 -0.1693268494853358 0.079538523923443544 0 -0.17157411485926041 0.074087910936242465 0 -0.17702749526748529 0.081966948020833708 0 -0.17702749526748529 0.081966948020833708 0 -0.17749072232138041 0.1112547600218704 0 -0.16945340910355561 0.089496265134995978 0 -0.17702749526748529 0.081966948020833708 0 -0.17749072232138041 0.1112547600218704 0 -0.17749072232138041 0.1112547600218704 0 -0.1951643137470572 0.093770439387570487 0 -0.18248563084903771 0.082725789105533951 0 -0.17749072232138041 0.1112547600218704 0 -0.1951643137470572 0.093770439387570487 0 -0.17749072232138041 0.1112547600218704 0 -0.19150979458678249 0.1243728737611647 0 -0.17789558253256721 0.1368522929207025 0 -0.17749072232138041 0.1112547600218704 0 -0.17789558253256721 0.1368522929207025 0 -0.17749072232138041 0.1112547600218704 0 -0.16113979031376621 0.12743058591966341 0 -0.17749072232138041 0.1112547600218704 0 -0.15084139672814201 0.110160429760413 0 -0.16113979031376621 0.12743058591966341 0 -0.17749072232138041 0.1112547600218704 0 -0.1616157516695074 0.095139316102685473 0 -0.15084139672814201 0.110160429760413 0 -0.16945340910355561 0.089496265134995978 0 -0.17749072232138041 0.1112547600218704 0 -0.1616157516695074 0.095139316102685473 0 -0.1616157516695074 0.095139316102685473 0 -0.15084139672814201 0.110160429760413 0 -0.14767322655010931 0.084806545451415583 0 -0.15084139672814201 0.110160429760413 0 -0.1348328660863515 0.097215266237156234 0 -0.14767322655010931 0.084806545451415583 0 -0.15084139672814201 0.110160429760413 0 -0.13137241316615089 0.11357835761918721 0 -0.14300315410871919 0.1253406317882016 0 -0.15084139672814201 0.110160429760413 0 -0.16113979031376621 0.12743058591966341 0 -0.14300315410871919 0.1253406317882016 0 -0.13137241316615089 0.11357835761918721 0 -0.14300315410871919 0.1253406317882016 0 -0.12687331202938101 0.13192737382428379 0 -0.13137241316615089 0.11357835761918721 0 -0.1348328660863515 0.097215266237156234 0 -0.1198812247159142 0.095002477965890675 0 -0.15084139672814201 0.110160429760413 0 -0.13137241316615089 0.11357835761918721 0 -0.1348328660863515 0.097215266237156234 0 -0.1348328660863515 0.097215266237156234 0 -0.12533951967512769 0.078274991835817334 0 -0.1198812247159142 0.095002477965890675 0 -0.1348328660863515 0.097215266237156234 0 -0.12533951967512769 0.078274991835817334 0 -0.14767322655010931 0.084806545451415583 0 -0.1618062267740645 0.07958177760614682 0 -0.14767322655010931 0.084806545451415583 0 -0.15517576509654349 0.068304766057398533 0 -0.14767322655010931 0.084806545451415583 0 -0.15517576509654349 0.068304766057398533 0 -0.14001017723872511 0.063978020277280875 0 -0.12533951967512769 0.078274991835817334 0 -0.14767322655010931 0.084806545451415583 0 -0.14001017723872511 0.063978020277280875 0 -0.12533951967512769 0.078274991835817334 0 -0.14001017723872511 0.063978020277280875 0 -0.1248745965026067 0.059896082918310993 0 -0.14001017723872511 0.063978020277280875 0 -0.13626681081840961 0.042829268155062397 0 -0.1248745965026067 0.059896082918310993 0 -0.13626681081840961 0.042829268155062397 0 -0.1339340902388827 0.022300844741854581 0 -0.1180188049733784 0.030804183747700629 0 -0.13626681081840961 0.042829268155062397 0 -0.1339340902388827 0.022300844741854581 0 -0.15968783393996419 0.037567277286728401 0 -0.13626681081840961 0.042829268155062397 0 -0.15351002702878311 0.053877414325468623 0 -0.15968783393996419 0.037567277286728401 0 -0.13626681081840961 0.042829268155062397 0 -0.15968783393996419 0.037567277286728401 0 -0.14001017723872511 0.063978020277280875 0 -0.13626681081840961 0.042829268155062397 0 -0.15351002702878311 0.053877414325468623 0 -0.15517576509654349 0.068304766057398533 0 -0.14001017723872511 0.063978020277280875 0 -0.15351002702878311 0.053877414325468623 0 -0.12735709500343681 0.004015926865657337 0 -0.15177498865293759 0.016606981474429749 0 -0.12735709500343681 0.004015926865657337 0 -0.1339340902388827 0.022300844741854581 0 -0.15177498865293759 0.016606981474429749 0 -0.12735709500343681 0.004015926865657337 0 -0.1339340902388827 0.022300844741854581 0 -0.11835839359799651 0.016938700943610479 0 -0.1339340902388827 0.022300844741854581 0 -0.15177498865293759 0.016606981474429749 0 -0.15968783393996419 0.037567277286728401 0 -0.1339340902388827 0.022300844741854581 0 -0.15968783393996419 0.037567277286728401 0 -0.12735709500343681 0.004015926865657337 0 -0.15177498865293759 0.016606981474429749 0 -0.14801408494475049 0.0031182785745780331 0 -0.15177498865293759 0.016606981474429749 0 -0.14801408494475049 0.0031182785745780331 0 -0.1619193683370386 0.0066468078375689294 0 -0.15773416148281841 -0.0035868741371463562 0 -0.14801408494475049 0.0031182785745780331 0 -0.1619193683370386 0.0066468078375689294 0 -0.15177498865293759 0.016606981474429749 0 -0.1619193683370386 0.0066468078375689294 0 -0.16760309597538539 0.015861310899326669 0 -0.16716832075785379 -0.0032078365625175 0 -0.1619193683370386 0.0066468078375689294 0 -0.17584419881677341 0.0071523107965592754 0 -0.1619193683370386 0.0066468078375689294 0 -0.16760309597538539 0.015861310899326669 0 -0.17584419881677341 0.0071523107965592754 0 -0.15177498865293759 0.016606981474429749 0 -0.17619288230243149 0.029198036083215671 0 -0.15177498865293759 0.016606981474429749 0 -0.17619288230243149 0.029198036083215671 0 -0.15968783393996419 0.037567277286728401 0 -0.15177498865293759 0.016606981474429749 0 -0.16760309597538539 0.015861310899326669 0 -0.17619288230243149 0.029198036083215671 0 -0.17619288230243149 0.029198036083215671 0 -0.1852069371874478 0.015311100034367831 0 -0.17584419881677341 0.0071523107965592754 0 -0.17619288230243149 0.029198036083215671 0 -0.17584419881677341 0.0071523107965592754 0 -0.16760309597538539 0.015861310899326669 0 -0.17619288230243149 0.029198036083215671 0 -0.17584419881677341 0.0071523107965592754 0 -0.17619288230243149 0.029198036083215671 0 -0.19572946351785711 0.039272048382664133 0 -0.19029700863621521 0.024089069561314659 0 -0.17619288230243149 0.029198036083215671 0 -0.1852069371874478 0.015311100034367831 0 -0.19029700863621521 0.024089069561314659 0 -0.1852069371874478 0.015311100034367831 0 -0.18717715497560061 0.0062623078557712403 0 -0.17584419881677341 0.0071523107965592754 0 -0.18154179604087481 -0.0036104187285780349 0 -0.18717715497560061 0.0062623078557712403 0 -0.17584419881677341 0.0071523107965592754 0 -0.15351002702878311 0.053877414325468623 0 -0.1659033968134131 0.050269055427132232 0 -0.15968783393996419 0.037567277286728401 0 -0.1659033968134131 0.050269055427132232 0 -0.16451238623864939 0.061110077383343737 0 -0.17656426821359539 0.052679136019797047 0 -0.17354141001077031 0.063798093567348918 0 -0.16451238623864939 0.061110077383343737 0 -0.17656426821359539 0.052679136019797047 0 -0.16451238623864939 0.061110077383343737 0 -0.17656426821359539 0.052679136019797047 0 -0.15351002702878311 0.053877414325468623 0 -0.1659033968134131 0.050269055427132232 0 -0.16451238623864939 0.061110077383343737 0 -0.15517576509654349 0.068304766057398533 0 -0.15351002702878311 0.053877414325468623 0 -0.16451238623864939 0.061110077383343737 0 -0.15968783393996419 0.037567277286728401 0 -0.1762663423330757 0.033842591165095401 0 -0.1659033968134131 0.050269055427132232 0 -0.15968783393996419 0.037567277286728401 0 -0.1764827173319595 0.047523031967639129 0 -0.17619288230243149 0.029198036083215671 0 -0.15968783393996419 0.037567277286728401 0 -0.1762663423330757 0.033842591165095401 0 -0.15968783393996419 0.037567277286728401 0 -0.1764827173319595 0.047523031967639129 0 -0.15968783393996419 0.037567277286728401 0 -0.1762663423330757 0.033842591165095401 0 -0.1764827173319595 0.047523031967639129 0 -0.17619288230243149 0.029198036083215671 0 -0.19572946351785711 0.039272048382664133 0 -0.181281627628781 0.040827380692469641 0 -0.18051660755046151 0.049914261515807259 0 -0.1764827173319595 0.047523031967639129 0 -0.17619288230243149 0.029198036083215671 0 -0.1762663423330757 0.033842591165095401 0 -0.19572946351785711 0.039272048382664133 0 -0.1762663423330757 0.033842591165095401 0 -0.181281627628781 0.040827380692469641 0 -0.19572946351785711 0.039272048382664133 0 -0.1762663423330757 0.033842591165095401 0 -0.181281627628781 0.040827380692469641 0 -0.1764827173319595 0.047523031967639129 0 -0.1762663423330757 0.033842591165095401 0 -0.1764827173319595 0.047523031967639129 0 -0.17619288230243149 0.029198036083215671 0 -0.1762663423330757 0.033842591165095401 0 -0.181281627628781 0.040827380692469641 0 -0.18051660755046151 0.049914261515807259 0 -0.19572946351785711 0.039272048382664133 0 -0.18051660755046151 0.049914261515807259 0 -0.17656426821359539 0.052679136019797047 0 -0.1853153676200878 0.058850167416455039 0 -0.18051660755046151 0.049914261515807259 0 -0.1764827173319595 0.047523031967639129 0 -0.1764827173319595 0.047523031967639129 0 -0.17656426821359539 0.052679136019797047 0 -0.1659033968134131 0.050269055427132232 0 -0.1764827173319595 0.047523031967639129 0 -0.17656426821359539 0.052679136019797047 0 -0.18051660755046151 0.049914261515807259 0 -0.1764827173319595 0.047523031967639129 0 -0.17656426821359539 0.052679136019797047 0 -0.18051660755046151 0.049914261515807259 0 -0.17656426821359539 0.052679136019797047 0 -0.18185637422210199 0.067243003367259677 0 -0.17656426821359539 0.052679136019797047 0 -0.1853153676200878 0.058850167416455039 0 -0.1853153676200878 0.058850167416455039 0 -0.19803765617450109 0.060300476042091433 0 -0.18892740292417859 0.064703221589215376 0 -0.18051660755046151 0.049914261515807259 0 -0.19803765617450109 0.060300476042091433 0 -0.1977866825790292 0.05007637869738242 0 -0.18051660755046151 0.049914261515807259 0 -0.1853153676200878 0.058850167416455039 0 -0.19803765617450109 0.060300476042091433 0 -0.18051660755046151 0.049914261515807259 0 -0.19803765617450109 0.060300476042091433 0 -0.19803765617450109 0.060300476042091433 0 -0.1977866825790292 0.05007637869738242 0 -0.2066297839190599 0.054855205218219752 0 -0.18051660755046151 0.049914261515807259 0 -0.1977866825790292 0.05007637869738242 0 -0.19572946351785711 0.039272048382664133 0 -0.18051660755046151 0.049914261515807259 0 -0.19572946351785711 0.039272048382664133 0 -0.19572946351785711 0.039272048382664133 0 -0.2098237389609823 0.029412342647955388 0 -0.1977866825790292 0.05007637869738242 0 -0.19572946351785711 0.039272048382664133 0 -0.2073344650466164 0.045256152092875389 0 -0.19572946351785711 0.039272048382664133 0 -0.2073344650466164 0.045256152092875389 0 -0.2073344650466164 0.045256152092875389 0 -0.21702036639386221 0.038769314305699548 0 -0.2098237389609823 0.029412342647955388 0 -0.19572946351785711 0.039272048382664133 0 -0.2073344650466164 0.045256152092875389 0 -0.2098237389609823 0.029412342647955388 0 -0.21702036639386221 0.038769314305699548 0 -0.2098237389609823 0.029412342647955388 0 -0.2284051488343061 0.035137669629428533 0 -0.2073344650466164 0.045256152092875389 0 -0.21702036639386221 0.038769314305699548 0 -0.22251811273354419 0.045271092852538893 0 -0.2073344650466164 0.045256152092875389 0 -0.21769334509658461 0.055951218203848879 0 -0.22251811273354419 0.045271092852538893 0 -0.21769334509658461 0.055951218203848879 0 -0.20947987249717179 0.060448397508133619 0 -0.2066297839190599 0.054855205218219752 0 -0.21769334509658461 0.055951218203848879 0 -0.20947987249717179 0.060448397508133619 0 -0.2155587047985415 0.070686690568374386 0 -0.19803765617450109 0.060300476042091433 0 -0.20947987249717179 0.060448397508133619 0 -0.2066297839190599 0.054855205218219752 0 -0.1977866825790292 0.05007637869738242 0 -0.2073344650466164 0.045256152092875389 0 -0.2066297839190599 0.054855205218219752 0 -0.2073344650466164 0.045256152092875389 0 -0.21769334509658461 0.055951218203848879 0 -0.2066297839190599 0.054855205218219752 0 -0.1989264366345522 -0.0080023544535597537 0 -0.1965234412062255 0.0098537758749781944 0 -0.20713549204565579 6.5395444916274768e-05 0 -0.19066530249761049 -0.0041303576494283751 0 -0.18717715497560061 0.0062623078557712403 0 -0.1965234412062255 0.0098537758749781944 0 -0.1852069371874478 0.015311100034367831 0 -0.18717715497560061 0.0062623078557712403 0 -0.1965234412062255 0.0098537758749781944 0 -0.1965234412062255 0.0098537758749781944 0 -0.20113962024173071 0.02227838771243261 0 -0.2107847094499361 0.011405203725301251 0 -0.19572946351785711 0.039272048382664133 0 -0.20113962024173071 0.02227838771243261 0 -0.2098237389609823 0.029412342647955388 0 -0.19572946351785711 0.039272048382664133 0 -0.20113962024173071 0.02227838771243261 0 -0.19029700863621521 0.024089069561314659 0 -0.1965234412062255 0.0098537758749781944 0 -0.20113962024173071 0.02227838771243261 0 -0.19029700863621521 0.024089069561314659 0 -0.1852069371874478 0.015311100034367831 0 -0.1965234412062255 0.0098537758749781944 0 -0.19029700863621521 0.024089069561314659 0 -0.2098237389609823 0.029412342647955388 0 -0.2107847094499361 0.011405203725301251 0 -0.22391801440410891 0.019552636913248388 0 -0.20113962024173071 0.02227838771243261 0 -0.2098237389609823 0.029412342647955388 0 -0.2107847094499361 0.011405203725301251 0 -0.2098237389609823 0.029412342647955388 0 -0.22391801440410891 0.019552636913248388 0 -0.21702438745170211 -0.0043907958627755336 0 -0.2107847094499361 0.011405203725301251 0 -0.20713549204565579 6.5395444916274768e-05 0 -0.21702438745170211 -0.0043907958627755336 0 -0.2107847094499361 0.011405203725301251 0 -0.22391801440410891 0.019552636913248388 0 -0.1965234412062255 0.0098537758749781944 0 -0.2107847094499361 0.011405203725301251 0 -0.20713549204565579 6.5395444916274768e-05 0 -0.22867745033346079 0.0038692188645070222 0 -0.22391801440410891 0.019552636913248388 0 -0.2344599051246074 0.012178015861532989 0 -0.21702438745170211 -0.0043907958627755336 0 -0.22391801440410891 0.019552636913248388 0 -0.21702438745170211 -0.0043907958627755336 0 -0.22867745033346079 0.0038692188645070222 0 -0.22391801440410891 0.019552636913248388 0 -0.22391801440410891 0.019552636913248388 0 -0.2403792472176362 0.02548084658656756 0 -0.2344599051246074 0.012178015861532989 0 -0.2098237389609823 0.029412342647955388 0 -0.22391801440410891 0.019552636913248388 0 -0.2284051488343061 0.035137669629428533 0 -0.22391801440410891 0.019552636913248388 0 -0.2403792472176362 0.02548084658656756 0 -0.2284051488343061 0.035137669629428533 0 -0.22391801440410891 0.019552636913248388 0 -0.2344599051246074 0.012178015861532989 0 -0.22391801440410891 0.019552636913248388 0 -0.2284051488343061 0.035137669629428533 0 -0.2522816967992324 0.037264740289820159 0 -0.25157722050270093 0.012682655753942951 0 -0.2403792472176362 0.02548084658656756 0 -0.25157722050270093 0.012682655753942951 0 -0.2403792472176362 0.02548084658656756 0 -0.2344599051246074 0.012178015861532989 0 -0.25267499080189931 -0.0034516002120552492 0 -0.25157722050270093 0.012682655753942951 0 -0.2401015516947359 0.00075261550232862703 0 -0.25157722050270093 0.012682655753942951 0 -0.2344599051246074 0.012178015861532989 0 -0.2401015516947359 0.00075261550232862703 0 -0.22867745033346079 0.0038692188645070222 0 -0.2344599051246074 0.012178015861532989 0 -0.2401015516947359 0.00075261550232862703 0 -0.21769334509658461 0.055951218203848879 0 -0.23255980098598539 0.056775429521547523 0 -0.2155587047985415 0.070686690568374386 0 -0.23289228326450309 0.050722702345608793 0 -0.22641588552015429 0.052180110730886013 0 -0.22251811273354419 0.045271092852538893 0 -0.23289228326450309 0.050722702345608793 0 -0.23255980098598539 0.056775429521547523 0 -0.22641588552015429 0.052180110730886013 0 -0.21769334509658461 0.055951218203848879 0 -0.23255980098598539 0.056775429521547523 0 -0.22641588552015429 0.052180110730886013 0 -0.21769334509658461 0.055951218203848879 0 -0.22641588552015429 0.052180110730886013 0 -0.22251811273354419 0.045271092852538893 0 -0.21702036639386221 0.038769314305699548 0 -0.22251811273354419 0.045271092852538893 0 -0.2284051488343061 0.035137669629428533 0 -0.23289228326450309 0.050722702345608793 0 -0.22251811273354419 0.045271092852538893 0 -0.2284051488343061 0.035137669629428533 0 -0.23289228326450309 0.050722702345608793 0 -0.2284051488343061 0.035137669629428533 0 -0.2522816967992324 0.037264740289820159 0 -0.2403792472176362 0.02548084658656756 0 -0.2284051488343061 0.035137669629428533 0 -0.2522816967992324 0.037264740289820159 0 -0.23289228326450309 0.050722702345608793 0 -0.2284051488343061 0.035137669629428533 0 -0.2522816967992324 0.037264740289820159 0 -0.23289228326450309 0.050722702345608793 0 -0.23255980098598539 0.056775429521547523 0 -0.2522816967992324 0.037264740289820159 0 -0.23255980098598539 0.056775429521547523 0 -0.2522816967992324 0.037264740289820159 0 -0.23255980098598539 0.056775429521547523 0 -0.24906194248509719 0.058488871325365822 0 -0.23255980098598539 0.056775429521547523 0 -0.24906194248509719 0.058488871325365822 0 -0.23770452364983391 0.071010308971772351 0 -0.26257114212692878 0.06573449919026883 0 -0.24906194248509719 0.058488871325365822 0 -0.23770452364983391 0.071010308971772351 0 -0.25261226255175379 0.080423606239198905 0 -0.23770452364983391 0.071010308971772351 0 -0.23158356521460469 0.085326977986282804 0 -0.25261226255175379 0.080423606239198905 0 -0.23158356521460469 0.085326977986282804 0 -0.24377998071086901 0.096378574065869249 0 -0.23158356521460469 0.085326977986282804 0 -0.21283790517273879 0.076286118753275345 0 -0.22135706029896429 0.097751395037259853 0 -0.23158356521460469 0.085326977986282804 0 -0.22135706029896429 0.097751395037259853 0 -0.24377998071086901 0.096378574065869249 0 -0.23255980098598539 0.056775429521547523 0 -0.21283790517273879 0.076286118753275345 0 -0.23770452364983391 0.071010308971772351 0 -0.23158356521460469 0.085326977986282804 0 -0.21283790517273879 0.076286118753275345 0 -0.23255980098598539 0.056775429521547523 0 -0.23770452364983391 0.071010308971772351 0 -0.21283790517273879 0.076286118753275345 0 -0.23255980098598539 0.056775429521547523 0 -0.21283790517273879 0.076286118753275345 0 -0.2155587047985415 0.070686690568374386 0 -0.23770452364983391 0.071010308971772351 0 -0.21283790517273879 0.076286118753275345 0 -0.19803765617450109 0.060300476042091433 0 -0.20947987249717179 0.060448397508133619 0 -0.2155587047985415 0.070686690568374386 0 -0.19803765617450109 0.060300476042091433 0 -0.20333782300263301 0.070680183335342567 0 -0.2155587047985415 0.070686690568374386 0 -0.19803765617450109 0.060300476042091433 0 -0.2155587047985415 0.070686690568374386 0 -0.21283790517273879 0.076286118753275345 0 -0.19766176801088831 0.079505953929404904 0 -0.20333782300263301 0.070680183335342567 0 -0.21283790517273879 0.076286118753275345 0 -0.19766176801088831 0.079505953929404904 0 -0.20333782300263301 0.070680183335342567 0 -0.21283790517273879 0.076286118753275345 0 -0.2155587047985415 0.070686690568374386 0 -0.21283790517273879 0.076286118753275345 0 -0.1951643137470572 0.093770439387570487 0 -0.22135706029896429 0.097751395037259853 0 -0.21283790517273879 0.076286118753275345 0 -0.1951643137470572 0.093770439387570487 0 -0.21283790517273879 0.076286118753275345 0 -0.19766176801088831 0.079505953929404904 0 -0.1951643137470572 0.093770439387570487 0 -0.18248563084903771 0.082725789105533951 0 -0.19766176801088831 0.079505953929404904 0 -0.1951643137470572 0.093770439387570487 0 -0.1867192510276118 0.077748512173410014 0 -0.18248563084903771 0.082725789105533951 0 -0.19766176801088831 0.079505953929404904 0 -0.18248563084903771 0.082725789105533951 0 -0.19766176801088831 0.079505953929404904 0 -0.1867192510276118 0.077748512173410014 0 -0.19766176801088831 0.079505953929404904 0 -0.19050021368002351 0.072419239531055349 0 -0.19803765617450109 0.060300476042091433 0 -0.19050021368002351 0.072419239531055349 0 -0.18892740292417859 0.064703221589215376 0 -0.19803765617450109 0.060300476042091433 0 -0.20333782300263301 0.070680183335342567 0 -0.19050021368002351 0.072419239531055349 0 -0.20333782300263301 0.070680183335342567 0 -0.19766176801088831 0.079505953929404904 0 -0.19050021368002351 0.072419239531055349 0 -0.17749072232138041 0.1112547600218704 0 -0.19150979458678249 0.1243728737611647 0 -0.1951643137470572 0.093770439387570487 0 -0.19150979458678249 0.1243728737611647 0 -0.1951643137470572 0.093770439387570487 0 -0.20994497012605751 0.11823125198409511 0 -0.1951643137470572 0.093770439387570487 0 -0.20994497012605751 0.11823125198409511 0 -0.22135706029896429 0.097751395037259853 0 -0.20994497012605751 0.11823125198409511 0 -0.2348316268224595 0.11651500804646669 0 -0.2235388627286797 0.12965651036182041 0 -0.20994497012605751 0.11823125198409511 0 -0.22135706029896429 0.097751395037259853 0 -0.2348316268224595 0.11651500804646669 0 -0.22135706029896429 0.097751395037259853 0 -0.24377998071086901 0.096378574065869249 0 -0.2348316268224595 0.11651500804646669 0 -0.25136603029008331 0.1103208693098497 0 -0.24377998071086901 0.096378574065869249 0 -0.2348316268224595 0.11651500804646669 0 -0.25922316449870308 0.12628093809151891 0 -0.25136603029008331 0.1103208693098497 0 -0.2348316268224595 0.11651500804646669 0 -0.25922316449870308 0.12628093809151891 0 -0.2348316268224595 0.11651500804646669 0 -0.2369615480924761 0.1404602413506009 0 -0.2369615480924761 0.1404602413506009 0 -0.2235388627286797 0.12965651036182041 0 -0.2124173058737257 0.14341954006611901 0 -0.2348316268224595 0.11651500804646669 0 -0.2369615480924761 0.1404602413506009 0 -0.2235388627286797 0.12965651036182041 0 -0.2369615480924761 0.1404602413506009 0 -0.22679867445049531 0.16064067306310431 0 -0.2124173058737257 0.14341954006611901 0 -0.2369615480924761 0.1404602413506009 0 -0.247018622616726 0.15992587597476091 0 -0.22679867445049531 0.16064067306310431 0 -0.25846103874104392 0.14702121199507179 0 -0.2369615480924761 0.1404602413506009 0 -0.247018622616726 0.15992587597476091 0 -0.247018622616726 0.15992587597476091 0 -0.23359887481107691 0.1809086922627815 0 -0.247018622616726 0.15992587597476091 0 -0.23359887481107691 0.1809086922627815 0 -0.22679867445049531 0.16064067306310431 0 -0.26439180367967152 0.18225540552070321 0 -0.247018622616726 0.15992587597476091 0 -0.23359887481107691 0.1809086922627815 0 -0.23359887481107691 0.1809086922627815 0 -0.20517995294037331 0.17379218369948349 0 -0.2201791270054278 0.2018915085508021 0 -0.23359887481107691 0.1809086922627815 0 -0.22679867445049531 0.16064067306310431 0 -0.20517995294037331 0.17379218369948349 0 -0.22679867445049531 0.16064067306310431 0 -0.20517995294037331 0.17379218369948349 0 -0.2124173058737257 0.14341954006611901 0 -0.20517995294037331 0.17379218369948349 0 -0.19274338499996449 0.14807478539393409 0 -0.17830044274374979 0.16244982581953471 0 -0.19150979458678249 0.1243728737611647 0 -0.19274338499996449 0.14807478539393409 0 -0.2124173058737257 0.14341954006611901 0 -0.20994497012605751 0.11823125198409511 0 -0.2235388627286797 0.12965651036182041 0 -0.2124173058737257 0.14341954006611901 0 -0.19150979458678249 0.1243728737611647 0 -0.20994497012605751 0.11823125198409511 0 -0.2124173058737257 0.14341954006611901 0 -0.20517995294037331 0.17379218369948349 0 -0.19274338499996449 0.14807478539393409 0 -0.2124173058737257 0.14341954006611901 0 -0.22371849106378741 0.2462845034026982 0 -0.23019370483249479 0.22382880503591951 0 -0.2066863838603582 0.24242880758937649 0 -0.22371849106378741 0.2462845034026982 0 -0.23951274761537589 0.2474853768326048 0 -0.23019370483249479 0.22382880503591951 0 -0.25272375818517617 0.22994970808158929 0 -0.25621817608628389 0.2460965770837312 0 -0.23951274761537589 0.2474853768326048 0 -0.25370102580463139 0.2052288024824625 0 -0.25272375818517617 0.22994970808158929 0 -0.23019370483249479 0.22382880503591951 0 -0.25272375818517617 0.22994970808158929 0 -0.23951274761537589 0.2474853768326048 0 -0.23019370483249479 0.22382880503591951 0 -0.25370102580463139 0.2052288024824625 0 -0.23359887481107691 0.1809086922627815 0 -0.2201791270054278 0.2018915085508021 0 -0.25370102580463139 0.2052288024824625 0 -0.23019370483249479 0.22382880503591951 0 -0.2201791270054278 0.2018915085508021 0 -0.23019370483249479 0.22382880503591951 0 -0.2201791270054278 0.2018915085508021 0 -0.20675937919977869 0.22287432483882261 0 -0.25370102580463139 0.2052288024824625 0 -0.23019370483249479 0.22382880503591951 0 -0.23359887481107691 0.1809086922627815 0 -0.2201791270054278 0.2018915085508021 0 -0.20517995294037331 0.17379218369948349 0 -0.2201791270054278 0.2018915085508021 0 -0.19686056424972551 0.20437535499954981 0 -0.20517995294037331 0.17379218369948349 0 -0.19686056424972551 0.20437535499954981 0 -0.17870530295493239 0.18804735871836689 0 -0.19686056424972551 0.20437535499954981 0 -0.20675937919977869 0.22287432483882261 0 -0.19122946023172571 0.22600186257262461 0 -0.19686056424972551 0.20437535499954981 0 -0.19122946023172571 0.22600186257262461 0 -0.179110163166115 0.21364489161719899 0 -0.2201791270054278 0.2018915085508021 0 -0.19686056424972551 0.20437535499954981 0 -0.20675937919977869 0.22287432483882261 0 -0.2201791270054278 0.2018915085508021 0 -0.20675937919977869 0.22287432483882261 0 -0.23019370483249479 0.22382880503591951 0 -0.2066863838603582 0.24242880758937649 0 -0.23019370483249479 0.22382880503591951 0 -0.20675937919977869 0.22287432483882261 0 -0.2066863838603582 0.24242880758937649 0 -0.20675937919977869 0.22287432483882261 0 -0.19333963139412971 0.24385714112684301 0 -0.20675937919977869 0.22287432483882261 0 -0.19122946023172571 0.22600186257262461 0 -0.19333963139412971 0.24385714112684301 0 -0.19122946023172571 0.22600186257262461 0 -0.19333963139412971 0.24385714112684301 0 -0.17951502337729761 0.2392424245160312 0 -0.20675937919977869 0.22287432483882261 0 -0.19333963139412971 0.24385714112684301 0 -0.2066863838603582 0.24242880758937649 0 -0.18259587964237009 0.2606558300825601 0 -0.19333963139412971 0.24385714112684301 0 -0.2066863838603582 0.24242880758937649 0 -0.21408768962570049 0.25938306782852782 0 -0.22371849106378741 0.2462845034026982 0 -0.2066863838603582 0.24242880758937649 0 -0.1532221513837192 0.25419418888983192 0 -0.17951502337729761 0.2392424245160312 0 -0.15110003921584569 0.22881829817408891 0 -0.18259587964237009 0.2606558300825601 0 -0.19333963139412971 0.24385714112684301 0 -0.17951502337729761 0.2392424245160312 0 -0.17951502337729761 0.2392424245160312 0 -0.1619547442009632 0.2162214427956837 0 -0.179110163166115 0.21364489161719899 0 -0.19122946023172571 0.22600186257262461 0 -0.17951502337729761 0.2392424245160312 0 -0.179110163166115 0.21364489161719899 0 -0.17951502337729761 0.2392424245160312 0 -0.179110163166115 0.21364489161719899 0 -0.17951502337729761 0.2392424245160312 0 -0.1619547442009632 0.2162214427956837 0 -0.15110003921584569 0.22881829817408891 0 -0.1619547442009632 0.2162214427956837 0 -0.179110163166115 0.21364489161719899 0 -0.17870530295493239 0.18804735871836689 0 -0.19686056424972551 0.20437535499954981 0 -0.179110163166115 0.21364489161719899 0 -0.17870530295493239 0.18804735871836689 0 -0.179110163166115 0.21364489161719899 0 -0.17870530295493239 0.18804735871836689 0 -0.1619547442009632 0.2162214427956837 0 -0.17870530295493239 0.18804735871836689 0 -0.15775407484820861 0.18727827749961631 0 -0.14804225966403101 0.20585853828705919 0 -0.15775407484820861 0.18727827749961631 0 -0.13876353146598761 0.18223131465273959 0 -0.1619547442009632 0.2162214427956837 0 -0.14804225966403101 0.20585853828705919 0 -0.15775407484820861 0.18727827749961631 0 -0.13876353146598761 0.18223131465273959 0 -0.1245765098090509 0.17966052017845999 0 -0.1190175871807343 0.20067046473278771 0 -0.14804225966403101 0.20585853828705919 0 -0.13876353146598761 0.18223131465273959 0 -0.1190175871807343 0.20067046473278771 0 -0.14804225966403101 0.20585853828705919 0 -0.13479108425045189 0.2189379304695287 0 -0.1190175871807343 0.20067046473278771 0 -0.13479108425045189 0.2189379304695287 0 -0.12594818007053379 0.2253828658525201 0 -0.1190175871807343 0.20067046473278771 0 -0.1619547442009632 0.2162214427956837 0 -0.14804225966403101 0.20585853828705919 0 -0.15110003921584569 0.22881829817408891 0 -0.14804225966403101 0.20585853828705919 0 -0.15110003921584569 0.22881829817408891 0 -0.13479108425045189 0.2189379304695287 0 -0.15110003921584569 0.22881829817408891 0 -0.13479108425045189 0.2189379304695287 0 -0.1378537507735782 0.22769286600650679 0 -0.15110003921584569 0.22881829817408891 0 -0.1378537507735782 0.22769286600650679 0 -0.13827307027013019 0.2362506378269415 0 -0.13479108425045189 0.2189379304695287 0 -0.12594818007053379 0.2253828658525201 0 -0.1378537507735782 0.22769286600650679 0 -0.12594818007053379 0.2253828658525201 0 -0.1378537507735782 0.22769286600650679 0 -0.13827307027013019 0.2362506378269415 0 -0.12594818007053379 0.2253828658525201 0 -0.13827307027013019 0.2362506378269415 0 -0.1327712538659816 0.24971188635390451 0 -0.12594818007053379 0.2253828658525201 0 -0.1327712538659816 0.24971188635390451 0 -0.1532221513837192 0.25419418888983192 0 -0.15110003921584569 0.22881829817408891 0 -0.13827307027013019 0.2362506378269415 0 -0.1532221513837192 0.25419418888983192 0 -0.13827307027013019 0.2362506378269415 0 -0.1327712538659816 0.24971188635390451 0 -0.16317411874061041 0.14897554401654969 0 -0.16113979031376621 0.12743058591966341 0 -0.1447888583061562 0.1436064118174607 0 -0.16317411874061041 0.14897554401654969 0 -0.16113979031376621 0.12743058591966341 0 -0.17789558253256721 0.1368522929207025 0 -0.17749072232138041 0.1112547600218704 0 -0.16113979031376621 0.12743058591966341 0 -0.17789558253256721 0.1368522929207025 0 -0.19150979458678249 0.1243728737611647 0 -0.19274338499996449 0.14807478539393409 0 -0.17789558253256721 0.1368522929207025 0 -0.16317411874061041 0.14897554401654969 0 -0.17789558253256721 0.1368522929207025 0 -0.17830044274374979 0.16244982581953471 0 -0.17789558253256721 0.1368522929207025 0 -0.17830044274374979 0.16244982581953471 0 -0.19274338499996449 0.14807478539393409 0 -0.17789558253256721 0.1368522929207025 0 -0.17830044274374979 0.16244982581953471 0 -0.20517995294037331 0.17379218369948349 0 -0.17870530295493239 0.18804735871836689 0 -0.17830044274374979 0.16244982581953471 0 -0.17870530295493239 0.18804735871836689 0 -0.17830044274374979 0.16244982581953471 0 -0.17870530295493239 0.18804735871836689 0 -0.17830044274374979 0.16244982581953471 0 -0.15775407484820861 0.18727827749961631 0 -0.17830044274374979 0.16244982581953471 0 -0.15775407484820861 0.18727827749961631 0 -0.15245232938168229 0.1648839185887534 0 -0.16317411874061041 0.14897554401654969 0 -0.17830044274374979 0.16244982581953471 0 -0.15245232938168229 0.1648839185887534 0 -0.15775407484820861 0.18727827749961631 0 -0.15245232938168229 0.1648839185887534 0 -0.13876353146598761 0.18223131465273959 0 -0.13876353146598761 0.18223131465273959 0 -0.12843792629854631 0.15978223771525801 0 -0.1245765098090509 0.17966052017845999 0 -0.15245232938168229 0.1648839185887534 0 -0.13876353146598761 0.18223131465273959 0 -0.12843792629854631 0.15978223771525801 0 -0.12843792629854631 0.15978223771525801 0 -0.1447888583061562 0.1436064118174607 0 -0.12843792629854631 0.15978223771525801 0 -0.1447888583061562 0.1436064118174607 0 -0.1204435081575875 0.14623213693654391 0 -0.16317411874061041 0.14897554401654969 0 -0.15245232938168229 0.1648839185887534 0 -0.1447888583061562 0.1436064118174607 0 -0.15245232938168229 0.1648839185887534 0 -0.12843792629854631 0.15978223771525801 0 -0.1447888583061562 0.1436064118174607 0 -0.16113979031376621 0.12743058591966341 0 -0.1447888583061562 0.1436064118174607 0 -0.14300315410871919 0.1253406317882016 0 -0.16113979031376621 0.12743058591966341 0 -0.1447888583061562 0.1436064118174607 0 -0.1447888583061562 0.1436064118174607 0 -0.12687331202938101 0.13192737382428379 0 -0.1204435081575875 0.14623213693654391 0 -0.1447888583061562 0.1436064118174607 0 -0.14300315410871919 0.1253406317882016 0 -0.12687331202938101 0.13192737382428379 0 -0.12687331202938101 0.13192737382428379 0 -0.1130049083687871 0.13722853083192951 0 -0.10667563132183119 0.1260080396076822 0 -0.12687331202938101 0.13192737382428379 0 -0.1130049083687871 0.13722853083192951 0 -0.1204435081575875 0.14623213693654391 0 -0.10667563132183119 0.1260080396076822 0 -0.081978849477511453 0.1384377215961772 0 -0.096577670607123245 0.1239972751083621 0 -0.10667563132183119 0.1260080396076822 0 -0.1008242758955458 0.1385116675773613 0 -0.081978849477511453 0.1384377215961772 0 -0.10667563132183119 0.1260080396076822 0 -0.081978849477511453 0.1384377215961772 0 -0.1130049083687871 0.13722853083192951 0 -0.10667563132183119 0.1260080396076822 0 -0.1008242758955458 0.1385116675773613 0 -0.1130049083687871 0.13722853083192951 0 -0.1008242758955458 0.1385116675773613 0 -0.1078791741402548 0.14587794917826699 0 -0.094422293866394627 0.1556947047027778 0 -0.094582816169344081 0.14500609667275041 0 -0.1078791741402548 0.14587794917826699 0 -0.1008242758955458 0.1385116675773613 0 -0.094582816169344081 0.14500609667275041 0 -0.1078791741402548 0.14587794917826699 0 -0.12843792629854631 0.15978223771525801 0 -0.1204435081575875 0.14623213693654391 0 -0.1073217141416921 0.15896651377475199 0 -0.1078791741402548 0.14587794917826699 0 -0.1204435081575875 0.14623213693654391 0 -0.1073217141416921 0.15896651377475199 0 -0.1130049083687871 0.13722853083192951 0 -0.1078791741402548 0.14587794917826699 0 -0.1204435081575875 0.14623213693654391 0 -0.12843792629854631 0.15978223771525801 0 -0.1245765098090509 0.17966052017845999 0 -0.1120869942909358 0.17595806361305491 0 -0.1120869942909358 0.17595806361305491 0 -0.1073217141416921 0.15896651377475199 0 -0.12843792629854631 0.15978223771525801 0 -0.1120869942909358 0.17595806361305491 0 -0.12843792629854631 0.15978223771525801 0 -0.1120869942909358 0.17595806361305491 0 -0.1073217141416921 0.15896651377475199 0 -0.1245765098090509 0.17966052017845999 0 -0.1120869942909358 0.17595806361305491 0 -0.1190175871807343 0.20067046473278771 0 -0.1120869942909358 0.17595806361305491 0 -0.1020860412129876 0.1687304780430319 0 -0.095149617161195271 0.19271405424946009 0 -0.1020860412129876 0.1687304780430319 0 -0.095149617161195271 0.19271405424946009 0 -0.1120869942909358 0.17595806361305491 0 -0.095149617161195271 0.19271405424946009 0 -0.1020860412129876 0.1687304780430319 0 -0.093279947424905002 0.17994671451597891 0 -0.095149617161195271 0.19271405424946009 0 -0.1020860412129876 0.1687304780430319 0 -0.089956478385260899 0.16811851343374709 0 -0.093279947424905002 0.17994671451597891 0 -0.094422293866394627 0.1556947047027778 0 -0.1078791741402548 0.14587794917826699 0 -0.1020860412129876 0.1687304780430319 0 -0.1078791741402548 0.14587794917826699 0 -0.1073217141416921 0.15896651377475199 0 -0.1020860412129876 0.1687304780430319 0 -0.1120869942909358 0.17595806361305491 0 -0.1073217141416921 0.15896651377475199 0 -0.1020860412129876 0.1687304780430319 0 -0.1078791741402548 0.14587794917826699 0 -0.1020860412129876 0.1687304780430319 0 -0.094422293866394627 0.1556947047027778 0 -0.1020860412129876 0.1687304780430319 0 -0.089956478385260899 0.16811851343374709 0 -0.094422293866394627 0.1556947047027778 0 -0.089956478385260899 0.16811851343374709 0 -0.084742563178951485 0.15922574422532609 0 -0.089956478385260899 0.16811851343374709 0 -0.080023232193096983 0.1657260639694961 0 -0.084742563178951485 0.15922574422532609 0 -0.089956478385260899 0.16811851343374709 0 -0.080023232193096983 0.1657260639694961 0 -0.081293191825158789 0.17801619480298669 0 -0.080023232193096983 0.1657260639694961 0 -0.084742563178951485 0.15922574422532609 0 -0.074930767296401246 0.15918989644816289 0 -0.081293191825158789 0.17801619480298669 0 -0.095149617161195271 0.19271405424946009 0 -0.073474196407973841 0.19079473501472519 0 -0.081293191825158789 0.17801619480298669 0 -0.095149617161195271 0.19271405424946009 0 -0.093279947424905002 0.17994671451597891 0 -0.081293191825158789 0.17801619480298669 0 -0.095149617161195271 0.19271405424946009 0 -0.089956478385260899 0.16811851343374709 0 -0.093279947424905002 0.17994671451597891 0 -0.081293191825158789 0.17801619480298669 0 -0.064604308801312821 0.18244611143699499 0 -0.069549912031587807 0.17131438064227461 0 -0.073474196407973841 0.19079473501472519 0 -0.081293191825158789 0.17801619480298669 0 -0.069549912031587807 0.17131438064227461 0 -0.073474196407973841 0.19079473501472519 0 -0.069549912031587807 0.17131438064227461 0 -0.073474196407973841 0.19079473501472519 0 -0.064604308801312821 0.18244611143699499 0 -0.069549912031587807 0.17131438064227461 0 -0.062041409668937363 0.1723934095439342 0 -0.084742563178951485 0.15922574422532609 0 -0.074930767296401246 0.15918989644816289 0 -0.074588176879671189 0.15080810715310269 0 -0.080023232193096983 0.1657260639694961 0 -0.074930767296401246 0.15918989644816289 0 -0.06743676648912228 0.16331833535651319 0 -0.081293191825158789 0.17801619480298669 0 -0.069549912031587807 0.17131438064227461 0 -0.06743676648912228 0.16331833535651319 0 -0.080023232193096983 0.1657260639694961 0 -0.081293191825158789 0.17801619480298669 0 -0.06743676648912228 0.16331833535651319 0 -0.081293191825158789 0.17801619480298669 0 -0.06743676648912228 0.16331833535651319 0 -0.069549912031587807 0.17131438064227461 0 -0.062031688412593149 0.16441565219234799 0 -0.062041409668937363 0.1723934095439342 0 -0.069549912031587807 0.17131438064227461 0 -0.06743676648912228 0.16331833535651319 0 -0.062031688412593149 0.16441565219234799 0 -0.06743676648912228 0.16331833535651319 0 -0.06725389334219653 0.15771987894696021 0 -0.062031688412593149 0.16441565219234799 0 -0.074930767296401246 0.15918989644816289 0 -0.06743676648912228 0.16331833535651319 0 -0.06725389334219653 0.15771987894696021 0 -0.081978849477511453 0.1384377215961772 0 -0.05728206763319247 0.1508674035846734 0 -0.06725389334219653 0.15771987894696021 0 -0.074588176879671189 0.15080810715310269 0 -0.05728206763319247 0.1508674035846734 0 -0.074588176879671189 0.15080810715310269 0 -0.081978849477511453 0.1384377215961772 0 -0.05728206763319247 0.1508674035846734 0 -0.081978849477511453 0.1384377215961772 0 -0.06070043620975589 0.134524720015781 0 -0.05728206763319247 0.1508674035846734 0 -0.074930767296401246 0.15918989644816289 0 -0.06725389334219653 0.15771987894696021 0 -0.074588176879671189 0.15080810715310269 0 -0.071786582042575819 0.1280585334591178 0 -0.081978849477511453 0.1384377215961772 0 -0.08034823769671974 0.121089655777625 0 -0.071786582042575819 0.1280585334591178 0 -0.081978849477511453 0.1384377215961772 0 -0.06070043620975589 0.134524720015781 0 -0.071786582042575819 0.1280585334591178 0 -0.06070043620975589 0.134524720015781 0 -0.06411880478631618 0.11818203644688791 0 -0.081978849477511453 0.1384377215961772 0 -0.08034823769671974 0.121089655777625 0 -0.096577670607123245 0.1239972751083621 0 -0.1008242758955458 0.1385116675773613 0 -0.094582816169344081 0.14500609667275041 0 -0.081978849477511453 0.1384377215961772 0 -0.094582816169344081 0.14500609667275041 0 -0.081978849477511453 0.1384377215961772 0 -0.0854808471676783 0.14892295327365951 0 -0.094422293866394627 0.1556947047027778 0 -0.084742563178951485 0.15922574422532609 0 -0.0854808471676783 0.14892295327365951 0 -0.094422293866394627 0.1556947047027778 0 -0.094582816169344081 0.14500609667275041 0 -0.0854808471676783 0.14892295327365951 0 -0.084742563178951485 0.15922574422532609 0 -0.074588176879671189 0.15080810715310269 0 -0.0854808471676783 0.14892295327365951 0 -0.074588176879671189 0.15080810715310269 0 -0.081978849477511453 0.1384377215961772 0 -0.0854808471676783 0.14892295327365951 0 -0.1045487088169635 0.24438495162540061 0 -0.11455994162881621 0.23631135170566109 0 -0.098826177075254387 0.23394696074010041 0 -0.10005120432924321 0.25626016583208688 0 -0.094679029848152713 0.24609146959404629 0 -0.1045487088169635 0.24438495162540061 0 -0.094679029848152713 0.24609146959404629 0 -0.1045487088169635 0.24438495162540061 0 -0.098826177075254387 0.23394696074010041 0 -0.116744543106582 0.25728181003509248 0 -0.1045487088169635 0.24438495162540061 0 -0.11455994162881621 0.23631135170566109 0 -0.116744543106582 0.25728181003509248 0 -0.1327712538659816 0.24971188635390451 0 -0.11455994162881621 0.23631135170566109 0 -0.12594818007053379 0.2253828658525201 0 -0.1327712538659816 0.24971188635390451 0 -0.11455994162881621 0.23631135170566109 0 -0.11455994162881621 0.23631135170566109 0 -0.1144435087069731 0.2232582902708152 0 -0.1063794885369051 0.22193246116811141 0 -0.12594818007053379 0.2253828658525201 0 -0.1144435087069731 0.2232582902708152 0 -0.1108864245916369 0.20940648235696879 0 -0.12594818007053379 0.2253828658525201 0 -0.11455994162881621 0.23631135170566109 0 -0.1144435087069731 0.2232582902708152 0 -0.11455994162881621 0.23631135170566109 0 -0.1063794885369051 0.22193246116811141 0 -0.098826177075254387 0.23394696074010041 0 -0.1063794885369051 0.22193246116811141 0 -0.098826177075254387 0.23394696074010041 0 -0.089950704149474564 0.21660149084549701 0 -0.1063794885369051 0.22193246116811141 0 -0.089950704149474564 0.21660149084549701 0 -0.10053720550511509 0.21148400771379949 0 -0.095149617161195271 0.19271405424946009 0 -0.089950704149474564 0.21660149084549701 0 -0.1063794885369051 0.22193246116811141 0 -0.10053720550511509 0.21148400771379949 0 -0.089950704149474564 0.21660149084549701 0 -0.10053720550511509 0.21148400771379949 0 -0.1108864245916369 0.20940648235696879 0 -0.095149617161195271 0.19271405424946009 0 -0.1063794885369051 0.22193246116811141 0 -0.10053720550511509 0.21148400771379949 0 -0.1108864245916369 0.20940648235696879 0 -0.12594818007053379 0.2253828658525201 0 -0.1190175871807343 0.20067046473278771 0 -0.12594818007053379 0.2253828658525201 0 -0.1108864245916369 0.20940648235696879 0 -0.1190175871807343 0.20067046473278771 0 -0.12594818007053379 0.2253828658525201 0 -0.1108864245916369 0.20940648235696879 0 -0.1144435087069731 0.2232582902708152 0 -0.1063794885369051 0.22193246116811141 0 -0.1108864245916369 0.20940648235696879 0 -0.1120869942909358 0.17595806361305491 0 -0.1190175871807343 0.20067046473278771 0 -0.1108864245916369 0.20940648235696879 0 -0.1190175871807343 0.20067046473278771 0 -0.10682171669235439 0.1942096232944058 0 -0.1120869942909358 0.17595806361305491 0 -0.1190175871807343 0.20067046473278771 0 -0.10682171669235439 0.1942096232944058 0 -0.1108864245916369 0.20940648235696879 0 -0.095149617161195271 0.19271405424946009 0 -0.1108864245916369 0.20940648235696879 0 -0.10682171669235439 0.1942096232944058 0 -0.095149617161195271 0.19271405424946009 0 -0.1120869942909358 0.17595806361305491 0 -0.10682171669235439 0.1942096232944058 0 -0.095149617161195271 0.19271405424946009 0 -0.095149617161195271 0.19271405424946009 0 -0.077398480784349299 0.2102750893871779 0 -0.095149617161195271 0.19271405424946009 0 -0.073474196407973841 0.19079473501472519 0 -0.077398480784349299 0.2102750893871779 0 -0.095149617161195271 0.19271405424946009 0 -0.077398480784349299 0.2102750893871779 0 -0.087241526055590657 0.20514135106535239 0 -0.073474196407973841 0.19079473501472519 0 -0.077398480784349299 0.2102750893871779 0 -0.073474196407973841 0.19079473501472519 0 -0.077398480784349299 0.2102750893871779 0 -0.068984895145132993 0.20348567813270921 0 -0.064604308801312821 0.18244611143699499 0 -0.073474196407973841 0.19079473501472519 0 -0.062951628171730722 0.19451437844324071 0 -0.073474196407973841 0.19079473501472519 0 -0.062951628171730722 0.19451437844324071 0 -0.068984895145132993 0.20348567813270921 0 -0.062951628171730722 0.19451437844324071 0 -0.068984895145132993 0.20348567813270921 0 -0.057478398324341332 0.20606456403591589 0 -0.068984895145132993 0.20348567813270921 0 -0.075683327299925024 0.21197187487555791 0 -0.057478398324341332 0.20606456403591589 0 -0.075683327299925024 0.21197187487555791 0 -0.060700713784132942 0.2267940359372384 0 -0.057478398324341332 0.20606456403591589 0 -0.075683327299925024 0.21197187487555791 0 -0.057478398324341332 0.20606456403591589 0 -0.077398480784349299 0.2102750893871779 0 -0.068984895145132993 0.20348567813270921 0 -0.075683327299925024 0.21197187487555791 0 -0.075683327299925024 0.21197187487555791 0 -0.077884159070199604 0.2126860219832131 0 -0.060700713784132942 0.2267940359372384 0 -0.075683327299925024 0.21197187487555791 0 -0.077884159070199604 0.2126860219832131 0 -0.077398480784349299 0.2102750893871779 0 -0.075683327299925024 0.21197187487555791 0 -0.077884159070199604 0.2126860219832131 0 -0.077398480784349299 0.2102750893871779 0 -0.077884159070199604 0.2126860219832131 0 -0.077398480784349299 0.2102750893871779 0 -0.075683327299925024 0.21197187487555791 0 -0.077884159070199604 0.2126860219832131 0 -0.089950704149474564 0.21660149084549701 0 -0.077884159070199604 0.2126860219832131 0 -0.087241526055590657 0.20514135106535239 0 -0.089950704149474564 0.21660149084549701 0 -0.095149617161195271 0.19271405424946009 0 -0.087241526055590657 0.20514135106535239 0 -0.089950704149474564 0.21660149084549701 0 -0.095149617161195271 0.19271405424946009 0 -0.089950704149474564 0.21660149084549701 0 -0.077398480784349299 0.2102750893871779 0 -0.077884159070199604 0.2126860219832131 0 -0.087241526055590657 0.20514135106535239 0 -0.077884159070199604 0.2126860219832131 0 -0.083666647235009842 0.24139059785004849 0 -0.089950704149474564 0.21660149084549701 0 -0.083666647235009842 0.24139059785004849 0 -0.077884159070199604 0.2126860219832131 0 -0.089950704149474564 0.21660149084549701 0 -0.083666647235009842 0.24139059785004849 0 -0.098826177075254387 0.23394696074010041 0 -0.089950704149474564 0.21660149084549701 0 -0.083666647235009842 0.24139059785004849 0 -0.077884159070199604 0.2126860219832131 0 -0.083666647235009842 0.24139059785004849 0 -0.060700713784132942 0.2267940359372384 0 -0.075683327299925024 0.21197187487555791 0 -0.060700713784132942 0.2267940359372384 0 -0.064077212627390134 0.24851538469076631 0 -0.083666647235009842 0.24139059785004849 0 -0.060700713784132942 0.2267940359372384 0 -0.086302411784292182 0.25447467192259482 0 -0.083666647235009842 0.24139059785004849 0 -0.094679029848152713 0.24609146959404629 0 -0.098826177075254387 0.23394696074010041 0 -0.083666647235009842 0.24139059785004849 0 -0.086302411784292182 0.25447467192259482 0 -0.094679029848152713 0.24609146959404629 0 -0.083666647235009842 0.24139059785004849 0 -0.03068766995985707 0.25286978792993342 0 -0.034335222642673788 0.23481172099035691 0 -0.046578861792199937 0.24361118962503389 0 -0.034335222642673788 0.23481172099035691 0 -0.046578861792199937 0.24361118962503389 0 -0.045510089746351297 0.2289623102588538 0 -0.064077212627390134 0.24851538469076631 0 -0.046578861792199937 0.24361118962503389 0 -0.055802081643016588 0.23164020743468811 0 -0.064077212627390134 0.24851538469076631 0 -0.055802081643016588 0.23164020743468811 0 -0.060700713784132942 0.2267940359372384 0 -0.064077212627390134 0.24851538469076631 0 -0.060700713784132942 0.2267940359372384 0 -0.046578861792199937 0.24361118962503389 0 -0.055802081643016588 0.23164020743468811 0 -0.045510089746351297 0.2289623102588538 0 -0.055802081643016588 0.23164020743468811 0 -0.053252725762674542 0.2222055350902031 0 -0.045510089746351297 0.2289623102588538 0 -0.055802081643016588 0.23164020743468811 0 -0.060700713784132942 0.2267940359372384 0 -0.053252725762674542 0.2222055350902031 0 -0.055802081643016588 0.23164020743468811 0 -0.060700713784132942 0.2267940359372384 0 -0.053252725762674542 0.2222055350902031 0 -0.045510089746351297 0.2289623102588538 0 -0.046772345315528908 0.21756655778431969 0 -0.045510089746351297 0.2289623102588538 0 -0.036443083940353373 0.22210497005765251 0 -0.046772345315528908 0.21756655778431969 0 -0.034335222642673788 0.23481172099035691 0 -0.045510089746351297 0.2289623102588538 0 -0.036443083940353373 0.22210497005765251 0 -0.034335222642673788 0.23481172099035691 0 -0.036443083940353373 0.22210497005765251 0 -0.024866254401544021 0.22078734426404351 0 -0.036443083940353373 0.22210497005765251 0 -0.046772345315528908 0.21756655778431969 0 -0.031637039445344017 0.19767931081015269 0 -0.046772345315528908 0.21756655778431969 0 -0.057478398324341332 0.20606456403591589 0 -0.031637039445344017 0.19767931081015269 0 -0.060700713784132942 0.2267940359372384 0 -0.053252725762674542 0.2222055350902031 0 -0.057478398324341332 0.20606456403591589 0 -0.060700713784132942 0.2267940359372384 0 -0.057478398324341332 0.20606456403591589 0 -0.053252725762674542 0.2222055350902031 0 -0.046772345315528908 0.21756655778431969 0 -0.057478398324341332 0.20606456403591589 0 -0.062951628171730722 0.19451437844324071 0 -0.057478398324341332 0.20606456403591589 0 -0.054948738746262903 0.1897910154656581 0 -0.057478398324341332 0.20606456403591589 0 -0.054948738746262903 0.1897910154656581 0 -0.031637039445344017 0.19767931081015269 0 -0.057478398324341332 0.20606456403591589 0 -0.054948738746262903 0.1897910154656581 0 -0.054948738746262903 0.1897910154656581 0 -0.031637039445344017 0.19767931081015269 0 -0.039999697082172873 0.18418677263352329 0 -0.057478398324341332 0.20606456403591589 0 -0.031637039445344017 0.19767931081015269 0 -0.031637039445344017 0.19767931081015269 0 -0.0057956805663459468 0.1892940575843915 0 -0.031637039445344017 0.19767931081015269 0 -0.0057956805663459468 0.1892940575843915 0 -0.024775833668462071 0.17590936267321361 0 -0.031637039445344017 0.19767931081015269 0 -0.0057956805663459468 0.1892940575843915 0 -0.01019634689217482 0.20814994011246479 0 -0.0057956805663459468 0.1892940575843915 0 -0.01019634689217482 0.20814994011246479 0 0.0090806704795409685 0.20996839310177981 0 -0.01019634689217482 0.20814994011246479 0 0.00014186162909880781 0.2338185852574263 0 0.0090806704795409685 0.20996839310177981 0 -0.036443083940353373 0.22210497005765251 0 -0.031637039445344017 0.19767931081015269 0 -0.024866254401544021 0.22078734426404351 0 -0.031637039445344017 0.19767931081015269 0 -0.01019634689217482 0.20814994011246479 0 -0.024866254401544021 0.22078734426404351 0 -0.034335222642673788 0.23481172099035691 0 -0.024866254401544021 0.22078734426404351 0 -0.01991034591062427 0.239405390953495 0 -0.024866254401544021 0.22078734426404351 0 0.00014186162909880781 0.2338185852574263 0 -0.024866254401544021 0.22078734426404351 0 -0.01991034591062427 0.239405390953495 0 0.00014186162909880781 0.2338185852574263 0 -0.01019634689217482 0.20814994011246479 0 -0.024866254401544021 0.22078734426404351 0 0.00014186162909880781 0.2338185852574263 0 -0.0098044441781452579 0.25473951632571468 0 0.00014186162909880781 0.2338185852574263 0 0.0073806355134042019 0.25529449578482938 0 -0.0098044441781452579 0.25473951632571468 0 -0.01991034591062427 0.239405390953495 0 0.00014186162909880781 0.2338185852574263 0 -0.03068766995985707 0.25286978792993342 0 -0.034335222642673788 0.23481172099035691 0 -0.01991034591062427 0.239405390953495 0 -0.03068766995985707 0.25286978792993342 0 -0.0098044441781452579 0.25473951632571468 0 -0.01991034591062427 0.239405390953495 0 -0.045513089216113363 0.1481501368583191 0 -0.039963318838929777 0.1583549670989208 0 -0.028048700007850699 0.14601834090005769 0 -0.045513089216113363 0.1481501368583191 0 -0.037584816749385713 0.12707105787504261 0 -0.028048700007850699 0.14601834090005769 0 -0.037584816749385713 0.12707105787504261 0 -0.028048700007850699 0.14601834090005769 0 -0.045513089216113363 0.1481501368583191 0 -0.037584816749385713 0.12707105787504261 0 -0.045513089216113363 0.1481501368583191 0 -0.037584816749385713 0.12707105787504261 0 -0.049753839012929922 0.13582205838018921 0 -0.037584816749385713 0.12707105787504261 0 -0.049753839012929922 0.13582205838018921 0 -0.051208231868337763 0.1260313133231428 0 -0.049753839012929922 0.13582205838018921 0 -0.06070043620975589 0.134524720015781 0 -0.052276118599972977 0.1457036522838337 0 -0.051208231868337763 0.1260313133231428 0 -0.06070043620975589 0.134524720015781 0 -0.06411880478631618 0.11818203644688791 0 -0.06070043620975589 0.134524720015781 0 -0.06411880478631618 0.11818203644688791 0 -0.049753839012929922 0.13582205838018921 0 -0.051208231868337763 0.1260313133231428 0 -0.06070043620975589 0.134524720015781 0 -0.06070043620975589 0.134524720015781 0 -0.052276118599972977 0.1457036522838337 0 -0.05728206763319247 0.1508674035846734 0 -0.06070043620975589 0.134524720015781 0 -0.05728206763319247 0.1508674035846734 0 -0.045513089216113363 0.1481501368583191 0 -0.049753839012929922 0.13582205838018921 0 -0.052276118599972977 0.1457036522838337 0 -0.045513089216113363 0.1481501368583191 0 -0.052276118599972977 0.1457036522838337 0 -0.053440893212920608 0.15280063427064891 0 -0.052276118599972977 0.1457036522838337 0 -0.053440893212920608 0.15280063427064891 0 -0.05728206763319247 0.1508674035846734 0 -0.053440893212920608 0.15280063427064891 0 -0.05728206763319247 0.1508674035846734 0 -0.05728206763319247 0.1508674035846734 0 -0.062031688412593149 0.16441565219234799 0 -0.053441361682841117 0.16922921584159559 0 -0.053440893212920608 0.15280063427064891 0 -0.05728206763319247 0.1508674035846734 0 -0.053441361682841117 0.16922921584159559 0 -0.045513089216113363 0.1481501368583191 0 -0.053440893212920608 0.15280063427064891 0 -0.053441361682841117 0.16922921584159559 0 -0.045513089216113363 0.1481501368583191 0 -0.053441361682841117 0.16922921584159559 0 -0.05728206763319247 0.1508674035846734 0 -0.053441361682841117 0.16922921584159559 0 -0.06725389334219653 0.15771987894696021 0 -0.05728206763319247 0.1508674035846734 0 -0.062031688412593149 0.16441565219234799 0 -0.062031688412593149 0.16441565219234799 0 -0.053441361682841117 0.16922921584159559 0 -0.062041409668937363 0.1723934095439342 0 -0.053441361682841117 0.16922921584159559 0 -0.047633738945979477 0.17108968717192211 0 -0.039963318838929777 0.1583549670989208 0 -0.052991971448818453 0.17137768000779441 0 -0.053441361682841117 0.16922921584159559 0 -0.047633738945979477 0.17108968717192211 0 -0.052991971448818453 0.17137768000779441 0 -0.053441361682841117 0.16922921584159559 0 -0.054948738746262903 0.1897910154656581 0 -0.052419079168185397 0.17351746689540021 0 -0.046888846475854867 0.17837904804597579 0 -0.062951628171730722 0.19451437844324071 0 -0.054948738746262903 0.1897910154656581 0 -0.052419079168185397 0.17351746689540021 0 -0.062951628171730722 0.19451437844324071 0 -0.052991971448818453 0.17137768000779441 0 -0.052419079168185397 0.17351746689540021 0 -0.064604308801312821 0.18244611143699499 0 -0.062951628171730722 0.19451437844324071 0 -0.053441361682841117 0.16922921584159559 0 -0.062951628171730722 0.19451437844324071 0 -0.052991971448818453 0.17137768000779441 0 -0.053441361682841117 0.16922921584159559 0 -0.054948738746262903 0.1897910154656581 0 -0.052419079168185397 0.17351746689540021 0 -0.062951628171730722 0.19451437844324071 0 -0.053441361682841117 0.16922921584159559 0 -0.064604308801312821 0.18244611143699499 0 -0.053441361682841117 0.16922921584159559 0 -0.062041409668937363 0.1723934095439342 0 -0.052991971448818453 0.17137768000779441 0 -0.047633738945979477 0.17108968717192211 0 -0.052419079168185397 0.17351746689540021 0 -0.047633738945979477 0.17108968717192211 0 -0.052419079168185397 0.17351746689540021 0 -0.046888846475854867 0.17837904804597579 0 -0.054948738746262903 0.1897910154656581 0 -0.046888846475854867 0.17837904804597579 0 -0.039999697082172873 0.18418677263352329 0 -0.031637039445344017 0.19767931081015269 0 -0.039999697082172873 0.18418677263352329 0 -0.024775833668462071 0.17590936267321361 0 -0.046888846475854867 0.17837904804597579 0 -0.039999697082172873 0.18418677263352329 0 -0.039442978436673673 0.17331029806337539 0 -0.047633738945979477 0.17108968717192211 0 -0.046888846475854867 0.17837904804597579 0 -0.039442978436673673 0.17331029806337539 0 -0.039442978436673673 0.17331029806337539 0 -0.032139483942643897 0.16694135859911591 0 -0.024775833668462071 0.17590936267321361 0 -0.039999697082172873 0.18418677263352329 0 -0.039442978436673673 0.17331029806337539 0 -0.024775833668462071 0.17590936267321361 0 -0.045513089216113363 0.1481501368583191 0 -0.053441361682841117 0.16922921584159559 0 -0.039963318838929777 0.1583549670989208 0 -0.039963318838929777 0.1583549670989208 0 -0.032139483942643897 0.16694135859911591 0 -0.02343924065842673 0.15869802647678349 0 -0.047633738945979477 0.17108968717192211 0 -0.039442978436673673 0.17331029806337539 0 -0.039963318838929777 0.1583549670989208 0 -0.039442978436673673 0.17331029806337539 0 -0.039963318838929777 0.1583549670989208 0 -0.032139483942643897 0.16694135859911591 0 -0.032139483942643897 0.16694135859911591 0 -0.02343924065842673 0.15869802647678349 0 -0.024775833668462071 0.17590936267321361 0 -0.02343924065842673 0.15869802647678349 0 -0.024775833668462071 0.17590936267321361 0 -0.0048034666842798916 0.1614245706846468 0 -0.0057956805663459468 0.1892940575843915 0 -0.024775833668462071 0.17590936267321361 0 -0.0048034666842798916 0.1614245706846468 0 -0.0048034666842798916 0.1614245706846468 0 -0.01090464080839405 0.14353955890474629 0 0.011098566836083609 0.13484946890849181 0 -0.02343924065842673 0.15869802647678349 0 -0.0048034666842798916 0.1614245706846468 0 -0.01090464080839405 0.14353955890474629 0 -0.039963318838929777 0.1583549670989208 0 -0.02343924065842673 0.15869802647678349 0 -0.028048700007850699 0.14601834090005769 0 -0.02343924065842673 0.15869802647678349 0 -0.01090464080839405 0.14353955890474629 0 -0.028048700007850699 0.14601834090005769 0 -0.037584816749385713 0.12707105787504261 0 -0.0187932077553963 0.1304023687453105 0 -0.02482114599867602 0.1199028763409456 0 -0.01090464080839405 0.14353955890474629 0 -0.028048700007850699 0.14601834090005769 0 -0.0187932077553963 0.1304023687453105 0 -0.037584816749385713 0.12707105787504261 0 -0.028048700007850699 0.14601834090005769 0 -0.0187932077553963 0.1304023687453105 0 -0.0064436606074630637 0.13109611639504981 0 -0.007175360702145514 0.1155930690216506 0 0.011098566836083609 0.13484946890849181 0 -0.01090464080839405 0.14353955890474629 0 -0.0064436606074630637 0.13109611639504981 0 0.011098566836083609 0.13484946890849181 0 -0.0187932077553963 0.1304023687453105 0 -0.0064436606074630637 0.13109611639504981 0 -0.007175360702145514 0.1155930690216506 0 -0.01090464080839405 0.14353955890474629 0 -0.0187932077553963 0.1304023687453105 0 -0.0064436606074630637 0.13109611639504981 0 -0.007175360702145514 0.1155930690216506 0 -0.0040088977147468936 0.097024336429998151 0 -0.013655752966245171 0.094180689311720855 0 -0.007175360702145514 0.1155930690216506 0 -0.0040088977147468936 0.097024336429998151 0 0.0025937760044158291 0.1064596481343341 0 -0.007175360702145514 0.1155930690216506 0 -0.013655752966245171 0.094180689311720855 0 -0.02544928824037461 0.096336669134809427 0 -0.029459919491476121 0.1011230655410132 0 -0.021580178673492881 0.1105609364200745 0 -0.037915498494119543 0.10215930426450601 0 -0.007175360702145514 0.1155930690216506 0 -0.02544928824037461 0.096336669134809427 0 -0.007175360702145514 0.1155930690216506 0 -0.02544928824037461 0.096336669134809427 0 -0.0241566231860777 0.1021061234229471 0 -0.02544928824037461 0.096336669134809427 0 -0.029459919491476121 0.1011230655410132 0 -0.035034026511796899 0.0954599165668297 0 -0.02544928824037461 0.096336669134809427 0 -0.029459919491476121 0.1011230655410132 0 -0.0241566231860777 0.1021061234229471 0 -0.02544928824037461 0.096336669134809427 0 -0.0241566231860777 0.1021061234229471 0 -0.029459919491476121 0.1011230655410132 0 -0.0241566231860777 0.1021061234229471 0 -0.021580178673492881 0.1105609364200745 0 -0.02482114599867602 0.1199028763409456 0 -0.021580178673492881 0.1105609364200745 0 -0.032585978911933711 0.11378053360982859 0 -0.007175360702145514 0.1155930690216506 0 -0.0241566231860777 0.1021061234229471 0 -0.021580178673492881 0.1105609364200745 0 -0.0187932077553963 0.1304023687453105 0 -0.007175360702145514 0.1155930690216506 0 -0.02482114599867602 0.1199028763409456 0 -0.007175360702145514 0.1155930690216506 0 -0.02482114599867602 0.1199028763409456 0 -0.021580178673492881 0.1105609364200745 0 -0.01109578586274463 0.07592966442077155 0 -0.01963881101933795 0.057650575484614511 0 -0.0089029190745683329 0.062319161291970238 0 -0.0031702267477386531 0.067180855403790804 0 -0.01109578586274463 0.07592966442077155 0 0.0065236609159091173 0.071671444604676282 0 -0.0031702267477386531 0.067180855403790804 0 -0.0089029190745683329 0.062319161291970238 0 0.00079413703044923156 0.058803151297745167 0 -0.0031702267477386531 0.067180855403790804 0 -0.01109578586274463 0.07592966442077155 0 -0.0089029190745683329 0.062319161291970238 0 -0.0040088977147468936 0.097024336429998151 0 -0.01109578586274463 0.07592966442077155 0 0.011643404763696401 0.092949868607662828 0 -0.0040088977147468936 0.097024336429998151 0 -0.013655752966245171 0.094180689311720855 0 -0.01109578586274463 0.07592966442077155 0 -0.013655752966245171 0.094180689311720855 0 -0.01109578586274463 0.07592966442077155 0 -0.02054943231121421 0.086019707551374502 0 -0.02544928824037461 0.096336669134809427 0 -0.02054943231121421 0.086019707551374502 0 -0.029642132364781061 0.077623064684345475 0 -0.02544928824037461 0.096336669134809427 0 -0.029642132364781061 0.077623064684345475 0 -0.036673455980692451 0.084509049595857907 0 -0.01109578586274463 0.07592966442077155 0 -0.02054943231121421 0.086019707551374502 0 -0.029642132364781061 0.077623064684345475 0 -0.02544928824037461 0.096336669134809427 0 -0.029642132364781061 0.077623064684345475 0 -0.013655752966245171 0.094180689311720855 0 -0.02544928824037461 0.096336669134809427 0 -0.02054943231121421 0.086019707551374502 0 -0.02544928824037461 0.096336669134809427 0 -0.036673455980692451 0.084509049595857907 0 -0.01109578586274463 0.07592966442077155 0 -0.033834976489186493 0.058909460233881362 0 -0.01109578586274463 0.07592966442077155 0 -0.029642132364781061 0.077623064684345475 0 -0.033834976489186493 0.058909460233881362 0 -0.01109578586274463 0.07592966442077155 0 -0.033834976489186493 0.058909460233881362 0 -0.01963881101933795 0.057650575484614511 0 -0.029642132364781061 0.077623064684345475 0 -0.033834976489186493 0.058909460233881362 0 -0.029642132364781061 0.077623064684345475 0 -0.036732086871232597 0.066761861307427367 0 -0.033834976489186493 0.058909460233881362 0 -0.042969512877196837 0.063698159366550891 0 -0.036732086871232597 0.066761861307427367 0 -0.038306240480512441 0.072768089837317376 0 -0.042969512877196837 0.063698159366550891 0 -0.038306240480512441 0.072768089837317376 0 -0.046136221960229658 0.070392563092827029 0 -0.042969512877196837 0.063698159366550891 0 -0.036732086871232597 0.066761861307427367 0 -0.038907572144486188 0.060810532415041758 0 -0.029642132364781061 0.077623064684345475 0 -0.036732086871232597 0.066761861307427367 0 -0.038306240480512441 0.072768089837317376 0 -0.038306240480512441 0.072768089837317376 0 -0.046136221960229658 0.070392563092827029 0 -0.043586306971417507 0.077534071189344175 0 -0.038306240480512441 0.072768089837317376 0 -0.043586306971417507 0.077534071189344175 0 -0.036673455980692451 0.084509049595857907 0 -0.043586306971417507 0.077534071189344175 0 -0.036673455980692451 0.084509049595857907 0 -0.046978765451358998 0.084182386091036676 0 -0.029642132364781061 0.077623064684345475 0 -0.038306240480512441 0.072768089837317376 0 -0.036673455980692451 0.084509049595857907 0 -0.02544928824037461 0.096336669134809427 0 -0.036673455980692451 0.084509049595857907 0 -0.035034026511796899 0.0954599165668297 0 -0.036673455980692451 0.084509049595857907 0 -0.044089979176562301 0.093675305350012283 0 -0.035034026511796899 0.0954599165668297 0 -0.036673455980692451 0.084509049595857907 0 -0.044089979176562301 0.093675305350012283 0 -0.046978765451358998 0.084182386091036676 0 -0.044089979176562301 0.093675305350012283 0 -0.057144835734191893 0.088207312209507505 0 -0.046978765451358998 0.084182386091036676 0 -0.057144835734191893 0.088207312209507505 0 -0.046978765451358998 0.084182386091036676 0 -0.053399249393930842 0.076986192110461482 0 -0.043586306971417507 0.077534071189344175 0 -0.046978765451358998 0.084182386091036676 0 -0.053399249393930842 0.076986192110461482 0 -0.053399249393930842 0.076986192110461482 0 -0.070406408885084593 0.061857930521202607 0 -0.059815066152941319 0.061788281472960463 0 -0.057144835734191893 0.088207312209507505 0 -0.053399249393930842 0.076986192110461482 0 -0.070406408885084593 0.061857930521202607 0 -0.046136221960229658 0.070392563092827029 0 -0.043586306971417507 0.077534071189344175 0 -0.053399249393930842 0.076986192110461482 0 -0.046136221960229658 0.070392563092827029 0 -0.053399249393930842 0.076986192110461482 0 -0.05257832837313995 0.068950164376806455 0 -0.053399249393930842 0.076986192110461482 0 -0.05257832837313995 0.068950164376806455 0 -0.059815066152941319 0.061788281472960463 0 -0.05257832837313995 0.068950164376806455 0 -0.052166049838275927 0.062310195238599278 0 -0.059815066152941319 0.061788281472960463 0 -0.046136221960229658 0.070392563092827029 0 -0.05257832837313995 0.068950164376806455 0 -0.052166049838275927 0.062310195238599278 0 -0.042969512877196837 0.063698159366550891 0 -0.046136221960229658 0.070392563092827029 0 -0.052166049838275927 0.062310195238599278 0 -0.021580178673492881 0.1105609364200745 0 -0.043883262583300407 0.11455669389781301 0 -0.021580178673492881 0.1105609364200745 0 -0.043883262583300407 0.11455669389781301 0 -0.032585978911933711 0.11378053360982859 0 -0.037584816749385713 0.12707105787504261 0 -0.051208231868337763 0.1260313133231428 0 -0.043883262583300407 0.11455669389781301 0 -0.037584816749385713 0.12707105787504261 0 -0.043883262583300407 0.11455669389781301 0 -0.037584816749385713 0.12707105787504261 0 -0.032585978911933711 0.11378053360982859 0 -0.037584816749385713 0.12707105787504261 0 -0.043883262583300407 0.11455669389781301 0 -0.032585978911933711 0.11378053360982859 0 -0.037584816749385713 0.12707105787504261 0 -0.02482114599867602 0.1199028763409456 0 -0.032585978911933711 0.11378053360982859 0 -0.021580178673492881 0.1105609364200745 0 -0.043883262583300407 0.11455669389781301 0 -0.037915498494119543 0.10215930426450601 0 -0.044089979176562301 0.093675305350012283 0 -0.043883262583300407 0.11455669389781301 0 -0.037915498494119543 0.10215930426450601 0 -0.044089979176562301 0.093675305350012283 0 -0.037915498494119543 0.10215930426450601 0 -0.035034026511796899 0.0954599165668297 0 -0.029459919491476121 0.1011230655410132 0 -0.037915498494119543 0.10215930426450601 0 -0.035034026511796899 0.0954599165668297 0 -0.044089979176562301 0.093675305350012283 0 -0.057144835734191893 0.088207312209507505 0 -0.043883262583300407 0.11455669389781301 0 -0.057144835734191893 0.088207312209507505 0 -0.043883262583300407 0.11455669389781301 0 -0.057144835734191893 0.088207312209507505 0 -0.043883262583300407 0.11455669389781301 0 -0.056175626513735713 0.104231459755559 0 -0.056175626513735713 0.104231459755559 0 -0.061770267295803899 0.1005995653590098 0 -0.06411880478631618 0.11818203644688791 0 -0.057144835734191893 0.088207312209507505 0 -0.056175626513735713 0.104231459755559 0 -0.061770267295803899 0.1005995653590098 0 -0.043883262583300407 0.11455669389781301 0 -0.06411880478631618 0.11818203644688791 0 -0.051208231868337763 0.1260313133231428 0 -0.043883262583300407 0.11455669389781301 0 -0.06411880478631618 0.11818203644688791 0 -0.043883262583300407 0.11455669389781301 0 -0.056175626513735713 0.104231459755559 0 -0.06411880478631618 0.11818203644688791 0 -0.071786582042575819 0.1280585334591178 0 -0.06411880478631618 0.11818203644688791 0 -0.08034823769671974 0.121089655777625 0 -0.06411880478631618 0.11818203644688791 0 -0.08034823769671974 0.121089655777625 0 -0.075381325115152609 0.106019298300689 0 -0.06411880478631618 0.11818203644688791 0 -0.08034823769671974 0.121089655777625 0 -0.08034823769671974 0.121089655777625 0 -0.096577670607123245 0.1239972751083621 0 -0.08034823769671974 0.121089655777625 0 -0.092569001324263961 0.1124699312803344 0 -0.096577670607123245 0.1239972751083621 0 -0.08034823769671974 0.121089655777625 0 -0.083967771981719092 0.1102844810624737 0 -0.092569001324263961 0.1124699312803344 0 -0.08034823769671974 0.121089655777625 0 -0.083967771981719092 0.1102844810624737 0 -0.075381325115152609 0.106019298300689 0 -0.087572523790740042 0.10155903889124659 0 -0.082071947835387321 0.094412947715560025 0 -0.09233625647768956 0.091651488650119919 0 -0.083967771981719092 0.1102844810624737 0 -0.092569001324263961 0.1124699312803344 0 -0.087572523790740042 0.10155903889124659 0 -0.083967771981719092 0.1102844810624737 0 -0.087572523790740042 0.10155903889124659 0 -0.075381325115152609 0.106019298300689 0 -0.087572523790740042 0.10155903889124659 0 -0.082071947835387321 0.094412947715560025 0 -0.075381325115152609 0.106019298300689 0 -0.06411880478631618 0.11818203644688791 0 -0.06964180214897181 0.091777453024084701 0 -0.082071947835387321 0.094412947715560025 0 -0.075381325115152609 0.106019298300689 0 -0.06964180214897181 0.091777453024084701 0 -0.06411880478631618 0.11818203644688791 0 -0.075381325115152609 0.106019298300689 0 -0.06964180214897181 0.091777453024084701 0 -0.061770267295803899 0.1005995653590098 0 -0.06411880478631618 0.11818203644688791 0 -0.06964180214897181 0.091777453024084701 0 -0.057144835734191893 0.088207312209507505 0 -0.061770267295803899 0.1005995653590098 0 -0.06964180214897181 0.091777453024084701 0 -0.06964180214897181 0.091777453024084701 0 -0.075164799511626648 0.065372869601281192 0 -0.057144835734191893 0.088207312209507505 0 -0.06964180214897181 0.091777453024084701 0 -0.068089461569968729 0.076803891339018993 0 -0.06964180214897181 0.091777453024084701 0 -0.068089461569968729 0.076803891339018993 0 -0.075164799511626648 0.065372869601281192 0 -0.057144835734191893 0.088207312209507505 0 -0.068089461569968729 0.076803891339018993 0 -0.070406408885084593 0.061857930521202607 0 -0.06964180214897181 0.091777453024084701 0 -0.075164799511626648 0.065372869601281192 0 -0.08073347634316104 0.073575546631144614 0 -0.057144835734191893 0.088207312209507505 0 -0.070406408885084593 0.061857930521202607 0 -0.068089461569968729 0.076803891339018993 0 -0.075164799511626648 0.065372869601281192 0 -0.070406408885084593 0.061857930521202607 0 -0.089923560922876636 0.068178037636278263 0 -0.08578586832533959 0.082170087930996366 0 -0.103675070998617 0.083967309240415983 0 -0.08073347634316104 0.073575546631144614 0 -0.089923560922876636 0.068178037636278263 0 -0.083186879645449088 0.059889597987781727 0 -0.075164799511626648 0.065372869601281192 0 -0.08073347634316104 0.073575546631144614 0 -0.083186879645449088 0.059889597987781727 0 -0.08073347634316104 0.073575546631144614 0 -0.089923560922876636 0.068178037636278263 0 -0.08578586832533959 0.082170087930996366 0 -0.06964180214897181 0.091777453024084701 0 -0.08073347634316104 0.073575546631144614 0 -0.08578586832533959 0.082170087930996366 0 -0.082071947835387321 0.094412947715560025 0 -0.06964180214897181 0.091777453024084701 0 -0.08578586832533959 0.082170087930996366 0 -0.082071947835387321 0.094412947715560025 0 -0.08578586832533959 0.082170087930996366 0 -0.09233625647768956 0.091651488650119919 0 -0.09233625647768956 0.091651488650119919 0 -0.103675070998617 0.083967309240415983 0 -0.10429444750695741 0.1014886749251958 0 -0.08578586832533959 0.082170087930996366 0 -0.09233625647768956 0.091651488650119919 0 -0.103675070998617 0.083967309240415983 0 -0.103675070998617 0.083967309240415983 0 -0.1198812247159142 0.095002477965890675 0 -0.10429444750695741 0.1014886749251958 0 -0.089923560922876636 0.068178037636278263 0 -0.103675070998617 0.083967309240415983 0 -0.10785209906359081 0.065371441260914459 0 -0.12533951967512769 0.078274991835817334 0 -0.103675070998617 0.083967309240415983 0 -0.10785209906359081 0.065371441260914459 0 -0.12533951967512769 0.078274991835817334 0 -0.10785209906359081 0.065371441260914459 0 -0.1248745965026067 0.059896082918310993 0 -0.12533951967512769 0.078274991835817334 0 -0.103675070998617 0.083967309240415983 0 -0.1198812247159142 0.095002477965890675 0 -0.13137241316615089 0.11357835761918721 0 -0.1198812247159142 0.095002477965890675 0 -0.10429444750695741 0.1014886749251958 0 -0.13137241316615089 0.11357835761918721 0 -0.12687331202938101 0.13192737382428379 0 -0.10667563132183119 0.1260080396076822 0 -0.13137241316615089 0.11357835761918721 0 -0.10667563132183119 0.1260080396076822 0 -0.1062978327852654 0.11550845570815239 0 -0.13137241316615089 0.11357835761918721 0 -0.1062978327852654 0.11550845570815239 0 -0.10429444750695741 0.1014886749251958 0 -0.13137241316615089 0.11357835761918721 0 -0.10667563132183119 0.1260080396076822 0 -0.10667563132183119 0.1260080396076822 0 -0.1062978327852654 0.11550845570815239 0 -0.096577670607123245 0.1239972751083621 0 -0.092569001324263961 0.1124699312803344 0 -0.1062978327852654 0.11550845570815239 0 -0.096577670607123245 0.1239972751083621 0 -0.092569001324263961 0.1124699312803344 0 -0.1062978327852654 0.11550845570815239 0 -0.10429444750695741 0.1014886749251958 0 -0.092569001324263961 0.1124699312803344 0 -0.087572523790740042 0.10155903889124659 0 -0.10429444750695741 0.1014886749251958 0 -0.087572523790740042 0.10155903889124659 0 -0.09233625647768956 0.091651488650119919 0 -0.10429444750695741 0.1014886749251958 0 -0.10370969952600501 0.019997694726909911 0 -0.098524362227562057 0.035744340183224317 0 -0.08645931971955316 0.02325136753113614 0 -0.10370969952600501 0.019997694726909911 0 -0.08645931971955316 0.02325136753113614 0 -0.091682611010439896 0.0063963380850077774 0 -0.10370969952600501 0.019997694726909911 0 -0.1180188049733784 0.030804183747700629 0 -0.098524362227562057 0.035744340183224317 0 -0.10370969952600501 0.019997694726909911 0 -0.10877227824827949 0.0075748546359299482 0 -0.091682611010439896 0.0063963380850077774 0 -0.1029392013539359 -0.0085751277431150782 0 -0.10877227824827949 0.0075748546359299482 0 -0.091682611010439896 0.0063963380850077774 0 -0.10370969952600501 0.019997694726909911 0 -0.10877227824827949 0.0075748546359299482 0 -0.11835839359799651 0.016938700943610479 0 -0.1029392013539359 -0.0085751277431150782 0 -0.12735709500343681 0.004015926865657337 0 -0.10877227824827949 0.0075748546359299482 0 -0.12735709500343681 0.004015926865657337 0 -0.10877227824827949 0.0075748546359299482 0 -0.11835839359799651 0.016938700943610479 0 -0.1339340902388827 0.022300844741854581 0 -0.11835839359799651 0.016938700943610479 0 -0.1180188049733784 0.030804183747700629 0 -0.10370969952600501 0.019997694726909911 0 -0.11835839359799651 0.016938700943610479 0 -0.1180188049733784 0.030804183747700629 0 -0.1180188049733784 0.030804183747700629 0 -0.1128457876968547 0.048091259023394652 0 -0.098524362227562057 0.035744340183224317 0 -0.13626681081840961 0.042829268155062397 0 -0.1128457876968547 0.048091259023394652 0 -0.13626681081840961 0.042829268155062397 0 -0.1180188049733784 0.030804183747700629 0 -0.1128457876968547 0.048091259023394652 0 -0.13626681081840961 0.042829268155062397 0 -0.1128457876968547 0.048091259023394652 0 -0.1248745965026067 0.059896082918310993 0 -0.10785209906359081 0.065371441260914459 0 -0.1128457876968547 0.048091259023394652 0 -0.1248745965026067 0.059896082918310993 0 -0.1128457876968547 0.048091259023394652 0 -0.089424764575299687 0.053353249891726941 0 -0.089923560922876636 0.068178037636278263 0 -0.10785209906359081 0.065371441260914459 0 -0.089424764575299687 0.053353249891726941 0 -0.10785209906359081 0.065371441260914459 0 -0.1128457876968547 0.048091259023394652 0 -0.089424764575299687 0.053353249891726941 0 -0.1128457876968547 0.048091259023394652 0 -0.098524362227562057 0.035744340183224317 0 -0.089424764575299687 0.053353249891726941 0 -0.098524362227562057 0.035744340183224317 0 -0.080687796874281473 0.038968286178477703 0 -0.08645931971955316 0.02325136753113614 0 -0.098524362227562057 0.035744340183224317 0 -0.080687796874281473 0.038968286178477703 0 -0.089424764575299687 0.053353249891726941 0 -0.080687796874281473 0.038968286178477703 0 -0.089424764575299687 0.053353249891726941 0 -0.083186879645449088 0.059889597987781727 0 -0.075164799511626648 0.065372869601281192 0 -0.080687796874281473 0.038968286178477703 0 -0.083186879645449088 0.059889597987781727 0 -0.089923560922876636 0.068178037636278263 0 -0.089424764575299687 0.053353249891726941 0 -0.083186879645449088 0.059889597987781727 0 -0.075164799511626648 0.065372869601281192 0 -0.080687796874281473 0.038968286178477703 0 -0.071303082845968715 0.053347503409362687 0 -0.075164799511626648 0.065372869601281192 0 -0.080687796874281473 0.038968286178477703 0 -0.075164799511626648 0.065372869601281192 0 -0.070406408885084593 0.061857930521202607 0 -0.071303082845968715 0.053347503409362687 0 -0.071303082845968715 0.053347503409362687 0 -0.064856269609628314 0.055117702274744398 0 -0.065400139349222536 0.045420728471107522 0 -0.070406408885084593 0.061857930521202607 0 -0.071303082845968715 0.053347503409362687 0 -0.064856269609628314 0.055117702274744398 0 -0.070406408885084593 0.061857930521202607 0 -0.064856269609628314 0.055117702274744398 0 -0.059815066152941319 0.061788281472960463 0 -0.080687796874281473 0.038968286178477703 0 -0.065400139349222536 0.045420728471107522 0 -0.063264057366842208 0.031259222641012697 0 -0.080687796874281473 0.038968286178477703 0 -0.063264057366842208 0.031259222641012697 0 -0.073460039823911166 0.024685388153665749 0 -0.080687796874281473 0.038968286178477703 0 -0.071303082845968715 0.053347503409362687 0 -0.065400139349222536 0.045420728471107522 0 -0.063264057366842208 0.031259222641012697 0 -0.073460039823911166 0.024685388153665749 0 -0.061440697951084179 0.017621877449499421 0 -0.073460039823911166 0.024685388153665749 0 -0.076769634387976737 0.01135693610240161 0 -0.061440697951084179 0.017621877449499421 0 -0.080687796874281473 0.038968286178477703 0 -0.073460039823911166 0.024685388153665749 0 -0.08645931971955316 0.02325136753113614 0 -0.073460039823911166 0.024685388153665749 0 -0.08645931971955316 0.02325136753113614 0 -0.076769634387976737 0.01135693610240161 0 -0.08645931971955316 0.02325136753113614 0 -0.091682611010439896 0.0063963380850077774 0 -0.076769634387976737 0.01135693610240161 0 -0.091682611010439896 0.0063963380850077774 0 -0.078933949510919491 0.00072378658541613432 0 -0.076769634387976737 0.01135693610240161 0 -0.086097875964997059 -0.0058870606910941042 0 -0.091682611010439896 0.0063963380850077774 0 -0.078933949510919491 0.00072378658541613432 0 -0.078933949510919491 0.00072378658541613432 0 -0.076769634387976737 0.01135693610240161 0 -0.068462160169621672 0.0025537029525893409 0 -0.068462160169621672 0.0025537029525893409 0 -0.057836245250817257 0.0062936453779614283 0 -0.061440697951084179 0.017621877449499421 0 -0.076769634387976737 0.01135693610240161 0 -0.068462160169621672 0.0025537029525893409 0 -0.061440697951084179 0.017621877449499421 0 -0.057836245250817257 0.0062936453779614283 0 -0.061440697951084179 0.017621877449499421 0 -0.042678209040760022 0.019440128409622049 0 -0.057836245250817257 0.0062936453779614283 0 -0.042678209040760022 0.019440128409622049 0 -0.044352522143416888 0.0050416822031405977 0 -0.063264057366842208 0.031259222641012697 0 -0.042678209040760022 0.019440128409622049 0 -0.05195897498334151 0.039592758420259042 0 -0.063264057366842208 0.031259222641012697 0 -0.061440697951084179 0.017621877449499421 0 -0.042678209040760022 0.019440128409622049 0 -0.042678209040760022 0.019440128409622049 0 -0.038256592764973757 0.039174794321751791 0 -0.042678209040760022 0.019440128409622049 0 -0.038256592764973757 0.039174794321751791 0 -0.027511467414372541 0.03001296694831072 0 -0.042678209040760022 0.019440128409622049 0 -0.028180513839983729 0.018098474401369 0 -0.027511467414372541 0.03001296694831072 0 -0.042678209040760022 0.019440128409622049 0 -0.032770024037711037 0.0084985419153508525 0 -0.028180513839983729 0.018098474401369 0 -0.032770024037711037 0.0084985419153508525 0 -0.03614709390981162 0.0015378833132510439 0 -0.044352522143416888 0.0050416822031405977 0 -0.029539197120254941 -0.00051038393964639519 0 -0.032770024037711037 0.0084985419153508525 0 -0.03614709390981162 0.0015378833132510439 0 -0.042678209040760022 0.019440128409622049 0 -0.032770024037711037 0.0084985419153508525 0 -0.044352522143416888 0.0050416822031405977 0 -0.042969512877196837 0.063698159366550891 0 -0.047980875447113908 0.056604040506729722 0 -0.052166049838275927 0.062310195238599278 0 -0.047980875447113908 0.056604040506729722 0 -0.052166049838275927 0.062310195238599278 0 -0.055804220694704088 0.051985500715961808 0 -0.064856269609628314 0.055117702274744398 0 -0.059815066152941319 0.061788281472960463 0 -0.055804220694704088 0.051985500715961808 0 -0.052166049838275927 0.062310195238599278 0 -0.059815066152941319 0.061788281472960463 0 -0.055804220694704088 0.051985500715961808 0 -0.064856269609628314 0.055117702274744398 0 -0.065400139349222536 0.045420728471107522 0 -0.055804220694704088 0.051985500715961808 0 -0.047980875447113908 0.056604040506729722 0 -0.055804220694704088 0.051985500715961808 0 -0.046350630683546529 0.050276175962098407 0 -0.055804220694704088 0.051985500715961808 0 -0.05195897498334151 0.039592758420259042 0 -0.046350630683546529 0.050276175962098407 0 -0.065400139349222536 0.045420728471107522 0 -0.055804220694704088 0.051985500715961808 0 -0.05195897498334151 0.039592758420259042 0 -0.065400139349222536 0.045420728471107522 0 -0.063264057366842208 0.031259222641012697 0 -0.05195897498334151 0.039592758420259042 0 -0.042678209040760022 0.019440128409622049 0 -0.05195897498334151 0.039592758420259042 0 -0.038256592764973757 0.039174794321751791 0 -0.05195897498334151 0.039592758420259042 0 -0.038256592764973757 0.039174794321751791 0 -0.046350630683546529 0.050276175962098407 0 -0.038256592764973757 0.039174794321751791 0 -0.033834976489186493 0.058909460233881362 0 -0.038256592764973757 0.039174794321751791 0 -0.038513274033404883 0.055407770980391423 0 -0.033834976489186493 0.058909460233881362 0 -0.038256592764973757 0.039174794321751791 0 -0.046350630683546529 0.050276175962098407 0 -0.038513274033404883 0.055407770980391423 0 -0.038256592764973757 0.039174794321751791 0 -0.033834976489186493 0.058909460233881362 0 -0.02879531395286377 0.050132256585483953 0 -0.046350630683546529 0.050276175962098407 0 -0.038513274033404883 0.055407770980391423 0 -0.042914570065583427 0.057802329486214707 0 -0.036732086871232597 0.066761861307427367 0 -0.033834976489186493 0.058909460233881362 0 -0.038907572144486188 0.060810532415041758 0 -0.038513274033404883 0.055407770980391423 0 -0.033834976489186493 0.058909460233881362 0 -0.038513274033404883 0.055407770980391423 0 -0.033834976489186493 0.058909460233881362 0 -0.038907572144486188 0.060810532415041758 0 -0.042969512877196837 0.063698159366550891 0 -0.038907572144486188 0.060810532415041758 0 -0.042914570065583427 0.057802329486214707 0 -0.038513274033404883 0.055407770980391423 0 -0.038907572144486188 0.060810532415041758 0 -0.042914570065583427 0.057802329486214707 0 -0.047980875447113908 0.056604040506729722 0 -0.046350630683546529 0.050276175962098407 0 -0.042914570065583427 0.057802329486214707 0 -0.042969512877196837 0.063698159366550891 0 -0.047980875447113908 0.056604040506729722 0 -0.042914570065583427 0.057802329486214707 0 -0.033834976489186493 0.058909460233881362 0 -0.01963881101933795 0.057650575484614511 0 -0.02879531395286377 0.050132256585483953 0 -0.01963881101933795 0.057650575484614511 0 -0.02879531395286377 0.050132256585483953 0 -0.02345087553795689 0.044794196301688183 0 -0.01963881101933795 0.057650575484614511 0 -0.02345087553795689 0.044794196301688183 0 -0.012175026131353321 0.050402421608982242 0 -0.02345087553795689 0.044794196301688183 0 -0.014695186475719159 0.0359408453649432 0 -0.012175026131353321 0.050402421608982242 0 -0.038256592764973757 0.039174794321751791 0 -0.02879531395286377 0.050132256585483953 0 -0.02345087553795689 0.044794196301688183 0 -0.038256592764973757 0.039174794321751791 0 -0.02345087553795689 0.044794196301688183 0 -0.027511467414372541 0.03001296694831072 0 -0.02345087553795689 0.044794196301688183 0 -0.014695186475719159 0.0359408453649432 0 -0.027511467414372541 0.03001296694831072 0 -0.014695186475719159 0.0359408453649432 0 -0.0023331541944977092 0.045311556235899067 0 0.00074240361007229996 0.028778475488121531 0 -0.014695186475719159 0.0359408453649432 0 -0.0023331541944977092 0.045311556235899067 0 -0.012175026131353321 0.050402421608982242 0 -0.0023331541944977092 0.045311556235899067 0 -0.012175026131353321 0.050402421608982242 0 0.00079413703044923156 0.058803151297745167 0 -0.012175026131353321 0.050402421608982242 0 -0.0089029190745683329 0.062319161291970238 0 0.00079413703044923156 0.058803151297745167 0 -0.01963881101933795 0.057650575484614511 0 -0.012175026131353321 0.050402421608982242 0 -0.0089029190745683329 0.062319161291970238 0 -0.021996997598287969 0.010981086364913869 0 -0.02112675760807068 0.0030512678310729521 0 -0.0083058662928979787 0.012079608812324741 0 -0.021996997598287969 0.010981086364913869 0 -0.01661374249992489 0.02103319015209278 0 -0.0083058662928979787 0.012079608812324741 0 -0.021996997598287969 0.010981086364913869 0 -0.02112675760807068 0.0030512678310729521 0 -0.02631380729169577 0.0053104208567875946 0 -0.029539197120254941 -0.00051038393964639519 0 -0.02112675760807068 0.0030512678310729521 0 -0.02631380729169577 0.0053104208567875946 0 -0.029539197120254941 -0.00051038393964639519 0 -0.032770024037711037 0.0084985419153508525 0 -0.02631380729169577 0.0053104208567875946 0 -0.032770024037711037 0.0084985419153508525 0 -0.021996997598287969 0.010981086364913869 0 -0.02631380729169577 0.0053104208567875946 0 -0.032770024037711037 0.0084985419153508525 0 -0.021996997598287969 0.010981086364913869 0 -0.028180513839983729 0.018098474401369 0 -0.028180513839983729 0.018098474401369 0 -0.027511467414372541 0.03001296694831072 0 -0.01661374249992489 0.02103319015209278 0 -0.014695186475719159 0.0359408453649432 0 -0.027511467414372541 0.03001296694831072 0 -0.01661374249992489 0.02103319015209278 0 -0.021996997598287969 0.010981086364913869 0 -0.028180513839983729 0.018098474401369 0 -0.01661374249992489 0.02103319015209278 0 -0.01661374249992489 0.02103319015209278 0 0.00074240361007229996 0.028778475488121531 0 -0.0083058662928979787 0.012079608812324741 0 0.0060294939382754481 0.01286563290641534 0 0.00074240361007229996 0.028778475488121531 0 -0.014695186475719159 0.0359408453649432 0 -0.01661374249992489 0.02103319015209278 0 0.00074240361007229996 0.028778475488121531 0 -0.0083058662928979787 0.012079608812324741 0 0.00074240361007229996 0.028778475488121531 0 -0.01661374249992489 0.02103319015209278 0 -0.0083058662928979787 0.012079608812324741 0 0.00074240361007229996 0.028778475488121531 0 -0.0072764121498596901 -0.0036325873431357339 0 -0.0083058662928979787 0.012079608812324741 0 0.0012074066645448821 -0.00065723147797176382 0 -0.0072764121498596901 -0.0036325873431357339 0 -0.013607688627124061 -0.00178224205395049 0 -0.0083058662928979787 0.012079608812324741 0 -0.017354136195868258 -0.0046192578634720229 0 -0.0083058662928979787 0.012079608812324741 0 -0.017354136195868258 -0.0046192578634720229 0 -0.013607688627124061 -0.00178224205395049 0 -0.0083058662928979787 0.012079608812324741 0 -0.0083058662928979787 0.012079608812324741 0 0.0060294939382754481 0.01286563290641534 0 0.0012074066645448821 -0.00065723147797176382 0 -0.017354136195868258 -0.0046192578634720229 0 -0.02112675760807068 0.0030512678310729521 0 -0.0083058662928979787 0.012079608812324741 0 0.0060294939382754481 0.01286563290641534 0 0.0012074066645448821 -0.00065723147797176382 0 0.01265631079038235 -0.01012693536007268 0 0.0060294939382754481 0.01286563290641534 0 0.020311547060899309 0.014329649790385431 0 0.01265631079038235 -0.01012693536007268 0 0.00074240361007229996 0.028778475488121531 0 0.015746539320639769 0.024046632949657649 0 0.022626785018342459 0.038544513255683338 0 0.0060294939382754481 0.01286563290641534 0 0.00074240361007229996 0.028778475488121531 0 0.015746539320639769 0.024046632949657649 0 0.0060294939382754481 0.01286563290641534 0 0.015746539320639769 0.024046632949657649 0 0.020311547060899309 0.014329649790385431 0 0.015746539320639769 0.024046632949657649 0 0.029022466975609298 0.02571489330768258 0 0.020311547060899309 0.014329649790385431 0 0.015746539320639769 0.024046632949657649 0 0.029022466975609298 0.02571489330768258 0 0.022626785018342459 0.038544513255683338 0 0.020311547060899309 0.014329649790385431 0 0.034885408484197772 0.0062912350017927032 0 0.01265631079038235 -0.01012693536007268 0 0.029022466975609298 0.02571489330768258 0 0.020311547060899309 0.014329649790385431 0 0.034885408484197772 0.0062912350017927032 0 0.00079413703044923156 0.058803151297745167 0 0.01366790099406239 0.052632887419703241 0 0.0065236609159091173 0.071671444604676282 0 -0.0023331541944977092 0.045311556235899067 0 0.00079413703044923156 0.058803151297745167 0 0.01366790099406239 0.052632887419703241 0 0.00074240361007229996 0.028778475488121531 0 0.01366790099406239 0.052632887419703241 0 0.022626785018342459 0.038544513255683338 0 0.00074240361007229996 0.028778475488121531 0 0.022626785018342459 0.038544513255683338 0 -0.0023331541944977092 0.045311556235899067 0 0.00074240361007229996 0.028778475488121531 0 0.01366790099406239 0.052632887419703241 0 0.00074240361007229996 0.028778475488121531 0 0.01366790099406239 0.052632887419703241 0 0.029022466975609298 0.02571489330768258 0 0.022626785018342459 0.038544513255683338 0 0.037630953216902623 0.033668105561091018 0 0.01366790099406239 0.052632887419703241 0 0.022626785018342459 0.038544513255683338 0 0.025434983742737761 0.055249644843112657 0 0.022626785018342459 0.038544513255683338 0 0.025434983742737761 0.055249644843112657 0 0.034616451435572633 0.051242168749322393 0 0.025434983742737761 0.055249644843112657 0 0.034062632092931817 0.061255223706808547 0 0.02703491536905472 0.067401080742933134 0 0.01366790099406239 0.052632887419703241 0 0.025434983742737761 0.055249644843112657 0 0.02703491536905472 0.067401080742933134 0 0.034616451435572633 0.051242168749322393 0 0.044511166426612833 0.04831055102324476 0 0.060132464308973767 0.062986029428160187 0 0.034616451435572633 0.051242168749322393 0 0.060132464308973767 0.062986029428160187 0 0.044258496001147778 0.063884183083345675 0 0.034062632092931817 0.061255223706808547 0 0.034616451435572633 0.051242168749322393 0 0.044258496001147778 0.063884183083345675 0 0.025434983742737761 0.055249644843112657 0 0.034062632092931817 0.061255223706808547 0 0.034616451435572633 0.051242168749322393 0 0.022626785018342459 0.038544513255683338 0 0.044511166426612833 0.04831055102324476 0 0.022626785018342459 0.038544513255683338 0 0.034616451435572633 0.051242168749322393 0 0.044511166426612833 0.04831055102324476 0 0.022626785018342459 0.038544513255683338 0 0.044511166426612833 0.04831055102324476 0 0.037630953216902623 0.033668105561091018 0 0.044511166426612833 0.04831055102324476 0 0.037630953216902623 0.033668105561091018 0 0.0484135161167236 0.034205204957136963 0 0.0484135161167236 0.034205204957136963 0 0.060669767880595721 0.038134724015348051 0 0.0518117103670514 0.042737821036878322 0 0.0484135161167236 0.034205204957136963 0 0.060669767880595721 0.038134724015348051 0 0.057623658326613529 0.02352368721002385 0 0.060669767880595721 0.038134724015348051 0 0.0518117103670514 0.042737821036878322 0 0.059559274975242667 0.047504887075434543 0 0.044511166426612833 0.04831055102324476 0 0.0518117103670514 0.042737821036878322 0 0.059559274975242667 0.047504887075434543 0 0.044511166426612833 0.04831055102324476 0 0.0484135161167236 0.034205204957136963 0 0.0518117103670514 0.042737821036878322 0 0.044511166426612833 0.04831055102324476 0 0.066395547834883203 0.05807658879080619 0 0.060132464308973767 0.062986029428160187 0 0.034616451435572633 0.051242168749322393 0 0.060132464308973767 0.062986029428160187 0 0.044511166426612833 0.04831055102324476 0 0.066395547834883203 0.05807658879080619 0 0.044511166426612833 0.04831055102324476 0 0.059559274975242667 0.047504887075434543 0 0.066395547834883203 0.05807658879080619 0 0.034885408484197772 0.0062912350017927032 0 0.052968053050369737 0.0090809173488315582 0 0.042517259973231587 -0.011683923625132649 0 0.034885408484197772 0.0062912350017927032 0 0.043580831547224863 0.021565365261707499 0 0.052968053050369737 0.0090809173488315582 0 0.029022466975609298 0.02571489330768258 0 0.034885408484197772 0.0062912350017927032 0 0.043580831547224863 0.021565365261707499 0 0.029022466975609298 0.02571489330768258 0 0.037630953216902623 0.033668105561091018 0 0.043580831547224863 0.021565365261707499 0 0.037630953216902623 0.033668105561091018 0 0.0484135161167236 0.034205204957136963 0 0.043580831547224863 0.021565365261707499 0 0.057623658326613529 0.02352368721002385 0 0.052968053050369737 0.0090809173488315582 0 0.071708216805815503 0.016768608491387289 0 0.043580831547224863 0.021565365261707499 0 0.057623658326613529 0.02352368721002385 0 0.052968053050369737 0.0090809173488315582 0 0.0484135161167236 0.034205204957136963 0 0.043580831547224863 0.021565365261707499 0 0.057623658326613529 0.02352368721002385 0 0.052968053050369737 0.0090809173488315582 0 0.071708216805815503 0.016768608491387289 0 0.067492943165135169 -0.0019794682467893379 0 0.083930998993742512 0.0059737405228527038 0 0.071708216805815503 0.016768608491387289 0 0.067492943165135169 -0.0019794682467893379 0 0.083930998993742512 0.0059737405228527038 0 0.098495163759696414 0.0029673617968291321 0 0.094917995650245529 0.021722354499223519 0 0.083930998993742512 0.0059737405228527038 0 0.071708216805815503 0.016768608491387289 0 0.094917995650245529 0.021722354499223519 0 0.071708216805815503 0.016768608491387289 0 0.07449934060461412 0.03258063005354956 0 0.094917995650245529 0.021722354499223519 0 0.07449934060461412 0.03258063005354956 0 0.087237150257314613 0.037926204838731957 0 0.094917995650245529 0.021722354499223519 0 0.057623658326613529 0.02352368721002385 0 0.071708216805815503 0.016768608491387289 0 0.07449934060461412 0.03258063005354956 0 0.060669767880595721 0.038134724015348051 0 0.057623658326613529 0.02352368721002385 0 0.07449934060461412 0.03258063005354956 0 0.060669767880595721 0.038134724015348051 0 0.069155187538762042 0.045022305850501279 0 0.07449934060461412 0.03258063005354956 0 0.060669767880595721 0.038134724015348051 0 0.059559274975242667 0.047504887075434543 0 0.069155187538762042 0.045022305850501279 0 0.069155187538762042 0.045022305850501279 0 0.07449934060461412 0.03258063005354956 0 0.079692196512252927 0.044953406994506007 0 0.059559274975242667 0.047504887075434543 0 0.069155187538762042 0.045022305850501279 0 0.067326156772233525 0.050603546620565112 0 0.059559274975242667 0.047504887075434543 0 0.066395547834883203 0.05807658879080619 0 0.067326156772233525 0.050603546620565112 0 0.066395547834883203 0.05807658879080619 0 0.067326156772233525 0.050603546620565112 0 0.074194616740046182 0.051810404765518438 0 0.069155187538762042 0.045022305850501279 0 0.067326156772233525 0.050603546620565112 0 0.074194616740046182 0.051810404765518438 0 0.069155187538762042 0.045022305850501279 0 0.074194616740046182 0.051810404765518438 0 0.079692196512252927 0.044953406994506007 0 0.066395547834883203 0.05807658879080619 0 0.074194616740046182 0.051810404765518438 0 0.080343143758095259 0.058335218209008277 0 0.066395547834883203 0.05807658879080619 0 0.080343143758095259 0.058335218209008277 0 0.08827992924315356 0.067842626558367619 0 0.080343143758095259 0.058335218209008277 0 0.083306510346727383 0.05351440315152866 0 0.090416084875221875 0.058235299142909973 0 0.074194616740046182 0.051810404765518438 0 0.083306510346727383 0.05351440315152866 0 0.079692196512252927 0.044953406994506007 0 0.083306510346727383 0.05351440315152866 0 0.089760373586053266 0.048866493307206167 0 0.079692196512252927 0.044953406994506007 0 0.074194616740046182 0.051810404765518438 0 0.080343143758095259 0.058335218209008277 0 0.083306510346727383 0.05351440315152866 0 0.083306510346727383 0.05351440315152866 0 0.089760373586053266 0.048866493307206167 0 0.090416084875221875 0.058235299142909973 0 0.089760373586053266 0.048866493307206167 0 0.090416084875221875 0.058235299142909973 0 0.099395501669828634 0.055681054702382278 0 0.080343143758095259 0.058335218209008277 0 0.090416084875221875 0.058235299142909973 0 0.08827992924315356 0.067842626558367619 0 0.087237150257314613 0.037926204838731957 0 0.098930039005792711 0.04227996871225087 0 0.094917995650245529 0.021722354499223519 0 0.07449934060461412 0.03258063005354956 0 0.079692196512252927 0.044953406994506007 0 0.087237150257314613 0.037926204838731957 0 0.089760373586053266 0.048866493307206167 0 0.079692196512252927 0.044953406994506007 0 0.087237150257314613 0.037926204838731957 0 0.089760373586053266 0.048866493307206167 0 0.087237150257314613 0.037926204838731957 0 0.098930039005792711 0.04227996871225087 0 0.10894092886672049 0.033503019923715648 0 0.098930039005792711 0.04227996871225087 0 0.11550376979223601 0.054551475820320147 0 0.10894092886672049 0.033503019923715648 0 0.098930039005792711 0.04227996871225087 0 0.094917995650245529 0.021722354499223519 0 0.098930039005792711 0.04227996871225087 0 0.099395501669828634 0.055681054702382278 0 0.11550376979223601 0.054551475820320147 0 0.099395501669828634 0.055681054702382278 0 0.11550376979223601 0.054551475820320147 0 0.10561354398445311 0.069921878226714862 0 0.090416084875221875 0.058235299142909973 0 0.099395501669828634 0.055681054702382278 0 0.095618088847860577 0.065038419849084594 0 0.089760373586053266 0.048866493307206167 0 0.098930039005792711 0.04227996871225087 0 0.099395501669828634 0.055681054702382278 0 0.10894092886672049 0.033503019923715648 0 0.11961069471150609 0.02296590295220987 0 0.12977361784467401 0.039215218793308727 0 0.10894092886672049 0.033503019923715648 0 0.11550376979223601 0.054551475820320147 0 0.12977361784467401 0.039215218793308727 0 0.11961069471150609 0.02296590295220987 0 0.1158546052028349 0.0064685721448778594 0 0.094917995650245529 0.021722354499223519 0 0.11961069471150609 0.02296590295220987 0 0.1158546052028349 0.0064685721448778594 0 0.13894824890776639 0.02136224913872127 0 0.1158546052028349 0.0064685721448778594 0 0.098495163759696414 0.0029673617968291321 0 0.094917995650245529 0.021722354499223519 0 0.10894092886672049 0.033503019923715648 0 0.11961069471150609 0.02296590295220987 0 0.094917995650245529 0.021722354499223519 0 0.097728221435088053 0.099184528615223033 0 0.110275064223293 0.10236359857942121 0 0.11116449005577619 0.086473750785835857 0 0.099894961061174667 0.1104201015940532 0 0.11150799601301251 0.1117412241471519 0 0.110275064223293 0.10236359857942121 0 0.097728221435088053 0.099184528615223033 0 0.099894961061174667 0.1104201015940532 0 0.110275064223293 0.10236359857942121 0 0.097728221435088053 0.099184528615223033 0 0.099894961061174667 0.1104201015940532 0 0.084925795867796111 0.1103515185161017 0 0.099894961061174667 0.1104201015940532 0 0.096984900528893664 0.1212489081817222 0 0.084925795867796111 0.1103515185161017 0 0.099894961061174667 0.1104201015940532 0 0.096984900528893664 0.1212489081817222 0 0.10712684862241641 0.1210429748963526 0 0.096984900528893664 0.1212489081817222 0 0.10712684862241641 0.1210429748963526 0 0.10589272808503949 0.13156516273042271 0 0.099894961061174667 0.1104201015940532 0 0.10712684862241641 0.1210429748963526 0 0.11150799601301251 0.1117412241471519 0 0.10712684862241641 0.1210429748963526 0 0.11150799601301251 0.1117412241471519 0 0.1187293914863337 0.1182846474287873 0 0.11150799601301251 0.1117412241471519 0 0.1187293914863337 0.1182846474287873 0 0.1197878353292403 0.1092484053650479 0 0.10712684862241641 0.1210429748963526 0 0.1187293914863337 0.1182846474287873 0 0.114987521205969 0.1268010028982309 0 0.1187293914863337 0.1182846474287873 0 0.12813823657366311 0.12049833089676459 0 0.12624189261331301 0.1140678077034443 0 0.1187293914863337 0.1182846474287873 0 0.12212988809696081 0.1249307776834532 0 0.12813823657366311 0.12049833089676459 0 0.1187293914863337 0.1182846474287873 0 0.12212988809696081 0.1249307776834532 0 0.114987521205969 0.1268010028982309 0 0.1187293914863337 0.1182846474287873 0 0.1197878353292403 0.1092484053650479 0 0.12624189261331301 0.1140678077034443 0 0.1216961693062274 0.1020981758197984 0 0.110275064223293 0.10236359857942121 0 0.11116449005577619 0.086473750785835857 0 0.1197878353292403 0.1092484053650479 0 0.1216961693062274 0.1020981758197984 0 0.1302764983332621 0.10693497851168419 0 0.1216961693062274 0.1020981758197984 0 0.11116449005577619 0.086473750785835857 0 0.13668050292917741 0.098217611464673699 0 0.1197878353292403 0.1092484053650479 0 0.1216961693062274 0.1020981758197984 0 0.110275064223293 0.10236359857942121 0 0.11150799601301251 0.1117412241471519 0 0.1197878353292403 0.1092484053650479 0 0.110275064223293 0.10236359857942121 0 0.11116449005577619 0.086473750785835857 0 0.1207366242219714 0.074251990558816788 0 0.1300820653953097 0.084166932106396392 0 0.11116449005577619 0.086473750785835857 0 0.13668050292917741 0.098217611464673699 0 0.11116449005577619 0.086473750785835857 0 0.1207366242219714 0.074251990558816788 0 0.10561354398445311 0.069921878226714862 0 0.11550376979223601 0.054551475820320147 0 0.1207366242219714 0.074251990558816788 0 0.13255022158949201 0.068763676371196639 0 0.11550376979223601 0.054551475820320147 0 0.1207366242219714 0.074251990558816788 0 0.10561354398445311 0.069921878226714862 0 0.11116449005577619 0.086473750785835857 0 0.10561354398445311 0.069921878226714862 0 0.085648477182374977 0.074729890106998029 0 0.10561354398445311 0.069921878226714862 0 0.095618088847860577 0.065038419849084594 0 0.085648477182374977 0.074729890106998029 0 0.099395501669828634 0.055681054702382278 0 0.10561354398445311 0.069921878226714862 0 0.095618088847860577 0.065038419849084594 0 0.11116449005577619 0.086473750785835857 0 0.085648477182374977 0.074729890106998029 0 0.11116449005577619 0.086473750785835857 0 0.090808031879269946 0.087622927320568048 0 0.085648477182374977 0.074729890106998029 0 0.097728221435088053 0.099184528615223033 0 0.11116449005577619 0.086473750785835857 0 0.090808031879269946 0.087622927320568048 0 0.097728221435088053 0.099184528615223033 0 0.090808031879269946 0.087622927320568048 0 0.080235742217082393 0.093435287859391092 0 0.090808031879269946 0.087622927320568048 0 0.078675001300488379 0.083882301042573534 0 0.085648477182374977 0.074729890106998029 0 0.090808031879269946 0.087622927320568048 0 0.078675001300488379 0.083882301042573534 0 0.080235742217082393 0.093435287859391092 0 0.066395547834883203 0.05807658879080619 0 0.08827992924315356 0.067842626558367619 0 0.085648477182374977 0.074729890106998029 0 0.095618088847860577 0.065038419849084594 0 0.08827992924315356 0.067842626558367619 0 0.085648477182374977 0.074729890106998029 0 0.090416084875221875 0.058235299142909973 0 0.095618088847860577 0.065038419849084594 0 0.08827992924315356 0.067842626558367619 0 0.066395547834883203 0.05807658879080619 0 0.085648477182374977 0.074729890106998029 0 0.060132464308973767 0.062986029428160187 0 0.066395547834883203 0.05807658879080619 0 0.08827992924315356 0.067842626558367619 0 0.085648477182374977 0.074729890106998029 0 0.068637102026180674 0.07792917868559901 0 0.060132464308973767 0.062986029428160187 0 0.085648477182374977 0.074729890106998029 0 0.060132464308973767 0.062986029428160187 0 0.078675001300488379 0.083882301042573534 0 0.085648477182374977 0.074729890106998029 0 0.068637102026180674 0.07792917868559901 0 0.080235742217082393 0.093435287859391092 0 0.069503799956795384 0.087722797055870286 0 0.068523875558259784 0.095111972458496966 0 0.078675001300488379 0.083882301042573534 0 0.080235742217082393 0.093435287859391092 0 0.069503799956795384 0.087722797055870286 0 0.078675001300488379 0.083882301042573534 0 0.068637102026180674 0.07792917868559901 0 0.069503799956795384 0.087722797055870286 0 0.068637102026180674 0.07792917868559901 0 0.069503799956795384 0.087722797055870286 0 0.060111091978902922 0.083782113849914977 0 0.069503799956795384 0.087722797055870286 0 0.06135777996986308 0.093915161513068182 0 0.060111091978902922 0.083782113849914977 0 0.069503799956795384 0.087722797055870286 0 0.068523875558259784 0.095111972458496966 0 0.06135777996986308 0.093915161513068182 0 0.068523875558259784 0.095111972458496966 0 0.071520258741129425 0.10189571548122769 0 0.062413973273008162 0.1018934272394761 0 0.068523875558259784 0.095111972458496966 0 0.062413973273008162 0.1018934272394761 0 0.06135777996986308 0.093915161513068182 0 0.071520258741129425 0.10189571548122769 0 0.072821304814728441 0.1108529925529516 0 0.063718101814298073 0.11016590081819259 0 0.071520258741129425 0.10189571548122769 0 0.063718101814298073 0.11016590081819259 0 0.062413973273008162 0.1018934272394761 0 0.071520258741129425 0.10189571548122769 0 0.084925795867796111 0.1103515185161017 0 0.072821304814728441 0.1108529925529516 0 0.080235742217082393 0.093435287859391092 0 0.068523875558259784 0.095111972458496966 0 0.071520258741129425 0.10189571548122769 0 0.097728221435088053 0.099184528615223033 0 0.080235742217082393 0.093435287859391092 0 0.084925795867796111 0.1103515185161017 0 0.080235742217082393 0.093435287859391092 0 0.071520258741129425 0.10189571548122769 0 0.084925795867796111 0.1103515185161017 0 0.084925795867796111 0.1103515185161017 0 0.074154959480044275 0.1204842858357125 0 0.087075880893963842 0.12621803440601359 0 0.096984900528893664 0.1212489081817222 0 0.084925795867796111 0.1103515185161017 0 0.087075880893963842 0.12621803440601359 0 0.084925795867796111 0.1103515185161017 0 0.074154959480044275 0.1204842858357125 0 0.072821304814728441 0.1108529925529516 0 0.074154959480044275 0.1204842858357125 0 0.072821304814728441 0.1108529925529516 0 0.063718101814298073 0.11016590081819259 0 0.074154959480044275 0.1204842858357125 0 0.063718101814298073 0.11016590081819259 0 0.060124536552058239 0.11864948812996751 0 0.074154959480044275 0.1204842858357125 0 0.060124536552058239 0.11864948812996751 0 0.061109117960118017 0.12720913792676911 0 0.060124536552058239 0.11864948812996751 0 0.052595679859244633 0.1236025024456274 0 0.054913207086597561 0.11271600588853189 0 0.060124536552058239 0.11864948812996751 0 0.052595679859244633 0.1236025024456274 0 0.061109117960118017 0.12720913792676911 0 0.052595679859244633 0.1236025024456274 0 0.054913207086597561 0.11271600588853189 0 0.046771683079868627 0.1089772416004138 0 0.063718101814298073 0.11016590081819259 0 0.060124536552058239 0.11864948812996751 0 0.054913207086597561 0.11271600588853189 0 0.063718101814298073 0.11016590081819259 0 0.062413973273008162 0.1018934272394761 0 0.053620768430252298 0.1031656988462608 0 0.063718101814298073 0.11016590081819259 0 0.054913207086597561 0.11271600588853189 0 0.053620768430252298 0.1031656988462608 0 0.06135777996986308 0.093915161513068182 0 0.053620768430252298 0.1031656988462608 0 0.051535176025136201 0.090416251810209708 0 0.062413973273008162 0.1018934272394761 0 0.06135777996986308 0.093915161513068182 0 0.053620768430252298 0.1031656988462608 0 0.053620768430252298 0.1031656988462608 0 0.042875633238578528 0.09739353282270094 0 0.051535176025136201 0.090416251810209708 0 0.053620768430252298 0.1031656988462608 0 0.046771683079868627 0.1089772416004138 0 0.042875633238578528 0.09739353282270094 0 0.054913207086597561 0.11271600588853189 0 0.053620768430252298 0.1031656988462608 0 0.046771683079868627 0.1089772416004138 0 0.046771683079868627 0.1089772416004138 0 0.042875633238578528 0.09739353282270094 0 0.034382595390138257 0.1099700727945534 0 0.042875633238578528 0.09739353282270094 0 0.034382595390138257 0.1099700727945534 0 0.030708755379597181 0.088685576768743155 0 0.034382595390138257 0.1099700727945534 0 0.030708755379597181 0.088685576768743155 0 0.052595679859244633 0.1236025024456274 0 0.046771683079868627 0.1089772416004138 0 0.034382595390138257 0.1099700727945534 0 0.034382595390138257 0.1099700727945534 0 0.02520709702204247 0.1232263280856261 0 0.037354296692750887 0.12718670835402709 0 0.052595679859244633 0.1236025024456274 0 0.034382595390138257 0.1099700727945534 0 0.037354296692750887 0.12718670835402709 0 0.034382595390138257 0.1099700727945534 0 0.037354296692750887 0.12718670835402709 0 0.052595679859244633 0.1236025024456274 0 0.034382595390138257 0.1099700727945534 0 0.060132464308973767 0.062986029428160187 0 0.051537231586459821 0.0703604747810012 0 0.044258496001147778 0.063884183083345675 0 0.051537231586459821 0.0703604747810012 0 0.045053238281461433 0.071665999821029613 0 0.044258496001147778 0.063884183083345675 0 0.060132464308973767 0.062986029428160187 0 0.058160070023191839 0.074213970699792686 0 0.051537231586459821 0.0703604747810012 0 0.068637102026180674 0.07792917868559901 0 0.060132464308973767 0.062986029428160187 0 0.058160070023191839 0.074213970699792686 0 0.051537231586459821 0.0703604747810012 0 0.049495561811348857 0.078896267932753172 0 0.045053238281461433 0.071665999821029613 0 0.058160070023191839 0.074213970699792686 0 0.051537231586459821 0.0703604747810012 0 0.049495561811348857 0.078896267932753172 0 0.049495561811348857 0.078896267932753172 0 0.051535176025136201 0.090416251810209708 0 0.041750220721871581 0.085344735896560275 0 0.049495561811348857 0.078896267932753172 0 0.060111091978902922 0.083782113849914977 0 0.051535176025136201 0.090416251810209708 0 0.068637102026180674 0.07792917868559901 0 0.058160070023191839 0.074213970699792686 0 0.060111091978902922 0.083782113849914977 0 0.058160070023191839 0.074213970699792686 0 0.049495561811348857 0.078896267932753172 0 0.060111091978902922 0.083782113849914977 0 0.06135777996986308 0.093915161513068182 0 0.060111091978902922 0.083782113849914977 0 0.051535176025136201 0.090416251810209708 0 0.042875633238578528 0.09739353282270094 0 0.051535176025136201 0.090416251810209708 0 0.041750220721871581 0.085344735896560275 0 0.042875633238578528 0.09739353282270094 0 0.041750220721871581 0.085344735896560275 0 0.030708755379597181 0.088685576768743155 0 0.041750220721871581 0.085344735896560275 0 0.037489048909448763 0.07466528487264068 0 0.030708755379597181 0.088685576768743155 0 0.049495561811348857 0.078896267932753172 0 0.041750220721871581 0.085344735896560275 0 0.037489048909448763 0.07466528487264068 0 0.037489048909448763 0.07466528487264068 0 0.02703491536905472 0.067401080742933134 0 0.030708755379597181 0.088685576768743155 0 0.049495561811348857 0.078896267932753172 0 0.045053238281461433 0.071665999821029613 0 0.037489048909448763 0.07466528487264068 0 0.045053238281461433 0.071665999821029613 0 0.037489048909448763 0.07466528487264068 0 0.037579666130808903 0.067774354445351542 0 0.034062632092931817 0.061255223706808547 0 0.037579666130808903 0.067774354445351542 0 0.02703491536905472 0.067401080742933134 0 0.037489048909448763 0.07466528487264068 0 0.037579666130808903 0.067774354445351542 0 0.02703491536905472 0.067401080742933134 0 0.034062632092931817 0.061255223706808547 0 0.037579666130808903 0.067774354445351542 0 0.044258496001147778 0.063884183083345675 0 0.045053238281461433 0.071665999821029613 0 0.037579666130808903 0.067774354445351542 0 0.044258496001147778 0.063884183083345675 0 0.02703491536905472 0.067401080742933134 0 0.030708755379597181 0.088685576768743155 0 0.01366790099406239 0.052632887419703241 0 0.026593398378051959 0.076487299351285121 0 0.01366790099406239 0.052632887419703241 0 0.02703491536905472 0.067401080742933134 0 0.026593398378051959 0.076487299351285121 0 0.02703491536905472 0.067401080742933134 0 0.026593398378051959 0.076487299351285121 0 0.030708755379597181 0.088685576768743155 0 0.01366790099406239 0.052632887419703241 0 0.026593398378051959 0.076487299351285121 0 0.01611389888654503 0.070322973248010373 0 0.026593398378051959 0.076487299351285121 0 0.01611389888654503 0.070322973248010373 0 0.01767063525815666 0.080500261616376856 0 0.01767063525815666 0.080500261616376856 0 0.030708755379597181 0.088685576768743155 0 0.011643404763696401 0.092949868607662828 0 0.026593398378051959 0.076487299351285121 0 0.01767063525815666 0.080500261616376856 0 0.030708755379597181 0.088685576768743155 0 0.01767063525815666 0.080500261616376856 0 0.011643404763696401 0.092949868607662828 0 0.0065236609159091173 0.071671444604676282 0 -0.01109578586274463 0.07592966442077155 0 0.011643404763696401 0.092949868607662828 0 0.0065236609159091173 0.071671444604676282 0 -0.01109578586274463 0.07592966442077155 0 0.011643404763696401 0.092949868607662828 0 0.01366790099406239 0.052632887419703241 0 0.01611389888654503 0.070322973248010373 0 0.0065236609159091173 0.071671444604676282 0 0.01611389888654503 0.070322973248010373 0 0.01767063525815666 0.080500261616376856 0 0.0065236609159091173 0.071671444604676282 0 -0.0031702267477386531 0.067180855403790804 0 0.00079413703044923156 0.058803151297745167 0 0.0065236609159091173 0.071671444604676282 0 0.034382595390138257 0.1099700727945534 0 0.02520709702204247 0.1232263280856261 0 0.01356063639681436 0.11371506303709419 0 0.02520709702204247 0.1232263280856261 0 0.01356063639681436 0.11371506303709419 0 0.011098566836083609 0.13484946890849181 0 0.034382595390138257 0.1099700727945534 0 0.011643404763696401 0.092949868607662828 0 0.01356063639681436 0.11371506303709419 0 0.034382595390138257 0.1099700727945534 0 0.011643404763696401 0.092949868607662828 0 0.034382595390138257 0.1099700727945534 0 0.030708755379597181 0.088685576768743155 0 0.011643404763696401 0.092949868607662828 0 -0.0040088977147468936 0.097024336429998151 0 0.011643404763696401 0.092949868607662828 0 0.0025937760044158291 0.1064596481343341 0 0.011643404763696401 0.092949868607662828 0 0.0025937760044158291 0.1064596481343341 0 0.01356063639681436 0.11371506303709419 0 -0.007175360702145514 0.1155930690216506 0 0.0025937760044158291 0.1064596481343341 0 0.01356063639681436 0.11371506303709419 0 -0.007175360702145514 0.1155930690216506 0 0.01356063639681436 0.11371506303709419 0 0.011098566836083609 0.13484946890849181 0 -0.007175360702145514 0.1155930690216506 0 0.011098566836083609 0.13484946890849181 0 0.02520709702204247 0.1232263280856261 0 0.011098566836083609 0.13484946890849181 0 0.028759663239593541 0.13617761485890201 0 0.02520709702204247 0.1232263280856261 0 0.028759663239593541 0.13617761485890201 0 0.037354296692750887 0.12718670835402709 0 0.011098566836083609 0.13484946890849181 0 0.029372494374312729 0.15410586879533311 0 0.013538337341477229 0.1636201682865295 0 0.011098566836083609 0.13484946890849181 0 0.028759663239593541 0.13617761485890201 0 0.029372494374312729 0.15410586879533311 0 0.011098566836083609 0.13484946890849181 0 0.029372494374312729 0.15410586879533311 0 -0.0048034666842798916 0.1614245706846468 0 0.011098566836083609 0.13484946890849181 0 0.013538337341477229 0.1636201682865295 0 -0.0057956805663459468 0.1892940575843915 0 -0.0048034666842798916 0.1614245706846468 0 0.013538337341477229 0.1636201682865295 0 -0.0057956805663459468 0.1892940575843915 0 0.013538337341477229 0.1636201682865295 0 0.020045678312652242 0.18090880435863019 0 -0.0057956805663459468 0.1892940575843915 0 0.020045678312652242 0.18090880435863019 0 0.029372494374312729 0.15410586879533311 0 0.013538337341477229 0.1636201682865295 0 0.020045678312652242 0.18090880435863019 0 0.029372494374312729 0.15410586879533311 0 0.045887037191650451 0.17252355113286891 0 0.04813315871709322 0.1541455757588851 0 0.029372494374312729 0.15410586879533311 0 0.020045678312652242 0.18090880435863019 0 0.045887037191650451 0.17252355113286891 0 0.020045678312652242 0.18090880435863019 0 0.045887037191650451 0.17252355113286891 0 0.020045678312652242 0.18090880435863019 0 0.045887037191650451 0.17252355113286891 0 0.041991232206495782 0.1919910870650737 0 0.045887037191650451 0.17252355113286891 0 0.060802696405823108 0.1787365445376432 0 0.041991232206495782 0.1919910870650737 0 0.045887037191650451 0.17252355113286891 0 0.071728396070648653 0.1641382979071076 0 0.045887037191650451 0.17252355113286891 0 0.060802696405823108 0.1787365445376432 0 0.071728396070648653 0.1641382979071076 0 0.045887037191650451 0.17252355113286891 0 0.059657673584757237 0.15824269734654939 0 0.04813315871709322 0.1541455757588851 0 0.045887037191650451 0.17252355113286891 0 0.059657673584757237 0.15824269734654939 0 0.071728396070648653 0.1641382979071076 0 0.059657673584757237 0.15824269734654939 0 0.04813315871709322 0.1541455757588851 0 0.060329678829100349 0.1474246815113264 0 0.04813315871709322 0.1541455757588851 0 0.050215372913412007 0.1458935282758238 0 0.060329678829100349 0.1474246815113264 0 0.050215372913412007 0.1458935282758238 0 0.060329678829100349 0.1474246815113264 0 0.052072656112092337 0.13760051191958289 0 0.050215372913412007 0.1458935282758238 0 0.052072656112092337 0.13760051191958289 0 0.040325997995362128 0.14440334391350099 0 0.060329678829100349 0.1474246815113264 0 0.062159468211553673 0.13737243366585769 0 0.052072656112092337 0.13760051191958289 0 0.062159468211553673 0.13737243366585769 0 0.054733357378362921 0.13083888414419281 0 0.052072656112092337 0.13760051191958289 0 0.052595679859244633 0.1236025024456274 0 0.054733357378362921 0.13083888414419281 0 0.061109117960118017 0.12720913792676911 0 0.062159468211553673 0.13737243366585769 0 0.054733357378362921 0.13083888414419281 0 0.061109117960118017 0.12720913792676911 0 0.052595679859244633 0.1236025024456274 0 0.054733357378362921 0.13083888414419281 0 0.046346625143134958 0.1312929959830558 0 0.054733357378362921 0.13083888414419281 0 0.052072656112092337 0.13760051191958289 0 0.046346625143134958 0.1312929959830558 0 0.037354296692750887 0.12718670835402709 0 0.040325997995362128 0.14440334391350099 0 0.046346625143134958 0.1312929959830558 0 0.037354296692750887 0.12718670835402709 0 0.040325997995362128 0.14440334391350099 0 0.028759663239593541 0.13617761485890201 0 0.037354296692750887 0.12718670835402709 0 0.040325997995362128 0.14440334391350099 0 0.052072656112092337 0.13760051191958289 0 0.046346625143134958 0.1312929959830558 0 0.040325997995362128 0.14440334391350099 0 0.052595679859244633 0.1236025024456274 0 0.046346625143134958 0.1312929959830558 0 0.037354296692750887 0.12718670835402709 0 0.028759663239593541 0.13617761485890201 0 0.029372494374312729 0.15410586879533311 0 0.040325997995362128 0.14440334391350099 0 0.029372494374312729 0.15410586879533311 0 0.04813315871709322 0.1541455757588851 0 0.040325997995362128 0.14440334391350099 0 0.04813315871709322 0.1541455757588851 0 0.050215372913412007 0.1458935282758238 0 0.040325997995362128 0.14440334391350099 0 0.025149977659741599 0.24684982625080901 0 0.00014186162909880781 0.2338185852574263 0 0.02177620002751179 0.22559840920251981 0 0.025149977659741599 0.24684982625080901 0 0.00014186162909880781 0.2338185852574263 0 0.025149977659741599 0.24684982625080901 0 0.00014186162909880781 0.2338185852574263 0 0.0073806355134042019 0.25529449578482938 0 0.00014186162909880781 0.2338185852574263 0 0.02177620002751179 0.22559840920251981 0 0.0090806704795409685 0.20996839310177981 0 0.025149977659741599 0.24684982625080901 0 0.02177620002751179 0.22559840920251981 0 0.039960986899899173 0.22780444499479169 0 0.02177620002751179 0.22559840920251981 0 0.0090806704795409685 0.20996839310177981 0 0.034547503469278373 0.20955079640779209 0 0.0090806704795409685 0.20996839310177981 0 0.02162293693503077 0.1981024475624624 0 0.034547503469278373 0.20955079640779209 0 -0.0057956805663459468 0.1892940575843915 0 0.0090806704795409685 0.20996839310177981 0 0.02162293693503077 0.1981024475624624 0 -0.0057956805663459468 0.1892940575843915 0 0.020045678312652242 0.18090880435863019 0 0.02162293693503077 0.1981024475624624 0 0.020045678312652242 0.18090880435863019 0 0.02162293693503077 0.1981024475624624 0 0.041991232206495782 0.1919910870650737 0 0.02162293693503077 0.1981024475624624 0 0.041991232206495782 0.1919910870650737 0 0.034547503469278373 0.20955079640779209 0 0.041991232206495782 0.1919910870650737 0 0.05849467095877426 0.1965416733816682 0 0.050764695011206777 0.20916964222725651 0 0.060802696405823108 0.1787365445376432 0 0.041991232206495782 0.1919910870650737 0 0.05849467095877426 0.1965416733816682 0 0.050764695011206777 0.20916964222725651 0 0.066981886553135278 0.20878848804672309 0 0.05849467095877426 0.1965416733816682 0 0.050764695011206777 0.20916964222725651 0 0.066981886553135278 0.20878848804672309 0 0.050764695011206777 0.20916964222725651 0 0.061514006406540499 0.23071042489022231 0 0.066981886553135278 0.20878848804672309 0 0.050764695011206777 0.20916964222725651 0 0.034547503469278373 0.20955079640779209 0 0.039960986899899173 0.22780444499479169 0 0.050764695011206777 0.20916964222725651 0 0.034547503469278373 0.20955079640779209 0 0.041991232206495782 0.1919910870650737 0 0.050764695011206777 0.20916964222725651 0 0.034547503469278373 0.20955079640779209 0 0.02177620002751179 0.22559840920251981 0 0.034547503469278373 0.20955079640779209 0 0.039960986899899173 0.22780444499479169 0 0.039960986899899173 0.22780444499479169 0 0.061514006406540499 0.23071042489022231 0 0.045472231705318063 0.24424317023843681 0 0.050764695011206777 0.20916964222725651 0 0.039960986899899173 0.22780444499479169 0 0.061514006406540499 0.23071042489022231 0 0.061514006406540499 0.23071042489022231 0 0.056046126259945157 0.25263236173372139 0 0.061514006406540499 0.23071042489022231 0 0.056046126259945157 0.25263236173372139 0 0.067905867336300579 0.25358800162702 0 0.061514006406540499 0.23071042489022231 0 0.045472231705318063 0.24424317023843681 0 0.056046126259945157 0.25263236173372139 0 0.025149977659741599 0.24684982625080901 0 0.039960986899899173 0.22780444499479169 0 0.045472231705318063 0.24424317023843681 0 0.092857250133516089 0.24175825718487831 0 0.078525547080241467 0.2465942846531784 0 0.093798877441032588 0.2579700649065903 0 0.092857250133516089 0.24175825718487831 0 0.078525547080241467 0.2465942846531784 0 0.081986142109724491 0.22560265144644431 0 0.061514006406540499 0.23071042489022231 0 0.078525547080241467 0.2465942846531784 0 0.067905867336300579 0.25358800162702 0 0.061514006406540499 0.23071042489022231 0 0.078525547080241467 0.2465942846531784 0 0.081986142109724491 0.22560265144644431 0 0.061514006406540499 0.23071042489022231 0 0.081986142109724491 0.22560265144644431 0 0.066981886553135278 0.20878848804672309 0 0.061514006406540499 0.23071042489022231 0 0.066981886553135278 0.20878848804672309 0 0.081986142109724491 0.22560265144644431 0 0.09236794217301933 0.20819183719001669 0 0.066981886553135278 0.20878848804672309 0 0.09236794217301933 0.20819183719001669 0 0.066981886553135278 0.20878848804672309 0 0.09236794217301933 0.20819183719001669 0 0.066981886553135278 0.20878848804672309 0 0.071445073857882777 0.19089458628000441 0 0.060802696405823108 0.1787365445376432 0 0.05849467095877426 0.1965416733816682 0 0.071445073857882777 0.19089458628000441 0 0.066981886553135278 0.20878848804672309 0 0.071445073857882777 0.19089458628000441 0 0.05849467095877426 0.1965416733816682 0 0.066981886553135278 0.20878848804672309 0 0.071445073857882777 0.19089458628000441 0 0.09236794217301933 0.20819183719001669 0 0.071445073857882777 0.19089458628000441 0 0.086464584236575506 0.1862285865309723 0 0.09236794217301933 0.20819183719001669 0 0.086464584236575506 0.1862285865309723 0 0.1023855527362314 0.18749689463882899 0 0.09236794217301933 0.20819183719001669 0 0.11775399779290339 0.20759518633331239 0 0.1023855527362314 0.18749689463882899 0 0.11775399779290339 0.20759518633331239 0 0.1023855527362314 0.18749689463882899 0 0.12550986450034471 0.186594373040398 0 0.09236794217301933 0.20819183719001669 0 0.11775399779290339 0.20759518633331239 0 0.09236794217301933 0.20819183719001669 0 0.11775399779290339 0.20759518633331239 0 0.10906069526472741 0.22998953009969161 0 0.092857250133516089 0.24175825718487831 0 0.081986142109724491 0.22560265144644431 0 0.10906069526472741 0.22998953009969161 0 0.081986142109724491 0.22560265144644431 0 0.09236794217301933 0.20819183719001669 0 0.10906069526472741 0.22998953009969161 0 0.11775399779290339 0.20759518633331239 0 0.10906069526472741 0.22998953009969161 0 0.1382648444377183 0.22719855966067881 0 0.10906069526472741 0.22998953009969161 0 0.12787711237058769 0.24521089126939841 0 0.1100607559553454 0.25396994184181759 0 0.092857250133516089 0.24175825718487831 0 0.10906069526472741 0.22998953009969161 0 0.1100607559553454 0.25396994184181759 0 0.081151633673542972 0.15313158297098389 0 0.083920606388658545 0.14050817004821939 0 0.0975697549496468 0.15575304468134629 0 0.081151633673542972 0.15313158297098389 0 0.083920606388658545 0.14050817004821939 0 0.071387777285217918 0.15212681924726251 0 0.074154959480044275 0.1204842858357125 0 0.087075880893963842 0.12621803440601359 0 0.083920606388658545 0.14050817004821939 0 0.087075880893963842 0.12621803440601359 0 0.083920606388658545 0.14050817004821939 0 0.097906888154765004 0.1362305538396491 0 0.062159468211553673 0.13737243366585769 0 0.061109117960118017 0.12720913792676911 0 0.083920606388658545 0.14050817004821939 0 0.074154959480044275 0.1204842858357125 0 0.061109117960118017 0.12720913792676911 0 0.083920606388658545 0.14050817004821939 0 0.061109117960118017 0.12720913792676911 0 0.083920606388658545 0.14050817004821939 0 0.062159468211553673 0.13737243366585769 0 0.083920606388658545 0.14050817004821939 0 0.069449382678632612 0.1443580261181665 0 0.060329678829100349 0.1474246815113264 0 0.062159468211553673 0.13737243366585769 0 0.069449382678632612 0.1443580261181665 0 0.060329678829100349 0.1474246815113264 0 0.069449382678632612 0.1443580261181665 0 0.071387777285217918 0.15212681924726251 0 0.083920606388658545 0.14050817004821939 0 0.069449382678632612 0.1443580261181665 0 0.071387777285217918 0.15212681924726251 0 0.059657673584757237 0.15824269734654939 0 0.060329678829100349 0.1474246815113264 0 0.071387777285217918 0.15212681924726251 0 0.059657673584757237 0.15824269734654939 0 0.071387777285217918 0.15212681924726251 0 0.071728396070648653 0.1641382979071076 0 0.081151633673542972 0.15313158297098389 0 0.071387777285217918 0.15212681924726251 0 0.071728396070648653 0.1641382979071076 0 0.071445073857882777 0.19089458628000441 0 0.075908261162629706 0.17300068451328551 0 0.086464584236575506 0.1862285865309723 0 0.060802696405823108 0.1787365445376432 0 0.071445073857882777 0.19089458628000441 0 0.075908261162629706 0.17300068451328551 0 0.071445073857882777 0.19089458628000441 0 0.075908261162629706 0.17300068451328551 0 0.060802696405823108 0.1787365445376432 0 0.071728396070648653 0.1641382979071076 0 0.075908261162629706 0.17300068451328551 0 0.086464584236575506 0.1862285865309723 0 0.090216091253114361 0.17155893003272579 0 0.1023855527362314 0.18749689463882899 0 0.075908261162629706 0.17300068451328551 0 0.086464584236575506 0.1862285865309723 0 0.090216091253114361 0.17155893003272579 0 0.081151633673542972 0.15313158297098389 0 0.071728396070648653 0.1641382979071076 0 0.0975697549496468 0.15575304468134629 0 0.071728396070648653 0.1641382979071076 0 0.090216091253114361 0.17155893003272579 0 0.0975697549496468 0.15575304468134629 0 0.071728396070648653 0.1641382979071076 0 0.075908261162629706 0.17300068451328551 0 0.090216091253114361 0.17155893003272579 0 0.071728396070648653 0.1641382979071076 0 0.0975697549496468 0.15575304468134629 0 0.090216091253114361 0.17155893003272579 0 0.1064810698159025 0.16893633516972181 0 0.0975697549496468 0.15575304468134629 0 0.1064810698159025 0.16893633516972181 0 0.1067320948171991 0.1538072021696697 0 0.0975697549496468 0.15575304468134629 0 0.090216091253114361 0.17155893003272579 0 0.1064810698159025 0.16893633516972181 0 0.1023855527362314 0.18749689463882899 0 0.1064810698159025 0.16893633516972181 0 0.12954358324573961 0.16710623429112001 0 0.12550986450034471 0.186594373040398 0 0.1064810698159025 0.16893633516972181 0 0.1023855527362314 0.18749689463882899 0 0.12550986450034471 0.186594373040398 0 0.1064810698159025 0.16893633516972181 0 0.1067320948171991 0.1538072021696697 0 0.12954358324573961 0.16710623429112001 0 0.1067320948171991 0.1538072021696697 0 0.1262856736452258 0.1537478882528979 0 0.12954358324573961 0.16710623429112001 0 0.1067320948171991 0.1538072021696697 0 0.12954358324573961 0.16710623429112001 0 0.1148569119608701 0.14824987142416859 0 0.1067320948171991 0.1538072021696697 0 0.1262856736452258 0.1537478882528979 0 0.118317888191051 0.14254191757659121 0 0.1148569119608701 0.14824987142416859 0 0.1262856736452258 0.1537478882528979 0 0.118317888191051 0.14254191757659121 0 0.12756241452120801 0.13893694775055651 0 0.1262856736452258 0.1537478882528979 0 0.1148569119608701 0.14824987142416859 0 0.1067320948171991 0.1538072021696697 0 0.1080919911900045 0.14290247769751591 0 0.118317888191051 0.14254191757659121 0 0.1148569119608701 0.14824987142416859 0 0.1080919911900045 0.14290247769751591 0 0.083920606388658545 0.14050817004821939 0 0.1067320948171991 0.1538072021696697 0 0.1067320948171991 0.1538072021696697 0 0.1080919911900045 0.14290247769751591 0 0.097906888154765004 0.1362305538396491 0 0.083920606388658545 0.14050817004821939 0 0.1067320948171991 0.1538072021696697 0 0.097906888154765004 0.1362305538396491 0 0.083920606388658545 0.14050817004821939 0 0.1067320948171991 0.1538072021696697 0 0.0975697549496468 0.15575304468134629 0 0.096984900528893664 0.1212489081817222 0 0.097906888154765004 0.1362305538396491 0 0.10589272808503949 0.13156516273042271 0 0.096984900528893664 0.1212489081817222 0 0.087075880893963842 0.12621803440601359 0 0.097906888154765004 0.1362305538396491 0 0.1080919911900045 0.14290247769751591 0 0.097906888154765004 0.1362305538396491 0 0.10589272808503949 0.13156516273042271 0 0.1080919911900045 0.14290247769751591 0 0.10589272808503949 0.13156516273042271 0 0.11327312463209829 0.13597294690712769 0 0.10712684862241641 0.1210429748963526 0 0.10589272808503949 0.13156516273042271 0 0.114987521205969 0.1268010028982309 0 0.10589272808503949 0.13156516273042271 0 0.114987521205969 0.1268010028982309 0 0.11327312463209829 0.13597294690712769 0 0.114987521205969 0.1268010028982309 0 0.11327312463209829 0.13597294690712769 0 0.1203000125167645 0.13336293759413789 0 0.118317888191051 0.14254191757659121 0 0.1080919911900045 0.14290247769751591 0 0.11327312463209829 0.13597294690712769 0 0.118317888191051 0.14254191757659121 0 0.1203000125167645 0.13336293759413789 0 0.12756241452120801 0.13893694775055651 0 0.118317888191051 0.14254191757659121 0 0.11327312463209829 0.13597294690712769 0 0.1203000125167645 0.13336293759413789 0 0.12212988809696081 0.1249307776834532 0 0.114987521205969 0.1268010028982309 0 0.1203000125167645 0.13336293759413789 0 0.12212988809696081 0.1249307776834532 0 0.1203000125167645 0.13336293759413789 0 0.12788127083107459 0.1291064789800366 0 0.12788127083107459 0.1291064789800366 0 0.13409394305489639 0.1257339851238449 0 0.12813823657366311 0.12049833089676459 0 0.12788127083107459 0.1291064789800366 0 0.13410827310584911 0.13282331674432049 0 0.13409394305489639 0.1257339851238449 0 0.12788127083107459 0.1291064789800366 0 0.12756241452120801 0.13893694775055651 0 0.13410827310584911 0.13282331674432049 0 0.1203000125167645 0.13336293759413789 0 0.12788127083107459 0.1291064789800366 0 0.12756241452120801 0.13893694775055651 0 0.13410827310584911 0.13282331674432049 0 0.14295710802469111 0.12768772724150559 0 0.13848136883728299 0.14203914735535511 0 0.12756241452120801 0.13893694775055651 0 0.13410827310584911 0.13282331674432049 0 0.13848136883728299 0.14203914735535511 0 0.13410827310584911 0.13282331674432049 0 0.13409394305489639 0.1257339851238449 0 0.14295710802469111 0.12768772724150559 0 0.14295710802469111 0.12768772724150559 0 0.15698787762036359 0.14007723406829989 0 0.15364605026385231 0.1227496740475859 0 0.14295710802469111 0.12768772724150559 0 0.13848136883728299 0.14203914735535511 0 0.15698787762036359 0.14007723406829989 0 0.13848136883728299 0.14203914735535511 0 0.1441447949138806 0.1573716891147208 0 0.15698787762036359 0.14007723406829989 0 0.1441447949138806 0.1573716891147208 0 0.1598153361361678 0.15982657838785511 0 0.15698787762036359 0.14007723406829989 0 0.13848136883728299 0.14203914735535511 0 0.1262856736452258 0.1537478882528979 0 0.1441447949138806 0.1573716891147208 0 0.12756241452120801 0.13893694775055651 0 0.13848136883728299 0.14203914735535511 0 0.1262856736452258 0.1537478882528979 0 0.1262856736452258 0.1537478882528979 0 0.12954358324573961 0.16710623429112001 0 0.1441447949138806 0.1573716891147208 0 0.12954358324573961 0.16710623429112001 0 0.12550986450034471 0.186594373040398 0 0.15375492999850379 0.1814330523327968 0 0.12954358324573961 0.16710623429112001 0 0.15375492999850379 0.1814330523327968 0 0.1441447949138806 0.1573716891147208 0 0.15375492999850379 0.1814330523327968 0 0.1441447949138806 0.1573716891147208 0 0.1598153361361678 0.15982657838785511 0 0.1598153361361678 0.15982657838785511 0 0.17205847002769489 0.1711246398383999 0 0.17247097746626519 0.1464629757798975 0 0.15375492999850379 0.1814330523327968 0 0.1598153361361678 0.15982657838785511 0 0.17205847002769489 0.1711246398383999 0 0.15375492999850379 0.1814330523327968 0 0.17205847002769489 0.1711246398383999 0 0.18411838942066619 0.18828130780555291 0 0.17205847002769489 0.1711246398383999 0 0.18411838942066619 0.18828130780555291 0 0.19050902449260759 0.164433536692701 0 0.17205847002769489 0.1711246398383999 0 0.17247097746626519 0.1464629757798975 0 0.19050902449260759 0.164433536692701 0 0.17247097746626519 0.1464629757798975 0 0.1903693880120208 0.14015559280000461 0 0.19050902449260759 0.164433536692701 0 0.17247097746626519 0.1464629757798975 0 0.18002451345814399 0.12716596121819479 0 0.1903693880120208 0.14015559280000461 0 0.17247097746626519 0.1464629757798975 0 0.18002451345814399 0.12716596121819479 0 0.16417220099380411 0.12505127510387981 0 0.15698787762036359 0.14007723406829989 0 0.16417220099380411 0.12505127510387981 0 0.15364605026385231 0.1227496740475859 0 0.17247097746626519 0.1464629757798975 0 0.15698787762036359 0.14007723406829989 0 0.16417220099380411 0.12505127510387981 0 0.1598153361361678 0.15982657838785511 0 0.17247097746626519 0.1464629757798975 0 0.15698787762036359 0.14007723406829989 0 0.14702044576598061 0.2478904659134552 0 0.1382648444377183 0.22719855966067881 0 0.15828943790025421 0.22969507774947781 0 0.14702044576598061 0.2478904659134552 0 0.12787711237058769 0.24521089126939841 0 0.1382648444377183 0.22719855966067881 0 0.10906069526472741 0.22998953009969161 0 0.12787711237058769 0.24521089126939841 0 0.1382648444377183 0.22719855966067881 0 0.1382648444377183 0.22719855966067881 0 0.14314005341278749 0.20699853547660821 0 0.15828943790025421 0.22969507774947781 0 0.14314005341278749 0.20699853547660821 0 0.16852610903267151 0.206401884619904 0 0.11775399779290339 0.20759518633331239 0 0.1382648444377183 0.22719855966067881 0 0.14314005341278749 0.20699853547660821 0 0.11775399779290339 0.20759518633331239 0 0.14314005341278749 0.20699853547660821 0 0.11775399779290339 0.20759518633331239 0 0.12550986450034471 0.186594373040398 0 0.14314005341278749 0.20699853547660821 0 0.15375492999850379 0.1814330523327968 0 0.14314005341278749 0.20699853547660821 0 0.16852610903267151 0.206401884619904 0 0.12550986450034471 0.186594373040398 0 0.15375492999850379 0.1814330523327968 0 0.14314005341278749 0.20699853547660821 0 0.15375492999850379 0.1814330523327968 0 0.18411838942066619 0.18828130780555291 0 0.16852610903267151 0.206401884619904 0 0.18411838942066619 0.18828130780555291 0 0.16852610903267151 0.206401884619904 0 0.1878214256448299 0.20672411698152671 0 0.16852610903267151 0.206401884619904 0 0.17766068788986381 0.23020170431202469 0 0.1878214256448299 0.20672411698152671 0 0.14314005341278749 0.20699853547660821 0 0.16852610903267151 0.206401884619904 0 0.15828943790025421 0.22969507774947781 0 0.16852610903267151 0.206401884619904 0 0.15828943790025421 0.22969507774947781 0 0.17766068788986381 0.23020170431202469 0 0.17766068788986381 0.23020170431202469 0 0.19353513124668931 0.22246748781277501 0 0.1878214256448299 0.20672411698152671 0 0.17766068788986381 0.23020170431202469 0 0.18692125413578081 0.24552837502103991 0 0.19379669244916639 0.23440003217329089 0 0.17766068788986381 0.23020170431202469 0 0.18692125413578081 0.24552837502103991 0 0.16774616909827719 0.2460930353984315 0 0.15828943790025421 0.22969507774947781 0 0.17766068788986381 0.23020170431202469 0 0.16774616909827719 0.2460930353984315 0 0.14702044576598061 0.2478904659134552 0 0.15828943790025421 0.22969507774947781 0 0.16774616909827719 0.2460930353984315 0 0.21557305570370441 0.24515722135805329 0 0.2029257889591993 0.24295866219667439 0 0.23007231546290949 0.2334513308517342 0 0.2029257889591993 0.24295866219667439 0 0.23007231546290949 0.2334513308517342 0 0.21557305570370441 0.24515722135805329 0 0.2029257889591993 0.24295866219667439 0 0.20107379594449931 0.25686311186437227 0 0.18692125413578081 0.24552837502103991 0 0.2029257889591993 0.24295866219667439 0 0.20107379594449931 0.25686311186437227 0 0.18692125413578081 0.24552837502103991 0 0.19379669244916639 0.23440003217329089 0 0.2029257889591993 0.24295866219667439 0 0.17766068788986381 0.23020170431202469 0 0.19379669244916639 0.23440003217329089 0 0.19353513124668931 0.22246748781277501 0 0.19379669244916639 0.23440003217329089 0 0.2029257889591993 0.24295866219667439 0 0.20920449219815451 0.22515354045629349 0 0.19379669244916639 0.23440003217329089 0 0.19353513124668931 0.22246748781277501 0 0.20920449219815451 0.22515354045629349 0 0.2029257889591993 0.24295866219667439 0 0.20920449219815451 0.22515354045629349 0 0.23007231546290949 0.2334513308517342 0 0.19353513124668931 0.22246748781277501 0 0.20920449219815451 0.22515354045629349 0 0.20732414099141369 0.20672295990195361 0 0.20920449219815451 0.22515354045629349 0 0.20732414099141369 0.20672295990195361 0 0.22783619495118521 0.20973527166224001 0 0.19353513124668931 0.22246748781277501 0 0.20732414099141369 0.20672295990195361 0 0.1878214256448299 0.20672411698152671 0 0.18411838942066619 0.18828130780555291 0 0.1878214256448299 0.20672411698152671 0 0.20343121377691101 0.18825927067945539 0 0.20732414099141369 0.20672295990195361 0 0.1878214256448299 0.20672411698152671 0 0.20343121377691101 0.18825927067945539 0 0.20732414099141369 0.20672295990195361 0 0.20343121377691101 0.18825927067945539 0 0.2219787971027708 0.18678942035429349 0 0.20732414099141369 0.20672295990195361 0 0.22783619495118521 0.20973527166224001 0 0.2219787971027708 0.18678942035429349 0 0.24528107816237801 0.1907036486386274 0 0.22783619495118521 0.20973527166224001 0 0.2219787971027708 0.18678942035429349 0 0.24528107816237801 0.1907036486386274 0 0.25242827713160498 0.21540237912569379 0 0.24528107816237801 0.1907036486386274 0 0.22783619495118521 0.20973527166224001 0 0.25242827713160498 0.21540237912569379 0 0.20920449219815451 0.22515354045629349 0 0.22783619495118521 0.20973527166224001 0 0.23007231546290949 0.2334513308517342 0 0.23007231546290949 0.2334513308517342 0 0.25242827713160498 0.21540237912569379 0 0.23007231546290949 0.2334513308517342 0 0.25511338863332461 0.22468137717712711 0 0.25242827713160498 0.21540237912569379 0 0.23007231546290949 0.2334513308517342 0 0.25511338863332461 0.22468137717712711 0 0.23007231546290949 0.2334513308517342 0 0.2457442494512444 0.24022391879071339 0 0.25511338863332461 0.22468137717712711 0 0.22783619495118521 0.20973527166224001 0 0.23007231546290949 0.2334513308517342 0 0.25242827713160498 0.21540237912569379 0 0.2457442494512444 0.24022391879071339 0 0.23628031136540401 0.25597328662156199 0 0.26221447651104962 0.2479993693513689 0 0.23007231546290949 0.2334513308517342 0 0.2457442494512444 0.24022391879071339 0 0.23628031136540401 0.25597328662156199 0 0.21557305570370441 0.24515722135805329 0 0.23007231546290949 0.2334513308517342 0 0.23628031136540401 0.25597328662156199 0 0.21557305570370441 0.24515722135805329 0 0.23007231546290949 0.2334513308517342 0 0.21023583046185859 0.14706018503428281 0 0.22521494488481819 0.12557893006429149 0 0.2001236667938262 0.1180422718546187 0 0.18002451345814399 0.12716596121819479 0 0.1903693880120208 0.14015559280000461 0 0.2001236667938262 0.1180422718546187 0 0.21023583046185859 0.14706018503428281 0 0.1903693880120208 0.14015559280000461 0 0.2001236667938262 0.1180422718546187 0 0.21023583046185859 0.14706018503428281 0 0.1903693880120208 0.14015559280000461 0 0.19050902449260759 0.164433536692701 0 0.18411838942066619 0.18828130780555291 0 0.20343121377691101 0.18825927067945539 0 0.19050902449260759 0.164433536692701 0 0.20343121377691101 0.18825927067945539 0 0.19050902449260759 0.164433536692701 0 0.20962662881846919 0.1707346457134423 0 0.20343121377691101 0.18825927067945539 0 0.20962662881846919 0.1707346457134423 0 0.2219787971027708 0.18678942035429349 0 0.21023583046185859 0.14706018503428281 0 0.20962662881846919 0.1707346457134423 0 0.2254160648188453 0.164078398330023 0 0.21023583046185859 0.14706018503428281 0 0.19050902449260759 0.164433536692701 0 0.20962662881846919 0.1707346457134423 0 0.20962662881846919 0.1707346457134423 0 0.2254160648188453 0.164078398330023 0 0.2219787971027708 0.18678942035429349 0 0.2254160648188453 0.164078398330023 0 0.2219787971027708 0.18678942035429349 0 0.23714843650665229 0.1758398884969993 0 0.24528107816237801 0.1907036486386274 0 0.2219787971027708 0.18678942035429349 0 0.23714843650665229 0.1758398884969993 0 0.24528107816237801 0.1907036486386274 0 0.23714843650665229 0.1758398884969993 0 0.25292738168467233 0.17649485219682931 0 0.2254160648188453 0.164078398330023 0 0.24653130607993951 0.16237692388552691 0 0.23688534306575301 0.1458043597726891 0 0.23714843650665229 0.1758398884969993 0 0.24653130607993951 0.16237692388552691 0 0.25292738168467233 0.17649485219682931 0 0.2254160648188453 0.164078398330023 0 0.23714843650665229 0.1758398884969993 0 0.24653130607993951 0.16237692388552691 0 0.24653130607993951 0.16237692388552691 0 0.2496536413094039 0.15044712256699261 0 0.23688534306575301 0.1458043597726891 0 0.2496536413094039 0.15044712256699261 0 0.23688534306575301 0.1458043597726891 0 0.25004344172447263 0.14019424959050239 0 0.21023583046185859 0.14706018503428281 0 0.2254160648188453 0.164078398330023 0 0.23688534306575301 0.1458043597726891 0 0.21023583046185859 0.14706018503428281 0 0.23688534306575301 0.1458043597726891 0 0.22521494488481819 0.12557893006429149 0 0.22521494488481819 0.12557893006429149 0 0.25030622297580962 0.13311558827396619 0 0.23688534306575301 0.1458043597726891 0 0.22521494488481819 0.12557893006429149 0 0.25030622297580962 0.13311558827396619 0 0.23688534306575301 0.1458043597726891 0 0.25004344172447263 0.14019424959050239 0 0.25030622297580962 0.13311558827396619 0 0.22521494488481819 0.12557893006429149 0 0.2369469616243938 0.1144798656387125 0 0.25030622297580962 0.13311558827396619 0 0.2369469616243938 0.1144798656387125 0 0.25094552198087999 0.11589449234768209 0 0.25030622297580962 0.13311558827396619 0 0.2369469616243938 0.1144798656387125 0 0.25158482098595109 0.098673396421397969 0 0.25094552198087999 0.11589449234768209 0 0.2369469616243938 0.1144798656387125 0 0.2308580048349978 0.09939168424622695 0 0.25158482098595109 0.098673396421397969 0 0.2308580048349978 0.09939168424622695 0 0.2177667053289645 0.10879872465146249 0 0.21723881235993189 0.092441087960636145 0 0.2369469616243938 0.1144798656387125 0 0.2308580048349978 0.09939168424622695 0 0.2177667053289645 0.10879872465146249 0 0.22521494488481819 0.12557893006429149 0 0.2369469616243938 0.1144798656387125 0 0.2177667053289645 0.10879872465146249 0 0.2177667053289645 0.10879872465146249 0 0.1970849337058638 0.1019164286603922 0 0.2001236667938262 0.1180422718546187 0 0.22521494488481819 0.12557893006429149 0 0.2177667053289645 0.10879872465146249 0 0.2001236667938262 0.1180422718546187 0 0.22521494488481819 0.12557893006429149 0 0.2001236667938262 0.1180422718546187 0 0.1970849337058638 0.1019164286603922 0 0.20420713705815571 0.090978010823124941 0 0.21723881235993189 0.092441087960636145 0 0.1970849337058638 0.1019164286603922 0 0.21723881235993189 0.092441087960636145 0 0.2177667053289645 0.10879872465146249 0 0.1970849337058638 0.1019164286603922 0 0.21723881235993189 0.092441087960636145 0 0.1970849337058638 0.1019164286603922 0 0.1916307843626972 0.08827444688259839 0 0.17503238870283441 0.11050561364494491 0 0.2001236667938262 0.1180422718546187 0 0.17503238870283441 0.11050561364494491 0 0.1970849337058638 0.1019164286603922 0 0.2001236667938262 0.1180422718546187 0 0.17503238870283441 0.11050561364494491 0 0.1916307843626972 0.08827444688259839 0 0.2082291800225603 0.066043280120252124 0 0.19067723801237901 0.065525043857756982 0 0.1916307843626972 0.08827444688259839 0 0.2082291800225603 0.066043280120252124 0 0.1916307843626972 0.08827444688259839 0 0.21087401780412959 0.081280079788873041 0 0.20420713705815571 0.090978010823124941 0 0.1970849337058638 0.1019164286603922 0 0.1916307843626972 0.08827444688259839 0 0.20420713705815571 0.090978010823124941 0 0.1916307843626972 0.08827444688259839 0 0.21087401780412959 0.081280079788873041 0 0.2082291800225603 0.066043280120252124 0 0.21087401780412959 0.081280079788873041 0 0.20420713705815571 0.090978010823124941 0 0.21723881235993189 0.092441087960636145 0 0.21087401780412959 0.081280079788873041 0 0.21723881235993189 0.092441087960636145 0 0.22613356481757629 0.0775902723280468 0 0.21087401780412959 0.081280079788873041 0 0.2082291800225603 0.066043280120252124 0 0.22613356481757629 0.0775902723280468 0 0.2082291800225603 0.066043280120252124 0 0.22613356481757629 0.0775902723280468 0 0.2082291800225603 0.066043280120252124 0 0.2259496113806885 0.070300708218039992 0 0.21450653174737461 0.057635669175196122 0 0.2259496113806885 0.070300708218039992 0 0.21450653174737461 0.057635669175196122 0 0.2082291800225603 0.066043280120252124 0 0.2259496113806885 0.070300708218039992 0 0.22613356481757629 0.0775902723280468 0 0.2259496113806885 0.070300708218039992 0 0.2248665156508784 0.061611733455129589 0 0.21450653174737461 0.057635669175196122 0 0.2259496113806885 0.070300708218039992 0 0.22613356481757629 0.0775902723280468 0 0.23739269101400209 0.082965747260884265 0 0.2259496113806885 0.070300708218039992 0 0.23739269101400209 0.082965747260884265 0 0.237967452106535 0.070105640596903412 0 0.2259496113806885 0.070300708218039992 0 0.23739269101400209 0.082965747260884265 0 0.2259496113806885 0.070300708218039992 0 0.2330718446673557 0.064441819436705627 0 0.2248665156508784 0.061611733455129589 0 0.2259496113806885 0.070300708218039992 0 0.2330718446673557 0.064441819436705627 0 0.237967452106535 0.070105640596903412 0 0.2308580048349978 0.09939168424622695 0 0.21723881235993189 0.092441087960636145 0 0.23739269101400209 0.082965747260884265 0 0.21723881235993189 0.092441087960636145 0 0.22613356481757629 0.0775902723280468 0 0.23739269101400209 0.082965747260884265 0 0.21723881235993189 0.092441087960636145 0 0.23739269101400209 0.082965747260884265 0 0.23739269101400209 0.082965747260884265 0 0.25158482098595109 0.098673396421397969 0 0.23739269101400209 0.082965747260884265 0 0.25243039498113262 0.075895774732197205 0 0.25158482098595109 0.098673396421397969 0 0.2308580048349978 0.09939168424622695 0 0.23739269101400209 0.082965747260884265 0 0.25158482098595109 0.098673396421397969 0 0.23739269101400209 0.082965747260884265 0 0.25243039498113262 0.075895774732197205 0 0.23934469018649959 0.064583282500140851 0 0.237967452106535 0.070105640596903412 0 0.24496427956833819 0.066036472520138348 0 0.2330718446673557 0.064441819436705627 0 0.23934469018649959 0.064583282500140851 0 0.2376257901407148 0.059976102198904507 0 0.2330718446673557 0.064441819436705627 0 0.23934469018649959 0.064583282500140851 0 0.237967452106535 0.070105640596903412 0 0.23739269101400209 0.082965747260884265 0 0.237967452106535 0.070105640596903412 0 0.24429048066179679 0.072622021298478806 0 0.24429048066179679 0.072622021298478806 0 0.24842415088314279 0.069033451464499671 0 0.25243039498113262 0.075895774732197205 0 0.23739269101400209 0.082965747260884265 0 0.24429048066179679 0.072622021298478806 0 0.25243039498113262 0.075895774732197205 0 0.24842415088314279 0.069033451464499671 0 0.24853219730195361 0.063845178725116872 0 0.25274476311700622 0.067427493409812952 0 0.237967452106535 0.070105640596903412 0 0.24429048066179679 0.072622021298478806 0 0.24496427956833819 0.066036472520138348 0 0.24429048066179679 0.072622021298478806 0 0.24842415088314279 0.069033451464499671 0 0.24496427956833819 0.066036472520138348 0 0.23934469018649959 0.064583282500140851 0 0.24496427956833819 0.066036472520138348 0 0.24309408444955441 0.062356377748052388 0 0.24496427956833819 0.066036472520138348 0 0.24602681454492631 0.062964227281045088 0 0.24309408444955441 0.062356377748052388 0 0.24496427956833819 0.066036472520138348 0 0.24602681454492631 0.062964227281045088 0 0.24853219730195361 0.063845178725116872 0 0.24842415088314279 0.069033451464499671 0 0.24496427956833819 0.066036472520138348 0 0.24853219730195361 0.063845178725116872 0 0.24751669685985911 0.059618880130872708 0 0.24309408444955441 0.062356377748052388 0 0.2376257901407148 0.059976102198904507 0 0.24751669685985911 0.059618880130872708 0 0.24426241142214139 0.049994713685017962 0 0.2310385276818335 0.053106641608170198 0 0.24751669685985911 0.059618880130872708 0 0.2376257901407148 0.059976102198904507 0 0.2310385276818335 0.053106641608170198 0 0.24751669685985911 0.059618880130872708 0 0.2310385276818335 0.053106641608170198 0 0.24853219730195361 0.063845178725116872 0 0.24751669685985911 0.059618880130872708 0 0.2530174900015254 0.0600809219264858 0 0.24602681454492631 0.062964227281045088 0 0.24853219730195361 0.063845178725116872 0 0.24751669685985911 0.059618880130872708 0 0.24602681454492631 0.062964227281045088 0 0.24751669685985911 0.059618880130872708 0 0.24309408444955441 0.062356377748052388 0 0.23934469018649959 0.064583282500140851 0 0.24309408444955441 0.062356377748052388 0 0.2376257901407148 0.059976102198904507 0 0.24426241142214139 0.049994713685017962 0 0.23928634064401511 0.040096757013566242 0 0.2310385276818335 0.053106641608170198 0 0.24751669685985911 0.059618880130872708 0 0.24426241142214139 0.049994713685017962 0 0.25102243244437311 0.053297338652025752 0 0.24426241142214139 0.049994713685017962 0 0.25174039047255609 0.044464402284776217 0 0.25102243244437311 0.053297338652025752 0 0.23928634064401511 0.040096757013566242 0 0.2320502206633881 0.021165953515508481 0 0.25044211127373811 0.032849993626191502 0 0.23928634064401511 0.040096757013566242 0 0.25044211127373811 0.032849993626191502 0 0.25174039047255609 0.044464402284776217 0 0.24426241142214139 0.049994713685017962 0 0.23928634064401511 0.040096757013566242 0 0.25174039047255609 0.044464402284776217 0 0.22618438235043381 0.038998837361733103 0 0.2320502206633881 0.021165953515508481 0 0.20963369093729961 0.03941564640516447 0 0.23928634064401511 0.040096757013566242 0 0.22618438235043381 0.038998837361733103 0 0.2320502206633881 0.021165953515508481 0 0.22618438235043381 0.038998837361733103 0 0.2310385276818335 0.053106641608170198 0 0.21456035850380811 0.046594403085467223 0 0.23928634064401511 0.040096757013566242 0 0.22618438235043381 0.038998837361733103 0 0.2310385276818335 0.053106641608170198 0 0.2310385276818335 0.053106641608170198 0 0.21456035850380811 0.046594403085467223 0 0.2248665156508784 0.061611733455129589 0 0.2310385276818335 0.053106641608170198 0 0.21456035850380811 0.046594403085467223 0 0.2248665156508784 0.061611733455129589 0 0.21456035850380811 0.046594403085467223 0 0.2330718446673557 0.064441819436705627 0 0.2248665156508784 0.061611733455129589 0 0.23150027442910881 0.059501590197602497 0 0.2248665156508784 0.061611733455129589 0 0.23150027442910881 0.059501590197602497 0 0.2310385276818335 0.053106641608170198 0 0.2330718446673557 0.064441819436705627 0 0.2376257901407148 0.059976102198904507 0 0.23150027442910881 0.059501590197602497 0 0.2376257901407148 0.059976102198904507 0 0.23150027442910881 0.059501590197602497 0 0.2310385276818335 0.053106641608170198 0 0.2320502206633881 0.021165953515508481 0 0.22999165343287109 0.0038227322559807589 0 0.25446675038947358 0.0029162606258486688 0 0.2320502206633881 0.021165953515508481 0 0.2600935707136679 0.019574361616358959 0 0.25446675038947358 0.0029162606258486688 0 0.22999165343287109 0.0038227322559807589 0 0.25446675038947358 0.0029162606258486688 0 0.24138147174972829 -0.0061427828714447699 0 0.2320502206633881 0.021165953515508481 0 0.25446675038947358 0.0029162606258486688 0 0.2320502206633881 0.021165953515508481 0 0.2600935707136679 0.019574361616358959 0 0.25044211127373811 0.032849993626191502 0 0.2320502206633881 0.021165953515508481 0 0.20963369093729961 0.03941564640516447 0 0.22999165343287109 0.0038227322559807589 0 0.21340461703840111 0.0096506044731711187 0 0.21351355446813719 -0.0021103410187178909 0 0.2320502206633881 0.021165953515508481 0 0.22999165343287109 0.0038227322559807589 0 0.21340461703840111 0.0096506044731711187 0 0.21340461703840111 0.0096506044731711187 0 0.1998105265397013 0.00335350757378736 0 0.21351355446813719 -0.0021103410187178909 0 0.21340461703840111 0.0096506044731711187 0 0.20371525389429951 0.01279949030761077 0 0.2082588668535221 0.02245160931237615 0 0.21340461703840111 0.0096506044731711187 0 0.20371525389429951 0.01279949030761077 0 0.1998105265397013 0.00335350757378736 0 0.2320502206633881 0.021165953515508481 0 0.2082588668535221 0.02245160931237615 0 0.20963369093729961 0.03941564640516447 0 0.2320502206633881 0.021165953515508481 0 0.21340461703840111 0.0096506044731711187 0 0.2082588668535221 0.02245160931237615 0 0.2082588668535221 0.02245160931237615 0 0.19338700514557339 0.015742239871108451 0 0.20963369093729961 0.03941564640516447 0 0.19338700514557339 0.015742239871108451 0 0.1989601287501698 0.040429129743079398 0 0.18048502430789731 0.01998114488410483 0 0.1989601287501698 0.040429129743079398 0 0.18048502430789731 0.01998114488410483 0 0.19338700514557339 0.015742239871108451 0 0.20963369093729961 0.03941564640516447 0 0.20371525389429951 0.01279949030761077 0 0.2082588668535221 0.02245160931237615 0 0.19338700514557339 0.015742239871108451 0 0.19338700514557339 0.015742239871108451 0 0.1998105265397013 0.00335350757378736 0 0.17714031935384769 -0.0079311666629475405 0 0.20371525389429951 0.01279949030761077 0 0.19338700514557339 0.015742239871108451 0 0.1998105265397013 0.00335350757378736 0 0.21450653174737461 0.057635669175196122 0 0.2029561920580818 0.044851916216142339 0 0.21450653174737461 0.057635669175196122 0 0.2029561920580818 0.044851916216142339 0 0.2021088015620611 0.053433964061651712 0 0.21450653174737461 0.057635669175196122 0 0.21456035850380811 0.046594403085467223 0 0.2029561920580818 0.044851916216142339 0 0.2082291800225603 0.066043280120252124 0 0.21450653174737461 0.057635669175196122 0 0.2021088015620611 0.053433964061651712 0 0.2248665156508784 0.061611733455129589 0 0.21450653174737461 0.057635669175196122 0 0.21456035850380811 0.046594403085467223 0 0.2082291800225603 0.066043280120252124 0 0.21450653174737461 0.057635669175196122 0 0.22618438235043381 0.038998837361733103 0 0.21456035850380811 0.046594403085467223 0 0.20963369093729961 0.03941564640516447 0 0.21456035850380811 0.046594403085467223 0 0.20963369093729961 0.03941564640516447 0 0.21456035850380811 0.046594403085467223 0 0.20530753189452691 0.042937648913457381 0 0.2029561920580818 0.044851916216142339 0 0.20963369093729961 0.03941564640516447 0 0.20530753189452691 0.042937648913457381 0 0.1989601287501698 0.040429129743079398 0 0.21456035850380811 0.046594403085467223 0 0.20530753189452691 0.042937648913457381 0 0.21456035850380811 0.046594403085467223 0 0.20963369093729961 0.03941564640516447 0 0.20530753189452691 0.042937648913457381 0 0.20963369093729961 0.03941564640516447 0 0.20530753189452691 0.042937648913457381 0 0.20530753189452691 0.042937648913457381 0 0.2029561920580818 0.044851916216142339 0 0.1989601287501698 0.040429129743079398 0 0.1774654858828027 0.031934360706524292 0 0.2029561920580818 0.044851916216142339 0 0.1989601287501698 0.040429129743079398 0 0.19971656766465989 0.047489351670260083 0 0.1989601287501698 0.040429129743079398 0 0.19133087755196571 0.045131483978966998 0 0.19971656766465989 0.047489351670260083 0 0.2029561920580818 0.044851916216142339 0 0.19971656766465989 0.047489351670260083 0 0.19338700514557339 0.015742239871108451 0 0.20963369093729961 0.03941564640516447 0 0.1989601287501698 0.040429129743079398 0 0.1989601287501698 0.040429129743079398 0 0.19133087755196571 0.045131483978966998 0 0.18298678422305309 0.040980100737508622 0 0.20530753189452691 0.042937648913457381 0 0.2029561920580818 0.044851916216142339 0 0.1989601287501698 0.040429129743079398 0 0.20530753189452691 0.042937648913457381 0 0.1989601287501698 0.040429129743079398 0 0.2029561920580818 0.044851916216142339 0 0.1989601287501698 0.040429129743079398 0 0.2082291800225603 0.066043280120252124 0 0.18513553631762919 0.051149603126408108 0 0.2021088015620611 0.053433964061651712 0 0.19971656766465989 0.047489351670260083 0 0.18513553631762919 0.051149603126408108 0 0.2082291800225603 0.066043280120252124 0 0.2021088015620611 0.053433964061651712 0 0.18513553631762919 0.051149603126408108 0 0.19067723801237901 0.065525043857756982 0 0.2082291800225603 0.066043280120252124 0 0.18513553631762919 0.051149603126408108 0 0.19133087755196571 0.045131483978966998 0 0.19971656766465989 0.047489351670260083 0 0.18513553631762919 0.051149603126408108 0 0.2029561920580818 0.044851916216142339 0 0.2021088015620611 0.053433964061651712 0 0.19971656766465989 0.047489351670260083 0 0.17734631865053521 0.060730067185729229 0 0.18513553631762919 0.051149603126408108 0 0.16725106424272049 0.052894846580172288 0 0.19067723801237901 0.065525043857756982 0 0.17734631865053521 0.060730067185729229 0 0.18513553631762919 0.051149603126408108 0 0.18298678422305309 0.040980100737508622 0 0.1774654858828027 0.031934360706524292 0 0.1620418926126978 0.036255926132564682 0 0.19133087755196571 0.045131483978966998 0 0.18513553631762919 0.051149603126408108 0 0.18298678422305309 0.040980100737508622 0 0.18513553631762919 0.051149603126408108 0 0.18298678422305309 0.040980100737508622 0 0.1620418926126978 0.036255926132564682 0 0.1989601287501698 0.040429129743079398 0 0.18298678422305309 0.040980100737508622 0 0.1774654858828027 0.031934360706524292 0 0.18513553631762919 0.051149603126408108 0 0.1620418926126978 0.036255926132564682 0 0.1620418926126978 0.036255926132564682 0 0.16725106424272049 0.052894846580172288 0 0.15541952745182569 0.04677658384696623 0 0.18513553631762919 0.051149603126408108 0 0.1620418926126978 0.036255926132564682 0 0.16725106424272049 0.052894846580172288 0 0.16725106424272049 0.052894846580172288 0 0.15507694825043991 0.057889849327421902 0 0.15541952745182569 0.04677658384696623 0 0.16725106424272049 0.052894846580172288 0 0.15507694825043991 0.057889849327421902 0 0.1653937448538241 0.067538194789913991 0 0.17734631865053521 0.060730067185729229 0 0.16725106424272049 0.052894846580172288 0 0.1653937448538241 0.067538194789913991 0 0.18048502430789731 0.01998114488410483 0 0.1657030786406338 0.0084270166623369204 0 0.17714031935384769 -0.0079311666629475405 0 0.19338700514557339 0.015742239871108451 0 0.17714031935384769 -0.0079311666629475405 0 0.19338700514557339 0.015742239871108451 0 0.18048502430789731 0.01998114488410483 0 0.17714031935384769 -0.0079311666629475405 0 0.1989601287501698 0.040429129743079398 0 0.1774654858828027 0.031934360706524292 0 0.18048502430789731 0.01998114488410483 0 0.1774654858828027 0.031934360706524292 0 0.18048502430789731 0.01998114488410483 0 0.16935520337559401 0.020657770454092759 0 0.1774654858828027 0.031934360706524292 0 0.15597084301543529 0.02343959166996953 0 0.1774654858828027 0.031934360706524292 0 0.1620418926126978 0.036255926132564682 0 0.15597084301543529 0.02343959166996953 0 0.1774654858828027 0.031934360706524292 0 0.16935520337559401 0.020657770454092759 0 0.15597084301543529 0.02343959166996953 0 0.16935520337559401 0.020657770454092759 0 0.1657030786406338 0.0084270166623369204 0 0.15597084301543529 0.02343959166996953 0 0.18048502430789731 0.01998114488410483 0 0.16935520337559401 0.020657770454092759 0 0.1657030786406338 0.0084270166623369204 0 0.1657030786406338 0.0084270166623369204 0 0.14883794818754281 0.01110572894874149 0 0.15480995508657039 -0.001084596553268768 0 0.1657030786406338 0.0084270166623369204 0 0.14883794818754281 0.01110572894874149 0 0.15597084301543529 0.02343959166996953 0 0.14883794818754281 0.01110572894874149 0 0.13464870039648349 0.00080453217212592717 0 0.15480995508657039 -0.001084596553268768 0 0.14883794818754281 0.01110572894874149 0 0.13894824890776639 0.02136224913872127 0 0.13464870039648349 0.00080453217212592717 0 0.1620418926126978 0.036255926132564682 0 0.13894824890776639 0.02136224913872127 0 0.14883794818754281 0.01110572894874149 0 0.15597084301543529 0.02343959166996953 0 0.13894824890776639 0.02136224913872127 0 0.1620418926126978 0.036255926132564682 0 0.15597084301543529 0.02343959166996953 0 0.13894824890776639 0.02136224913872127 0 0.11961069471150609 0.02296590295220987 0 0.13894824890776639 0.02136224913872127 0 0.12977361784467401 0.039215218793308727 0 0.1158546052028349 0.0064685721448778594 0 0.13894824890776639 0.02136224913872127 0 0.1158546052028349 0.0064685721448778594 0 0.13894824890776639 0.02136224913872127 0 0.13464870039648349 0.00080453217212592717 0 0.14278372382386809 0.048416123664777412 0 0.1428601767931531 0.062084067640591357 0 0.15507694825043991 0.057889849327421902 0 0.14278372382386809 0.048416123664777412 0 0.15507694825043991 0.057889849327421902 0 0.15541952745182569 0.04677658384696623 0 0.1620418926126978 0.036255926132564682 0 0.13894824890776639 0.02136224913872127 0 0.14579340212816641 0.038405220315267663 0 0.1620418926126978 0.036255926132564682 0 0.15541952745182569 0.04677658384696623 0 0.14579340212816641 0.038405220315267663 0 0.14278372382386809 0.048416123664777412 0 0.15541952745182569 0.04677658384696623 0 0.14579340212816641 0.038405220315267663 0 0.14278372382386809 0.048416123664777412 0 0.14579340212816641 0.038405220315267663 0 0.12977361784467401 0.039215218793308727 0 0.13894824890776639 0.02136224913872127 0 0.14579340212816641 0.038405220315267663 0 0.12977361784467401 0.039215218793308727 0 0.11550376979223601 0.054551475820320147 0 0.12977361784467401 0.039215218793308727 0 0.1326943019686847 0.054606112458038862 0 0.11550376979223601 0.054551475820320147 0 0.1326943019686847 0.054606112458038862 0 0.13255022158949201 0.068763676371196639 0 0.14278372382386809 0.048416123664777412 0 0.12977361784467401 0.039215218793308727 0 0.1326943019686847 0.054606112458038862 0 0.14278372382386809 0.048416123664777412 0 0.1428601767931531 0.062084067640591357 0 0.1326943019686847 0.054606112458038862 0 0.1428601767931531 0.062084067640591357 0 0.1326943019686847 0.054606112458038862 0 0.13255022158949201 0.068763676371196639 0 0.1207366242219714 0.074251990558816788 0 0.13255022158949201 0.068763676371196639 0 0.13578085374332971 0.077614708003019631 0 0.13255022158949201 0.068763676371196639 0 0.13578085374332971 0.077614708003019631 0 0.1430759120552613 0.073085192731263071 0 0.1428601767931531 0.062084067640591357 0 0.13255022158949201 0.068763676371196639 0 0.1430759120552613 0.073085192731263071 0 0.1428601767931531 0.062084067640591357 0 0.1430759120552613 0.073085192731263071 0 0.15260580868734391 0.069203578475014266 0 0.1430759120552613 0.073085192731263071 0 0.14969883640752091 0.076610515579137797 0 0.14563192422462459 0.083183778073064013 0 0.13578085374332971 0.077614708003019631 0 0.1430759120552613 0.073085192731263071 0 0.14563192422462459 0.083183778073064013 0 0.1430759120552613 0.073085192731263071 0 0.14969883640752091 0.076610515579137797 0 0.15260580868734391 0.069203578475014266 0 0.14969883640752091 0.076610515579137797 0 0.15260580868734391 0.069203578475014266 0 0.15677919641446331 0.080277826610221981 0 0.1428601767931531 0.062084067640591357 0 0.15507694825043991 0.057889849327421902 0 0.15260580868734391 0.069203578475014266 0 0.1506819444987289 0.088437751930635633 0 0.14868901735932749 0.09586058707093438 0 0.157853861938485 0.092527754269896317 0 0.1506819444987289 0.088437751930635633 0 0.15677919641446331 0.080277826610221981 0 0.157853861938485 0.092527754269896317 0 0.14969883640752091 0.076610515579137797 0 0.14563192422462459 0.083183778073064013 0 0.15677919641446331 0.080277826610221981 0 0.1506819444987289 0.088437751930635633 0 0.14563192422462459 0.083183778073064013 0 0.15677919641446331 0.080277826610221981 0 0.14563192422462459 0.083183778073064013 0 0.1444557225567443 0.090338813629061501 0 0.13888671887288589 0.088270852986767859 0 0.1506819444987289 0.088437751930635633 0 0.14563192422462459 0.083183778073064013 0 0.1444557225567443 0.090338813629061501 0 0.1444557225567443 0.090338813629061501 0 0.14209274384079601 0.094639397504520467 0 0.14868901735932749 0.09586058707093438 0 0.1506819444987289 0.088437751930635633 0 0.1444557225567443 0.090338813629061501 0 0.14868901735932749 0.09586058707093438 0 0.1444557225567443 0.090338813629061501 0 0.13888671887288589 0.088270852986767859 0 0.14209274384079601 0.094639397504520467 0 0.13888671887288589 0.088270852986767859 0 0.13668050292917741 0.098217611464673699 0 0.14209274384079601 0.094639397504520467 0 0.13888671887288589 0.088270852986767859 0 0.1300820653953097 0.084166932106396392 0 0.13668050292917741 0.098217611464673699 0 0.11116449005577619 0.086473750785835857 0 0.1300820653953097 0.084166932106396392 0 0.13668050292917741 0.098217611464673699 0 0.13578085374332971 0.077614708003019631 0 0.13888671887288589 0.088270852986767859 0 0.1300820653953097 0.084166932106396392 0 0.13578085374332971 0.077614708003019631 0 0.14563192422462459 0.083183778073064013 0 0.13888671887288589 0.088270852986767859 0 0.1207366242219714 0.074251990558816788 0 0.13578085374332971 0.077614708003019631 0 0.1300820653953097 0.084166932106396392 0 0.1216961693062274 0.1020981758197984 0 0.1302764983332621 0.10693497851168419 0 0.13668050292917741 0.098217611464673699 0 0.1302764983332621 0.10693497851168419 0 0.13758713408363871 0.1043360441680015 0 0.13668050292917741 0.098217611464673699 0 0.1302764983332621 0.10693497851168419 0 0.1360833458267342 0.1084620534226548 0 0.13758713408363871 0.1043360441680015 0 0.1360833458267342 0.1084620534226548 0 0.13758713408363871 0.1043360441680015 0 0.14314356584317489 0.10755645506983 0 0.13758713408363871 0.1043360441680015 0 0.13668050292917741 0.098217611464673699 0 0.14175175748584509 0.1005091223711649 0 0.13668050292917741 0.098217611464673699 0 0.14209274384079601 0.094639397504520467 0 0.14175175748584509 0.1005091223711649 0 0.12813823657366311 0.12049833089676459 0 0.13246275659848361 0.1130811342378658 0 0.13708322035591489 0.118794437000363 0 0.12212988809696081 0.1249307776834532 0 0.12788127083107459 0.1291064789800366 0 0.12813823657366311 0.12049833089676459 0 0.1197878353292403 0.1092484053650479 0 0.1302764983332621 0.10693497851168419 0 0.12624189261331301 0.1140678077034443 0 0.12813823657366311 0.12049833089676459 0 0.12624189261331301 0.1140678077034443 0 0.13246275659848361 0.1130811342378658 0 0.1302764983332621 0.10693497851168419 0 0.12624189261331301 0.1140678077034443 0 0.13246275659848361 0.1130811342378658 0 0.138866780176991 0.11235807520418389 0 0.13708322035591489 0.118794437000363 0 0.14572099158606311 0.1154247658161887 0 0.1360833458267342 0.1084620534226548 0 0.13246275659848361 0.1130811342378658 0 0.138866780176991 0.11235807520418389 0 0.1302764983332621 0.10693497851168419 0 0.1360833458267342 0.1084620534226548 0 0.13246275659848361 0.1130811342378658 0 0.1360833458267342 0.1084620534226548 0 0.138866780176991 0.11235807520418389 0 0.14314356584317489 0.10755645506983 0 0.13246275659848361 0.1130811342378658 0 0.138866780176991 0.11235807520418389 0 0.13708322035591489 0.118794437000363 0 0.13409394305489639 0.1257339851238449 0 0.14295710802469111 0.12768772724150559 0 0.13708322035591489 0.118794437000363 0 0.13409394305489639 0.1257339851238449 0 0.12813823657366311 0.12049833089676459 0 0.13708322035591489 0.118794437000363 0 0.14572099158606311 0.1154247658161887 0 0.15364605026385231 0.1227496740475859 0 0.15839207309433961 0.10550736800805539 0 0.14295710802469111 0.12768772724150559 0 0.13708322035591489 0.118794437000363 0 0.14572099158606311 0.1154247658161887 0 0.14295710802469111 0.12768772724150559 0 0.14572099158606311 0.1154247658161887 0 0.15364605026385231 0.1227496740475859 0 0.138866780176991 0.11235807520418389 0 0.14572099158606311 0.1154247658161887 0 0.14314356584317489 0.10755645506983 0 0.14572099158606311 0.1154247658161887 0 0.14314356584317489 0.10755645506983 0 0.15839207309433961 0.10550736800805539 0 0.14175175748584509 0.1005091223711649 0 0.15839207309433961 0.10550736800805539 0 0.14175175748584509 0.1005091223711649 0 0.14314356584317489 0.10755645506983 0 0.15839207309433961 0.10550736800805539 0 0.14175175748584509 0.1005091223711649 0 0.14868901735932749 0.09586058707093438 0 0.15839207309433961 0.10550736800805539 0 0.14209274384079601 0.094639397504520467 0 0.14175175748584509 0.1005091223711649 0 0.14868901735932749 0.09586058707093438 0 0.13758713408363871 0.1043360441680015 0 0.14175175748584509 0.1005091223711649 0 0.14314356584317489 0.10755645506983 0 0.14868901735932749 0.09586058707093438 0 0.15839207309433961 0.10550736800805539 0 0.157853861938485 0.092527754269896317 0 0.15839207309433961 0.10550736800805539 0 0.17503238870283441 0.11050561364494491 0 0.15839207309433961 0.10550736800805539 0 0.1705578526620479 0.095927182961129481 0 0.157853861938485 0.092527754269896317 0 0.15839207309433961 0.10550736800805539 0 0.1705578526620479 0.095927182961129481 0 0.17503238870283441 0.11050561364494491 0 0.16417220099380411 0.12505127510387981 0 0.15839207309433961 0.10550736800805539 0 0.17503238870283441 0.11050561364494491 0 0.16417220099380411 0.12505127510387981 0 0.15364605026385231 0.1227496740475859 0 0.15839207309433961 0.10550736800805539 0 0.16417220099380411 0.12505127510387981 0 0.17503238870283441 0.11050561364494491 0 0.18002451345814399 0.12716596121819479 0 0.16417220099380411 0.12505127510387981 0 0.17503238870283441 0.11050561364494491 0 0.18002451345814399 0.12716596121819479 0 0.2001236667938262 0.1180422718546187 0 0.17503238870283441 0.11050561364494491 0 0.1916307843626972 0.08827444688259839 0 0.1705578526620479 0.095927182961129481 0 0.17503238870283441 0.11050561364494491 0 0.1916307843626972 0.08827444688259839 0 0.17503238870283441 0.11050561364494491 0 0.1916307843626972 0.08827444688259839 0 0.17935943521264269 0.07135827912697662 0 0.16988015521188329 0.08282073200015258 0 0.1916307843626972 0.08827444688259839 0 0.1705578526620479 0.095927182961129481 0 0.16988015521188329 0.08282073200015258 0 0.19067723801237901 0.065525043857756982 0 0.1916307843626972 0.08827444688259839 0 0.17935943521264269 0.07135827912697662 0 0.19067723801237901 0.065525043857756982 0 0.17734631865053521 0.060730067185729229 0 0.17935943521264269 0.07135827912697662 0 0.17734631865053521 0.060730067185729229 0 0.17935943521264269 0.07135827912697662 0 0.1653937448538241 0.067538194789913991 0 0.17935943521264269 0.07135827912697662 0 0.1653937448538241 0.067538194789913991 0 0.16988015521188329 0.08282073200015258 0 0.15507694825043991 0.057889849327421902 0 0.15260580868734391 0.069203578475014266 0 0.1653937448538241 0.067538194789913991 0 0.15260580868734391 0.069203578475014266 0 0.1653937448538241 0.067538194789913991 0 0.15677919641446331 0.080277826610221981 0 0.1653937448538241 0.067538194789913991 0 0.15677919641446331 0.080277826610221981 0 0.16988015521188329 0.08282073200015258 0 0.15677919641446331 0.080277826610221981 0 0.157853861938485 0.092527754269896317 0 0.16988015521188329 0.08282073200015258 0 0.1705578526620479 0.095927182961129481 0 0.157853861938485 0.092527754269896317 0 0.16988015521188329 0.08282073200015258 0 0.099456207782380623 0.4822659283708195 0 0.1141892196830592 0.48396198267476093 0 0.11304725129434449 0.46767028325629811 0 0.099456207782380623 0.4822659283708195 0 0.11304725129434449 0.46767028325629811 0 0.096803680563272876 0.46646214520586099 0 0.099456207782380623 0.4822659283708195 0 0.10782601469385079 0.5 0 0.078267650747156567 0.50000000000000133 0 0.099456207782380623 0.4822659283708195 0 0.10782601469385079 0.5 0 0.1141892196830592 0.48396198267476093 0 0.10782601469385079 0.5 0 0.1249193769550877 0.49369376296818718 0 0.1141892196830592 0.48396198267476093 0 0.1249193769550877 0.49369376296818718 0 0.1141892196830592 0.48396198267476093 0 0.12569724768963239 0.47617993877849962 0 0.10782601469385079 0.5 0 0.1249193769550877 0.49369376296818718 0 0.13738437864054501 0.5 0 0.1141892196830592 0.48396198267476093 0 0.11304725129434449 0.46767028325629811 0 0.12569724768963239 0.47617993877849962 0 0.11304725129434449 0.46767028325629811 0 0.1267882431275838 0.46370707134437261 0 0.12569724768963239 0.47617993877849962 0 0.11304725129434449 0.46767028325629811 0 0.1221607865463437 0.4507156547582637 0 0.1004821270038239 0.44949914822431608 0 0.11304725129434449 0.46767028325629811 0 0.1221607865463437 0.4507156547582637 0 0.1267882431275838 0.46370707134437261 0 0.1221607865463437 0.4507156547582637 0 0.1004821270038239 0.44949914822431608 0 0.12259086230274099 0.42947812748907283 0 0.1004821270038239 0.44949914822431608 0 0.096803680563272876 0.46646214520586099 0 0.084307548883437972 0.45862843933572522 0 0.11304725129434449 0.46767028325629811 0 0.1004821270038239 0.44949914822431608 0 0.096803680563272876 0.46646214520586099 0 0.084307548883437972 0.45862843933572522 0 0.070120974899159305 0.46867166915081548 0 0.08254081050968877 0.47642281665818748 0 0.096803680563272876 0.46646214520586099 0 0.084307548883437972 0.45862843933572522 0 0.08254081050968877 0.47642281665818748 0 0.084307548883437972 0.45862843933572522 0 0.083205653112744402 0.44008551456546158 0 0.070599818540594342 0.45171728711773013 0 0.1004821270038239 0.44949914822431608 0 0.084307548883437972 0.45862843933572522 0 0.083205653112744402 0.44008551456546158 0 0.1004821270038239 0.44949914822431608 0 0.083205653112744402 0.44008551456546158 0 0.095892719888732866 0.42453745382262881 0 0.070599818540594342 0.45171728711773013 0 0.057347956450285731 0.44480695268810438 0 0.068330088192809502 0.43602814955066621 0 0.083205653112744402 0.44008551456546158 0 0.070599818540594342 0.45171728711773013 0 0.068330088192809502 0.43602814955066621 0 0.070599818540594342 0.45171728711773013 0 0.070120974899159305 0.46867166915081548 0 0.05832870883015126 0.45973880463956351 0 0.084307548883437972 0.45862843933572522 0 0.070599818540594342 0.45171728711773013 0 0.070120974899159305 0.46867166915081548 0 0.070120974899159305 0.46867166915081548 0 0.08254081050968877 0.47642281665818748 0 0.061557047466102868 0.48310025102256282 0 0.070120974899159305 0.46867166915081548 0 0.061557047466102868 0.48310025102256282 0 0.05832870883015126 0.45973880463956351 0 0.099456207782380623 0.4822659283708195 0 0.096803680563272876 0.46646214520586099 0 0.08254081050968877 0.47642281665818748 0 0.099456207782380623 0.4822659283708195 0 0.08254081050968877 0.47642281665818748 0 0.078267650747156567 0.50000000000000133 0 0.078267650747156567 0.50000000000000133 0 0.049166882519808157 0.5 0 0.061557047466102868 0.48310025102256282 0 0.08254081050968877 0.47642281665818748 0 0.078267650747156567 0.50000000000000133 0 0.061557047466102868 0.48310025102256282 0 0.078267650747156567 0.50000000000000133 0 0.061557047466102868 0.48310025102256282 0 0.049166882519808157 0.5 0 0.061557047466102868 0.48310025102256282 0 0.038208171894904559 0.48286056860770488 0 0.061557047466102868 0.48310025102256282 0 0.044846444185049857 0.46620050204512359 0 0.05832870883015126 0.45973880463956351 0 0.061557047466102868 0.48310025102256282 0 0.044846444185049857 0.46620050204512359 0 0.061557047466102868 0.48310025102256282 0 0.038208171894904559 0.48286056860770488 0 0.044846444185049857 0.46620050204512359 0 0.038208171894904559 0.48286056860770488 0 0.029572045059576241 0.469060477695939 0 0.044846444185049857 0.46620050204512359 0 0.049166882519808157 0.5 0 0.038208171894904559 0.48286056860770488 0 0.020066114292459799 0.5 0 0.038208171894904559 0.48286056860770488 0 0.020066114292459799 0.5 0 0.021055159894441029 0.48095839664786189 0 0.038208171894904559 0.48286056860770488 0 0.029572045059576241 0.469060477695939 0 0.021055159894441029 0.48095839664786189 0 0.029572045059576241 0.469060477695939 0 0.021055159894441029 0.48095839664786189 0 0.01561460841948897 0.46598216811131982 0 0.021055159894441029 0.48095839664786189 0 0.0030933759349822849 0.48266358315495572 0 0.01561460841948897 0.46598216811131982 0 0.0030933759349822849 0.48266358315495572 0 0.01561460841948897 0.46598216811131982 0 0.0036787250480955699 0.47408322248379448 0 0.0030933759349822849 0.48266358315495572 0 0.01561460841948897 0.46598216811131982 0 -0.0016340076521478781 0.48633642657919801 0 0.0036787250480955699 0.47408322248379448 0 0.0030933759349822849 0.48266358315495572 0 0.020066114292459799 0.5 0 0.021055159894441029 0.48095839664786189 0 0.0030933759349822849 0.48266358315495572 0 -0.0090346539348886701 0.5 0 -0.0016340076521478781 0.48633642657919801 0 0.020066114292459799 0.5 0 -0.0016340076521478781 0.48633642657919801 0 0.020066114292459799 0.5 0 0.0030933759349822849 0.48266358315495572 0 -0.0030841453677343121 0.43636499760021141 0 -0.002359076509941094 0.46135071208970457 0 0.010470448459028871 0.45111158928184719 0 -0.0030841453677343121 0.43636499760021141 0 0.010470448459028871 0.45111158928184719 0 0.017893296784651399 0.43894227458572882 0 -0.002359076509941094 0.46135071208970457 0 0.010470448459028871 0.45111158928184719 0 0.01561460841948897 0.46598216811131982 0 -0.002359076509941094 0.46135071208970457 0 0.0036787250480955699 0.47408322248379448 0 0.01561460841948897 0.46598216811131982 0 0.010470448459028871 0.45111158928184719 0 0.01561460841948897 0.46598216811131982 0 0.0281358409039968 0.44930075306768458 0 0.029572045059576241 0.469060477695939 0 0.01561460841948897 0.46598216811131982 0 0.0281358409039968 0.44930075306768458 0 0.01561460841948897 0.46598216811131982 0 0.0281358409039968 0.44930075306768458 0 0.010470448459028871 0.45111158928184719 0 0.0281358409039968 0.44930075306768458 0 0.017893296784651399 0.43894227458572882 0 0.0281358409039968 0.44930075306768458 0 0.017893296784651399 0.43894227458572882 0 0.03800042812263172 0.43615865433005307 0 0.0281358409039968 0.44930075306768458 0 0.017893296784651399 0.43894227458572882 0 0.0281358409039968 0.44930075306768458 0 0.04587361322417214 0.448769157871174 0 0.03800042812263172 0.43615865433005307 0 0.0281358409039968 0.44930075306768458 0 0.03800042812263172 0.43615865433005307 0 0.04587361322417214 0.448769157871174 0 0.049411209704934803 0.43621283219101809 0 0.03800042812263172 0.43615865433005307 0 0.029572045059576241 0.469060477695939 0 0.0281358409039968 0.44930075306768458 0 0.044846444185049857 0.46620050204512359 0 0.0281358409039968 0.44930075306768458 0 0.04587361322417214 0.448769157871174 0 0.044846444185049857 0.46620050204512359 0 0.0281358409039968 0.44930075306768458 0 0.044846444185049857 0.46620050204512359 0 0.04587361322417214 0.448769157871174 0 0.044846444185049857 0.46620050204512359 0 0.05832870883015126 0.45973880463956351 0 0.04587361322417214 0.448769157871174 0 0.057347956450285731 0.44480695268810438 0 0.049411209704934803 0.43621283219101809 0 0.04587361322417214 0.448769157871174 0 0.05832870883015126 0.45973880463956351 0 0.057347956450285731 0.44480695268810438 0 0.070599818540594342 0.45171728711773013 0 0.05832870883015126 0.45973880463956351 0 0.057347956450285731 0.44480695268810438 0 0.057347956450285731 0.44480695268810438 0 0.058238482531349368 0.43512174465279091 0 0.068330088192809502 0.43602814955066621 0 0.057347956450285731 0.44480695268810438 0 0.058238482531349368 0.43512174465279091 0 0.049411209704934803 0.43621283219101809 0 0.058238482531349368 0.43512174465279091 0 0.05412352915042095 0.42739076434297479 0 0.063786863135573219 0.4234822836218442 0 0.05412352915042095 0.42739076434297479 0 0.047865015341267358 0.42301655559242213 0 0.049411209704934803 0.43621283219101809 0 0.05412352915042095 0.42739076434297479 0 0.047865015341267358 0.42301655559242213 0 0.058238482531349368 0.43512174465279091 0 0.05412352915042095 0.42739076434297479 0 0.049411209704934803 0.43621283219101809 0 0.047865015341267358 0.42301655559242213 0 0.055388731832649349 0.41299308245440008 0 0.044385004541519633 0.40583709082877739 0 0.055388731832649349 0.41299308245440008 0 0.057103340742871267 0.4006394318358022 0 0.0691327228978319 0.40699071288372829 0 0.05412352915042095 0.42739076434297479 0 0.055388731832649349 0.41299308245440008 0 0.063786863135573219 0.4234822836218442 0 0.047865015341267358 0.42301655559242213 0 0.055388731832649349 0.41299308245440008 0 0.05412352915042095 0.42739076434297479 0 0.047865015341267358 0.42301655559242213 0 0.055388731832649349 0.41299308245440008 0 0.055388731832649349 0.41299308245440008 0 0.044385004541519633 0.40583709082877739 0 0.057103340742871267 0.4006394318358022 0 0.047865015341267358 0.42301655559242213 0 0.030398582533070099 0.41080889326869052 0 0.044385004541519633 0.40583709082877739 0 0.047865015341267358 0.42301655559242213 0 0.035686717363660143 0.42423985257235269 0 0.030398582533070099 0.41080889326869052 0 0.047865015341267358 0.42301655559242213 0 0.030398582533070099 0.41080889326869052 0 0.047865015341267358 0.42301655559242213 0 0.049411209704934803 0.43621283219101809 0 0.03800042812263172 0.43615865433005307 0 0.047865015341267358 0.42301655559242213 0 0.03800042812263172 0.43615865433005307 0 0.047865015341267358 0.42301655559242213 0 0.035686717363660143 0.42423985257235269 0 0.03800042812263172 0.43615865433005307 0 0.035686717363660143 0.42423985257235269 0 0.03800042812263172 0.43615865433005307 0 0.0264828434576714 0.42697530709824522 0 0.017893296784651399 0.43894227458572882 0 0.0264828434576714 0.42697530709824522 0 0.013451351612083251 0.42022136891186163 0 0.017893296784651399 0.43894227458572882 0 0.03800042812263172 0.43615865433005307 0 0.0264828434576714 0.42697530709824522 0 0.030398582533070099 0.41080889326869052 0 0.013451351612083251 0.42022136891186163 0 0.012932149724872831 0.39860123094495892 0 0.0264828434576714 0.42697530709824522 0 0.030398582533070099 0.41080889326869052 0 0.013451351612083251 0.42022136891186163 0 0.035686717363660143 0.42423985257235269 0 0.0264828434576714 0.42697530709824522 0 0.030398582533070099 0.41080889326869052 0 -0.0038092142255275289 0.41137928311071797 0 0.013451351612083251 0.42022136891186163 0 0.012932149724872831 0.39860123094495892 0 -0.0030841453677343121 0.43636499760021141 0 0.017893296784651399 0.43894227458572882 0 0.013451351612083251 0.42022136891186163 0 -0.0030841453677343121 0.43636499760021141 0 -0.0038092142255275289 0.41137928311071797 0 0.013451351612083251 0.42022136891186163 0 -0.0045342830833226501 0.3863935686212247 0 0.012932149724872831 0.39860123094495892 0 0.0079023355216259559 0.37348921158265391 0 0.012932149724872831 0.39860123094495892 0 0.025375843575522711 0.38021681034322929 0 0.0079023355216259559 0.37348921158265391 0 -0.0045342830833226501 0.3863935686212247 0 0.012932149724872831 0.39860123094495892 0 -0.0045342830833226501 0.3863935686212247 0 -0.0038092142255275289 0.41137928311071797 0 0.012932149724872831 0.39860123094495892 0 0.030398582533070099 0.41080889326869052 0 0.012932149724872831 0.39860123094495892 0 0.030398582533070099 0.41080889326869052 0 0.012932149724872831 0.39860123094495892 0 0.030218872497922818 0.39559608178221078 0 0.012932149724872831 0.39860123094495892 0 0.030218872497922818 0.39559608178221078 0 0.025375843575522711 0.38021681034322929 0 0.025375843575522711 0.38021681034322929 0 0.045236422390978262 0.39339421550307069 0 0.045418656597819553 0.37354288132317159 0 0.030218872497922818 0.39559608178221078 0 0.025375843575522711 0.38021681034322929 0 0.045236422390978262 0.39339421550307069 0 0.030398582533070099 0.41080889326869052 0 0.030218872497922818 0.39559608178221078 0 0.044385004541519633 0.40583709082877739 0 0.030218872497922818 0.39559608178221078 0 0.045236422390978262 0.39339421550307069 0 0.044385004541519633 0.40583709082877739 0 0.045236422390978262 0.39339421550307069 0 0.057103340742871267 0.4006394318358022 0 0.06607043693335328 0.38973814947632979 0 0.045236422390978262 0.39339421550307069 0 0.044385004541519633 0.40583709082877739 0 0.057103340742871267 0.4006394318358022 0 0.045236422390978262 0.39339421550307069 0 0.06607043693335328 0.38973814947632979 0 0.045418656597819553 0.37354288132317159 0 0.06607043693335328 0.38973814947632979 0 0.066778362586220691 0.36264744131756171 0 0.045418656597819553 0.37354288132317159 0 0.06607043693335328 0.38973814947632979 0 0.086713905658550791 0.37461406501925459 0 0.066778362586220691 0.36264744131756171 0 0.091303312773641829 0.3995757594209417 0 0.1025776524751303 0.38486691706586951 0 0.086713905658550791 0.37461406501925459 0 0.06607043693335328 0.38973814947632979 0 0.091303312773641829 0.3995757594209417 0 0.086713905658550791 0.37461406501925459 0 0.091303312773641829 0.3995757594209417 0 0.086713905658550791 0.37461406501925459 0 0.06607043693335328 0.38973814947632979 0 0.091303312773641829 0.3995757594209417 0 0.0691327228978319 0.40699071288372829 0 0.057103340742871267 0.4006394318358022 0 0.06607043693335328 0.38973814947632979 0 0.0691327228978319 0.40699071288372829 0 0.055388731832649349 0.41299308245440008 0 0.0691327228978319 0.40699071288372829 0 0.063786863135573219 0.4234822836218442 0 0.0691327228978319 0.40699071288372829 0 0.077714875811277062 0.4214876261871765 0 0.063786863135573219 0.4234822836218442 0 0.083205653112744402 0.44008551456546158 0 0.077714875811277062 0.4214876261871765 0 0.068330088192809502 0.43602814955066621 0 0.058238482531349368 0.43512174465279091 0 0.068330088192809502 0.43602814955066621 0 0.063786863135573219 0.4234822836218442 0 0.077714875811277062 0.4214876261871765 0 0.068330088192809502 0.43602814955066621 0 0.063786863135573219 0.4234822836218442 0 0.083205653112744402 0.44008551456546158 0 0.077714875811277062 0.4214876261871765 0 0.095892719888732866 0.42453745382262881 0 0.091303312773641829 0.3995757594209417 0 0.0691327228978319 0.40699071288372829 0 0.077714875811277062 0.4214876261871765 0 0.091303312773641829 0.3995757594209417 0 0.095892719888732866 0.42453745382262881 0 0.091303312773641829 0.3995757594209417 0 0.077714875811277062 0.4214876261871765 0 0.095892719888732866 0.42453745382262881 0 0.091303312773641829 0.3995757594209417 0 0.095892719888732866 0.42453745382262881 0 0.115428724103706 0.40267530492779557 0 0.1004821270038239 0.44949914822431608 0 0.095892719888732866 0.42453745382262881 0 0.12259086230274099 0.42947812748907283 0 0.1004821270038239 0.44949914822431608 0 0.095892719888732866 0.42453745382262881 0 0.095892719888732866 0.42453745382262881 0 0.12259086230274099 0.42947812748907283 0 0.115428724103706 0.40267530492779557 0 0.115428724103706 0.40267530492779557 0 0.119448870245615 0.38256434187866972 0 0.13692284990477191 0.38930777957628943 0 0.119448870245615 0.38256434187866972 0 0.1025776524751303 0.38486691706586951 0 0.1087205780393706 0.3656269003386084 0 0.115428724103706 0.40267530492779557 0 0.119448870245615 0.38256434187866972 0 0.1025776524751303 0.38486691706586951 0 0.1025776524751303 0.38486691706586951 0 0.1087205780393706 0.3656269003386084 0 0.086713905658550791 0.37461406501925459 0 0.091303312773641829 0.3995757594209417 0 0.115428724103706 0.40267530492779557 0 0.1025776524751303 0.38486691706586951 0 0.1087205780393706 0.3656269003386084 0 0.1202868522871179 0.34060046584014031 0 0.0915497208986496 0.34709204532757532 0 0.1087205780393706 0.3656269003386084 0 0.0915497208986496 0.34709204532757532 0 0.086713905658550791 0.37461406501925459 0 0.119448870245615 0.38256434187866972 0 0.1087205780393706 0.3656269003386084 0 0.13274728415341139 0.36410634055334368 0 0.1087205780393706 0.3656269003386084 0 0.1202868522871179 0.34060046584014031 0 0.13274728415341139 0.36410634055334368 0 0.1202868522871179 0.34060046584014031 0 0.1104734498024164 0.31171603628350752 0 0.14183880654046921 0.32250528078568202 0 0.1202868522871179 0.34060046584014031 0 0.1016552612267161 0.33013161519950079 0 0.1104734498024164 0.31171603628350752 0 0.1016552612267161 0.33013161519950079 0 0.081254576285268804 0.3210829637434266 0 0.1104734498024164 0.31171603628350752 0 0.1202868522871179 0.34060046584014031 0 0.1016552612267161 0.33013161519950079 0 0.0915497208986496 0.34709204532757532 0 0.081254576285268804 0.3210829637434266 0 0.072654821413094289 0.33942743407960763 0 0.0915497208986496 0.34709204532757532 0 0.1016552612267161 0.33013161519950079 0 0.081254576285268804 0.3210829637434266 0 0.0915497208986496 0.34709204532757532 0 0.081254576285268804 0.3210829637434266 0 0.06358813508901956 0.32234581427363851 0 0.071244474661197085 0.3036312559279935 0 0.081254576285268804 0.3210829637434266 0 0.06358813508901956 0.32234581427363851 0 0.072654821413094289 0.33942743407960763 0 0.06358813508901956 0.32234581427363851 0 0.072654821413094289 0.33942743407960763 0 0.055199983679349987 0.34246375673151652 0 0.072654821413094289 0.33942743407960763 0 0.066778362586220691 0.36264744131756171 0 0.055199983679349987 0.34246375673151652 0 0.072654821413094289 0.33942743407960763 0 0.0915497208986496 0.34709204532757532 0 0.066778362586220691 0.36264744131756171 0 0.0915497208986496 0.34709204532757532 0 0.086713905658550791 0.37461406501925459 0 0.066778362586220691 0.36264744131756171 0 0.066778362586220691 0.36264744131756171 0 0.044951457965310811 0.3555124197003488 0 0.045418656597819553 0.37354288132317159 0 0.066778362586220691 0.36264744131756171 0 0.044951457965310811 0.3555124197003488 0 0.055199983679349987 0.34246375673151652 0 0.044951457965310811 0.3555124197003488 0 0.021903196078839001 0.35746348141110651 0 0.035457090884324839 0.34144453771838768 0 0.044951457965310811 0.3555124197003488 0 0.035457090884324839 0.34144453771838768 0 0.055199983679349987 0.34246375673151652 0 0.044951457965310811 0.3555124197003488 0 0.045418656597819553 0.37354288132317159 0 0.021903196078839001 0.35746348141110651 0 0.025375843575522711 0.38021681034322929 0 0.021903196078839001 0.35746348141110651 0 0.0079023355216259559 0.37348921158265391 0 0.025375843575522711 0.38021681034322929 0 0.045418656597819553 0.37354288132317159 0 0.021903196078839001 0.35746348141110651 0 0.021903196078839001 0.35746348141110651 0 0.017151683724365509 0.3376665205351736 0 0.035457090884324839 0.34144453771838768 0 0.021903196078839001 0.35746348141110651 0 0.0095650341834115256 0.34490192427506011 0 0.017151683724365509 0.3376665205351736 0 0.021903196078839001 0.35746348141110651 0 0.0095650341834115256 0.34490192427506011 0 0.0061318462344260851 0.35417601161121459 0 -0.0050552824635438226 0.34569829691311771 0 0.0095650341834115256 0.34490192427506011 0 0.0061318462344260851 0.35417601161121459 0 0.021903196078839001 0.35746348141110651 0 0.0061318462344260851 0.35417601161121459 0 0.0079023355216259559 0.37348921158265391 0 -0.0052616759920083916 0.36132776784546622 0 0.0061318462344260851 0.35417601161121459 0 0.0079023355216259559 0.37348921158265391 0 0.0087281755863181168 0.33049580891976171 0 0.020410497070949891 0.30832150289807031 0 0.0056044744337335906 0.31412092038659428 0 0.0087281755863181168 0.33049580891976171 0 0.020410497070949891 0.30832150289807031 0 -0.003280447873963227 0.32161399115684158 0 0.0056044744337335906 0.31412092038659428 0 0.0087281755863181168 0.33049580891976171 0 0.0064742168078369342 0.3347740657525386 0 0.0087281755863181168 0.33049580891976171 0 -0.0050552824635438226 0.34569829691311771 0 0.0095650341834115256 0.34490192427506011 0 0.0064742168078369342 0.3347740657525386 0 0.0095650341834115256 0.34490192427506011 0 0.0064742168078369342 0.3347740657525386 0 0.017151683724365509 0.3376665205351736 0 0.0064742168078369342 0.3347740657525386 0 0.0087281755863181168 0.33049580891976171 0 0.017151683724365509 0.3376665205351736 0 0.0087281755863181168 0.33049580891976171 0 0.025353163704189718 0.33024288796319817 0 0.017151683724365509 0.3376665205351736 0 0.0087281755863181168 0.33049580891976171 0 0.025353163704189718 0.33024288796319817 0 0.025353163704189718 0.33024288796319817 0 0.017151683724365509 0.3376665205351736 0 0.035457090884324839 0.34144453771838768 0 0.0087281755863181168 0.33049580891976171 0 0.025353163704189718 0.33024288796319817 0 0.020410497070949891 0.30832150289807031 0 0.025353163704189718 0.33024288796319817 0 0.038017806832533571 0.30672300381527179 0 0.020410497070949891 0.30832150289807031 0 0.025353163704189718 0.33024288796319817 0 0.045812945845809312 0.32351293560108041 0 0.038017806832533571 0.30672300381527179 0 0.025353163704189718 0.33024288796319817 0 0.045812945845809312 0.32351293560108041 0 0.035457090884324839 0.34144453771838768 0 0.045812945845809312 0.32351293560108041 0 0.035457090884324839 0.34144453771838768 0 0.055199983679349987 0.34246375673151652 0 0.06358813508901956 0.32234581427363851 0 0.045812945845809312 0.32351293560108041 0 0.055199983679349987 0.34246375673151652 0 0.06358813508901956 0.32234581427363851 0 0.045812945845809312 0.32351293560108041 0 0.055148108477292443 0.3057593846019967 0 0.055148108477292443 0.3057593846019967 0 0.047586914097201803 0.29032131063477928 0 0.038017806832533571 0.30672300381527179 0 0.055148108477292443 0.3057593846019967 0 0.047586914097201803 0.29032131063477928 0 0.066935962560195753 0.28615893812798288 0 0.047586914097201803 0.29032131063477928 0 0.050578246113349837 0.27455429857722041 0 0.066935962560195753 0.28615893812798288 0 0.047586914097201803 0.29032131063477928 0 0.032092818555581597 0.28614719687637868 0 0.038017806832533571 0.30672300381527179 0 0.047586914097201803 0.29032131063477928 0 0.032092818555581597 0.28614719687637868 0 0.050578246113349837 0.27455429857722041 0 0.045812945845809312 0.32351293560108041 0 0.055148108477292443 0.3057593846019967 0 0.038017806832533571 0.30672300381527179 0 0.032092818555581597 0.28614719687637868 0 0.038017806832533571 0.30672300381527179 0 0.020410497070949891 0.30832150289807031 0 0.032092818555581597 0.28614719687637868 0 0.020410497070949891 0.30832150289807031 0 0.032092818555581597 0.28614719687637868 0 0.020410497070949891 0.30832150289807031 0 0.0083336089875100904 0.29343585490586271 0 0.032092818555581597 0.28614719687637868 0 0.0083336089875100904 0.29343585490586271 0 0.021382191810826279 0.2686960609189637 0 -0.0088759444352828343 0.31092800175718183 0 0.0056044744337335906 0.31412092038659428 0 0.0083336089875100904 0.29343585490586271 0 0.0056044744337335906 0.31412092038659428 0 0.020410497070949891 0.30832150289807031 0 0.0083336089875100904 0.29343585490586271 0 0.0073806355134042019 0.25529449578482938 0 3.3590645499582607e-05 0.27236849017123349 0 0.021382191810826279 0.2686960609189637 0 0.0083336089875100904 0.29343585490586271 0 3.3590645499582607e-05 0.27236849017123349 0 0.021382191810826279 0.2686960609189637 0 0.025149977659741599 0.24684982625080901 0 0.0073806355134042019 0.25529449578482938 0 0.021382191810826279 0.2686960609189637 0 0.025149977659741599 0.24684982625080901 0 0.021382191810826279 0.2686960609189637 0 0.043775140040213267 0.26397289085468728 0 0.025149977659741599 0.24684982625080901 0 0.045472231705318063 0.24424317023843681 0 0.050158093690384618 0.2598810672441918 0 0.025149977659741599 0.24684982625080901 0 0.050158093690384618 0.2598810672441918 0 0.025149977659741599 0.24684982625080901 0 0.043775140040213267 0.26397289085468728 0 0.050158093690384618 0.2598810672441918 0 0.032092818555581597 0.28614719687637868 0 0.043775140040213267 0.26397289085468728 0 0.032092818555581597 0.28614719687637868 0 0.021382191810826279 0.2686960609189637 0 0.043775140040213267 0.26397289085468728 0 0.032092818555581597 0.28614719687637868 0 0.043775140040213267 0.26397289085468728 0 0.050578246113349837 0.27455429857722041 0 0.050578246113349837 0.27455429857722041 0 0.063875668081316214 0.2678607518654692 0 0.066935962560195753 0.28615893812798288 0 0.043775140040213267 0.26397289085468728 0 0.050578246113349837 0.27455429857722041 0 0.050158093690384618 0.2598810672441918 0 0.050578246113349837 0.27455429857722041 0 0.056046126259945157 0.25263236173372139 0 0.063875668081316214 0.2678607518654692 0 0.050578246113349837 0.27455429857722041 0 0.050158093690384618 0.2598810672441918 0 0.056046126259945157 0.25263236173372139 0 0.045472231705318063 0.24424317023843681 0 0.050158093690384618 0.2598810672441918 0 0.056046126259945157 0.25263236173372139 0 0.050578246113349837 0.27455429857722041 0 0.056046126259945157 0.25263236173372139 0 0.078525547080241467 0.2465942846531784 0 0.067905867336300579 0.25358800162702 0 0.079567988853459573 0.27014218499250892 0 0.067905867336300579 0.25358800162702 0 0.079567988853459573 0.27014218499250892 0 0.063875668081316214 0.2678607518654692 0 0.056046126259945157 0.25263236173372139 0 0.067905867336300579 0.25358800162702 0 0.063875668081316214 0.2678607518654692 0 0.078525547080241467 0.2465942846531784 0 0.079567988853459573 0.27014218499250892 0 0.093798877441032588 0.2579700649065903 0 0.079567988853459573 0.27014218499250892 0 0.063875668081316214 0.2678607518654692 0 0.066935962560195753 0.28615893812798288 0 0.079567988853459573 0.27014218499250892 0 0.066935962560195753 0.28615893812798288 0 0.087430381393448858 0.29852998767476718 0 0.066935962560195753 0.28615893812798288 0 0.071244474661197085 0.3036312559279935 0 0.087430381393448858 0.29852998767476718 0 0.055148108477292443 0.3057593846019967 0 0.066935962560195753 0.28615893812798288 0 0.071244474661197085 0.3036312559279935 0 0.06358813508901956 0.32234581427363851 0 0.055148108477292443 0.3057593846019967 0 0.071244474661197085 0.3036312559279935 0 0.081254576285268804 0.3210829637434266 0 0.087430381393448858 0.29852998767476718 0 0.1104734498024164 0.31171603628350752 0 0.081254576285268804 0.3210829637434266 0 0.071244474661197085 0.3036312559279935 0 0.087430381393448858 0.29852998767476718 0 0.079567988853459573 0.27014218499250892 0 0.087430381393448858 0.29852998767476718 0 0.1079828451826004 0.27738565586056829 0 0.087430381393448858 0.29852998767476718 0 0.1104734498024164 0.31171603628350752 0 0.1079828451826004 0.27738565586056829 0 0.1104734498024164 0.31171603628350752 0 0.1079828451826004 0.27738565586056829 0 0.13401849175413849 0.29214957311260448 0 0.1079828451826004 0.27738565586056829 0 0.13401849175413849 0.29214957311260448 0 0.1100607559553454 0.25396994184181759 0 0.1079828451826004 0.27738565586056829 0 0.13366986361514199 0.26692500362740812 0 0.12787711237058769 0.24521089126939841 0 0.1100607559553454 0.25396994184181759 0 0.13366986361514199 0.26692500362740812 0 0.092857250133516089 0.24175825718487831 0 0.1100607559553454 0.25396994184181759 0 0.093798877441032588 0.2579700649065903 0 0.1100607559553454 0.25396994184181759 0 0.093798877441032588 0.2579700649065903 0 0.1079828451826004 0.27738565586056829 0 0.079567988853459573 0.27014218499250892 0 0.093798877441032588 0.2579700649065903 0 0.1079828451826004 0.27738565586056829 0 0.13366986361514199 0.26692500362740812 0 0.1558685034792309 0.28595093384994291 0 0.15959452244756481 0.26367036214955358 0 0.14702044576598061 0.2478904659134552 0 0.13366986361514199 0.26692500362740812 0 0.15959452244756481 0.26367036214955358 0 0.14702044576598061 0.2478904659134552 0 0.12787711237058769 0.24521089126939841 0 0.13366986361514199 0.26692500362740812 0 0.1079828451826004 0.27738565586056829 0 0.13366986361514199 0.26692500362740812 0 0.13401849175413849 0.29214957311260448 0 0.1104734498024164 0.31171603628350752 0 0.13401849175413849 0.29214957311260448 0 0.14183880654046921 0.32250528078568202 0 0.13401849175413849 0.29214957311260448 0 0.16005413832567669 0.30691349036464077 0 0.14183880654046921 0.32250528078568202 0 0.13401849175413849 0.29214957311260448 0 0.16005413832567669 0.30691349036464077 0 0.13401849175413849 0.29214957311260448 0 0.1558685034792309 0.28595093384994291 0 0.16005413832567669 0.30691349036464077 0 0.13366986361514199 0.26692500362740812 0 0.13401849175413849 0.29214957311260448 0 0.1558685034792309 0.28595093384994291 0 0.1558685034792309 0.28595093384994291 0 0.1700220001876428 0.28782965529906401 0 0.16005413832567669 0.30691349036464077 0 0.1558685034792309 0.28595093384994291 0 0.1700220001876428 0.28782965529906401 0 0.17370236977615991 0.27502287964280692 0 0.1700220001876428 0.28782965529906401 0 0.16005413832567669 0.30691349036464077 0 0.1764196225356903 0.29880027385689728 0 0.16005413832567669 0.30691349036464077 0 0.1764196225356903 0.29880027385689728 0 0.18686192329242929 0.31378732528256248 0 0.1764196225356903 0.29880027385689728 0 0.18674031124236579 0.30201460306836742 0 0.19086383386244751 0.2907864273273883 0 0.1764196225356903 0.29880027385689728 0 0.18674031124236579 0.30201460306836742 0 0.18686192329242929 0.31378732528256248 0 0.1700220001876428 0.28782965529906401 0 0.18013512871176271 0.28566990799825959 0 0.17370236977615991 0.27502287964280692 0 0.1700220001876428 0.28782965529906401 0 0.1764196225356903 0.29880027385689728 0 0.18013512871176271 0.28566990799825959 0 0.1764196225356903 0.29880027385689728 0 0.18013512871176271 0.28566990799825959 0 0.19086383386244751 0.2907864273273883 0 0.18013512871176271 0.28566990799825959 0 0.1896678171968729 0.27591030386514148 0 0.19086383386244751 0.2907864273273883 0 0.18251379545819379 0.26835647973838378 0 0.17370236977615991 0.27502287964280692 0 0.1896678171968729 0.27591030386514148 0 0.18013512871176271 0.28566990799825959 0 0.17370236977615991 0.27502287964280692 0 0.1896678171968729 0.27591030386514148 0 0.18251379545819379 0.26835647973838378 0 0.17370236977615991 0.27502287964280692 0 0.17699066645021869 0.2595722272450377 0 0.17370236977615991 0.27502287964280692 0 0.15959452244756481 0.26367036214955358 0 0.17699066645021869 0.2595722272450377 0 0.1558685034792309 0.28595093384994291 0 0.17370236977615991 0.27502287964280692 0 0.15959452244756481 0.26367036214955358 0 0.16774616909827719 0.2460930353984315 0 0.15959452244756481 0.26367036214955358 0 0.17699066645021869 0.2595722272450377 0 0.14702044576598061 0.2478904659134552 0 0.16774616909827719 0.2460930353984315 0 0.15959452244756481 0.26367036214955358 0 0.18692125413578081 0.24552837502103991 0 0.16774616909827719 0.2460930353984315 0 0.17699066645021869 0.2595722272450377 0 0.18692125413578081 0.24552837502103991 0 0.17699066645021869 0.2595722272450377 0 0.19242781921148469 0.26384338938458129 0 0.18251379545819379 0.26835647973838378 0 0.17699066645021869 0.2595722272450377 0 0.19242781921148469 0.26384338938458129 0 0.18692125413578081 0.24552837502103991 0 0.19242781921148469 0.26384338938458129 0 0.20107379594449931 0.25686311186437227 0 0.18692125413578081 0.24552837502103991 0 0.20107379594449931 0.25686311186437227 0 0.19242781921148469 0.26384338938458129 0 0.20107379594449931 0.25686311186437227 0 0.2008998280478862 0.26959186196165702 0 0.19242781921148469 0.26384338938458129 0 0.20107379594449931 0.25686311186437227 0 0.19242781921148469 0.26384338938458129 0 0.1896678171968729 0.27591030386514148 0 0.2008998280478862 0.26959186196165702 0 0.18251379545819379 0.26835647973838378 0 0.19242781921148469 0.26384338938458129 0 0.1896678171968729 0.27591030386514148 0 0.1896678171968729 0.27591030386514148 0 0.2008998280478862 0.26959186196165702 0 0.20354188417430641 0.281093168015905 0 0.2008998280478862 0.26959186196165702 0 0.2177878237122676 0.27024933667828532 0 0.20354188417430641 0.281093168015905 0 0.2177878237122676 0.27024933667828532 0 0.20354188417430641 0.281093168015905 0 0.2166033006779626 0.28924568688104418 0 0.21557305570370441 0.24515722135805329 0 0.20107379594449931 0.25686311186437227 0 0.2177878237122676 0.27024933667828532 0 0.20107379594449931 0.25686311186437227 0 0.2177878237122676 0.27024933667828532 0 0.20107379594449931 0.25686311186437227 0 0.2008998280478862 0.26959186196165702 0 0.2177878237122676 0.27024933667828532 0 0.21557305570370441 0.24515722135805329 0 0.20107379594449931 0.25686311186437227 0 0.21557305570370441 0.24515722135805329 0 0.2177878237122676 0.27024933667828532 0 0.23628031136540401 0.25597328662156199 0 0.2177878237122676 0.27024933667828532 0 0.23628031136540401 0.25597328662156199 0 0.23450185148003599 0.28363556149219821 0 0.2177878237122676 0.27024933667828532 0 0.23450185148003599 0.28363556149219821 0 0.2166033006779626 0.28924568688104418 0 0.2177878237122676 0.27024933667828532 0 0.23450185148003599 0.28363556149219821 0 0.23628031136540401 0.25597328662156199 0 0.23450185148003599 0.28363556149219821 0 0.25102838231212438 0.26850893423506528 0 0.23450185148003599 0.28363556149219821 0 0.25953152444998728 0.28294166139542631 0 0.25102838231212438 0.26850893423506528 0 0.23628031136540401 0.25597328662156199 0 0.25102838231212438 0.26850893423506528 0 0.26221447651104962 0.2479993693513689 0 0.2297645605960125 0.30261029929826411 0 0.25121587924780342 0.29702178630611242 0 0.2484846271056145 0.31037308609574782 0 0.2297645605960125 0.30261029929826411 0 0.23798581837376781 0.31938142953188831 0 0.2484846271056145 0.31037308609574782 0 0.2297645605960125 0.30261029929826411 0 0.25121587924780342 0.29702178630611242 0 0.23450185148003599 0.28363556149219821 0 0.2297645605960125 0.30261029929826411 0 0.25121587924780342 0.29702178630611242 0 0.23450185148003599 0.28363556149219821 0 0.25121587924780342 0.29702178630611242 0 0.23450185148003599 0.28363556149219821 0 0.25953152444998728 0.28294166139542631 0 0.25121587924780342 0.29702178630611242 0 0.23450185148003599 0.28363556149219821 0 0.2297645605960125 0.30261029929826411 0 0.2166033006779626 0.28924568688104418 0 0.2297645605960125 0.30261029929826411 0 0.20831324194422091 0.30819881229041318 0 0.2297645605960125 0.30261029929826411 0 0.20831324194422091 0.30819881229041318 0 0.21977364325038071 0.31928170538083578 0 0.20831324194422091 0.30819881229041318 0 0.2166033006779626 0.28924568688104418 0 0.20288664267638859 0.29424953150154581 0 0.2297645605960125 0.30261029929826411 0 0.20831324194422091 0.30819881229041318 0 0.2166033006779626 0.28924568688104418 0 0.20354188417430641 0.281093168015905 0 0.2166033006779626 0.28924568688104418 0 0.20288664267638859 0.29424953150154581 0 0.20354188417430641 0.281093168015905 0 0.20288664267638859 0.29424953150154581 0 0.19086383386244751 0.2907864273273883 0 0.20288664267638859 0.29424953150154581 0 0.19086383386244751 0.2907864273273883 0 0.19511095272300569 0.3019235629929784 0 0.1896678171968729 0.27591030386514148 0 0.20354188417430641 0.281093168015905 0 0.19086383386244751 0.2907864273273883 0 0.20831324194422091 0.30819881229041318 0 0.18686192329242929 0.31378732528256248 0 0.20831324194422091 0.30819881229041318 0 0.19511095272300569 0.3019235629929784 0 0.18686192329242929 0.31378732528256248 0 0.20831324194422091 0.30819881229041318 0 0.20288664267638859 0.29424953150154581 0 0.19511095272300569 0.3019235629929784 0 0.18674031124236579 0.30201460306836742 0 0.19086383386244751 0.2907864273273883 0 0.19511095272300569 0.3019235629929784 0 0.18674031124236579 0.30201460306836742 0 0.19511095272300569 0.3019235629929784 0 0.18686192329242929 0.31378732528256248 0 0.20141288137377081 0.31920030670374799 0 0.18686192329242929 0.31378732528256248 0 0.18608978489721489 0.32167740761667712 0 0.20831324194422091 0.30819881229041318 0 0.20141288137377081 0.31920030670374799 0 0.18686192329242929 0.31378732528256248 0 0.20141288137377081 0.31920030670374799 0 0.21212543146875301 0.33644132486871342 0 0.18608978489721489 0.32167740761667712 0 0.21212543146875301 0.33644132486871342 0 0.18608978489721489 0.32167740761667712 0 0.19231113454718349 0.34165597013868199 0 0.21212543146875301 0.33644132486871342 0 0.18608978489721489 0.32167740761667712 0 0.20831324194422091 0.30819881229041318 0 0.20141288137377081 0.31920030670374799 0 0.21977364325038071 0.31928170538083578 0 0.20141288137377081 0.31920030670374799 0 0.21212543146875301 0.33644132486871342 0 0.21977364325038071 0.31928170538083578 0 0.21977364325038071 0.31928170538083578 0 0.2290399257457596 0.32985805959198788 0 0.23798581837376781 0.31938142953188831 0 0.2297645605960125 0.30261029929826411 0 0.21977364325038071 0.31928170538083578 0 0.23798581837376781 0.31938142953188831 0 0.21212543146875301 0.33644132486871342 0 0.21977364325038071 0.31928170538083578 0 0.2290399257457596 0.32985805959198788 0 0.21212543146875301 0.33644132486871342 0 0.23060518033342339 0.33807106122714048 0 0.2290399257457596 0.32985805959198788 0 0.21212543146875301 0.33644132486871342 0 0.23060518033342339 0.33807106122714048 0 0.23816107804029091 0.35120524212074949 0 0.23060518033342339 0.33807106122714048 0 0.2290399257457596 0.32985805959198788 0 0.2430942860788903 0.33477961832711151 0 0.23060518033342339 0.33807106122714048 0 0.2430942860788903 0.33477961832711151 0 0.23816107804029091 0.35120524212074949 0 0.2484846271056145 0.31037308609574782 0 0.23798581837376781 0.31938142953188831 0 0.25508783524565293 0.32209220201309929 0 0.2430942860788903 0.33477961832711151 0 0.23798581837376781 0.31938142953188831 0 0.25508783524565293 0.32209220201309929 0 0.2290399257457596 0.32985805959198788 0 0.2430942860788903 0.33477961832711151 0 0.23798581837376781 0.31938142953188831 0 0.23439037865920059 0.35560025357312369 0 0.2386764282036242 0.37725286527910618 0 0.24311907173897271 0.36013203008567057 0 0.23439037865920059 0.35560025357312369 0 0.2386764282036242 0.37725286527910618 0 0.2492643002430574 0.365916522193315 0 0.24311907173897271 0.36013203008567057 0 0.2386764282036242 0.37725286527910618 0 0.2492643002430574 0.365916522193315 0 0.2386764282036242 0.37725286527910618 0 0.25383912625151372 0.37755129754335942 0 0.24311907173897271 0.36013203008567057 0 0.23816107804029091 0.35120524212074949 0 0.2641967246118288 0.36596915937278562 0 0.2430942860788903 0.33477961832711151 0 0.23816107804029091 0.35120524212074949 0 0.26173146881309822 0.35734024057335978 0 0.24311907173897271 0.36013203008567057 0 0.23816107804029091 0.35120524212074949 0 0.23439037865920059 0.35560025357312369 0 0.21212543146875301 0.33644132486871342 0 0.23816107804029091 0.35120524212074949 0 0.21848510057545151 0.35453686872473111 0 0.23816107804029091 0.35120524212074949 0 0.23439037865920059 0.35560025357312369 0 0.21848510057545151 0.35453686872473111 0 0.21212543146875301 0.33644132486871342 0 0.23816107804029091 0.35120524212074949 0 0.23439037865920059 0.35560025357312369 0 0.22513916990612379 0.36868200325308897 0 0.2386764282036242 0.37725286527910618 0 0.23439037865920059 0.35560025357312369 0 0.22513916990612379 0.36868200325308897 0 0.21848510057545151 0.35453686872473111 0 0.22513916990612379 0.36868200325308897 0 0.20931495008602691 0.36890180222237801 0 0.21961872799640589 0.38146559318592133 0 0.22513916990612379 0.36868200325308897 0 0.20931495008602691 0.36890180222237801 0 0.21848510057545151 0.35453686872473111 0 0.20931495008602691 0.36890180222237801 0 0.21848510057545151 0.35453686872473111 0 0.2018014651714847 0.35413555731190122 0 0.21212543146875301 0.33644132486871342 0 0.21848510057545151 0.35453686872473111 0 0.2018014651714847 0.35413555731190122 0 0.19231113454718349 0.34165597013868199 0 0.2018014651714847 0.35413555731190122 0 0.1832131523033072 0.3569188224833833 0 0.19231113454718349 0.34165597013868199 0 0.21212543146875301 0.33644132486871342 0 0.2018014651714847 0.35413555731190122 0 0.20931495008602691 0.36890180222237801 0 0.2018014651714847 0.35413555731190122 0 0.19217836357317111 0.36996972767433872 0 0.20931495008602691 0.36890180222237801 0 0.19217836357317111 0.36996972767433872 0 0.20289108470775991 0.38370682355227331 0 0.2018014651714847 0.35413555731190122 0 0.19217836357317111 0.36996972767433872 0 0.1832131523033072 0.3569188224833833 0 0.19217836357317111 0.36996972767433872 0 0.17197644233242751 0.37002706837148541 0 0.1832131523033072 0.3569188224833833 0 0.17197644233242751 0.37002706837148541 0 0.16866852787741549 0.35230522619665788 0 0.1832131523033072 0.3569188224833833 0 0.17197644233242751 0.37002706837148541 0 0.16866852787741549 0.35230522619665788 0 0.15186920095361911 0.35620033980905319 0 0.17197644233242751 0.37002706837148541 0 0.15186920095361911 0.35620033980905319 0 0.15185568245476189 0.37707061606136422 0 0.16866852787741549 0.35230522619665788 0 0.1579580049025659 0.33927316190663209 0 0.15186920095361911 0.35620033980905319 0 0.16866852787741549 0.35230522619665788 0 0.1832131523033072 0.3569188224833833 0 0.17832583889515771 0.33910673841273542 0 0.19231113454718349 0.34165597013868199 0 0.1832131523033072 0.3569188224833833 0 0.17832583889515771 0.33910673841273542 0 0.17832583889515771 0.33910673841273542 0 0.18608978489721489 0.32167740761667712 0 0.16647560889869609 0.32578562508456149 0 0.19231113454718349 0.34165597013868199 0 0.17832583889515771 0.33910673841273542 0 0.18608978489721489 0.32167740761667712 0 0.16005413832567669 0.30691349036464077 0 0.18608978489721489 0.32167740761667712 0 0.16005413832567669 0.30691349036464077 0 0.18686192329242929 0.31378732528256248 0 0.18608978489721489 0.32167740761667712 0 0.16005413832567669 0.30691349036464077 0 0.18608978489721489 0.32167740761667712 0 0.16647560889869609 0.32578562508456149 0 0.17832583889515771 0.33910673841273542 0 0.16647560889869609 0.32578562508456149 0 0.1579580049025659 0.33927316190663209 0 0.16866852787741549 0.35230522619665788 0 0.17832583889515771 0.33910673841273542 0 0.1579580049025659 0.33927316190663209 0 0.16647560889869609 0.32578562508456149 0 0.1579580049025659 0.33927316190663209 0 0.14183880654046921 0.32250528078568202 0 0.1579580049025659 0.33927316190663209 0 0.14183880654046921 0.32250528078568202 0 0.14054269679001921 0.34363296691054102 0 0.16005413832567669 0.30691349036464077 0 0.16647560889869609 0.32578562508456149 0 0.14183880654046921 0.32250528078568202 0 0.1202868522871179 0.34060046584014031 0 0.14183880654046921 0.32250528078568202 0 0.14054269679001921 0.34363296691054102 0 0.1202868522871179 0.34060046584014031 0 0.14054269679001921 0.34363296691054102 0 0.13274728415341139 0.36410634055334368 0 0.13274728415341139 0.36410634055334368 0 0.15186920095361911 0.35620033980905319 0 0.15185568245476189 0.37707061606136422 0 0.14054269679001921 0.34363296691054102 0 0.13274728415341139 0.36410634055334368 0 0.15186920095361911 0.35620033980905319 0 0.1579580049025659 0.33927316190663209 0 0.14054269679001921 0.34363296691054102 0 0.15186920095361911 0.35620033980905319 0 0.15352992747694119 0.40026604784697911 0 0.13692284990477191 0.38930777957628943 0 0.1397509022148696 0.40843688002483958 0 0.15352992747694119 0.40026604784697911 0 0.15185568245476189 0.37707061606136422 0 0.13692284990477191 0.38930777957628943 0 0.13274728415341139 0.36410634055334368 0 0.15185568245476189 0.37707061606136422 0 0.13692284990477191 0.38930777957628943 0 0.119448870245615 0.38256434187866972 0 0.13274728415341139 0.36410634055334368 0 0.13692284990477191 0.38930777957628943 0 0.115428724103706 0.40267530492779557 0 0.13692284990477191 0.38930777957628943 0 0.1397509022148696 0.40843688002483958 0 0.12259086230274099 0.42947812748907283 0 0.1397509022148696 0.40843688002483958 0 0.14363603346764281 0.42707530835579988 0 0.12259086230274099 0.42947812748907283 0 0.115428724103706 0.40267530492779557 0 0.1397509022148696 0.40843688002483958 0 0.12259086230274099 0.42947812748907283 0 0.14363603346764281 0.42707530835579988 0 0.13510526379757609 0.44116740875256688 0 0.14363603346764281 0.42707530835579988 0 0.16526304614212209 0.42908608809292892 0 0.1507341445198021 0.44370602134863157 0 0.14363603346764281 0.42707530835579988 0 0.15527295380072001 0.4153931176925994 0 0.16526304614212209 0.42908608809292892 0 0.14363603346764281 0.42707530835579988 0 0.1507341445198021 0.44370602134863157 0 0.13510526379757609 0.44116740875256688 0 0.1397509022148696 0.40843688002483958 0 0.14363603346764281 0.42707530835579988 0 0.15527295380072001 0.4153931176925994 0 0.15352992747694119 0.40026604784697911 0 0.1397509022148696 0.40843688002483958 0 0.15527295380072001 0.4153931176925994 0 0.15527295380072001 0.4153931176925994 0 0.1711416470664554 0.41062619466687539 0 0.16526304614212209 0.42908608809292892 0 0.15352992747694119 0.40026604784697911 0 0.15527295380072001 0.4153931176925994 0 0.1711416470664554 0.41062619466687539 0 0.16526304614212209 0.42908608809292892 0 0.1809560021812836 0.43814832633623357 0 0.16598328874466911 0.44273574664910909 0 0.16526304614212209 0.42908608809292892 0 0.18469425222239219 0.42125941149134333 0 0.1809560021812836 0.43814832633623357 0 0.1711416470664554 0.41062619466687539 0 0.16526304614212209 0.42908608809292892 0 0.18469425222239219 0.42125941149134333 0 0.1711416470664554 0.41062619466687539 0 0.18469425222239219 0.42125941149134333 0 0.1843100454414533 0.40126956181167389 0 0.1711416470664554 0.41062619466687539 0 0.1843100454414533 0.40126956181167389 0 0.16952276405911931 0.3912061138884545 0 0.1843100454414533 0.40126956181167389 0 0.16952276405911931 0.3912061138884545 0 0.18589276442329861 0.38606835492789338 0 0.15352992747694119 0.40026604784697911 0 0.1711416470664554 0.41062619466687539 0 0.16952276405911931 0.3912061138884545 0 0.15352992747694119 0.40026604784697911 0 0.15185568245476189 0.37707061606136422 0 0.16952276405911931 0.3912061138884545 0 0.17197644233242751 0.37002706837148541 0 0.15185568245476189 0.37707061606136422 0 0.16952276405911931 0.3912061138884545 0 0.17197644233242751 0.37002706837148541 0 0.16952276405911931 0.3912061138884545 0 0.18589276442329861 0.38606835492789338 0 0.19217836357317111 0.36996972767433872 0 0.17197644233242751 0.37002706837148541 0 0.18589276442329861 0.38606835492789338 0 0.18589276442329861 0.38606835492789338 0 0.20289108470775991 0.38370682355227331 0 0.19700705340585539 0.39579078134538831 0 0.19217836357317111 0.36996972767433872 0 0.18589276442329861 0.38606835492789338 0 0.20289108470775991 0.38370682355227331 0 0.19700705340585539 0.39579078134538831 0 0.21316338490038089 0.39704202397260657 0 0.19877798755638451 0.41086714246249401 0 0.1843100454414533 0.40126956181167389 0 0.19700705340585539 0.39579078134538831 0 0.19877798755638451 0.41086714246249401 0 0.1843100454414533 0.40126956181167389 0 0.18589276442329861 0.38606835492789338 0 0.19700705340585539 0.39579078134538831 0 0.20289108470775991 0.38370682355227331 0 0.19700705340585539 0.39579078134538831 0 0.21316338490038089 0.39704202397260657 0 0.20931495008602691 0.36890180222237801 0 0.20289108470775991 0.38370682355227331 0 0.21961872799640589 0.38146559318592133 0 0.20289108470775991 0.38370682355227331 0 0.21316338490038089 0.39704202397260657 0 0.21961872799640589 0.38146559318592133 0 0.22513916990612379 0.36868200325308897 0 0.21961872799640589 0.38146559318592133 0 0.2386764282036242 0.37725286527910618 0 0.21961872799640589 0.38146559318592133 0 0.22852735017452019 0.39320804083607441 0 0.2386764282036242 0.37725286527910618 0 0.21316338490038089 0.39704202397260657 0 0.21961872799640589 0.38146559318592133 0 0.22852735017452019 0.39320804083607441 0 0.21316338490038089 0.39704202397260657 0 0.22852735017452019 0.39320804083607441 0 0.22983145469658259 0.40925978250573319 0 0.21316338490038089 0.39704202397260657 0 0.22983145469658259 0.40925978250573319 0 0.22852735017452019 0.39320804083607441 0 0.2429624777480478 0.39890547698508871 0 0.22983145469658259 0.40925978250573319 0 0.2429624777480478 0.39890547698508871 0 0.2386764282036242 0.37725286527910618 0 0.22852735017452019 0.39320804083607441 0 0.2429624777480478 0.39890547698508871 0 0.2386764282036242 0.37725286527910618 0 0.2429624777480478 0.39890547698508871 0 0.2386764282036242 0.37725286527910618 0 0.25341304662754638 0.38974012394171498 0 0.2386764282036242 0.37725286527910618 0 0.25383912625151372 0.37755129754335942 0 0.25341304662754638 0.38974012394171498 0 0.24649952449278431 0.42147754103885982 0 0.22996656543308741 0.44177288309861867 0 0.24946733303660301 0.43176723098649622 0 0.24649952449278431 0.42147754103885982 0 0.22996656543308741 0.44177288309861867 0 0.24649952449278431 0.42147754103885982 0 0.22738899126970491 0.42458926785457718 0 0.22996656543308741 0.44177288309861867 0 0.24946733303660301 0.43176723098649622 0 0.24649952449278431 0.42147754103885982 0 0.2429624777480478 0.39890547698508871 0 0.24649952449278431 0.42147754103885982 0 0.24649952449278431 0.42147754103885982 0 0.22983145469658259 0.40925978250573319 0 0.22738899126970491 0.42458926785457718 0 0.24649952449278431 0.42147754103885982 0 0.22983145469658259 0.40925978250573319 0 0.2429624777480478 0.39890547698508871 0 0.24649952449278431 0.42147754103885982 0 0.22983145469658259 0.40925978250573319 0 0.21316338490038089 0.39704202397260657 0 0.22983145469658259 0.40925978250573319 0 0.21370806227123909 0.41789950377956148 0 0.22983145469658259 0.40925978250573319 0 0.22738899126970491 0.42458926785457718 0 0.21370806227123909 0.41789950377956148 0 0.22738899126970491 0.42458926785457718 0 0.21739304288862979 0.43200563017257382 0 0.22996656543308741 0.44177288309861867 0 0.22738899126970491 0.42458926785457718 0 0.21739304288862979 0.43200563017257382 0 0.21370806227123909 0.41789950377956148 0 0.21739304288862979 0.43200563017257382 0 0.1999317510848099 0.43097584272053618 0 0.2111195299095035 0.44359306409302351 0 0.21739304288862979 0.43200563017257382 0 0.21370806227123909 0.41789950377956148 0 0.1999317510848099 0.43097584272053618 0 0.21370806227123909 0.41789950377956148 0 0.19877798755638451 0.41086714246249401 0 0.1999317510848099 0.43097584272053618 0 0.21316338490038089 0.39704202397260657 0 0.21370806227123909 0.41789950377956148 0 0.19877798755638451 0.41086714246249401 0 0.18469425222239219 0.42125941149134333 0 0.19877798755638451 0.41086714246249401 0 0.1999317510848099 0.43097584272053618 0 0.18469425222239219 0.42125941149134333 0 0.1843100454414533 0.40126956181167389 0 0.19877798755638451 0.41086714246249401 0 0.18469425222239219 0.42125941149134333 0 0.1999317510848099 0.43097584272053618 0 0.1809560021812836 0.43814832633623357 0 0.1999317510848099 0.43097584272053618 0 0.19479511809318301 0.4526549487178691 0 0.2111195299095035 0.44359306409302351 0 0.1999317510848099 0.43097584272053618 0 0.19479511809318301 0.4526549487178691 0 0.1809560021812836 0.43814832633623357 0 0.19479511809318301 0.4526549487178691 0 0.213169792932182 0.46047172596691099 0 0.19211155850092579 0.47790980627879082 0 0.19479511809318301 0.4526549487178691 0 0.19211155850092579 0.47790980627879082 0 0.18348770279874721 0.46143911161818069 0 0.213169792932182 0.46047172596691099 0 0.2111195299095035 0.44359306409302351 0 0.22996656543308741 0.44177288309861867 0 0.19479511809318301 0.4526549487178691 0 0.213169792932182 0.46047172596691099 0 0.2111195299095035 0.44359306409302351 0 0.21739304288862979 0.43200563017257382 0 0.2111195299095035 0.44359306409302351 0 0.22996656543308741 0.44177288309861867 0 0.22996656543308741 0.44177288309861867 0 0.22854105436186559 0.46372788353366717 0 0.24141841662185301 0.45603819576859073 0 0.213169792932182 0.46047172596691099 0 0.22854105436186559 0.46372788353366717 0 0.221321310837439 0.47674074212904899 0 0.213169792932182 0.46047172596691099 0 0.22996656543308741 0.44177288309861867 0 0.22854105436186559 0.46372788353366717 0 0.24141841662185301 0.45603819576859073 0 0.23645949407781469 0.47608243786178739 0 0.25047151807745072 0.47036873115219768 0 0.22854105436186559 0.46372788353366717 0 0.24141841662185301 0.45603819576859073 0 0.23645949407781469 0.47608243786178739 0 0.24141841662185301 0.45603819576859073 0 0.25047151807745072 0.47036873115219768 0 0.25477099823403621 0.45804476415031298 0 0.24141841662185301 0.45603819576859073 0 0.25282491994113748 0.44831200937164878 0 0.25477099823403621 0.45804476415031298 0 0.22996656543308741 0.44177288309861867 0 0.24141841662185301 0.45603819576859073 0 0.24583280085865111 0.44361242472787987 0 0.24946733303660301 0.43176723098649622 0 0.22996656543308741 0.44177288309861867 0 0.24583280085865111 0.44361242472787987 0 0.24141841662185301 0.45603819576859073 0 0.24583280085865111 0.44361242472787987 0 0.25282491994113748 0.44831200937164878 0 0.24904418528453851 0.48634810883828161 0 0.23645949407781469 0.47608243786178739 0 0.23352830384551029 0.49999999999999978 0 0.24904418528453851 0.48634810883828161 0 0.23352830384551029 0.49999999999999978 0 0.25181722630913472 0.5 0 0.24904418528453851 0.48634810883828161 0 0.23645949407781469 0.47608243786178739 0 0.25047151807745072 0.47036873115219768 0 0.23645949407781469 0.47608243786178739 0 0.221321310837439 0.47674074212904899 0 0.23352830384551029 0.49999999999999978 0 0.22854105436186559 0.46372788353366717 0 0.23645949407781469 0.47608243786178739 0 0.221321310837439 0.47674074212904899 0 0.23352830384551029 0.49999999999999978 0 0.2128199311732181 0.48895490313939532 0 0.21702906166474581 0.5 0 0.23352830384551029 0.49999999999999978 0 0.2128199311732181 0.48895490313939532 0 0.221321310837439 0.47674074212904899 0 0.23352830384551029 0.49999999999999978 0 0.2128199311732181 0.48895490313939532 0 0.2128199311732181 0.48895490313939532 0 0.21702906166474581 0.5 0 0.20052981948398141 0.49999999999999989 0 0.213169792932182 0.46047172596691099 0 0.221321310837439 0.47674074212904899 0 0.19211155850092579 0.47790980627879082 0 0.221321310837439 0.47674074212904899 0 0.2128199311732181 0.48895490313939532 0 0.19211155850092579 0.47790980627879082 0 0.2128199311732181 0.48895490313939532 0 0.19211155850092579 0.47790980627879082 0 0.2128199311732181 0.48895490313939532 0 0.20052981948398141 0.49999999999999989 0 0.19295831529489699 0.4905304616351287 0 0.2128199311732181 0.48895490313939532 0 0.19211155850092579 0.47790980627879082 0 0.19295831529489699 0.4905304616351287 0 0.20052981948398141 0.49999999999999989 0 0.1839227339461352 0.49861489743603538 0 0.20052981948398141 0.49999999999999989 0 0.19295831529489699 0.4905304616351287 0 0.1839227339461352 0.49861489743603538 0 0.19211155850092579 0.47790980627879082 0 0.19295831529489699 0.4905304616351287 0 0.1809625144841838 0.48570342190566712 0 0.1839227339461352 0.49861489743603538 0 0.1809625144841838 0.48570342190566712 0 0.16731564840828889 0.49722979487207219 0 0.1839227339461352 0.49861489743603538 0 0.16731564840828889 0.49722979487207219 0 0.1839227339461352 0.49861489743603538 0 0.1669427425872391 0.49999999999999922 0 0.16731564840828889 0.49722979487207219 0 0.19295831529489699 0.4905304616351287 0 0.1839227339461352 0.49861489743603538 0 0.1809625144841838 0.48570342190566712 0 0.1809625144841838 0.48570342190566712 0 0.16731564840828889 0.49722979487207219 0 0.16935941711846161 0.48204725214512889 0 0.16731564840828889 0.49722979487207219 0 0.157708884996551 0.48584061526662409 0 0.14611751268168829 0.49546177892012921 0 0.16731564840828889 0.49722979487207219 0 0.14611751268168829 0.49546177892012921 0 0.1669427425872391 0.49999999999999922 0 0.16731564840828889 0.49722979487207219 0 0.14611751268168829 0.49546177892012921 0 0.1669427425872391 0.49999999999999922 0 0.16731564840828889 0.49722979487207219 0 0.16731564840828889 0.49722979487207219 0 0.16935941711846161 0.48204725214512889 0 0.16731564840828889 0.49722979487207219 0 0.157708884996551 0.48584061526662409 0 0.16935941711846161 0.48204725214512889 0 0.16382575626869561 0.4735735187060508 0 0.15802571703479451 0.46684670821381258 0 0.1531189490294651 0.47544631339495541 0 0.157708884996551 0.48584061526662409 0 0.16382575626869561 0.4735735187060508 0 0.1531189490294651 0.47544631339495541 0 0.157708884996551 0.48584061526662409 0 0.16382575626869561 0.4735735187060508 0 0.16935941711846161 0.48204725214512889 0 0.16935941711846161 0.48204725214512889 0 0.17140318582863401 0.46686470941818559 0 0.16382575626869561 0.4735735187060508 0 0.16935941711846161 0.48204725214512889 0 0.17140318582863401 0.46686470941818559 0 0.1809625144841838 0.48570342190566712 0 0.16935941711846161 0.48204725214512889 0 0.17140318582863401 0.46686470941818559 0 0.19211155850092579 0.47790980627879082 0 0.1809625144841838 0.48570342190566712 0 0.17140318582863401 0.46686470941818559 0 0.19211155850092579 0.47790980627879082 0 0.17140318582863401 0.46686470941818559 0 0.19479511809318301 0.4526549487178691 0 0.18348770279874721 0.46143911161818069 0 0.17341546959919829 0.45191605883299152 0 0.19211155850092579 0.47790980627879082 0 0.18348770279874721 0.46143911161818069 0 0.17140318582863401 0.46686470941818559 0 0.18348770279874721 0.46143911161818069 0 0.17341546959919829 0.45191605883299152 0 0.17140318582863401 0.46686470941818559 0 0.17341546959919829 0.45191605883299152 0 0.17140318582863401 0.46686470941818559 0 0.19479511809318301 0.4526549487178691 0 0.1809560021812836 0.43814832633623357 0 0.17341546959919829 0.45191605883299152 0 0.1809560021812836 0.43814832633623357 0 0.17341546959919829 0.45191605883299152 0 0.16598328874466911 0.44273574664910909 0 0.17341546959919829 0.45191605883299152 0 0.16598328874466911 0.44273574664910909 0 0.15954778128093949 0.4508222386347599 0 0.16598328874466911 0.44273574664910909 0 0.15954778128093949 0.4508222386347599 0 0.1507341445198021 0.44370602134863157 0 0.16526304614212209 0.42908608809292892 0 0.16598328874466911 0.44273574664910909 0 0.1507341445198021 0.44370602134863157 0 0.16382575626869561 0.4735735187060508 0 0.1651762257979181 0.46354347419730452 0 0.17140318582863401 0.46686470941818559 0 0.1651762257979181 0.46354347419730452 0 0.17140318582863401 0.46686470941818559 0 0.17341546959919829 0.45191605883299152 0 0.1651762257979181 0.46354347419730452 0 0.17140318582863401 0.46686470941818559 0 0.17341546959919829 0.45191605883299152 0 0.15954778128093949 0.4508222386347599 0 0.1651762257979181 0.46354347419730452 0 0.15954778128093949 0.4508222386347599 0 0.1651762257979181 0.46354347419730452 0 0.1582471669695637 0.45974252444074731 0 0.16382575626869561 0.4735735187060508 0 0.1651762257979181 0.46354347419730452 0 0.15802571703479451 0.46684670821381258 0 0.1651762257979181 0.46354347419730452 0 0.1582471669695637 0.45974252444074731 0 0.15802571703479451 0.46684670821381258 0 0.14976048710833001 0.46192771033000529 0 0.1507341445198021 0.44370602134863157 0 0.136404492151351 0.45486193181106682 0 0.1582471669695637 0.45974252444074731 0 0.15802571703479451 0.46684670821381258 0 0.14976048710833001 0.46192771033000529 0 0.15802571703479451 0.46684670821381258 0 0.14976048710833001 0.46192771033000529 0 0.1531189490294651 0.47544631339495541 0 0.15954778128093949 0.4508222386347599 0 0.1582471669695637 0.45974252444074731 0 0.14976048710833001 0.46192771033000529 0 0.14976048710833001 0.46192771033000529 0 0.136404492151351 0.45486193181106682 0 0.13663143795624749 0.46910754811773492 0 0.15954778128093949 0.4508222386347599 0 0.14976048710833001 0.46192771033000529 0 0.1507341445198021 0.44370602134863157 0 0.1507341445198021 0.44370602134863157 0 0.13510526379757609 0.44116740875256688 0 0.136404492151351 0.45486193181106682 0 0.1221607865463437 0.4507156547582637 0 0.12259086230274099 0.42947812748907283 0 0.13510526379757609 0.44116740875256688 0 0.1221607865463437 0.4507156547582637 0 0.13510526379757609 0.44116740875256688 0 0.136404492151351 0.45486193181106682 0 0.136404492151351 0.45486193181106682 0 0.1267882431275838 0.46370707134437261 0 0.13663143795624749 0.46910754811773492 0 0.1221607865463437 0.4507156547582637 0 0.136404492151351 0.45486193181106682 0 0.1267882431275838 0.46370707134437261 0 0.1267882431275838 0.46370707134437261 0 0.12569724768963239 0.47617993877849962 0 0.13663143795624749 0.46910754811773492 0 0.12569724768963239 0.47617993877849962 0 0.13663143795624749 0.46910754811773492 0 0.1364132019148096 0.48384982340983701 0 0.13663143795624749 0.46910754811773492 0 0.1364132019148096 0.48384982340983701 0 0.14361111091913481 0.47574478002545789 0 0.1249193769550877 0.49369376296818718 0 0.1364132019148096 0.48384982340983701 0 0.14611751268168829 0.49546177892012921 0 0.1249193769550877 0.49369376296818718 0 0.14611751268168829 0.49546177892012921 0 0.1249193769550877 0.49369376296818718 0 0.12569724768963239 0.47617993877849962 0 0.1364132019148096 0.48384982340983701 0 0.1249193769550877 0.49369376296818718 0 0.13738437864054501 0.5 0 0.14611751268168829 0.49546177892012921 0 0.1364132019148096 0.48384982340983701 0 0.14611751268168829 0.49546177892012921 0 0.14718343377546941 0.48347361591025501 0 0.1669427425872391 0.49999999999999922 0 0.13738437864054501 0.5 0 0.14611751268168829 0.49546177892012921 0 0.157708884996551 0.48584061526662409 0 0.14611751268168829 0.49546177892012921 0 0.14718343377546941 0.48347361591025501 0 0.157708884996551 0.48584061526662409 0 0.1531189490294651 0.47544631339495541 0 0.14718343377546941 0.48347361591025501 0 0.14976048710833001 0.46192771033000529 0 0.1531189490294651 0.47544631339495541 0 0.14361111091913481 0.47574478002545789 0 0.14976048710833001 0.46192771033000529 0 0.13663143795624749 0.46910754811773492 0 0.14361111091913481 0.47574478002545789 0 0.1364132019148096 0.48384982340983701 0 0.14361111091913481 0.47574478002545789 0 0.14718343377546941 0.48347361591025501 0 0.1531189490294651 0.47544631339495541 0 0.14361111091913481 0.47574478002545789 0 0.14718343377546941 0.48347361591025501 0 0.35832214194920592 0.47929915408112939 0 0.34611268429232461 0.46591887339206078 0 0.3375369348076922 0.4829399206954248 0 0.35832214194920592 0.47929915408112939 0 0.35850557312216419 0.5 0 0.3375369348076922 0.4829399206954248 0 0.35850557312216419 0.5 0 0.37801407526051067 0.48065415083330842 0 0.38797204790529932 0.5 0 0.35832214194920592 0.47929915408112939 0 0.35850557312216419 0.5 0 0.37801407526051067 0.48065415083330842 0 0.35832214194920592 0.47929915408112939 0 0.36980735363827261 0.46050290225189661 0 0.37801407526051067 0.48065415083330842 0 0.36980735363827261 0.46050290225189661 0 0.34502769605759259 0.44546544446971242 0 0.36959298495063608 0.43610817863788948 0 0.35832214194920592 0.47929915408112939 0 0.36980735363827261 0.46050290225189661 0 0.34611268429232461 0.46591887339206078 0 0.36980735363827261 0.46050290225189661 0 0.34502769605759259 0.44546544446971242 0 0.34611268429232461 0.46591887339206078 0 0.36980735363827261 0.46050290225189661 0 0.34611268429232461 0.46591887339206078 0 0.34611268429232461 0.46591887339206078 0 0.3317687487832644 0.45597005559148451 0 0.32241801494637662 0.47133484453222518 0 0.34502769605759259 0.44546544446971242 0 0.34611268429232461 0.46591887339206078 0 0.3317687487832644 0.45597005559148451 0 0.34611268429232461 0.46591887339206078 0 0.32241801494637662 0.47133484453222518 0 0.34502769605759259 0.44546544446971242 0 0.3317687487832644 0.45597005559148451 0 0.32480939915707069 0.44218818576869201 0 0.34502769605759259 0.44546544446971242 0 0.32480939915707069 0.44218818576869201 0 0.33523501366627878 0.43221560569608392 0 0.3107318966111981 0.4514989769174147 0 0.3227404476219688 0.42624713816244092 0 0.3317687487832644 0.45597005559148451 0 0.32480939915707069 0.44218818576869201 0 0.3107318966111981 0.4514989769174147 0 0.32480939915707069 0.44218818576869201 0 0.3107318966111981 0.4514989769174147 0 0.3227404476219688 0.42624713816244092 0 0.3317687487832644 0.45597005559148451 0 0.32241801494637662 0.47133484453222518 0 0.3107318966111981 0.4514989769174147 0 0.32241801494637662 0.47133484453222518 0 0.3375369348076922 0.4829399206954248 0 0.31372501333874958 0.48784291822244708 0 0.34611268429232461 0.46591887339206078 0 0.32241801494637662 0.47133484453222518 0 0.3375369348076922 0.4829399206954248 0 0.35850557312216419 0.5 0 0.3375369348076922 0.4829399206954248 0 0.32903909833902928 0.5 0 0.32903909833902928 0.5 0 0.31372501333874958 0.48784291822244708 0 0.29957262355589431 0.5 0 0.3375369348076922 0.4829399206954248 0 0.32903909833902928 0.5 0 0.31372501333874958 0.48784291822244708 0 0.31372501333874958 0.48784291822244708 0 0.30130976803097798 0.48891801032572652 0 0.29957262355589431 0.5 0 0.31372501333874958 0.48784291822244708 0 0.30130976803097798 0.48891801032572652 0 0.29872334560042851 0.47675081567238892 0 0.30130976803097798 0.48891801032572652 0 0.29957262355589431 0.5 0 0.28978827390519868 0.49553967616935518 0 0.32241801494637662 0.47133484453222518 0 0.29872334560042851 0.47675081567238892 0 0.32241801494637662 0.47133484453222518 0 0.31372501333874958 0.48784291822244708 0 0.29872334560042851 0.47675081567238892 0 0.29872334560042851 0.47675081567238892 0 0.28397488520641462 0.48012192141307769 0 0.28978827390519868 0.49553967616935518 0 0.29872334560042851 0.47675081567238892 0 0.28929399795500932 0.47058792179259418 0 0.29703527816799058 0.46117092995693892 0 0.29872334560042851 0.47675081567238892 0 0.28929399795500932 0.47058792179259418 0 0.28397488520641462 0.48012192141307769 0 0.29872334560042851 0.47675081567238892 0 0.28397488520641462 0.48012192141307769 0 0.28929399795500932 0.47058792179259418 0 0.28397488520641462 0.48012192141307769 0 0.27920072977811172 0.47805830749059319 0 0.28397488520641462 0.48012192141307769 0 0.28978827390519868 0.49553967616935518 0 0.27010614877275918 0.50000000000000067 0 0.29957262355589431 0.5 0 0.28978827390519868 0.49553967616935518 0 0.27010614877275918 0.50000000000000067 0 0.30130976803097798 0.48891801032572652 0 0.29872334560042851 0.47675081567238892 0 0.28978827390519868 0.49553967616935518 0 0.29872334560042851 0.47675081567238892 0 0.28978827390519868 0.49553967616935518 0 0.28397488520641462 0.48012192141307769 0 0.27010614877275918 0.50000000000000067 0 0.27920072977811172 0.47805830749059319 0 0.27010614877275918 0.50000000000000067 0 0.26909437115437917 0.48384867389528768 0 0.26130641782501518 0.49139676135406141 0 0.27010614877275918 0.50000000000000067 0 0.27920072977811172 0.47805830749059319 0 0.26909437115437917 0.48384867389528768 0 0.27010614877275918 0.50000000000000067 0 0.27920072977811172 0.47805830749059319 0 0.27920072977811172 0.47805830749059319 0 0.27306774476234302 0.47644699960251641 0 0.26909437115437917 0.48384867389528768 0 0.27920072977811172 0.47805830749059319 0 0.27306774476234302 0.47644699960251641 0 0.27643472525740193 0.46726539210963169 0 0.26824582816420722 0.47348896141386071 0 0.27306774476234302 0.47644699960251641 0 0.27643472525740193 0.46726539210963169 0 0.26824582816420722 0.47348896141386071 0 0.26909437115437917 0.48384867389528768 0 0.25993240985832161 0.47939275616227872 0 0.26824582816420722 0.47348896141386071 0 0.27306774476234302 0.47644699960251641 0 0.26909437115437917 0.48384867389528768 0 0.24904418528453851 0.48634810883828161 0 0.25993240985832161 0.47939275616227872 0 0.25047151807745072 0.47036873115219768 0 0.26824582816420722 0.47348896141386071 0 0.25993240985832161 0.47939275616227872 0 0.26165523792153211 0.46576309323832682 0 0.25993240985832161 0.47939275616227872 0 0.25047151807745072 0.47036873115219768 0 0.26165523792153211 0.46576309323832682 0 0.27010614877275918 0.50000000000000067 0 0.25181722630913472 0.5 0 0.26130641782501518 0.49139676135406141 0 0.24904418528453851 0.48634810883828161 0 0.25993240985832161 0.47939275616227872 0 0.26130641782501518 0.49139676135406141 0 0.24904418528453851 0.48634810883828161 0 0.25181722630913472 0.5 0 0.26130641782501518 0.49139676135406141 0 0.26909437115437917 0.48384867389528768 0 0.25993240985832161 0.47939275616227872 0 0.26130641782501518 0.49139676135406141 0 0.26490489917960358 0.45079530358348557 0 0.25548676926057468 0.44017180441404491 0 0.26331147225899149 0.43380076267102891 0 0.24946733303660301 0.43176723098649622 0 0.24583280085865111 0.44361242472787987 0 0.25548676926057468 0.44017180441404491 0 0.24583280085865111 0.44361242472787987 0 0.25548676926057468 0.44017180441404491 0 0.25282491994113748 0.44831200937164878 0 0.26490489917960358 0.45079530358348557 0 0.25548676926057468 0.44017180441404491 0 0.25282491994113748 0.44831200937164878 0 0.26490489917960358 0.45079530358348557 0 0.25282491994113748 0.44831200937164878 0 0.25477099823403621 0.45804476415031298 0 0.25047151807745072 0.47036873115219768 0 0.25477099823403621 0.45804476415031298 0 0.26165523792153211 0.46576309323832682 0 0.26490489917960358 0.45079530358348557 0 0.25477099823403621 0.45804476415031298 0 0.26165523792153211 0.46576309323832682 0 0.26490489917960358 0.45079530358348557 0 0.27160577401557351 0.46248804296782559 0 0.27679169795675967 0.45600994403837303 0 0.26490489917960358 0.45079530358348557 0 0.26165523792153211 0.46576309323832682 0 0.27160577401557351 0.46248804296782559 0 0.26824582816420722 0.47348896141386071 0 0.27160577401557351 0.46248804296782559 0 0.27643472525740193 0.46726539210963169 0 0.26824582816420722 0.47348896141386071 0 0.26165523792153211 0.46576309323832682 0 0.27160577401557351 0.46248804296782559 0 0.27160577401557351 0.46248804296782559 0 0.27643472525740193 0.46726539210963169 0 0.27679169795675967 0.45600994403837303 0 0.27643472525740193 0.46726539210963169 0 0.27679169795675967 0.45600994403837303 0 0.28829531078346382 0.45611661498118572 0 0.27903440424894049 0.4453257315987294 0 0.26331147225899149 0.43380076267102891 0 0.26490489917960358 0.45079530358348557 0 0.27903440424894049 0.4453257315987294 0 0.26331147225899149 0.43380076267102891 0 0.26490489917960358 0.45079530358348557 0 0.27679169795675967 0.45600994403837303 0 0.27903440424894049 0.4453257315987294 0 0.27903440424894049 0.4453257315987294 0 0.2917470315179379 0.44281751567604499 0 0.28179675760275558 0.42932557237874241 0 0.27679169795675967 0.45600994403837303 0 0.27903440424894049 0.4453257315987294 0 0.28829531078346382 0.45611661498118572 0 0.27903440424894049 0.4453257315987294 0 0.2917470315179379 0.44281751567604499 0 0.28829531078346382 0.45611661498118572 0 0.2917470315179379 0.44281751567604499 0 0.28829531078346382 0.45611661498118572 0 0.29813183988985342 0.45090032042111128 0 0.27920072977811172 0.47805830749059319 0 0.27643472525740193 0.46726539210963169 0 0.28829531078346382 0.45611661498118572 0 0.28929399795500932 0.47058792179259418 0 0.27920072977811172 0.47805830749059319 0 0.28829531078346382 0.45611661498118572 0 0.27920072977811172 0.47805830749059319 0 0.28829531078346382 0.45611661498118572 0 0.28829531078346382 0.45611661498118572 0 0.29703527816799058 0.46117092995693892 0 0.29813183988985342 0.45090032042111128 0 0.28929399795500932 0.47058792179259418 0 0.28829531078346382 0.45611661498118572 0 0.29703527816799058 0.46117092995693892 0 0.29872334560042851 0.47675081567238892 0 0.29703527816799058 0.46117092995693892 0 0.3107318966111981 0.4514989769174147 0 0.29872334560042851 0.47675081567238892 0 0.3107318966111981 0.4514989769174147 0 0.32241801494637662 0.47133484453222518 0 0.29872334560042851 0.47675081567238892 0 0.3107318966111981 0.4514989769174147 0 0.29703527816799058 0.46117092995693892 0 0.29813183988985342 0.45090032042111128 0 0.3107318966111981 0.4514989769174147 0 0.30159082278473881 0.44219288247638061 0 0.3107318966111981 0.4514989769174147 0 0.30884109342504262 0.43428586920116352 0 0.2917470315179379 0.44281751567604499 0 0.30159082278473881 0.44219288247638061 0 0.29850225247966211 0.43146173016616862 0 0.2917470315179379 0.44281751567604499 0 0.30159082278473881 0.44219288247638061 0 0.29813183988985342 0.45090032042111128 0 0.30159082278473881 0.44219288247638061 0 0.29813183988985342 0.45090032042111128 0 0.3107318966111981 0.4514989769174147 0 0.30884109342504262 0.43428586920116352 0 0.29850225247966211 0.43146173016616862 0 0.30862162828234507 0.42004495563460759 0 0.29850225247966211 0.43146173016616862 0 0.30862162828234507 0.42004495563460759 0 0.29547148538100448 0.41817397575591742 0 0.30159082278473881 0.44219288247638061 0 0.30884109342504262 0.43428586920116352 0 0.29850225247966211 0.43146173016616862 0 0.30862162828234507 0.42004495563460759 0 0.30304430461131138 0.40735012112542651 0 0.3196782615082488 0.40265332564926309 0 0.30862162828234507 0.42004495563460759 0 0.30304430461131138 0.40735012112542651 0 0.29547148538100448 0.41817397575591742 0 0.30304430461131138 0.40735012112542651 0 0.29062365375375682 0.40708788978866228 0 0.29547148538100448 0.41817397575591742 0 0.29062365375375682 0.40708788978866228 0 0.29547148538100448 0.41817397575591742 0 0.28288479604298378 0.41446876034122271 0 0.29547148538100448 0.41817397575591742 0 0.28288479604298378 0.41446876034122271 0 0.28179675760275558 0.42932557237874241 0 0.29062365375375682 0.40708788978866228 0 0.28288479604298378 0.41446876034122271 0 0.28001120465417539 0.40182109974822727 0 0.29850225247966211 0.43146173016616862 0 0.29547148538100448 0.41817397575591742 0 0.28179675760275558 0.42932557237874241 0 0.2917470315179379 0.44281751567604499 0 0.29850225247966211 0.43146173016616862 0 0.28179675760275558 0.42932557237874241 0 0.28179675760275558 0.42932557237874241 0 0.27042562322166658 0.41684269204638819 0 0.26331147225899149 0.43380076267102891 0 0.27903440424894049 0.4453257315987294 0 0.28179675760275558 0.42932557237874241 0 0.26331147225899149 0.43380076267102891 0 0.27042562322166658 0.41684269204638819 0 0.26380858941988822 0.4002294757553399 0 0.28001120465417539 0.40182109974822727 0 0.28288479604298378 0.41446876034122271 0 0.28179675760275558 0.42932557237874241 0 0.27042562322166658 0.41684269204638819 0 0.28288479604298378 0.41446876034122271 0 0.27042562322166658 0.41684269204638819 0 0.28001120465417539 0.40182109974822727 0 0.24649952449278431 0.42147754103885982 0 0.25492995388566009 0.41993008507457552 0 0.26380858941988822 0.4002294757553399 0 0.27042562322166658 0.41684269204638819 0 0.25492995388566009 0.41993008507457552 0 0.26380858941988822 0.4002294757553399 0 0.24649952449278431 0.42147754103885982 0 0.26380858941988822 0.4002294757553399 0 0.2429624777480478 0.39890547698508871 0 0.24649952449278431 0.42147754103885982 0 0.26380858941988822 0.4002294757553399 0 0.24946733303660301 0.43176723098649622 0 0.24649952449278431 0.42147754103885982 0 0.26331147225899149 0.43380076267102891 0 0.24649952449278431 0.42147754103885982 0 0.25492995388566009 0.41993008507457552 0 0.26331147225899149 0.43380076267102891 0 0.24649952449278431 0.42147754103885982 0 0.26331147225899149 0.43380076267102891 0 0.27042562322166658 0.41684269204638819 0 0.25492995388566009 0.41993008507457552 0 0.26331147225899149 0.43380076267102891 0 0.24946733303660301 0.43176723098649622 0 0.25548676926057468 0.44017180441404491 0 0.26331147225899149 0.43380076267102891 0 0.26350653962281989 0.38010735630523079 0 0.25341304662754638 0.38974012394171498 0 0.26380858941988822 0.4002294757553399 0 0.26350653962281989 0.38010735630523079 0 0.25383912625151372 0.37755129754335942 0 0.25710864090743918 0.37145542319719338 0 0.26350653962281989 0.38010735630523079 0 0.25383912625151372 0.37755129754335942 0 0.25341304662754638 0.38974012394171498 0 0.2429624777480478 0.39890547698508871 0 0.25341304662754638 0.38974012394171498 0 0.26380858941988822 0.4002294757553399 0 0.26380858941988822 0.4002294757553399 0 0.28001120465417539 0.40182109974822727 0 0.28036865154730628 0.37990086281960789 0 0.26350653962281989 0.38010735630523079 0 0.28036865154730628 0.37990086281960789 0 0.2641967246118288 0.36596915937278562 0 0.26380858941988822 0.4002294757553399 0 0.28036865154730628 0.37990086281960789 0 0.26350653962281989 0.38010735630523079 0 0.26380858941988822 0.4002294757553399 0 0.28036865154730628 0.37990086281960789 0 0.28036865154730628 0.37990086281960789 0 0.29170647807930872 0.39362549197251728 0 0.2987730087010142 0.37934426936791982 0 0.28036865154730628 0.37990086281960789 0 0.29170647807930872 0.39362549197251728 0 0.28001120465417539 0.40182109974822727 0 0.28036865154730628 0.37990086281960789 0 0.29170647807930872 0.39362549197251728 0 0.29062365375375682 0.40708788978866228 0 0.28001120465417539 0.40182109974822727 0 0.29170647807930872 0.39362549197251728 0 0.30304430461131138 0.40735012112542651 0 0.29062365375375682 0.40708788978866228 0 0.29170647807930872 0.39362549197251728 0 0.30304430461131138 0.40735012112542651 0 0.30637452063024528 0.39219955594670219 0 0.3196782615082488 0.40265332564926309 0 0.30304430461131138 0.40735012112542651 0 0.29170647807930872 0.39362549197251728 0 0.30304430461131138 0.40735012112542651 0 0.29170647807930872 0.39362549197251728 0 0.30637452063024528 0.39219955594670219 0 0.30637452063024528 0.39219955594670219 0 0.2987730087010142 0.37934426936791982 0 0.31661607539452802 0.37905951313608538 0 0.29170647807930872 0.39362549197251728 0 0.30637452063024528 0.39219955594670219 0 0.2987730087010142 0.37934426936791982 0 0.31661607539452802 0.37905951313608538 0 0.32905198958534931 0.38831461949406398 0 0.3196782615082488 0.40265332564926309 0 0.31661607539452802 0.37905951313608538 0 0.32905198958534931 0.38831461949406398 0 0.33389487655237682 0.3658352592629312 0 0.32905198958534931 0.38831461949406398 0 0.34270248502322931 0.38427053755298168 0 0.33389487655237682 0.3658352592629312 0 0.32905198958534931 0.38831461949406398 0 0.34270248502322931 0.38427053755298168 0 0.33272146632259869 0.40525883785771122 0 0.34270248502322931 0.38427053755298168 0 0.33272146632259869 0.40525883785771122 0 0.34270248502322931 0.38427053755298168 0 0.33272146632259869 0.40525883785771122 0 0.34670895149724801 0.40816004440777182 0 0.31661607539452802 0.37905951313608538 0 0.3196782615082488 0.40265332564926309 0 0.32905198958534931 0.38831461949406398 0 0.33272146632259869 0.40525883785771122 0 0.3196782615082488 0.40265332564926309 0 0.30637452063024528 0.39219955594670219 0 0.31661607539452802 0.37905951313608538 0 0.3196782615082488 0.40265332564926309 0 0.3196782615082488 0.40265332564926309 0 0.3227404476219688 0.42624713816244092 0 0.30862162828234507 0.42004495563460759 0 0.3196782615082488 0.40265332564926309 0 0.3227404476219688 0.42624713816244092 0 0.33272146632259869 0.40525883785771122 0 0.3196782615082488 0.40265332564926309 0 0.3227404476219688 0.42624713816244092 0 0.33272146632259869 0.40525883785771122 0 0.3227404476219688 0.42624713816244092 0 0.32480939915707069 0.44218818576869201 0 0.3227404476219688 0.42624713816244092 0 0.3107318966111981 0.4514989769174147 0 0.30884109342504262 0.43428586920116352 0 0.3227404476219688 0.42624713816244092 0 0.32480939915707069 0.44218818576869201 0 0.3227404476219688 0.42624713816244092 0 0.33523501366627878 0.43221560569608392 0 0.30884109342504262 0.43428586920116352 0 0.30862162828234507 0.42004495563460759 0 0.3227404476219688 0.42624713816244092 0 0.34502769605759259 0.44546544446971242 0 0.33523501366627878 0.43221560569608392 0 0.34795858503051302 0.425881111768525 0 0.3227404476219688 0.42624713816244092 0 0.33523501366627878 0.43221560569608392 0 0.33659904832278342 0.4201421825902541 0 0.33523501366627878 0.43221560569608392 0 0.33659904832278342 0.4201421825902541 0 0.34795858503051302 0.425881111768525 0 0.33272146632259869 0.40525883785771122 0 0.3227404476219688 0.42624713816244092 0 0.33659904832278342 0.4201421825902541 0 0.33272146632259869 0.40525883785771122 0 0.33659904832278342 0.4201421825902541 0 0.34670895149724801 0.40816004440777182 0 0.33659904832278342 0.4201421825902541 0 0.34670895149724801 0.40816004440777182 0 0.34795858503051302 0.425881111768525 0 0.34670895149724801 0.40816004440777182 0 0.34795858503051302 0.425881111768525 0 0.36336601300371613 0.41450991002864218 0 0.34670895149724801 0.40816004440777182 0 0.36336601300371613 0.41450991002864218 0 0.35690611128064731 0.3988976866485166 0 0.34502769605759259 0.44546544446971242 0 0.34795858503051302 0.425881111768525 0 0.36959298495063608 0.43610817863788948 0 0.34795858503051302 0.425881111768525 0 0.36959298495063608 0.43610817863788948 0 0.36336601300371613 0.41450991002864218 0 0.36959298495063608 0.43610817863788948 0 0.36336601300371613 0.41450991002864218 0 0.38530342098431941 0.41064856824057122 0 0.36336601300371613 0.41450991002864218 0 0.3736470799201031 0.39378130610698531 0 0.38530342098431941 0.41064856824057122 0 0.3736470799201031 0.39378130610698531 0 0.3601059063978746 0.38125551426405008 0 0.35690611128064731 0.3988976866485166 0 0.36336601300371613 0.41450991002864218 0 0.3736470799201031 0.39378130610698531 0 0.35690611128064731 0.3988976866485166 0 0.3736470799201031 0.39378130610698531 0 0.3601059063978746 0.38125551426405008 0 0.37414389550204002 0.36898578533419818 0 0.34270248502322931 0.38427053755298168 0 0.3601059063978746 0.38125551426405008 0 0.35690611128064731 0.3988976866485166 0 0.34270248502322931 0.38427053755298168 0 0.3601059063978746 0.38125551426405008 0 0.35268350372385993 0.36328223724825232 0 0.34270248502322931 0.38427053755298168 0 0.34670895149724801 0.40816004440777182 0 0.35690611128064731 0.3988976866485166 0 0.35268350372385993 0.36328223724825232 0 0.36266452242448938 0.34229393694352239 0 0.35030182712711511 0.35130594720886232 0 0.35268350372385993 0.36328223724825232 0 0.36266452242448938 0.34229393694352239 0 0.35030182712711511 0.35130594720886232 0 0.35146565257524442 0.34420791440797271 0 0.36266452242448938 0.34229393694352239 0 0.35030182712711511 0.35130594720886232 0 0.35146565257524442 0.34420791440797271 0 0.34269927497721508 0.34493512072036142 0 0.35030182712711511 0.35130594720886232 0 0.35268350372385993 0.36328223724825232 0 0.33389487655237682 0.3658352592629312 0 0.34270248502322931 0.38427053755298168 0 0.35268350372385993 0.36328223724825232 0 0.3601059063978746 0.38125551426405008 0 0.35268350372385993 0.36328223724825232 0 0.37414389550204002 0.36898578533419818 0 0.35268350372385993 0.36328223724825232 0 0.37414389550204002 0.36898578533419818 0 0.36300645299402812 0.35604351837507042 0 0.37414389550204002 0.36898578533419818 0 0.37228166628853332 0.35471301169251829 0 0.36300645299402812 0.35604351837507042 0 0.35268350372385993 0.36328223724825232 0 0.36300645299402812 0.35604351837507042 0 0.36266452242448938 0.34229393694352239 0 0.37228166628853332 0.35471301169251829 0 0.36300645299402812 0.35604351837507042 0 0.36840829020790361 0.34668560051738673 0 0.36300645299402812 0.35604351837507042 0 0.36840829020790361 0.34668560051738673 0 0.36266452242448938 0.34229393694352239 0 0.36840829020790361 0.34668560051738673 0 0.36266452242448938 0.34229393694352239 0 0.36587418437400321 0.34278907974668538 0 0.37228166628853332 0.35471301169251829 0 0.36840829020790361 0.34668560051738673 0 0.37486749369974542 0.34694596905823039 0 0.37486749369974542 0.34694596905823039 0 0.37256750073976291 0.34304532959464751 0 0.37670219357667811 0.34177383067972761 0 0.36840829020790361 0.34668560051738673 0 0.37486749369974542 0.34694596905823039 0 0.37256750073976291 0.34304532959464751 0 0.36124897776362869 0.33531944770056321 0 0.36266452242448938 0.34229393694352239 0 0.36411885078159001 0.32644375487552563 0 0.37256750073976291 0.34304532959464751 0 0.36916640720496519 0.34145859007673351 0 0.37369311900952262 0.33836265764115908 0 0.37256750073976291 0.34304532959464751 0 0.37369311900952262 0.33836265764115908 0 0.37670219357667811 0.34177383067972761 0 0.36266452242448938 0.34229393694352239 0 0.37014896644917339 0.316543878568457 0 0.36770298492566261 0.33637877995368609 0 0.36266452242448938 0.34229393694352239 0 0.37368960646642962 0.31911015363466272 0 0.36770298492566261 0.33637877995368609 0 0.36985494237623989 0.33311962493185521 0 0.37368960646642962 0.31911015363466272 0 0.36266452242448938 0.34229393694352239 0 0.37368960646642962 0.31911015363466272 0 0.36266452242448938 0.34229393694352239 0 0.37014896644917339 0.316543878568457 0 0.36411885078159001 0.32644375487552563 0 0.36840829020790361 0.34668560051738673 0 0.36916640720496519 0.34145859007673351 0 0.36587418437400321 0.34278907974668538 0 0.36840829020790361 0.34668560051738673 0 0.37256750073976291 0.34304532959464751 0 0.36916640720496519 0.34145859007673351 0 0.36916640720496519 0.34145859007673351 0 0.36587418437400321 0.34278907974668538 0 0.36708394454210669 0.33994961910346172 0 0.36916640720496519 0.34145859007673351 0 0.37010024416019238 0.33739894816112592 0 0.36708394454210669 0.33994961910346172 0 0.36916640720496519 0.34145859007673351 0 0.37010024416019238 0.33739894816112592 0 0.37369311900952262 0.33836265764115908 0 0.36770298492566261 0.33637877995368609 0 0.37010024416019238 0.33739894816112592 0 0.36708394454210669 0.33994961910346172 0 0.37010024416019238 0.33739894816112592 0 0.37369311900952262 0.33836265764115908 0 0.3722735272100694 0.33425106354392481 0 0.3722735272100694 0.33425106354392481 0 0.37245621682226088 0.32924087979990557 0 0.375263113682131 0.33313320718557798 0 0.37369311900952262 0.33836265764115908 0 0.3722735272100694 0.33425106354392481 0 0.375263113682131 0.33313320718557798 0 0.3722735272100694 0.33425106354392481 0 0.37245621682226088 0.32924087979990557 0 0.36985494237623989 0.33311962493185521 0 0.37245621682226088 0.32924087979990557 0 0.37577016905582622 0.32787937856968757 0 0.375263113682131 0.33313320718557798 0 0.37010024416019238 0.33739894816112592 0 0.3722735272100694 0.33425106354392481 0 0.36985494237623989 0.33311962493185521 0 0.36770298492566261 0.33637877995368609 0 0.37010024416019238 0.33739894816112592 0 0.36985494237623989 0.33311962493185521 0 0.36128237795215928 0.33126347269122047 0 0.36124897776362869 0.33531944770056321 0 0.36411885078159001 0.32644375487552563 0 0.36150631125237548 0.32912422255951068 0 0.36128237795215928 0.33126347269122047 0 0.36411885078159001 0.32644375487552563 0 0.36150631125237548 0.32912422255951068 0 0.35994194411877378 0.32646204206530971 0 0.35835984371964152 0.33045614064968309 0 0.36128237795215928 0.33126347269122047 0 0.35899626180536931 0.33430086833413269 0 0.35835984371964152 0.33045614064968309 0 0.36150631125237548 0.32912422255951068 0 0.36128237795215928 0.33126347269122047 0 0.35835984371964152 0.33045614064968309 0 0.36128237795215928 0.33126347269122047 0 0.36124897776362869 0.33531944770056321 0 0.35899626180536931 0.33430086833413269 0 0.36124897776362869 0.33531944770056321 0 0.36001134864139028 0.33778823672905661 0 0.35899626180536931 0.33430086833413269 0 0.36124897776362869 0.33531944770056321 0 0.36001134864139028 0.33778823672905661 0 0.36266452242448938 0.34229393694352239 0 0.36001134864139028 0.33778823672905661 0 0.36266452242448938 0.34229393694352239 0 0.3582225103283424 0.33883319475427592 0 0.36266452242448938 0.34229393694352239 0 0.36587418437400321 0.34278907974668538 0 0.36708394454210669 0.33994961910346172 0 0.36770298492566261 0.33637877995368609 0 0.36266452242448938 0.34229393694352239 0 0.36708394454210669 0.33994961910346172 0 0.36266452242448938 0.34229393694352239 0 0.37368960646642962 0.31911015363466272 0 0.37014896644917339 0.316543878568457 0 0.37014896644917339 0.316543878568457 0 0.36604953812300478 0.31497278055865852 0 0.36630954626425261 0.31087512405144152 0 0.37499251130121058 0.31593455150060828 0 0.37014896644917339 0.316543878568457 0 0.37695808612291098 0.31120865645681561 0 0.37499251130121058 0.31593455150060828 0 0.37368960646642962 0.31911015363466272 0 0.37014896644917339 0.316543878568457 0 0.37014896644917339 0.316543878568457 0 0.36646072203027302 0.32009490443849897 0 0.3659238024377004 0.31770243144255911 0 0.37014896644917339 0.316543878568457 0 0.3659238024377004 0.31770243144255911 0 0.36604953812300478 0.31497278055865852 0 0.37245621682226088 0.32924087979990557 0 0.36985494237623989 0.33311962493185521 0 0.37368960646642962 0.31911015363466272 0 0.37245621682226088 0.32924087979990557 0 0.37368960646642962 0.31911015363466272 0 0.37506056064123422 0.32471797871916308 0 0.37245621682226088 0.32924087979990557 0 0.37577016905582622 0.32787937856968757 0 0.37506056064123422 0.32471797871916308 0 0.37014896644917339 0.316543878568457 0 0.36411885078159001 0.32644375487552563 0 0.36646072203027302 0.32009490443849897 0 0.36411885078159001 0.32644375487552563 0 0.35994194411877378 0.32646204206530971 0 0.36132202517978662 0.32303080634539388 0 0.36150631125237548 0.32912422255951068 0 0.36411885078159001 0.32644375487552563 0 0.35994194411877378 0.32646204206530971 0 0.36132202517978662 0.32303080634539388 0 0.36348301458407639 0.32047903077872458 0 0.35962675317161102 0.31893041505789499 0 0.36411885078159001 0.32644375487552563 0 0.36132202517978662 0.32303080634539388 0 0.36348301458407639 0.32047903077872458 0 0.36411885078159001 0.32644375487552563 0 0.36348301458407639 0.32047903077872458 0 0.36646072203027302 0.32009490443849897 0 0.36348301458407639 0.32047903077872458 0 0.36646072203027302 0.32009490443849897 0 0.3659238024377004 0.31770243144255911 0 0.3659238024377004 0.31770243144255911 0 0.36344593390349789 0.31667187251247519 0 0.36604953812300478 0.31497278055865852 0 0.36348301458407639 0.32047903077872458 0 0.3659238024377004 0.31770243144255911 0 0.36344593390349789 0.31667187251247519 0 0.36348301458407639 0.32047903077872458 0 0.36344593390349789 0.31667187251247519 0 0.35962675317161102 0.31893041505789499 0 0.36344593390349789 0.31667187251247519 0 0.35962675317161102 0.31893041505789499 0 0.35878641637012221 0.31305233625990619 0 0.36344593390349789 0.31667187251247519 0 0.36331333565659901 0.31283202127524651 0 0.35878641637012221 0.31305233625990619 0 0.36331333565659901 0.31283202127524651 0 0.36604953812300478 0.31497278055865852 0 0.36630954626425261 0.31087512405144152 0 0.36344593390349789 0.31667187251247519 0 0.36331333565659901 0.31283202127524651 0 0.36604953812300478 0.31497278055865852 0 0.35878641637012221 0.31305233625990619 0 0.35512602374864599 0.31718053618965047 0 0.35090510471213721 0.31152713165908658 0 0.35512602374864599 0.31718053618965047 0 0.34983435518440159 0.31943204998396652 0 0.35090510471213721 0.31152713165908658 0 0.35962675317161102 0.31893041505789499 0 0.35878641637012221 0.31305233625990619 0 0.35512602374864599 0.31718053618965047 0 0.35962675317161102 0.31893041505789499 0 0.35512602374864599 0.31718053618965047 0 0.35673455485560862 0.32229528426682241 0 0.35512602374864599 0.31718053618965047 0 0.35673455485560862 0.32229528426682241 0 0.34983435518440159 0.31943204998396652 0 0.35673455485560862 0.32229528426682241 0 0.35060422568955008 0.32587015674736058 0 0.34983435518440159 0.31943204998396652 0 0.35994194411877378 0.32646204206530971 0 0.36132202517978662 0.32303080634539388 0 0.35673455485560862 0.32229528426682241 0 0.36132202517978662 0.32303080634539388 0 0.35962675317161102 0.31893041505789499 0 0.35673455485560862 0.32229528426682241 0 0.35994194411877378 0.32646204206530971 0 0.35673455485560862 0.32229528426682241 0 0.35627338036128769 0.32705738058013539 0 0.35994194411877378 0.32646204206530971 0 0.35627338036128769 0.32705738058013539 0 0.35835984371964152 0.33045614064968309 0 0.35627338036128769 0.32705738058013539 0 0.35060422568955008 0.32587015674736058 0 0.35398721241228231 0.33095327650953749 0 0.35673455485560862 0.32229528426682241 0 0.35627338036128769 0.32705738058013539 0 0.35060422568955008 0.32587015674736058 0 0.35060422568955008 0.32587015674736058 0 0.34514221143703899 0.32919058107390442 0 0.34284551192874652 0.32364904383841531 0 0.35060422568955008 0.32587015674736058 0 0.34983435518440159 0.31943204998396652 0 0.34284551192874652 0.32364904383841531 0 0.34983435518440159 0.31943204998396652 0 0.34480088275632298 0.31606258733578418 0 0.35090510471213721 0.31152713165908658 0 0.34983435518440159 0.31943204998396652 0 0.34480088275632298 0.31606258733578418 0 0.34284551192874652 0.32364904383841531 0 0.35146565257524442 0.34420791440797271 0 0.36266452242448938 0.34229393694352239 0 0.35562031764263757 0.34031424282986023 0 0.35302683950207769 0.33602013814058929 0 0.35562031764263757 0.34031424282986023 0 0.35672120529774148 0.33684362974708199 0 0.35202203774268331 0.33965573310897551 0 0.35302683950207769 0.33602013814058929 0 0.35562031764263757 0.34031424282986023 0 0.35146565257524442 0.34420791440797271 0 0.35202203774268331 0.33965573310897551 0 0.35562031764263757 0.34031424282986023 0 0.36266452242448938 0.34229393694352239 0 0.35562031764263757 0.34031424282986023 0 0.3582225103283424 0.33883319475427592 0 0.35562031764263757 0.34031424282986023 0 0.3582225103283424 0.33883319475427592 0 0.35672120529774148 0.33684362974708199 0 0.36001134864139028 0.33778823672905661 0 0.3582225103283424 0.33883319475427592 0 0.35672120529774148 0.33684362974708199 0 0.36001134864139028 0.33778823672905661 0 0.35672120529774148 0.33684362974708199 0 0.35899626180536931 0.33430086833413269 0 0.35899626180536931 0.33430086833413269 0 0.35641212776078268 0.33381706902087938 0 0.35835984371964152 0.33045614064968309 0 0.35672120529774148 0.33684362974708199 0 0.35899626180536931 0.33430086833413269 0 0.35641212776078268 0.33381706902087938 0 0.35627338036128769 0.32705738058013539 0 0.35835984371964152 0.33045614064968309 0 0.35398721241228231 0.33095327650953749 0 0.35641212776078268 0.33381706902087938 0 0.35835984371964152 0.33045614064968309 0 0.35398721241228231 0.33095327650953749 0 0.35302683950207769 0.33602013814058929 0 0.35641212776078268 0.33381706902087938 0 0.35398721241228231 0.33095327650953749 0 0.35302683950207769 0.33602013814058929 0 0.35398721241228231 0.33095327650953749 0 0.34924685744035389 0.33249877391857741 0 0.35302683950207769 0.33602013814058929 0 0.35672120529774148 0.33684362974708199 0 0.35641212776078268 0.33381706902087938 0 0.35302683950207769 0.33602013814058929 0 0.34924685744035389 0.33249877391857741 0 0.34788509595764172 0.33882226599831611 0 0.35060422568955008 0.32587015674736058 0 0.34924685744035389 0.33249877391857741 0 0.34514221143703899 0.32919058107390442 0 0.35060422568955008 0.32587015674736058 0 0.35398721241228231 0.33095327650953749 0 0.34924685744035389 0.33249877391857741 0 0.34924685744035389 0.33249877391857741 0 0.34514221143703899 0.32919058107390442 0 0.34474234507332802 0.33433591834825649 0 0.34924685744035389 0.33249877391857741 0 0.34474234507332802 0.33433591834825649 0 0.34788509595764172 0.33882226599831611 0 0.34474234507332802 0.33433591834825649 0 0.34788509595764172 0.33882226599831611 0 0.34057592936449049 0.33809639891542392 0 0.35146565257524442 0.34420791440797271 0 0.34788509595764172 0.33882226599831611 0 0.34269927497721508 0.34493512072036142 0 0.35202203774268331 0.33965573310897551 0 0.35302683950207769 0.33602013814058929 0 0.34788509595764172 0.33882226599831611 0 0.35146565257524442 0.34420791440797271 0 0.35202203774268331 0.33965573310897551 0 0.34788509595764172 0.33882226599831611 0 0.34057592936449049 0.33809639891542392 0 0.33318390910610529 0.34358855052096038 0 0.34269927497721508 0.34493512072036142 0 0.34788509595764172 0.33882226599831611 0 0.34057592936449049 0.33809639891542392 0 0.34269927497721508 0.34493512072036142 0 0.34474234507332802 0.33433591834825649 0 0.34057592936449049 0.33809639891542392 0 0.33946855119551672 0.33096103471374028 0 0.34514221143703899 0.32919058107390442 0 0.34474234507332802 0.33433591834825649 0 0.33946855119551672 0.33096103471374028 0 0.34057592936449049 0.33809639891542392 0 0.33946855119551672 0.33096103471374028 0 0.33283637980140879 0.33469331179832718 0 0.33946855119551672 0.33096103471374028 0 0.33283637980140879 0.33469331179832718 0 0.33464693517381472 0.32630086361949601 0 0.33283637980140879 0.33469331179832718 0 0.33464693517381472 0.32630086361949601 0 0.3250964778074269 0.32978689602061512 0 0.34057592936449049 0.33809639891542392 0 0.33283637980140879 0.33469331179832718 0 0.33318390910610529 0.34358855052096038 0 0.33283637980140879 0.33469331179832718 0 0.33318390910610529 0.34358855052096038 0 0.32611481079287369 0.33974729713420021 0 0.34480088275632298 0.31606258733578418 0 0.33769186663180051 0.31814262317354819 0 0.34192449374142192 0.30753297203612773 0 0.34480088275632298 0.31606258733578418 0 0.33769186663180051 0.31814262317354819 0 0.34284551192874652 0.32364904383841531 0 0.33946855119551672 0.33096103471374028 0 0.34284551192874652 0.32364904383841531 0 0.33464693517381472 0.32630086361949601 0 0.33769186663180051 0.31814262317354819 0 0.34284551192874652 0.32364904383841531 0 0.33464693517381472 0.32630086361949601 0 0.34514221143703899 0.32919058107390442 0 0.33946855119551672 0.33096103471374028 0 0.34284551192874652 0.32364904383841531 0 0.33769186663180051 0.31814262317354819 0 0.33464693517381472 0.32630086361949601 0 0.32994282367798861 0.32057227217232959 0 0.33464693517381472 0.32630086361949601 0 0.32994282367798861 0.32057227217232959 0 0.3250964778074269 0.32978689602061512 0 0.33769186663180051 0.31814262317354819 0 0.32994282367798861 0.32057227217232959 0 0.32867162081685902 0.31028670060733149 0 0.32176892132522322 0.32006025561378759 0 0.31440941436971798 0.31242774502049953 0 0.32867162081685902 0.31028670060733149 0 0.32994282367798861 0.32057227217232959 0 0.32176892132522322 0.32006025561378759 0 0.32867162081685902 0.31028670060733149 0 0.32176892132522322 0.32006025561378759 0 0.31484893044661 0.32778579360563193 0 0.3250964778074269 0.32978689602061512 0 0.32994282367798861 0.32057227217232959 0 0.32176892132522322 0.32006025561378759 0 0.3250964778074269 0.32978689602061512 0 0.32176892132522322 0.32006025561378759 0 0.31484893044661 0.32778579360563193 0 0.31440941436971798 0.31242774502049953 0 0.32611481079287369 0.33974729713420021 0 0.3250964778074269 0.32978689602061512 0 0.31767498628904178 0.33862919533695518 0 0.32611481079287369 0.33974729713420021 0 0.31767498628904178 0.33862919533695518 0 0.32336406622478242 0.34852958887145069 0 0.33283637980140879 0.33469331179832718 0 0.32611481079287369 0.33974729713420021 0 0.3250964778074269 0.32978689602061512 0 0.31484893044661 0.32778579360563193 0 0.31767498628904178 0.33862919533695518 0 0.30654896287530792 0.34033791233229299 0 0.31484893044661 0.32778579360563193 0 0.3250964778074269 0.32978689602061512 0 0.31767498628904178 0.33862919533695518 0 0.31767498628904178 0.33862919533695518 0 0.31315570067328902 0.3464643712977632 0 0.32336406622478242 0.34852958887145069 0 0.31315570067328902 0.3464643712977632 0 0.31355388928080707 0.35546570062290778 0 0.32336406622478242 0.34852958887145069 0 0.32336406622478242 0.34852958887145069 0 0.33442175170730049 0.35218858713626039 0 0.32437013183195901 0.3602157298059272 0 0.31355388928080707 0.35546570062290778 0 0.32336406622478242 0.34852958887145069 0 0.32437013183195901 0.3602157298059272 0 0.33318390910610529 0.34358855052096038 0 0.32611481079287369 0.33974729713420021 0 0.32336406622478242 0.34852958887145069 0 0.35030182712711511 0.35130594720886232 0 0.33442175170730049 0.35218858713626039 0 0.33389487655237682 0.3658352592629312 0 0.33318390910610529 0.34358855052096038 0 0.32336406622478242 0.34852958887145069 0 0.33442175170730049 0.35218858713626039 0 0.35030182712711511 0.35130594720886232 0 0.33442175170730049 0.35218858713626039 0 0.34269927497721508 0.34493512072036142 0 0.33318390910610529 0.34358855052096038 0 0.33442175170730049 0.35218858713626039 0 0.34269927497721508 0.34493512072036142 0 0.34270248502322931 0.38427053755298168 0 0.35268350372385993 0.36328223724825232 0 0.33389487655237682 0.3658352592629312 0 0.33442175170730049 0.35218858713626039 0 0.33389487655237682 0.3658352592629312 0 0.32437013183195901 0.3602157298059272 0 0.31661607539452802 0.37905951313608538 0 0.33389487655237682 0.3658352592629312 0 0.32437013183195901 0.3602157298059272 0 0.31661607539452802 0.37905951313608538 0 0.31355388928080707 0.35546570062290778 0 0.32437013183195901 0.3602157298059272 0 0.31661607539452802 0.37905951313608538 0 0.31355388928080707 0.35546570062290778 0 0.31661607539452802 0.37905951313608538 0 0.31355388928080707 0.35546570062290778 0 0.30541822204374358 0.36584678197342768 0 0.2987730087010142 0.37934426936791982 0 0.31661607539452802 0.37905951313608538 0 0.30541822204374358 0.36584678197342768 0 0.30541822204374358 0.36584678197342768 0 0.30393955747459928 0.35096595789874813 0 0.29215410451095353 0.36543341035917859 0 0.2987730087010142 0.37934426936791982 0 0.30541822204374358 0.36584678197342768 0 0.29215410451095353 0.36543341035917859 0 0.31315570067328902 0.3464643712977632 0 0.30393955747459928 0.35096595789874813 0 0.30654896287530792 0.34033791233229299 0 0.31315570067328902 0.3464643712977632 0 0.31355388928080707 0.35546570062290778 0 0.30393955747459928 0.35096595789874813 0 0.31355388928080707 0.35546570062290778 0 0.30541822204374358 0.36584678197342768 0 0.30393955747459928 0.35096595789874813 0 0.30393955747459928 0.35096595789874813 0 0.29215410451095353 0.36543341035917859 0 0.30393955747459928 0.35096595789874813 0 0.29720735802849829 0.34424744790442102 0 0.29027641861796738 0.35164951467646482 0 0.30393955747459928 0.35096595789874813 0 0.29720735802849829 0.34424744790442102 0 0.30654896287530792 0.34033791233229299 0 0.29720735802849829 0.34424744790442102 0 0.29027641861796738 0.35164951467646482 0 0.28998304713239348 0.34105976447064218 0 0.30393955747459928 0.35096595789874813 0 0.29027641861796738 0.35164951467646482 0 0.29215410451095353 0.36543341035917859 0 0.29027641861796738 0.35164951467646482 0 0.29215410451095353 0.36543341035917859 0 0.27920137084664282 0.3573603676334649 0 0.29027641861796738 0.35164951467646482 0 0.27920137084664282 0.3573603676334649 0 0.28068773357058369 0.34198453751068081 0 0.29027641861796738 0.35164951467646482 0 0.28068773357058369 0.34198453751068081 0 0.28998304713239348 0.34105976447064218 0 0.28036865154730628 0.37990086281960789 0 0.29215410451095353 0.36543341035917859 0 0.27920137084664282 0.3573603676334649 0 0.28036865154730628 0.37990086281960789 0 0.2987730087010142 0.37934426936791982 0 0.29215410451095353 0.36543341035917859 0 0.28036865154730628 0.37990086281960789 0 0.29215410451095353 0.36543341035917859 0 0.28036865154730628 0.37990086281960789 0 0.27920137084664282 0.3573603676334649 0 0.26173146881309822 0.35734024057335978 0 0.28036865154730628 0.37990086281960789 0 0.26173146881309822 0.35734024057335978 0 0.28036865154730628 0.37990086281960789 0 0.26173146881309822 0.35734024057335978 0 0.2641967246118288 0.36596915937278562 0 0.27920137084664282 0.3573603676334649 0 0.27030047393074008 0.3474963096498429 0 0.26173146881309822 0.35734024057335978 0 0.27920137084664282 0.3573603676334649 0 0.27030047393074008 0.3474963096498429 0 0.28068773357058369 0.34198453751068081 0 0.2430942860788903 0.33477961832711151 0 0.26173146881309822 0.35734024057335978 0 0.27030047393074008 0.3474963096498429 0 0.26173146881309822 0.35734024057335978 0 0.26240083601839698 0.33727672217147331 0 0.23816107804029091 0.35120524212074949 0 0.26173146881309822 0.35734024057335978 0 0.2641967246118288 0.36596915937278562 0 0.23816107804029091 0.35120524212074949 0 0.2641967246118288 0.36596915937278562 0 0.2492643002430574 0.365916522193315 0 0.24311907173897271 0.36013203008567057 0 0.2641967246118288 0.36596915937278562 0 0.2492643002430574 0.365916522193315 0 0.25710864090743918 0.37145542319719338 0 0.2641967246118288 0.36596915937278562 0 0.2492643002430574 0.365916522193315 0 0.25383912625151372 0.37755129754335942 0 0.25710864090743918 0.37145542319719338 0 0.26350653962281989 0.38010735630523079 0 0.25710864090743918 0.37145542319719338 0 0.2641967246118288 0.36596915937278562 0 0.2484846271056145 0.31037308609574782 0 0.25508783524565293 0.32209220201309929 0 0.26836904206483531 0.31075971332937607 0 0.25508783524565293 0.32209220201309929 0 0.26240083601839698 0.33727672217147331 0 0.26677092012209491 0.32204036282613252 0 0.25508783524565293 0.32209220201309929 0 0.26677092012209491 0.32204036282613252 0 0.26836904206483531 0.31075971332937607 0 0.2430942860788903 0.33477961832711151 0 0.25508783524565293 0.32209220201309929 0 0.26240083601839698 0.33727672217147331 0 0.2430942860788903 0.33477961832711151 0 0.26173146881309822 0.35734024057335978 0 0.26240083601839698 0.33727672217147331 0 0.26240083601839698 0.33727672217147331 0 0.27184092000699639 0.33891315949469752 0 0.27388917516664008 0.32964775149744319 0 0.26240083601839698 0.33727672217147331 0 0.27388917516664008 0.32964775149744319 0 0.26677092012209491 0.32204036282613252 0 0.27030047393074008 0.3474963096498429 0 0.26240083601839698 0.33727672217147331 0 0.27184092000699639 0.33891315949469752 0 0.27030047393074008 0.3474963096498429 0 0.27184092000699639 0.33891315949469752 0 0.28068773357058369 0.34198453751068081 0 0.27184092000699639 0.33891315949469752 0 0.28068773357058369 0.34198453751068081 0 0.27388917516664008 0.32964775149744319 0 0.28068773357058369 0.34198453751068081 0 0.27388917516664008 0.32964775149744319 0 0.28570907475377572 0.33188311037056872 0 0.27388917516664008 0.32964775149744319 0 0.26677092012209491 0.32204036282613252 0 0.28178409254690689 0.31684790712797722 0 0.27388917516664008 0.32964775149744319 0 0.28178409254690689 0.31684790712797722 0 0.28570907475377572 0.33188311037056872 0 0.26677092012209491 0.32204036282613252 0 0.28178409254690689 0.31684790712797722 0 0.26836904206483531 0.31075971332937607 0 0.28178409254690689 0.31684790712797722 0 0.29262159606390598 0.32453461147271162 0 0.29660332646403359 0.30785121346786842 0 0.28178409254690689 0.31684790712797722 0 0.29262159606390598 0.32453461147271162 0 0.28570907475377572 0.33188311037056872 0 0.28068773357058369 0.34198453751068081 0 0.28570907475377572 0.33188311037056872 0 0.28998304713239348 0.34105976447064218 0 0.29262159606390598 0.32453461147271162 0 0.28570907475377572 0.33188311037056872 0 0.29603465069114282 0.33553421189107618 0 0.29720735802849829 0.34424744790442102 0 0.29603465069114282 0.33553421189107618 0 0.28998304713239348 0.34105976447064218 0 0.28570907475377572 0.33188311037056872 0 0.29603465069114282 0.33553421189107618 0 0.28998304713239348 0.34105976447064218 0 0.29720735802849829 0.34424744790442102 0 0.29603465069114282 0.33553421189107618 0 0.30654896287530792 0.34033791233229299 0 0.29603465069114282 0.33553421189107618 0 0.30654896287530792 0.34033791233229299 0 0.30445412428221041 0.32558903425911379 0 0.29262159606390598 0.32453461147271162 0 0.29603465069114282 0.33553421189107618 0 0.30445412428221041 0.32558903425911379 0 0.31484893044661 0.32778579360563193 0 0.30654896287530792 0.34033791233229299 0 0.30445412428221041 0.32558903425911379 0 0.31767498628904178 0.33862919533695518 0 0.31315570067328902 0.3464643712977632 0 0.30654896287530792 0.34033791233229299 0 0.30445412428221041 0.32558903425911379 0 0.29660332646403359 0.30785121346786842 0 0.31440941436971798 0.31242774502049953 0 0.29262159606390598 0.32453461147271162 0 0.30445412428221041 0.32558903425911379 0 0.29660332646403359 0.30785121346786842 0 0.31484893044661 0.32778579360563193 0 0.30445412428221041 0.32558903425911379 0 0.31440941436971798 0.31242774502049953 0 0.30822946874662033 0.29998271616579031 0 0.29660332646403359 0.30785121346786842 0 0.31440941436971798 0.31242774502049953 0 0.30822946874662033 0.29998271616579031 0 0.30055108247350393 0.28416894361273021 0 0.29660332646403359 0.30785121346786842 0 0.30822946874662033 0.29998271616579031 0 0.30055108247350393 0.28416894361273021 0 0.32109763140443309 0.29547610107375327 0 0.30055108247350393 0.28416894361273021 0 0.29660332646403359 0.30785121346786842 0 0.27430616976337108 0.29100628718303567 0 0.30055108247350393 0.28416894361273021 0 0.27430616976337108 0.29100628718303567 0 0.28443506245096839 0.27205148705280008 0 0.30055108247350393 0.28416894361273021 0 0.27430616976337108 0.29100628718303567 0 0.28178409254690689 0.31684790712797722 0 0.29660332646403359 0.30785121346786842 0 0.27430616976337108 0.29100628718303567 0 0.28178409254690689 0.31684790712797722 0 0.26836904206483531 0.31075971332937607 0 0.27430616976337108 0.29100628718303567 0 0.28178409254690689 0.31684790712797722 0 0.27430616976337108 0.29100628718303567 0 0.27430616976337108 0.29100628718303567 0 0.25121587924780342 0.29702178630611242 0 0.27430616976337108 0.29100628718303567 0 0.25953152444998728 0.28294166139542631 0 0.25121587924780342 0.29702178630611242 0 0.26836904206483531 0.31075971332937607 0 0.27430616976337108 0.29100628718303567 0 0.25121587924780342 0.29702178630611242 0 0.26836904206483531 0.31075971332937607 0 0.25121587924780342 0.29702178630611242 0 0.2484846271056145 0.31037308609574782 0 0.26836904206483531 0.31075971332937607 0 0.25121587924780342 0.29702178630611242 0 0.25102838231212438 0.26850893423506528 0 0.26790857605335527 0.26889798384773289 0 0.26221447651104962 0.2479993693513689 0 0.26790857605335527 0.26889798384773289 0 0.26221447651104962 0.2479993693513689 0 0.25953152444998728 0.28294166139542631 0 0.25102838231212438 0.26850893423506528 0 0.26790857605335527 0.26889798384773289 0 0.27430616976337108 0.29100628718303567 0 0.26790857605335527 0.26889798384773289 0 0.28443506245096839 0.27205148705280008 0 0.27430616976337108 0.29100628718303567 0 0.25953152444998728 0.28294166139542631 0 0.26790857605335527 0.26889798384773289 0 0.27430616976337108 0.29100628718303567 0 0.26790857605335527 0.26889798384773289 0 0.26790857605335527 0.26889798384773289 0 0.28119448123381058 0.25405304303149878 0 0.26221447651104962 0.2479993693513689 0 0.26790857605335527 0.26889798384773289 0 0.28119448123381058 0.25405304303149878 0 0.28443506245096839 0.27205148705280008 0 0.28119448123381058 0.25405304303149878 0 0.28443506245096839 0.27205148705280008 0 0.2982150027308012 0.26213117758900317 0 0.28119448123381058 0.25405304303149878 0 0.2982150027308012 0.26213117758900317 0 0.30328699804120918 0.24394477185791469 0 0.30055108247350393 0.28416894361273021 0 0.28443506245096839 0.27205148705280008 0 0.2982150027308012 0.26213117758900317 0 0.30055108247350393 0.28416894361273021 0 0.2982150027308012 0.26213117758900317 0 0.31879452400631653 0.25919465198291952 0 0.2982150027308012 0.26213117758900317 0 0.31879452400631653 0.25919465198291952 0 0.30328699804120918 0.24394477185791469 0 0.31879452400631653 0.25919465198291952 0 0.33092809789354199 0.24744869965648561 0 0.31845456220733243 0.24449663650262579 0 0.31879452400631653 0.25919465198291952 0 0.33565265393095528 0.25675142138279861 0 0.33982225619875311 0.26765994074234428 0 0.31879452400631653 0.25919465198291952 0 0.33982225619875311 0.26765994074234428 0 0.31879452400631653 0.25919465198291952 0 0.33565265393095528 0.25675142138279861 0 0.33092809789354199 0.24744869965648561 0 0.33565265393095528 0.25675142138279861 0 0.33982225619875311 0.26765994074234428 0 0.34536281311255052 0.25941060478944128 0 0.33565265393095528 0.25675142138279861 0 0.3433555784436142 0.25004320974280247 0 0.33092809789354199 0.24744869965648561 0 0.33565265393095528 0.25675142138279861 0 0.3433555784436142 0.25004320974280247 0 0.34536281311255052 0.25941060478944128 0 0.31879452400631653 0.25919465198291952 0 0.33982225619875311 0.26765994074234428 0 0.32679599518363661 0.27733160004242491 0 0.33982225619875311 0.26765994074234428 0 0.32679599518363661 0.27733160004242491 0 0.34056182851336592 0.28206143899133118 0 0.30055108247350393 0.28416894361273021 0 0.32679599518363661 0.27733160004242491 0 0.30055108247350393 0.28416894361273021 0 0.31879452400631653 0.25919465198291952 0 0.32679599518363661 0.27733160004242491 0 0.32679599518363661 0.27733160004242491 0 0.32109763140443309 0.29547610107375327 0 0.33248404658197278 0.28876668272462419 0 0.30055108247350393 0.28416894361273021 0 0.32679599518363661 0.27733160004242491 0 0.32109763140443309 0.29547610107375327 0 0.32109763140443309 0.29547610107375327 0 0.31440941436971798 0.31242774502049953 0 0.32867162081685902 0.31028670060733149 0 0.30822946874662033 0.29998271616579031 0 0.32109763140443309 0.29547610107375327 0 0.31440941436971798 0.31242774502049953 0 0.32867162081685902 0.31028670060733149 0 0.33472549883669622 0.29791121211074773 0 0.34192449374142192 0.30753297203612773 0 0.32109763140443309 0.29547610107375327 0 0.32867162081685902 0.31028670060733149 0 0.33472549883669622 0.29791121211074773 0 0.33472549883669622 0.29791121211074773 0 0.34281583705185747 0.29966479619329672 0 0.34192449374142192 0.30753297203612773 0 0.33769186663180051 0.31814262317354819 0 0.32867162081685902 0.31028670060733149 0 0.34192449374142192 0.30753297203612773 0 0.32679599518363661 0.27733160004242491 0 0.33248404658197278 0.28876668272462419 0 0.34056182851336592 0.28206143899133118 0 0.32109763140443309 0.29547610107375327 0 0.33472549883669622 0.29791121211074773 0 0.33248404658197278 0.28876668272462419 0 0.33472549883669622 0.29791121211074773 0 0.33248404658197278 0.28876668272462419 0 0.34417327957572558 0.29277050597204329 0 0.33472549883669622 0.29791121211074773 0 0.34281583705185747 0.29966479619329672 0 0.34417327957572558 0.29277050597204329 0 0.33248404658197278 0.28876668272462419 0 0.34056182851336592 0.28206143899133118 0 0.34417327957572558 0.29277050597204329 0 0.34056182851336592 0.28206143899133118 0 0.34979868535227071 0.28728326233729501 0 0.34417327957572558 0.29277050597204329 0 0.34056182851336592 0.28206143899133118 0 0.34979868535227071 0.28728326233729501 0 0.35183199075491411 0.27966461044832719 0 0.34417327957572558 0.29277050597204329 0 0.35334053836337709 0.29410458558147129 0 0.34972900846361488 0.30172704795696642 0 0.34979868535227071 0.28728326233729501 0 0.34417327957572558 0.29277050597204329 0 0.35334053836337709 0.29410458558147129 0 0.34979868535227071 0.28728326233729501 0 0.35334053836337709 0.29410458558147129 0 0.35722235408413222 0.28831366276426512 0 0.35334053836337709 0.29410458558147129 0 0.35826071325737319 0.3003277240158499 0 0.36091512844171192 0.29433704443458902 0 0.35334053836337709 0.29410458558147129 0 0.35722235408413222 0.28831366276426512 0 0.36091512844171192 0.29433704443458902 0 0.34979868535227071 0.28728326233729501 0 0.35722235408413222 0.28831366276426512 0 0.35183199075491411 0.27966461044832719 0 0.35722235408413222 0.28831366276426512 0 0.36152496379752869 0.28359539021876212 0 0.35183199075491411 0.27966461044832719 0 0.34480088275632298 0.31606258733578418 0 0.34192449374142192 0.30753297203612773 0 0.35090510471213721 0.31152713165908658 0 0.34192449374142192 0.30753297203612773 0 0.35090510471213721 0.31152713165908658 0 0.34972900846361488 0.30172704795696642 0 0.34281583705185747 0.29966479619329672 0 0.34417327957572558 0.29277050597204329 0 0.34972900846361488 0.30172704795696642 0 0.34281583705185747 0.29966479619329672 0 0.34192449374142192 0.30753297203612773 0 0.34972900846361488 0.30172704795696642 0 0.34972900846361488 0.30172704795696642 0 0.35826071325737319 0.3003277240158499 0 0.35721607615581658 0.30656573559573969 0 0.35334053836337709 0.29410458558147129 0 0.34972900846361488 0.30172704795696642 0 0.35826071325737319 0.3003277240158499 0 0.35090510471213721 0.31152713165908658 0 0.34972900846361488 0.30172704795696642 0 0.35721607615581658 0.30656573559573969 0 0.35878641637012221 0.31305233625990619 0 0.35090510471213721 0.31152713165908658 0 0.35721607615581658 0.30656573559573969 0 0.37014896644917339 0.316543878568457 0 0.37763341047385651 0.29079382019339128 0 0.37014896644917339 0.316543878568457 0 0.37108481648816682 0.30013899891886681 0 0.36845835323010317 0.30596496181531441 0 0.37014896644917339 0.316543878568457 0 0.37763341047385651 0.29079382019339128 0 0.37695808612291098 0.31120865645681561 0 0.37014896644917339 0.316543878568457 0 0.37108481648816682 0.30013899891886681 0 0.37763341047385651 0.29079382019339128 0 0.36630954626425261 0.31087512405144152 0 0.36228941999803421 0.30896529616435242 0 0.36543096483439103 0.3064802843427199 0 0.36331333565659901 0.31283202127524651 0 0.36630954626425261 0.31087512405144152 0 0.36228941999803421 0.30896529616435242 0 0.36331333565659901 0.31283202127524651 0 0.35878641637012221 0.31305233625990619 0 0.36228941999803421 0.30896529616435242 0 0.35878641637012221 0.31305233625990619 0 0.35721607615581658 0.30656573559573969 0 0.36228941999803421 0.30896529616435242 0 0.35721607615581658 0.30656573559573969 0 0.36228941999803421 0.30896529616435242 0 0.36268018070702418 0.30398627546106088 0 0.36630954626425261 0.31087512405144152 0 0.36543096483439103 0.3064802843427199 0 0.36845835323010317 0.30596496181531441 0 0.36228941999803421 0.30896529616435242 0 0.36543096483439103 0.3064802843427199 0 0.36268018070702418 0.30398627546106088 0 0.36543096483439103 0.3064802843427199 0 0.36607900901995372 0.30349396637540749 0 0.36845835323010317 0.30596496181531441 0 0.36607900901995372 0.30349396637540749 0 0.36268018070702418 0.30398627546106088 0 0.36558719123160882 0.29969948119116269 0 0.36607900901995372 0.30349396637540749 0 0.36558719123160882 0.29969948119116269 0 0.36823835509664099 0.30133882906677939 0 0.36543096483439103 0.3064802843427199 0 0.36607900901995372 0.30349396637540749 0 0.36268018070702418 0.30398627546106088 0 0.35826071325737319 0.3003277240158499 0 0.35721607615581658 0.30656573559573969 0 0.36268018070702418 0.30398627546106088 0 0.35826071325737319 0.3003277240158499 0 0.36268018070702418 0.30398627546106088 0 0.36558719123160882 0.29969948119116269 0 0.35826071325737319 0.3003277240158499 0 0.36558719123160882 0.29969948119116269 0 0.36091512844171192 0.29433704443458902 0 0.36871223371641282 0.29817542324200702 0 0.37108481648816682 0.30013899891886681 0 0.37014933742706652 0.29575476169949788 0 0.36558719123160882 0.29969948119116269 0 0.36871223371641282 0.29817542324200702 0 0.36734652779664789 0.29411680932906442 0 0.36558719123160882 0.29969948119116269 0 0.36871223371641282 0.29817542324200702 0 0.36823835509664099 0.30133882906677939 0 0.36871223371641282 0.29817542324200702 0 0.37108481648816682 0.30013899891886681 0 0.36823835509664099 0.30133882906677939 0 0.37108481648816682 0.30013899891886681 0 0.36823835509664099 0.30133882906677939 0 0.36845835323010317 0.30596496181531441 0 0.36607900901995372 0.30349396637540749 0 0.36823835509664099 0.30133882906677939 0 0.36845835323010317 0.30596496181531441 0 0.37014896644917339 0.316543878568457 0 0.36630954626425261 0.31087512405144152 0 0.36845835323010317 0.30596496181531441 0 0.36812955944888692 0.28419813691800921 0 0.36084998839118931 0.2761252295017701 0 0.37969218042614078 0.28371066929036243 0 0.36152496379752869 0.28359539021876212 0 0.36812955944888692 0.28419813691800921 0 0.36084998839118931 0.2761252295017701 0 0.36414496955441777 0.28941104037434479 0 0.36911771796651938 0.28986917351547109 0 0.36812955944888692 0.28419813691800921 0 0.36152496379752869 0.28359539021876212 0 0.36414496955441777 0.28941104037434479 0 0.36812955944888692 0.28419813691800921 0 0.35722235408413222 0.28831366276426512 0 0.36152496379752869 0.28359539021876212 0 0.36414496955441777 0.28941104037434479 0 0.35722235408413222 0.28831366276426512 0 0.36091512844171192 0.29433704443458902 0 0.36414496955441777 0.28941104037434479 0 0.36558719123160882 0.29969948119116269 0 0.36091512844171192 0.29433704443458902 0 0.36734652779664789 0.29411680932906442 0 0.36091512844171192 0.29433704443458902 0 0.36414496955441777 0.28941104037434479 0 0.36734652779664789 0.29411680932906442 0 0.36414496955441777 0.28941104037434479 0 0.36911771796651938 0.28986917351547109 0 0.36734652779664789 0.29411680932906442 0 0.36911771796651938 0.28986917351547109 0 0.37026464520563152 0.29279186409727531 0 0.36734652779664789 0.29411680932906442 0 0.37108481648816682 0.30013899891886681 0 0.37306860395079622 0.29341917559567809 0 0.37763341047385651 0.29079382019339128 0 0.36911771796651938 0.28986917351547109 0 0.37026464520563152 0.29279186409727531 0 0.37237913536365119 0.29056320862162688 0 0.36871223371641282 0.29817542324200702 0 0.36734652779664789 0.29411680932906442 0 0.37014933742706652 0.29575476169949788 0 0.37026464520563152 0.29279186409727531 0 0.36734652779664789 0.29411680932906442 0 0.37014933742706652 0.29575476169949788 0 0.37108481648816682 0.30013899891886681 0 0.37014933742706652 0.29575476169949788 0 0.37306860395079622 0.29341917559567809 0 0.37026464520563152 0.29279186409727531 0 0.37014933742706652 0.29575476169949788 0 0.37306860395079622 0.29341917559567809 0 0.36911771796651938 0.28986917351547109 0 0.37237913536365119 0.29056320862162688 0 0.37333201972158658 0.2878654242033048 0 0.37306860395079622 0.29341917559567809 0 0.37237913536365119 0.29056320862162688 0 0.37763341047385651 0.29079382019339128 0 0.37237913536365119 0.29056320862162688 0 0.37333201972158658 0.2878654242033048 0 0.37763341047385651 0.29079382019339128 0 0.37026464520563152 0.29279186409727531 0 0.37306860395079622 0.29341917559567809 0 0.37237913536365119 0.29056320862162688 0 0.37333201972158658 0.2878654242033048 0 0.36812955944888692 0.28419813691800921 0 0.37969218042614078 0.28371066929036243 0 0.36911771796651938 0.28986917351547109 0 0.37333201972158658 0.2878654242033048 0 0.36812955944888692 0.28419813691800921 0 0.36084998839118931 0.2761252295017701 0 0.37969218042614078 0.28371066929036243 0 0.36084998839118931 0.2761252295017701 0 0.37017340450925651 0.266060206293324 0 0.3539366042426153 0.26554047293381039 0 0.36084998839118931 0.2761252295017701 0 0.38460708535355081 0.26680105137204091 0 0.36084998839118931 0.2761252295017701 0 0.37017340450925651 0.266060206293324 0 0.38460708535355081 0.26680105137204091 0 0.3539366042426153 0.26554047293381039 0 0.38129994004966872 0.25577407136566988 0 0.37169426656027921 0.24972740256563611 0 0.37017340450925651 0.266060206293324 0 0.3539366042426153 0.26554047293381039 0 0.38129994004966872 0.25577407136566988 0 0.3539366042426153 0.26554047293381039 0 0.37169426656027921 0.24972740256563611 0 0.36205361842742478 0.24882498742118489 0 0.3539366042426153 0.26554047293381039 0 0.38129994004966872 0.25577407136566988 0 0.3539366042426153 0.26554047293381039 0 0.35175757775775729 0.2532797976346674 0 0.36205361842742478 0.24882498742118489 0 0.3433555784436142 0.25004320974280247 0 0.35175757775775729 0.2532797976346674 0 0.34536281311255052 0.25941060478944128 0 0.33982225619875311 0.26765994074234428 0 0.3539366042426153 0.26554047293381039 0 0.34536281311255052 0.25941060478944128 0 0.3539366042426153 0.26554047293381039 0 0.35175757775775729 0.2532797976346674 0 0.34536281311255052 0.25941060478944128 0 0.33982225619875311 0.26765994074234428 0 0.36084998839118931 0.2761252295017701 0 0.33982225619875311 0.26765994074234428 0 0.36084998839118931 0.2761252295017701 0 0.3539366042426153 0.26554047293381039 0 0.33982225619875311 0.26765994074234428 0 0.36084998839118931 0.2761252295017701 0 0.35183199075491411 0.27966461044832719 0 0.33982225619875311 0.26765994074234428 0 0.34056182851336592 0.28206143899133118 0 0.35183199075491411 0.27966461044832719 0 0.36152496379752869 0.28359539021876212 0 0.36084998839118931 0.2761252295017701 0 0.35183199075491411 0.27966461044832719 0 0.36084998839118931 0.2761252295017701 0 0.35183199075491411 0.27966461044832719 0 0.39945440726228237 0.27350419034528239 0 0.38460708535355081 0.26680105137204091 0 0.40768566828284042 0.25774317622192677 0 0.39945440726228237 0.27350419034528239 0 0.4092682188351508 0.26816031590002881 0 0.40768566828284042 0.25774317622192677 0 0.39945440726228237 0.27350419034528239 0 0.38460708535355081 0.26680105137204091 0 0.3904751567012596 0.27530993325585928 0 0.39945440726228237 0.27350419034528239 0 0.3904751567012596 0.27530993325585928 0 0.39488150240831521 0.28173053148540511 0 0.39945440726228237 0.27350419034528239 0 0.40366985246608472 0.28285995447659418 0 0.40929088926209078 0.279020096056181 0 0.39945440726228237 0.27350419034528239 0 0.4092682188351508 0.26816031590002881 0 0.40929088926209078 0.279020096056181 0 0.39945440726228237 0.27350419034528239 0 0.39488150240831521 0.28173053148540511 0 0.40366985246608472 0.28285995447659418 0 0.38783836144724232 0.2556839199238965 0 0.38129994004966872 0.25577407136566988 0 0.40866327585672191 0.24600766979752939 0 0.38460708535355081 0.26680105137204091 0 0.40768566828284042 0.25774317622192677 0 0.38783836144724232 0.2556839199238965 0 0.40768566828284042 0.25774317622192677 0 0.40866327585672191 0.24600766979752939 0 0.38783836144724232 0.2556839199238965 0 0.38460708535355081 0.26680105137204091 0 0.40768566828284042 0.25774317622192677 0 0.38129994004966872 0.25577407136566988 0 0.40866327585672191 0.24600766979752939 0 0.38783836144724232 0.2556839199238965 0 0.38129994004966872 0.25577407136566988 0 0.38460708535355081 0.26680105137204091 0 0.38783836144724232 0.2556839199238965 0 0.38460708535355081 0.26680105137204091 0 0.38129994004966872 0.25577407136566988 0 0.37169426656027921 0.24972740256563611 0 0.38106847269238292 0.24536179082341181 0 0.37017340450925651 0.266060206293324 0 0.38129994004966872 0.25577407136566988 0 0.38460708535355081 0.26680105137204091 0 0.36084998839118931 0.2761252295017701 0 0.38460708535355081 0.26680105137204091 0 0.37969218042614078 0.28371066929036243 0 0.38460708535355081 0.26680105137204091 0 0.3904751567012596 0.27530993325585928 0 0.37969218042614078 0.28371066929036243 0 0.38460708535355081 0.26680105137204091 0 0.37969218042614078 0.28371066929036243 0 0.3904751567012596 0.27530993325585928 0 0.37969218042614078 0.28371066929036243 0 0.39488150240831521 0.28173053148540511 0 0.37969218042614078 0.28371066929036243 0 0.37763341047385651 0.29079382019339128 0 0.40259214502479168 0.29292967641552992 0 0.37763341047385651 0.29079382019339128 0 0.4027243230010164 0.30147339632314252 0 0.37969218042614078 0.28371066929036243 0 0.37763341047385651 0.29079382019339128 0 0.37333201972158658 0.2878654242033048 0 0.37969218042614078 0.28371066929036243 0 0.37763341047385651 0.29079382019339128 0 0.37763341047385651 0.29079382019339128 0 0.37695808612291098 0.31120865645681561 0 0.38599374742651271 0.30414296713942529 0 0.37763341047385651 0.29079382019339128 0 0.38599374742651271 0.30414296713942529 0 0.4027243230010164 0.30147339632314252 0 0.37695808612291098 0.31120865645681561 0 0.38599374742651271 0.30414296713942529 0 0.38754735899376969 0.31282171123814728 0 0.38599374742651271 0.30414296713942529 0 0.4027243230010164 0.30147339632314252 0 0.38754735899376969 0.31282171123814728 0 0.4027243230010164 0.30147339632314252 0 0.3956366020903157 0.32248231082130752 0 0.38754735899376969 0.31282171123814728 0 0.37969218042614078 0.28371066929036243 0 0.40259214502479168 0.29292967641552992 0 0.37969218042614078 0.28371066929036243 0 0.39488150240831521 0.28173053148540511 0 0.40259214502479168 0.29292967641552992 0 0.37763341047385651 0.29079382019339128 0 0.4027243230010164 0.30147339632314252 0 0.40259214502479168 0.29292967641552992 0 0.4027243230010164 0.30147339632314252 0 0.40259214502479168 0.29292967641552992 0 0.41139710839419091 0.29189735433941028 0 0.40259214502479168 0.29292967641552992 0 0.40366985246608472 0.28285995447659418 0 0.41139710839419091 0.29189735433941028 0 0.39488150240831521 0.28173053148540511 0 0.40259214502479168 0.29292967641552992 0 0.40366985246608472 0.28285995447659418 0 0.40366985246608472 0.28285995447659418 0 0.41139710839419091 0.29189735433941028 0 0.40929088926209078 0.279020096056181 0 0.41139710839419091 0.29189735433941028 0 0.42781523552817591 0.31215297245289481 0 0.42226183937510081 0.28327127115801121 0 0.41139710839419091 0.29189735433941028 0 0.42226183937510081 0.28327127115801121 0 0.40929088926209078 0.279020096056181 0 0.4027243230010164 0.30147339632314252 0 0.41139710839419091 0.29189735433941028 0 0.42781523552817591 0.31215297245289481 0 0.4027243230010164 0.30147339632314252 0 0.42781523552817591 0.31215297245289481 0 0.41357021602424721 0.32279281759874212 0 0.4027243230010164 0.30147339632314252 0 0.42781523552817591 0.31215297245289481 0 0.42781523552817591 0.31215297245289481 0 0.42226183937510081 0.28327127115801121 0 0.42781523552817591 0.31215297245289481 0 0.42226183937510081 0.28327127115801121 0 0.44120727567718632 0.28746005308771089 0 0.42226183937510081 0.28327127115801121 0 0.43023391716603732 0.27040224467912161 0 0.44120727567718632 0.28746005308771089 0 0.42226183937510081 0.28327127115801121 0 0.43023391716603732 0.27040224467912161 0 0.41664462513020523 0.25422696758609492 0 0.43023391716603732 0.27040224467912161 0 0.43692075095235122 0.26433370861442979 0 0.44373838257505849 0.27050131303512348 0 0.42226183937510081 0.28327127115801121 0 0.4092682188351508 0.26816031590002881 0 0.41664462513020523 0.25422696758609492 0 0.42226183937510081 0.28327127115801121 0 0.41664462513020523 0.25422696758609492 0 0.42226183937510081 0.28327127115801121 0 0.4092682188351508 0.26816031590002881 0 0.40929088926209078 0.279020096056181 0 0.40768566828284042 0.25774317622192677 0 0.41664462513020523 0.25422696758609492 0 0.40866327585672191 0.24600766979752939 0 0.40768566828284042 0.25774317622192677 0 0.41664462513020523 0.25422696758609492 0 0.4092682188351508 0.26816031590002881 0 0.40768566828284042 0.25774317622192677 0 0.41664462513020523 0.25422696758609492 0 0.42749544465446981 0.25699566217507153 0 0.45166362976964691 0.25106894999712381 0 0.43076425121212841 0.2486853010718087 0 0.41664462513020523 0.25422696758609492 0 0.42749544465446981 0.25699566217507153 0 0.43076425121212841 0.2486853010718087 0 0.43023391716603732 0.27040224467912161 0 0.41664462513020523 0.25422696758609492 0 0.42749544465446981 0.25699566217507153 0 0.41664462513020523 0.25422696758609492 0 0.43076425121212841 0.2486853010718087 0 0.42749544465446981 0.25699566217507153 0 0.43692075095235122 0.26433370861442979 0 0.44456450099631911 0.26043047377218492 0 0.43023391716603732 0.27040224467912161 0 0.42749544465446981 0.25699566217507153 0 0.43692075095235122 0.26433370861442979 0 0.42749544465446981 0.25699566217507153 0 0.45166362976964691 0.25106894999712381 0 0.42749544465446981 0.25699566217507153 0 0.44456450099631911 0.26043047377218492 0 0.45166362976964691 0.25106894999712381 0 0.43692075095235122 0.26433370861442979 0 0.44456450099631911 0.26043047377218492 0 0.44373838257505849 0.27050131303512348 0 0.44456450099631911 0.26043047377218492 0 0.44373838257505849 0.27050131303512348 0 0.45508065662597141 0.26402805921732958 0 0.44456450099631911 0.26043047377218492 0 0.45166362976964691 0.25106894999712381 0 0.45508065662597141 0.26402805921732958 0 0.44373838257505849 0.27050131303512348 0 0.45472874274978531 0.27586911806656422 0 0.44120727567718632 0.28746005308771089 0 0.43023391716603732 0.27040224467912161 0 0.44373838257505849 0.27050131303512348 0 0.44120727567718632 0.28746005308771089 0 0.44373838257505849 0.27050131303512348 0 0.45472874274978531 0.27586911806656422 0 0.45508065662597141 0.26402805921732958 0 0.45472874274978531 0.27586911806656422 0 0.46665275363318931 0.27127710252775639 0 0.46192346945889701 0.28817835066990299 0 0.45472874274978531 0.27586911806656422 0 0.46665275363318931 0.27127710252775639 0 0.45508065662597141 0.26402805921732958 0 0.45166362976964691 0.25106894999712381 0 0.46652816171208539 0.25830808769848879 0 0.47583181488482379 0.2451422378191761 0 0.45166362976964691 0.25106894999712381 0 0.45508065662597141 0.26402805921732958 0 0.46652816171208539 0.25830808769848879 0 0.46665275363318931 0.27127710252775639 0 0.45508065662597141 0.26402805921732958 0 0.46652816171208539 0.25830808769848879 0 0.46665275363318931 0.27127710252775639 0 0.46652816171208539 0.25830808769848879 0 0.48341195364679568 0.26002408893105827 0 0.46652816171208539 0.25830808769848879 0 0.48341195364679568 0.26002408893105827 0 0.47583181488482379 0.2451422378191761 0 0.46665275363318931 0.27127710252775639 0 0.48341195364679568 0.26002408893105827 0 0.48138518434246891 0.28130646820503019 0 0.46665275363318931 0.27127710252775639 0 0.48138518434246891 0.28130646820503019 0 0.46192346945889701 0.28817835066990299 0 0.5 0.26671351767664991 0 0.5 0.29421150971207138 0 0.48138518434246891 0.28130646820503019 0 0.48341195364679568 0.26002408893105827 0 0.5 0.26671351767664991 0 0.48138518434246891 0.28130646820503019 0 0.48341195364679568 0.26002408893105827 0 0.5 0.26671351767664991 0 0.50000000000000067 0.2392155256412283 0 0.5 0.29421150971207138 0 0.47556093647901088 0.30733800586058863 0 0.5 0.32170950174749302 0 0.5 0.29421150971207138 0 0.48138518434246891 0.28130646820503019 0 0.47556093647901088 0.30733800586058863 0 0.48138518434246891 0.28130646820503019 0 0.47556093647901088 0.30733800586058863 0 0.46192346945889701 0.28817835066990299 0 0.47556093647901088 0.30733800586058863 0 0.45214514511688908 0.30370412902975941 0 0.45421880844117613 0.32339126307769928 0 0.47556093647901088 0.30733800586058863 0 0.46192346945889701 0.28817835066990299 0 0.45214514511688908 0.30370412902975941 0 0.46192346945889701 0.28817835066990299 0 0.44120727567718632 0.28746005308771089 0 0.45214514511688908 0.30370412902975941 0 0.45472874274978531 0.27586911806656422 0 0.46192346945889701 0.28817835066990299 0 0.44120727567718632 0.28746005308771089 0 0.42781523552817591 0.31215297245289481 0 0.44120727567718632 0.28746005308771089 0 0.45214514511688908 0.30370412902975941 0 0.42781523552817591 0.31215297245289481 0 0.45421880844117613 0.32339126307769928 0 0.43298436918619881 0.33903622913929549 0 0.42781523552817591 0.31215297245289481 0 0.45214514511688908 0.30370412902975941 0 0.45421880844117613 0.32339126307769928 0 0.42781523552817591 0.31215297245289481 0 0.45421880844117613 0.32339126307769928 0 0.45421880844117613 0.32339126307769928 0 0.45970761232660212 0.34692044601787542 0 0.43298436918619881 0.33903622913929549 0 0.45421880844117613 0.32339126307769928 0 0.48062238135417568 0.33462955370250519 0 0.45421880844117613 0.32339126307769928 0 0.48062238135417568 0.33462955370250519 0 0.45970761232660212 0.34692044601787542 0 0.47556093647901088 0.30733800586058863 0 0.45421880844117613 0.32339126307769928 0 0.48062238135417568 0.33462955370250519 0 0.48062238135417568 0.33462955370250519 0 0.5 0.32170950174749302 0 0.5 0.34920749378291471 0 0.47556093647901088 0.30733800586058863 0 0.48062238135417568 0.33462955370250519 0 0.5 0.32170950174749302 0 0.5 0.34920749378291471 0 0.48254603458521478 0.3522402998402685 0 0.5 0.37670548581833618 0 0.48062238135417568 0.33462955370250519 0 0.5 0.34920749378291471 0 0.48254603458521478 0.3522402998402685 0 0.48254603458521478 0.3522402998402685 0 0.46972057754862501 0.36630584452178799 0 0.45970761232660212 0.34692044601787542 0 0.48062238135417568 0.33462955370250519 0 0.48254603458521478 0.3522402998402685 0 0.45970761232660212 0.34692044601787542 0 0.48254603458521478 0.3522402998402685 0 0.46972057754862501 0.36630584452178799 0 0.5 0.37670548581833618 0 0.46972057754862501 0.36630584452178799 0 0.43815350284422228 0.36591948582569622 0 0.45848938469160699 0.38276388730883248 0 0.46972057754862501 0.36630584452178799 0 0.45970761232660212 0.34692044601787542 0 0.43815350284422228 0.36591948582569622 0 0.45970761232660212 0.34692044601787542 0 0.43815350284422228 0.36591948582569622 0 0.43298436918619881 0.33903622913929549 0 0.43815350284422228 0.36591948582569622 0 0.4167242930516859 0.35972934744593471 0 0.42344095457037051 0.38268701701273461 0 0.4167242930516859 0.35972934744593471 0 0.40101385701800268 0.38518895784325291 0 0.4167242930516859 0.35972934744593471 0 0.40181680918128981 0.35947395412181382 0 0.40101385701800268 0.38518895784325291 0 0.4167242930516859 0.35972934744593471 0 0.40869055031553031 0.33881917925707022 0 0.40181680918128981 0.35947395412181382 0 0.4167242930516859 0.35972934744593471 0 0.43298436918619881 0.33903622913929549 0 0.40869055031553031 0.33881917925707022 0 0.43815350284422228 0.36591948582569622 0 0.4167242930516859 0.35972934744593471 0 0.43298436918619881 0.33903622913929549 0 0.43815350284422228 0.36591948582569622 0 0.43298436918619881 0.33903622913929549 0 0.42781523552817591 0.31215297245289481 0 0.43298436918619881 0.33903622913929549 0 0.42781523552817591 0.31215297245289481 0 0.43298436918619881 0.33903622913929549 0 0.41357021602424721 0.32279281759874212 0 0.43298436918619881 0.33903622913929549 0 0.41357021602424721 0.32279281759874212 0 0.40869055031553031 0.33881917925707022 0 0.40869055031553031 0.33881917925707022 0 0.39369601167170543 0.33564153172070438 0 0.39209274976778918 0.34814598654190299 0 0.40869055031553031 0.33881917925707022 0 0.39369601167170543 0.33564153172070438 0 0.3956366020903157 0.32248231082130752 0 0.39369601167170543 0.33564153172070438 0 0.3956366020903157 0.32248231082130752 0 0.38362385659697051 0.32926172455430031 0 0.39369601167170543 0.33564153172070438 0 0.38635485741833753 0.33883185827426582 0 0.39209274976778918 0.34814598654190299 0 0.41357021602424721 0.32279281759874212 0 0.40869055031553031 0.33881917925707022 0 0.3956366020903157 0.32248231082130752 0 0.4027243230010164 0.30147339632314252 0 0.41357021602424721 0.32279281759874212 0 0.3956366020903157 0.32248231082130752 0 0.3956366020903157 0.32248231082130752 0 0.38754735899376969 0.31282171123814728 0 0.38479800915553353 0.32074741934569512 0 0.38754735899376969 0.31282171123814728 0 0.38479800915553353 0.32074741934569512 0 0.37917338616632867 0.3168755173424983 0 0.3956366020903157 0.32248231082130752 0 0.38479800915553353 0.32074741934569512 0 0.38362385659697051 0.32926172455430031 0 0.38479800915553353 0.32074741934569512 0 0.37832625022041982 0.32264150287239662 0 0.38362385659697051 0.32926172455430031 0 0.37577016905582622 0.32787937856968757 0 0.37832625022041982 0.32264150287239662 0 0.38362385659697051 0.32926172455430031 0 0.37577016905582622 0.32787937856968757 0 0.37506056064123422 0.32471797871916308 0 0.37832625022041982 0.32264150287239662 0 0.37368960646642962 0.31911015363466272 0 0.37506056064123422 0.32471797871916308 0 0.37832625022041982 0.32264150287239662 0 0.37695808612291098 0.31120865645681561 0 0.38754735899376969 0.31282171123814728 0 0.37917338616632867 0.3168755173424983 0 0.38479800915553353 0.32074741934569512 0 0.37832625022041982 0.32264150287239662 0 0.37917338616632867 0.3168755173424983 0 0.37368960646642962 0.31911015363466272 0 0.37832625022041982 0.32264150287239662 0 0.37917338616632867 0.3168755173424983 0 0.37499251130121058 0.31593455150060828 0 0.37368960646642962 0.31911015363466272 0 0.37917338616632867 0.3168755173424983 0 0.37499251130121058 0.31593455150060828 0 0.37695808612291098 0.31120865645681561 0 0.37917338616632867 0.3168755173424983 0 0.38635485741833753 0.33883185827426582 0 0.3795813787571668 0.3363772241379393 0 0.38278029029805521 0.34473282441648212 0 0.39369601167170543 0.33564153172070438 0 0.38635485741833753 0.33883185827426582 0 0.38362385659697051 0.32926172455430031 0 0.38635485741833753 0.33883185827426582 0 0.38362385659697051 0.32926172455430031 0 0.3795813787571668 0.3363772241379393 0 0.37577016905582622 0.32787937856968757 0 0.38362385659697051 0.32926172455430031 0 0.37868435463470768 0.3315773541462857 0 0.38362385659697051 0.32926172455430031 0 0.37868435463470768 0.3315773541462857 0 0.3795813787571668 0.3363772241379393 0 0.37577016905582622 0.32787937856968757 0 0.37868435463470768 0.3315773541462857 0 0.375263113682131 0.33313320718557798 0 0.37868435463470768 0.3315773541462857 0 0.375263113682131 0.33313320718557798 0 0.3795813787571668 0.3363772241379393 0 0.37369311900952262 0.33836265764115908 0 0.3795813787571668 0.3363772241379393 0 0.37670219357667811 0.34177383067972761 0 0.3795813787571668 0.3363772241379393 0 0.37670219357667811 0.34177383067972761 0 0.38278029029805521 0.34473282441648212 0 0.37369311900952262 0.33836265764115908 0 0.375263113682131 0.33313320718557798 0 0.3795813787571668 0.3363772241379393 0 0.3809821990389497 0.35490418517770578 0 0.39056259575344082 0.36548629952090861 0 0.39209274976778918 0.34814598654190299 0 0.37486749369974542 0.34694596905823039 0 0.37670219357667811 0.34177383067972761 0 0.38278029029805521 0.34473282441648212 0 0.37486749369974542 0.34694596905823039 0 0.38278029029805521 0.34473282441648212 0 0.3809821990389497 0.35490418517770578 0 0.38278029029805521 0.34473282441648212 0 0.3809821990389497 0.35490418517770578 0 0.39209274976778918 0.34814598654190299 0 0.38635485741833753 0.33883185827426582 0 0.38278029029805521 0.34473282441648212 0 0.39209274976778918 0.34814598654190299 0 0.37228166628853332 0.35471301169251829 0 0.37486749369974542 0.34694596905823039 0 0.3809821990389497 0.35490418517770578 0 0.37414389550204002 0.36898578533419818 0 0.3809821990389497 0.35490418517770578 0 0.39056259575344082 0.36548629952090861 0 0.37414389550204002 0.36898578533419818 0 0.39056259575344082 0.36548629952090861 0 0.40101385701800268 0.38518895784325291 0 0.37414389550204002 0.36898578533419818 0 0.37228166628853332 0.35471301169251829 0 0.3809821990389497 0.35490418517770578 0 0.39056259575344082 0.36548629952090861 0 0.40181680918128981 0.35947395412181382 0 0.40101385701800268 0.38518895784325291 0 0.39056259575344082 0.36548629952090861 0 0.40181680918128981 0.35947395412181382 0 0.39209274976778918 0.34814598654190299 0 0.40869055031553031 0.33881917925707022 0 0.40181680918128981 0.35947395412181382 0 0.39209274976778918 0.34814598654190299 0 0.40101385701800268 0.38518895784325291 0 0.38530342098431941 0.41064856824057122 0 0.40101385701800268 0.38518895784325291 0 0.38530342098431941 0.41064856824057122 0 0.41521715527738928 0.40390661881175682 0 0.3736470799201031 0.39378130610698531 0 0.37414389550204002 0.36898578533419818 0 0.40101385701800268 0.38518895784325291 0 0.3736470799201031 0.39378130610698531 0 0.40101385701800268 0.38518895784325291 0 0.38530342098431941 0.41064856824057122 0 0.36959298495063608 0.43610817863788948 0 0.38530342098431941 0.41064856824057122 0 0.36959298495063608 0.43610817863788948 0 0.38530342098431941 0.41064856824057122 0 0.3889231515195431 0.43141286456833011 0 0.3889231515195431 0.43141286456833011 0 0.40362265567455102 0.42304679086704539 0 0.39942544658573009 0.43872588670818857 0 0.40362265567455102 0.42304679086704539 0 0.41248490446316177 0.43293377153942381 0 0.39942544658573009 0.43872588670818857 0 0.38530342098431941 0.41064856824057122 0 0.3889231515195431 0.43141286456833011 0 0.40362265567455102 0.42304679086704539 0 0.38530342098431941 0.41064856824057122 0 0.40362265567455102 0.42304679086704539 0 0.41521715527738928 0.40390661881175682 0 0.40362265567455102 0.42304679086704539 0 0.42233359500988371 0.42307221464191669 0 0.41521715527738928 0.40390661881175682 0 0.40362265567455102 0.42304679086704539 0 0.41248490446316177 0.43293377153942381 0 0.42233359500988371 0.42307221464191669 0 0.41248490446316177 0.43293377153942381 0 0.42233359500988371 0.42307221464191669 0 0.42326813014219627 0.43909650749986368 0 0.42233359500988371 0.42307221464191669 0 0.43681876433844857 0.43497208046478802 0 0.42326813014219627 0.43909650749986368 0 0.42233359500988371 0.42307221464191669 0 0.43681876433844857 0.43497208046478802 0 0.43655617137350622 0.42038510460191503 0 0.42233359500988371 0.42307221464191669 0 0.42830887421762198 0.41018013153495869 0 0.41521715527738928 0.40390661881175682 0 0.42233359500988371 0.42307221464191669 0 0.42830887421762198 0.41018013153495869 0 0.43655617137350622 0.42038510460191503 0 0.42830887421762198 0.41018013153495869 0 0.43655617137350622 0.42038510460191503 0 0.439625884597032 0.40642404903869822 0 0.42978568865087441 0.39901034440009059 0 0.42344095457037051 0.38268701701273461 0 0.4433226365022459 0.39280274251209668 0 0.42978568865087441 0.39901034440009059 0 0.41521715527738928 0.40390661881175682 0 0.42344095457037051 0.38268701701273461 0 0.42830887421762198 0.41018013153495869 0 0.42978568865087441 0.39901034440009059 0 0.439625884597032 0.40642404903869822 0 0.42830887421762198 0.41018013153495869 0 0.42978568865087441 0.39901034440009059 0 0.41521715527738928 0.40390661881175682 0 0.4167242930516859 0.35972934744593471 0 0.40101385701800268 0.38518895784325291 0 0.42344095457037051 0.38268701701273461 0 0.40101385701800268 0.38518895784325291 0 0.41521715527738928 0.40390661881175682 0 0.42344095457037051 0.38268701701273461 0 0.43815350284422228 0.36591948582569622 0 0.42344095457037051 0.38268701701273461 0 0.4433226365022459 0.39280274251209668 0 0.43815350284422228 0.36591948582569622 0 0.4433226365022459 0.39280274251209668 0 0.43815350284422228 0.36591948582569622 0 0.4433226365022459 0.39280274251209668 0 0.45848938469160699 0.38276388730883248 0 0.4433226365022459 0.39280274251209668 0 0.4587292321942566 0.40377894109977869 0 0.44849177016026981 0.41968599919849731 0 0.4433226365022459 0.39280274251209668 0 0.44849177016026981 0.41968599919849731 0 0.42978568865087441 0.39901034440009059 0 0.4433226365022459 0.39280274251209668 0 0.439625884597032 0.40642404903869822 0 0.4433226365022459 0.39280274251209668 0 0.4587292321942566 0.40377894109977869 0 0.45848938469160699 0.38276388730883248 0 0.4587292321942566 0.40377894109977869 0 0.45848938469160699 0.38276388730883248 0 0.47720201034463561 0.39055994944820821 0 0.46972057754862501 0.36630584452178799 0 0.45848938469160699 0.38276388730883248 0 0.47720201034463561 0.39055994944820821 0 0.46972057754862501 0.36630584452178799 0 0.47720201034463561 0.39055994944820821 0 0.5 0.37670548581833618 0 0.47720201034463561 0.39055994944820821 0 0.5 0.40420347785375749 0 0.47329291580914951 0.41490179660840648 0 0.4587292321942566 0.40377894109977869 0 0.47720201034463561 0.39055994944820821 0 0.47329291580914951 0.41490179660840648 0 0.47720201034463561 0.39055994944820821 0 0.5 0.40420347785375749 0 0.5 0.37670548581833618 0 0.48546521128148462 0.42572005307568972 0 0.49999999999999828 0.43170146988917901 0 0.48502495584706629 0.44181750450007778 0 0.49999999999999828 0.43170146988917901 0 0.48502495584706629 0.44181750450007778 0 0.5 0.40420347785375749 0 0.48546521128148462 0.42572005307568972 0 0.47329291580914951 0.41490179660840648 0 0.5 0.40420347785375749 0 0.48546521128148462 0.42572005307568972 0 0.49999999999999828 0.43170146988917901 0 0.48546521128148462 0.42572005307568972 0 0.47462076711180717 0.43403653248997731 0 0.48502495584706629 0.44181750450007778 0 0.47329291580914951 0.41490179660840648 0 0.47462076711180717 0.43403653248997731 0 0.45927084092720188 0.43580976915473651 0 0.48546521128148462 0.42572005307568972 0 0.47329291580914951 0.41490179660840648 0 0.47462076711180717 0.43403653248997731 0 0.45927084092720188 0.43580976915473651 0 0.44849177016026981 0.41968599919849731 0 0.47329291580914951 0.41490179660840648 0 0.45927084092720188 0.43580976915473651 0 0.44849177016026981 0.41968599919849731 0 0.45927084092720188 0.43580976915473651 0 0.44849177016026981 0.41968599919849731 0 0.45165089640657707 0.43611575462809582 0 0.4587292321942566 0.40377894109977869 0 0.47329291580914951 0.41490179660840648 0 0.44849177016026981 0.41968599919849731 0 0.4433226365022459 0.39280274251209668 0 0.44849177016026981 0.41968599919849731 0 0.439625884597032 0.40642404903869822 0 0.43655617137350622 0.42038510460191503 0 0.44849177016026981 0.41968599919849731 0 0.439625884597032 0.40642404903869822 0 0.44849177016026981 0.41968599919849731 0 0.439625884597032 0.40642404903869822 0 0.44849177016026981 0.41968599919849731 0 0.45165089640657707 0.43611575462809582 0 0.44386952542921521 0.4295111469185629 0 0.44849177016026981 0.41968599919849731 0 0.45165089640657707 0.43611575462809582 0 0.45165089640657707 0.43611575462809582 0 0.44386952542921521 0.4295111469185629 0 0.44519082659473158 0.43782150968735878 0 0.43655617137350622 0.42038510460191503 0 0.44849177016026981 0.41968599919849731 0 0.44386952542921521 0.4295111469185629 0 0.43681876433844857 0.43497208046478802 0 0.43655617137350622 0.42038510460191503 0 0.44386952542921521 0.4295111469185629 0 0.43681876433844857 0.43497208046478802 0 0.44386952542921521 0.4295111469185629 0 0.44519082659473158 0.43782150968735878 0 0.43681876433844857 0.43497208046478802 0 0.44519082659473158 0.43782150968735878 0 0.44362096681603608 0.44566090358066651 0 0.43681876433844857 0.43497208046478802 0 0.44362096681603608 0.44566090358066651 0 0.43343701099378978 0.44857281610427868 0 0.44362096681603608 0.44566090358066651 0 0.44110505044236059 0.45564825146568327 0 0.43343701099378978 0.44857281610427868 0 0.44362096681603608 0.44566090358066651 0 0.45255374853073171 0.45216262504332899 0 0.45221828903371142 0.44335246171580328 0 0.44362096681603608 0.44566090358066651 0 0.45255374853073171 0.45216262504332899 0 0.44110505044236059 0.45564825146568327 0 0.44519082659473158 0.43782150968735878 0 0.44362096681603608 0.44566090358066651 0 0.45221828903371142 0.44335246171580328 0 0.45165089640657707 0.43611575462809582 0 0.44519082659473158 0.43782150968735878 0 0.45221828903371142 0.44335246171580328 0 0.45255374853073171 0.45216262504332899 0 0.44518446721829791 0.46873079822848901 0 0.44110505044236059 0.45564825146568327 0 0.44518446721829791 0.46873079822848901 0 0.44110505044236059 0.45564825146568327 0 0.43072905865294731 0.46311411437165317 0 0.47284597636140308 0.45611600571247141 0 0.46302896313844299 0.47272331085799019 0 0.45255374853073171 0.45216262504332899 0 0.44518446721829791 0.46873079822848901 0 0.47004991169413368 0.45193353911097589 0 0.47004991169413368 0.45193353911097589 0 0.47284597636140308 0.45611600571247141 0 0.46302896313844299 0.47272331085799019 0 0.44518446721829791 0.46873079822848901 0 0.47004991169413368 0.45193353911097589 0 0.46302896313844299 0.47272331085799019 0 0.44518446721829791 0.46873079822848901 0 0.47004991169413368 0.45193353911097589 0 0.45927084092720188 0.43580976915473651 0 0.47004991169413368 0.45193353911097589 0 0.45927084092720188 0.43580976915473651 0 0.45930684530103161 0.44617181272829648 0 0.47004991169413368 0.45193353911097589 0 0.47462076711180717 0.43403653248997731 0 0.45927084092720188 0.43580976915473651 0 0.47004991169413368 0.45193353911097589 0 0.45255374853073171 0.45216262504332899 0 0.45930684530103161 0.44617181272829648 0 0.47004991169413368 0.45193353911097589 0 0.45927084092720188 0.43580976915473651 0 0.45221828903371142 0.44335246171580328 0 0.45930684530103161 0.44617181272829648 0 0.45927084092720188 0.43580976915473651 0 0.45165089640657707 0.43611575462809582 0 0.45221828903371142 0.44335246171580328 0 0.45255374853073171 0.45216262504332899 0 0.45221828903371142 0.44335246171580328 0 0.45930684530103161 0.44617181272829648 0 0.47462076711180717 0.43403653248997731 0 0.47004991169413368 0.45193353911097589 0 0.48502495584706629 0.44181750450007778 0 0.48189680466807888 0.45106209462173341 0 0.47450081081676521 0.45331654521044668 0 0.48502495584706629 0.44181750450007778 0 0.47004991169413368 0.45193353911097589 0 0.48502495584706629 0.44181750450007778 0 0.47004991169413368 0.45193353911097589 0 0.47450081081676521 0.45331654521044668 0 0.48502495584706629 0.44181750450007778 0 0.47284597636140308 0.45611600571247141 0 0.48050552008400071 0.46757346096286262 0 0.46302896313844299 0.47272331085799019 0 0.47004991169413368 0.45193353911097589 0 0.47284597636140308 0.45611600571247141 0 0.47004991169413368 0.45193353911097589 0 0.47450081081676521 0.45331654521044668 0 0.47284597636140308 0.45611600571247141 0 0.47450081081676521 0.45331654521044668 0 0.47284597636140308 0.45611600571247141 0 0.47951191807974908 0.45654698881850991 0 0.47450081081676521 0.45331654521044668 0 0.47284597636140308 0.45611600571247141 0 0.47284597636140308 0.45611600571247141 0 0.48050552008400071 0.46757346096286262 0 0.47284597636140308 0.45611600571247141 0 0.48050552008400071 0.46757346096286262 0 0.47951191807974908 0.45654698881850991 0 0.48189680466807888 0.45106209462173341 0 0.47951191807974908 0.45654698881850991 0 0.4878104784684959 0.4546668375850359 0 0.48050552008400071 0.46757346096286262 0 0.47951191807974908 0.45654698881850991 0 0.4878104784684959 0.4546668375850359 0 0.48189680466807888 0.45106209462173341 0 0.47450081081676521 0.45331654521044668 0 0.47951191807974908 0.45654698881850991 0 0.48050552008400071 0.46757346096286262 0 0.4878104784684959 0.4546668375850359 0 0.49999999999999928 0.46182898591187349 0 0.48050552008400071 0.46757346096286262 0 0.49999999999999928 0.46182898591187349 0 0.49999999999999828 0.43170146988917901 0 0.4878104784684959 0.4546668375850359 0 0.49999999999999928 0.46182898591187349 0 0.49999999999999828 0.43170146988917901 0 0.4878104784684959 0.4546668375850359 0 0.48502495584706629 0.44181750450007778 0 0.48189680466807888 0.45106209462173341 0 0.4878104784684959 0.4546668375850359 0 0.48502495584706629 0.44181750450007778 0 0.49999999999999928 0.46182898591187349 0 0.5 0.5 0 0.49753071700976492 0.4930404390193398 0 0.5 0.5 0 0.47501141284236448 0.48698608464618232 0 0.44690499747156931 0.4999999999999995 0 0.5 0.5 0 0.49753071700976492 0.4930404390193398 0 0.47501141284236448 0.48698608464618232 0 0.49753071700976492 0.4930404390193398 0 0.48901811854688337 0.4803069499911008 0 0.47501141284236448 0.48698608464618232 0 0.49753071700976492 0.4930404390193398 0 0.48901811854688337 0.4803069499911008 0 0.48050552008400071 0.46757346096286262 0 0.49999999999999928 0.46182898591187349 0 0.48901811854688337 0.4803069499911008 0 0.49999999999999928 0.46182898591187349 0 0.49753071700976492 0.4930404390193398 0 0.48901811854688337 0.4803069499911008 0 0.48050552008400071 0.46757346096286262 0 0.48901811854688337 0.4803069499911008 0 0.48050552008400071 0.46757346096286262 0 0.46302896313844299 0.47272331085799019 0 0.48901811854688337 0.4803069499911008 0 0.47689100365292297 0.47689745161453417 0 0.47501141284236448 0.48698608464618232 0 0.48050552008400071 0.46757346096286262 0 0.47689100365292297 0.47689745161453417 0 0.46302896313844299 0.47272331085799019 0 0.48050552008400071 0.46757346096286262 0 0.48901811854688337 0.4803069499911008 0 0.47689100365292297 0.47689745161453417 0 0.47689100365292297 0.47689745161453417 0 0.47501141284236448 0.48698608464618232 0 0.46302896313844299 0.47272331085799019 0 0.47501141284236448 0.48698608464618232 0 0.45496698030500621 0.48636165542899479 0 0.44690499747156931 0.4999999999999995 0 0.47501141284236448 0.48698608464618232 0 0.45496698030500621 0.48636165542899479 0 0.46302896313844299 0.47272331085799019 0 0.45496698030500621 0.48636165542899479 0 0.46302896313844299 0.47272331085799019 0 0.46302896313844299 0.47272331085799019 0 0.43620850627812668 0.48062654530969717 0 0.44518446721829791 0.46873079822848901 0 0.46302896313844299 0.47272331085799019 0 0.43620850627812668 0.48062654530969717 0 0.45496698030500621 0.48636165542899479 0 0.46302896313844299 0.47272331085799019 0 0.43620850627812668 0.48062654530969717 0 0.45496698030500621 0.48636165542899479 0 0.44690499747156931 0.4999999999999995 0 0.43620850627812668 0.48062654530969717 0 0.45496698030500621 0.48636165542899479 0 0.44690499747156931 0.4999999999999995 0 0.42031902274246069 0.48552805734600057 0 0.41743852268843429 0.5 0 0.43620850627812668 0.48062654530969717 0 0.44690499747156931 0.4999999999999995 0 0.41743852268843429 0.5 0 0.43620850627812668 0.48062654530969717 0 0.42031902274246069 0.48552805734600057 0 0.41743852268843429 0.5 0 0.40134209412993838 0.48520307466421098 0 0.42031902274246069 0.48552805734600057 0 0.40973563488985532 0.47579104778557152 0 0.40134209412993838 0.48520307466421098 0 0.42031902274246069 0.48552805734600057 0 0.40973563488985532 0.47579104778557152 0 0.41789473538963601 0.46705380048502582 0 0.44518446721829791 0.46873079822848901 0 0.42031902274246069 0.48552805734600057 0 0.43072905865294731 0.46311411437165317 0 0.44518446721829791 0.46873079822848901 0 0.42031902274246069 0.48552805734600057 0 0.43620850627812668 0.48062654530969717 0 0.44518446721829791 0.46873079822848901 0 0.42031902274246069 0.48552805734600057 0 0.42031902274246069 0.48552805734600057 0 0.43072905865294731 0.46311411437165317 0 0.41789473538963601 0.46705380048502582 0 0.44110505044236059 0.45564825146568327 0 0.43072905865294731 0.46311411437165317 0 0.43343701099378978 0.44857281610427868 0 0.43072905865294731 0.46311411437165317 0 0.43343701099378978 0.44857281610427868 0 0.42053980660522761 0.45341513910658388 0 0.43072905865294731 0.46311411437165317 0 0.41789473538963601 0.46705380048502582 0 0.42053980660522761 0.45341513910658388 0 0.43681876433844857 0.43497208046478802 0 0.43343701099378978 0.44857281610427868 0 0.42326813014219627 0.43909650749986368 0 0.43343701099378978 0.44857281610427868 0 0.42326813014219627 0.43909650749986368 0 0.42053980660522761 0.45341513910658388 0 0.41248490446316177 0.43293377153942381 0 0.42326813014219627 0.43909650749986368 0 0.41215324011006321 0.44426916471351768 0 0.42326813014219627 0.43909650749986368 0 0.41215324011006321 0.44426916471351768 0 0.42053980660522761 0.45341513910658388 0 0.41215324011006321 0.44426916471351768 0 0.42053980660522761 0.45341513910658388 0 0.40575666434273311 0.45838443146516472 0 0.41248490446316177 0.43293377153942381 0 0.41215324011006321 0.44426916471351768 0 0.39942544658573009 0.43872588670818857 0 0.40973563488985532 0.47579104778557152 0 0.41789473538963601 0.46705380048502582 0 0.40575666434273311 0.45838443146516472 0 0.41789473538963601 0.46705380048502582 0 0.42053980660522761 0.45341513910658388 0 0.40575666434273311 0.45838443146516472 0 0.40973563488985532 0.47579104778557152 0 0.40575666434273311 0.45838443146516472 0 0.39457326129307041 0.46924519202038539 0 0.40575666434273311 0.45838443146516472 0 0.38748492612950952 0.44892285829301931 0 0.39457326129307041 0.46924519202038539 0 0.40575666434273311 0.45838443146516472 0 0.39942544658573009 0.43872588670818857 0 0.38748492612950952 0.44892285829301931 0 0.3889231515195431 0.43141286456833011 0 0.39942544658573009 0.43872588670818857 0 0.38748492612950952 0.44892285829301931 0 0.41215324011006321 0.44426916471351768 0 0.40575666434273311 0.45838443146516472 0 0.39942544658573009 0.43872588670818857 0 0.36980735363827261 0.46050290225189661 0 0.36959298495063608 0.43610817863788948 0 0.38748492612950952 0.44892285829301931 0 0.36959298495063608 0.43610817863788948 0 0.3889231515195431 0.43141286456833011 0 0.38748492612950952 0.44892285829301931 0 0.36980735363827261 0.46050290225189661 0 0.38748492612950952 0.44892285829301931 0 0.39457326129307041 0.46924519202038539 0 0.36980735363827261 0.46050290225189661 0 0.37801407526051067 0.48065415083330842 0 0.39457326129307041 0.46924519202038539 0 0.37801407526051067 0.48065415083330842 0 0.38797204790529932 0.5 0 0.40134209412993838 0.48520307466421098 0 0.41743852268843429 0.5 0 0.38797204790529932 0.5 0 0.40134209412993838 0.48520307466421098 0 0.40973563488985532 0.47579104778557152 0 0.40134209412993838 0.48520307466421098 0 0.39457326129307041 0.46924519202038539 0 0.37801407526051067 0.48065415083330842 0 0.40134209412993838 0.48520307466421098 0 0.39457326129307041 0.46924519202038539 0 0.33471388977496319 0.083869725553476451 0 0.32003772732572838 0.080925826065863432 0 0.34163206045391592 0.099703108374672819 0 0.32003772732572838 0.080925826065863432 0 0.34163206045391592 0.099703108374672819 0 0.33471388977496319 0.083869725553476451 0 0.34163206045391592 0.099703108374672819 0 0.35085433501378249 0.086695181415402722 0 0.33471388977496319 0.083869725553476451 0 0.34209731100959018 0.06531632876058778 0 0.3490795063897344 0.076610282135673974 0 0.33471388977496319 0.083869725553476451 0 0.34209731100959018 0.06531632876058778 0 0.32721969837032222 0.069259436753723466 0 0.33471388977496319 0.083869725553476451 0 0.32721969837032222 0.069259436753723466 0 0.32003772732572838 0.080925826065863432 0 0.31518448171420999 0.065085558788002928 0 0.32721969837032222 0.069259436753723466 0 0.32003772732572838 0.080925826065863432 0 0.32003772732572838 0.080925826065863432 0 0.31657863646219547 0.093324099257994786 0 0.34163206045391592 0.099703108374672819 0 0.32003772732572838 0.080925826065863432 0 0.31657863646219547 0.093324099257994786 0 0.30227411453462139 0.089652133027170247 0 0.33471388977496319 0.083869725553476451 0 0.32003772732572838 0.080925826065863432 0 0.31657863646219547 0.093324099257994786 0 0.32025759602694659 0.1047776340902011 0 0.34163206045391592 0.099703108374672819 0 0.31657863646219547 0.093324099257994786 0 0.32025759602694659 0.1047776340902011 0 0.30640852481201453 0.1024735992044304 0 0.32025759602694659 0.1047776340902011 0 0.31114536757858358 0.11742006929579971 0 0.30640852481201453 0.1024735992044304 0 0.32606950933900308 0.1158177097477945 0 0.31114536757858358 0.11742006929579971 0 0.3195478300457561 0.1332621056988223 0 0.32025759602694659 0.1047776340902011 0 0.32606950933900308 0.1158177097477945 0 0.31114536757858358 0.11742006929579971 0 0.33761965874988609 0.1186889285033586 0 0.34163206045391592 0.099703108374672819 0 0.34956654336434939 0.1234914401014125 0 0.32606950933900308 0.1158177097477945 0 0.33761965874988609 0.1186889285033586 0 0.34163206045391592 0.099703108374672819 0 0.32606950933900308 0.1158177097477945 0 0.33761965874988609 0.1186889285033586 0 0.33436770153514289 0.13112975471366969 0 0.33761965874988609 0.1186889285033586 0 0.34956654336434939 0.1234914401014125 0 0.33436770153514289 0.13112975471366969 0 0.32025759602694659 0.1047776340902011 0 0.32606950933900308 0.1158177097477945 0 0.34163206045391592 0.099703108374672819 0 0.34163206045391592 0.099703108374672819 0 0.35755874922647762 0.098360434014750309 0 0.36322639358210312 0.11848039068348271 0 0.34163206045391592 0.099703108374672819 0 0.36322639358210312 0.11848039068348271 0 0.34163206045391592 0.099703108374672819 0 0.35755874922647762 0.098360434014750309 0 0.35085433501378249 0.086695181415402722 0 0.34163206045391592 0.099703108374672819 0 0.34956654336434939 0.1234914401014125 0 0.36322639358210312 0.11848039068348271 0 0.36322639358210312 0.11848039068348271 0 0.37045299287494049 0.09679375479102828 0 0.38005682511468147 0.12140739343396729 0 0.35755874922647762 0.098360434014750309 0 0.36322639358210312 0.11848039068348271 0 0.37045299287494049 0.09679375479102828 0 0.35755874922647762 0.098360434014750309 0 0.37045299287494049 0.09679375479102828 0 0.35979627253246887 0.087956112087811941 0 0.37045299287494049 0.09679375479102828 0 0.36986657419494789 0.075759843690150083 0 0.37682589963749002 0.081332762740894418 0 0.37045299287494049 0.09679375479102828 0 0.35979627253246887 0.087956112087811941 0 0.36084916063519962 0.072180116148089279 0 0.37045299287494049 0.09679375479102828 0 0.36084916063519962 0.072180116148089279 0 0.36986657419494789 0.075759843690150083 0 0.37045299287494049 0.09679375479102828 0 0.36084916063519962 0.072180116148089279 0 0.35755874922647762 0.098360434014750309 0 0.35979627253246887 0.087956112087811941 0 0.35085433501378249 0.086695181415402722 0 0.35979627253246887 0.087956112087811941 0 0.35560274156159061 0.081403828627082772 0 0.36084916063519962 0.072180116148089279 0 0.33471388977496319 0.083869725553476451 0 0.35085433501378249 0.086695181415402722 0 0.3490795063897344 0.076610282135673974 0 0.35979627253246887 0.087956112087811941 0 0.35560274156159061 0.081403828627082772 0 0.35085433501378249 0.086695181415402722 0 0.35560274156159061 0.081403828627082772 0 0.35085433501378249 0.086695181415402722 0 0.3490795063897344 0.076610282135673974 0 0.34209731100959018 0.06531632876058778 0 0.3490795063897344 0.076610282135673974 0 0.36084916063519962 0.072180116148089279 0 0.36448270712015302 0.068442951443566186 0 0.36084916063519962 0.072180116148089279 0 0.35124532839545858 0.047566477505150237 0 0.35560274156159061 0.081403828627082772 0 0.3490795063897344 0.076610282135673974 0 0.36084916063519962 0.072180116148089279 0 0.36448270712015302 0.068442951443566186 0 0.36084916063519962 0.072180116148089279 0 0.36986657419494789 0.075759843690150083 0 0.36986657419494789 0.075759843690150083 0 0.37596532967213542 0.069868995675824025 0 0.37682589963749002 0.081332762740894418 0 0.36448270712015302 0.068442951443566186 0 0.36986657419494789 0.075759843690150083 0 0.37084641292541748 0.06878424193773866 0 0.36986657419494789 0.075759843690150083 0 0.37084641292541748 0.06878424193773866 0 0.37596532967213542 0.069868995675824025 0 0.36448270712015302 0.068442951443566186 0 0.37084641292541748 0.06878424193773866 0 0.37307104071443398 0.061065176941414383 0 0.37084641292541748 0.06878424193773866 0 0.37307104071443398 0.061065176941414383 0 0.37596532967213542 0.069868995675824025 0 0.36448270712015302 0.068442951443566186 0 0.37307104071443398 0.061065176941414383 0 0.37146335928247548 0.04052602251159599 0 0.36448270712015302 0.068442951443566186 0 0.37146335928247548 0.04052602251159599 0 0.35124532839545858 0.047566477505150237 0 0.36448270712015302 0.068442951443566186 0 0.37146335928247548 0.04052602251159599 0 0.37146335928247548 0.04052602251159599 0 0.35572529983931911 0.032753521421585163 0 0.36312657459820519 0.022962182453169309 0 0.37146335928247548 0.04052602251159599 0 0.35572529983931911 0.032753521421585163 0 0.35124532839545858 0.047566477505150237 0 0.35572529983931911 0.032753521421585163 0 0.35124532839545858 0.047566477505150237 0 0.3321968515854315 0.028027004478648001 0 0.36084916063519962 0.072180116148089279 0 0.35124532839545858 0.047566477505150237 0 0.34209731100959018 0.06531632876058778 0 0.36084916063519962 0.072180116148089279 0 0.35124532839545858 0.047566477505150237 0 0.36312657459820519 0.022962182453169309 0 0.35936362748920009 0.0091271431172253586 0 0.37844401144479839 0.012609093579625891 0 0.35936362748920009 0.0091271431172253586 0 0.37844401144479839 0.012609093579625891 0 0.36665723294200347 -0.001883505129568449 0 0.35936362748920009 0.0091271431172253586 0 0.36665723294200347 -0.001883505129568449 0 0.35531676971978082 -0.0033532784323768001 0 0.37146335928247548 0.04052602251159599 0 0.36312657459820519 0.022962182453169309 0 0.37844401144479839 0.012609093579625891 0 0.37146335928247548 0.04052602251159599 0 0.37844401144479839 0.012609093579625891 0 0.35572529983931911 0.032753521421585163 0 0.35063657493523293 0.0197951316358141 0 0.3321968515854315 0.028027004478648001 0 0.35572529983931911 0.032753521421585163 0 0.36312657459820519 0.022962182453169309 0 0.35063657493523293 0.0197951316358141 0 0.36312657459820519 0.022962182453169309 0 0.35063657493523293 0.0197951316358141 0 0.35936362748920009 0.0091271431172253586 0 0.35936362748920009 0.0091271431172253586 0 0.33689267375143878 0.0039255003288513873 0 0.35531676971978082 -0.0033532784323768001 0 0.35063657493523293 0.0197951316358141 0 0.35936362748920009 0.0091271431172253586 0 0.33689267375143878 0.0039255003288513873 0 0.33689267375143878 0.0039255003288513873 0 0.3321968515854315 0.028027004478648001 0 0.30352242257352219 0.0039185454548519476 0 0.35063657493523293 0.0197951316358141 0 0.33689267375143878 0.0039255003288513873 0 0.3321968515854315 0.028027004478648001 0 0.3321968515854315 0.028027004478648001 0 0.32406508202711942 0.05109974460068676 0 0.30086563814790429 0.035038583275740692 0 0.34209731100959018 0.06531632876058778 0 0.32721969837032222 0.069259436753723466 0 0.32406508202711942 0.05109974460068676 0 0.34209731100959018 0.06531632876058778 0 0.35124532839545858 0.047566477505150237 0 0.32406508202711942 0.05109974460068676 0 0.35124532839545858 0.047566477505150237 0 0.3321968515854315 0.028027004478648001 0 0.32406508202711942 0.05109974460068676 0 0.31518448171420999 0.065085558788002928 0 0.32721969837032222 0.069259436753723466 0 0.32406508202711942 0.05109974460068676 0 0.31518448171420999 0.065085558788002928 0 0.32406508202711942 0.05109974460068676 0 0.29882370077581188 0.062479238108283437 0 0.32406508202711942 0.05109974460068676 0 0.29882370077581188 0.062479238108283437 0 0.30086563814790429 0.035038583275740692 0 0.32406508202711942 0.05109974460068676 0 0.30086563814790429 0.035038583275740692 0 0.30086563814790429 0.035038583275740692 0 0.28350496565293731 0.043820562147367653 0 0.27766619426868899 0.018977421950794569 0 0.29882370077581188 0.062479238108283437 0 0.30086563814790429 0.035038583275740692 0 0.28350496565293731 0.043820562147367653 0 0.29882370077581188 0.062479238108283437 0 0.28350496565293731 0.043820562147367653 0 0.28339325744793759 0.061338593161917712 0 0.3321968515854315 0.028027004478648001 0 0.30086563814790429 0.035038583275740692 0 0.30352242257352219 0.0039185454548519476 0 0.30086563814790429 0.035038583275740692 0 0.27766619426868899 0.018977421950794569 0 0.30086563814790429 0.035038583275740692 0 0.30352242257352219 0.0039185454548519476 0 0.27766619426868899 0.018977421950794569 0 0.30352242257352219 0.0039185454548519476 0 0.27766619426868899 0.018977421950794569 0 0.27708695819087842 -0.0025378708656911609 0 0.27766619426868899 0.018977421950794569 0 0.25446675038947358 0.0029162606258486688 0 0.27766619426868899 0.018977421950794569 0 0.26047117107291767 -0.0019720443344692288 0 0.27708695819087842 -0.0025378708656911609 0 0.27766619426868899 0.018977421950794569 0 0.2600935707136679 0.019574361616358959 0 0.26464981823601458 0.038183209123269009 0 0.2600935707136679 0.019574361616358959 0 0.26464981823601458 0.038183209123269009 0 0.25044211127373811 0.032849993626191502 0 0.27766619426868899 0.018977421950794569 0 0.2600935707136679 0.019574361616358959 0 0.25446675038947358 0.0029162606258486688 0 0.27766619426868899 0.018977421950794569 0 0.25446675038947358 0.0029162606258486688 0 0.26047117107291767 -0.0019720443344692288 0 0.25446675038947358 0.0029162606258486688 0 0.26047117107291767 -0.0019720443344692288 0 0.28339325744793759 0.061338593161917712 0 0.2699795556074106 0.054659435659755229 0 0.26514968559830832 0.069915803624621298 0 0.28350496565293731 0.043820562147367653 0 0.28339325744793759 0.061338593161917712 0 0.2699795556074106 0.054659435659755229 0 0.28350496565293731 0.043820562147367653 0 0.27766619426868899 0.018977421950794569 0 0.26464981823601458 0.038183209123269009 0 0.28350496565293731 0.043820562147367653 0 0.2699795556074106 0.054659435659755229 0 0.26464981823601458 0.038183209123269009 0 0.26464981823601458 0.038183209123269009 0 0.25174039047255609 0.044464402284776217 0 0.2585751734657834 0.052327775232976027 0 0.26464981823601458 0.038183209123269009 0 0.25044211127373811 0.032849993626191502 0 0.25174039047255609 0.044464402284776217 0 0.25174039047255609 0.044464402284776217 0 0.25102243244437311 0.053297338652025752 0 0.2585751734657834 0.052327775232976027 0 0.2699795556074106 0.054659435659755229 0 0.26464981823601458 0.038183209123269009 0 0.2585751734657834 0.052327775232976027 0 0.2699795556074106 0.054659435659755229 0 0.2585751734657834 0.052327775232976027 0 0.26000268679747079 0.061003988239662958 0 0.2699795556074106 0.054659435659755229 0 0.26000268679747079 0.061003988239662958 0 0.26514968559830832 0.069915803624621298 0 0.2585751734657834 0.052327775232976027 0 0.26000268679747079 0.061003988239662958 0 0.2530174900015254 0.0600809219264858 0 0.25102243244437311 0.053297338652025752 0 0.2585751734657834 0.052327775232976027 0 0.2530174900015254 0.0600809219264858 0 0.24751669685985911 0.059618880130872708 0 0.25102243244437311 0.053297338652025752 0 0.2530174900015254 0.0600809219264858 0 0.24853219730195361 0.063845178725116872 0 0.2530174900015254 0.0600809219264858 0 0.25274476311700622 0.067427493409812952 0 0.2530174900015254 0.0600809219264858 0 0.25274476311700622 0.067427493409812952 0 0.26000268679747079 0.061003988239662958 0 0.2530174900015254 0.0600809219264858 0 0.25274476311700622 0.067427493409812952 0 0.25274476311700622 0.067427493409812952 0 0.25243039498113262 0.075895774732197205 0 0.24842415088314279 0.069033451464499671 0 0.25274476311700622 0.067427493409812952 0 0.25243039498113262 0.075895774732197205 0 0.25274476311700622 0.067427493409812952 0 0.25243039498113262 0.075895774732197205 0 0.26514968559830832 0.069915803624621298 0 0.25243039498113262 0.075895774732197205 0 0.26514968559830832 0.069915803624621298 0 0.26417250328098718 0.085299079350852347 0 0.25243039498113262 0.075895774732197205 0 0.26514968559830832 0.069915803624621298 0 0.26000268679747079 0.061003988239662958 0 0.25274476311700622 0.067427493409812952 0 0.26514968559830832 0.069915803624621298 0 0.25274476311700622 0.067427493409812952 0 0.26514968559830832 0.069915803624621298 0 0.25243039498113262 0.075895774732197205 0 0.26417250328098718 0.085299079350852347 0 0.25158482098595109 0.098673396421397969 0 0.25243039498113262 0.075895774732197205 0 0.25158482098595109 0.098673396421397969 0 0.26417250328098718 0.085299079350852347 0 0.27563544099652842 0.091217529053328833 0 0.26597619666038957 0.098681263799979324 0 0.26417250328098718 0.085299079350852347 0 0.27658940398852799 0.081360569412953818 0 0.27563544099652842 0.091217529053328833 0 0.26514968559830832 0.069915803624621298 0 0.26417250328098718 0.085299079350852347 0 0.27658940398852799 0.081360569412953818 0 0.27658940398852799 0.081360569412953818 0 0.27563544099652842 0.091217529053328833 0 0.28742128170162778 0.087331448045782731 0 0.28339325744793759 0.061338593161917712 0 0.26514968559830832 0.069915803624621298 0 0.29259370646201821 0.075420814845242989 0 0.26514968559830832 0.069915803624621298 0 0.27658940398852799 0.081360569412953818 0 0.29259370646201821 0.075420814845242989 0 0.28339325744793759 0.061338593161917712 0 0.26514968559830832 0.069915803624621298 0 0.26514968559830832 0.069915803624621298 0 0.29259370646201821 0.075420814845242989 0 0.29882370077581188 0.062479238108283437 0 0.28339325744793759 0.061338593161917712 0 0.29259370646201821 0.075420814845242989 0 0.27658940398852799 0.081360569412953818 0 0.29259370646201821 0.075420814845242989 0 0.28742128170162778 0.087331448045782731 0 0.27563544099652842 0.091217529053328833 0 0.28742128170162778 0.087331448045782731 0 0.29001374252644291 0.099006193890217781 0 0.28742128170162778 0.087331448045782731 0 0.30227411453462139 0.089652133027170247 0 0.29001374252644291 0.099006193890217781 0 0.29259370646201821 0.075420814845242989 0 0.28742128170162778 0.087331448045782731 0 0.30227411453462139 0.089652133027170247 0 0.32003772732572838 0.080925826065863432 0 0.29259370646201821 0.075420814845242989 0 0.30227411453462139 0.089652133027170247 0 0.32003772732572838 0.080925826065863432 0 0.29259370646201821 0.075420814845242989 0 0.32003772732572838 0.080925826065863432 0 0.29882370077581188 0.062479238108283437 0 0.29259370646201821 0.075420814845242989 0 0.32003772732572838 0.080925826065863432 0 0.29882370077581188 0.062479238108283437 0 0.31518448171420999 0.065085558788002928 0 0.32003772732572838 0.080925826065863432 0 0.29882370077581188 0.062479238108283437 0 0.29818169174329712 0.11066146566519899 0 0.31114536757858358 0.11742006929579971 0 0.294250496481684 0.12267566802032639 0 0.31114536757858358 0.11742006929579971 0 0.294250496481684 0.12267566802032639 0 0.30313841955192899 0.13260249050964579 0 0.29818169174329712 0.11066146566519899 0 0.31114536757858358 0.11742006929579971 0 0.30640852481201453 0.1024735992044304 0 0.30227411453462139 0.089652133027170247 0 0.30640852481201453 0.1024735992044304 0 0.29001374252644291 0.099006193890217781 0 0.29818169174329712 0.11066146566519899 0 0.30640852481201453 0.1024735992044304 0 0.29001374252644291 0.099006193890217781 0 0.31657863646219547 0.093324099257994786 0 0.30227411453462139 0.089652133027170247 0 0.30640852481201453 0.1024735992044304 0 0.29818169174329712 0.11066146566519899 0 0.29001374252644291 0.099006193890217781 0 0.28729541733308872 0.1128284558108848 0 0.29001374252644291 0.099006193890217781 0 0.28729541733308872 0.1128284558108848 0 0.27577858748266387 0.1072301355245756 0 0.29818169174329712 0.11066146566519899 0 0.28729541733308872 0.1128284558108848 0 0.294250496481684 0.12267566802032639 0 0.28729541733308872 0.1128284558108848 0 0.294250496481684 0.12267566802032639 0 0.28067449336876182 0.1220521091494646 0 0.28067449336876182 0.1220521091494646 0 0.26956705708048567 0.1198361090660386 0 0.27577858748266387 0.1072301355245756 0 0.28729541733308872 0.1128284558108848 0 0.28067449336876182 0.1220521091494646 0 0.27577858748266387 0.1072301355245756 0 0.26956705708048567 0.1198361090660386 0 0.27577858748266387 0.1072301355245756 0 0.26270963055581759 0.11098617864974181 0 0.27563544099652842 0.091217529053328833 0 0.27577858748266387 0.1072301355245756 0 0.26597619666038957 0.098681263799979324 0 0.27563544099652842 0.091217529053328833 0 0.29001374252644291 0.099006193890217781 0 0.27577858748266387 0.1072301355245756 0 0.27577858748266387 0.1072301355245756 0 0.26597619666038957 0.098681263799979324 0 0.26270963055581759 0.11098617864974181 0 0.25158482098595109 0.098673396421397969 0 0.25094552198087999 0.11589449234768209 0 0.25158482098595109 0.098673396421397969 0 0.26270963055581759 0.11098617864974181 0 0.25094552198087999 0.11589449234768209 0 0.26417250328098718 0.085299079350852347 0 0.26597619666038957 0.098681263799979324 0 0.25158482098595109 0.098673396421397969 0 0.26597619666038957 0.098681263799979324 0 0.25158482098595109 0.098673396421397969 0 0.26270963055581759 0.11098617864974181 0 0.25158482098595109 0.098673396421397969 0 0.26270963055581759 0.11098617864974181 0 0.25094552198087999 0.11589449234768209 0 0.25030622297580962 0.13311558827396619 0 0.26022612795132161 0.12333036834530881 0 0.25094552198087999 0.11589449234768209 0 0.25030622297580962 0.13311558827396619 0 0.26956705708048567 0.1198361090660386 0 0.26022612795132161 0.12333036834530881 0 0.26270963055581759 0.11098617864974181 0 0.26022612795132161 0.12333036834530881 0 0.26270963055581759 0.11098617864974181 0 0.25094552198087999 0.11589449234768209 0 0.26956705708048567 0.1198361090660386 0 0.26022612795132161 0.12333036834530881 0 0.26675796828336718 0.1380571931171293 0 0.26022612795132161 0.12333036834530881 0 0.25030622297580962 0.13311558827396619 0 0.26675796828336718 0.1380571931171293 0 0.25030622297580962 0.13311558827396619 0 0.26675796828336718 0.1380571931171293 0 0.25030622297580962 0.13311558827396619 0 0.26675796828336718 0.1380571931171293 0 0.25638724149227848 0.14295410589973731 0 0.25004344172447263 0.14019424959050239 0 0.25030622297580962 0.13311558827396619 0 0.25638724149227848 0.14295410589973731 0 0.25004344172447263 0.14019424959050239 0 0.25030622297580962 0.13311558827396619 0 0.26675796828336718 0.1380571931171293 0 0.28320971359092417 0.1429987979602943 0 0.26675796828336718 0.1380571931171293 0 0.28666270206708028 0.1324408374186071 0 0.28320971359092417 0.1429987979602943 0 0.28067449336876182 0.1220521091494646 0 0.26956705708048567 0.1198361090660386 0 0.26675796828336718 0.1380571931171293 0 0.28067449336876182 0.1220521091494646 0 0.26675796828336718 0.1380571931171293 0 0.28666270206708028 0.1324408374186071 0 0.26675796828336718 0.1380571931171293 0 0.27436529468354132 0.15433220537778311 0 0.26010861073109098 0.15248373785575309 0 0.26675796828336718 0.1380571931171293 0 0.27436529468354132 0.15433220537778311 0 0.28320971359092417 0.1429987979602943 0 0.26675796828336718 0.1380571931171293 0 0.26010861073109098 0.15248373785575309 0 0.25638724149227848 0.14295410589973731 0 0.2496536413094039 0.15044712256699261 0 0.25004344172447263 0.14019424959050239 0 0.25638724149227848 0.14295410589973731 0 0.24653130607993951 0.16237692388552691 0 0.2496536413094039 0.15044712256699261 0 0.26010861073109098 0.15248373785575309 0 0.2496536413094039 0.15044712256699261 0 0.26010861073109098 0.15248373785575309 0 0.25638724149227848 0.14295410589973731 0 0.24653130607993951 0.16237692388552691 0 0.25292738168467233 0.17649485219682931 0 0.26638423851283249 0.16867758561061549 0 0.24653130607993951 0.16237692388552691 0 0.26010861073109098 0.15248373785575309 0 0.26638423851283249 0.16867758561061549 0 0.24528107816237801 0.1907036486386274 0 0.25292738168467233 0.17649485219682931 0 0.26633433714882182 0.18577592949096661 0 0.25292738168467233 0.17649485219682931 0 0.26633433714882182 0.18577592949096661 0 0.26638423851283249 0.16867758561061549 0 0.27723266788850742 0.181048228772968 0 0.26638423851283249 0.16867758561061549 0 0.28391425324491287 0.17071999404263091 0 0.26633433714882182 0.18577592949096661 0 0.27723266788850742 0.181048228772968 0 0.26638423851283249 0.16867758561061549 0 0.27436529468354132 0.15433220537778311 0 0.26010861073109098 0.15248373785575309 0 0.26638423851283249 0.16867758561061549 0 0.27436529468354132 0.15433220537778311 0 0.26638423851283249 0.16867758561061549 0 0.28391425324491287 0.17071999404263091 0 0.27436529468354132 0.15433220537778311 0 0.28391425324491287 0.17071999404263091 0 0.29097703849613438 0.15773848939083679 0 0.28391425324491287 0.17071999404263091 0 0.2931647794093819 0.16879209887591959 0 0.29097703849613438 0.15773848939083679 0 0.2931647794093819 0.16879209887591959 0 0.29097703849613438 0.15773848939083679 0 0.30040947706207388 0.16512632217721829 0 0.28391425324491287 0.17071999404263091 0 0.28743664533084129 0.187357279865842 0 0.29743995151898561 0.17866098634217961 0 0.27723266788850742 0.181048228772968 0 0.28391425324491287 0.17071999404263091 0 0.28743664533084129 0.187357279865842 0 0.28391425324491287 0.17071999404263091 0 0.2931647794093819 0.16879209887591959 0 0.29743995151898561 0.17866098634217961 0 0.28743664533084129 0.187357279865842 0 0.29743995151898561 0.17866098634217961 0 0.29971043857951379 0.19298806906372529 0 0.29743995151898561 0.17866098634217961 0 0.30929675685570829 0.1858318568065235 0 0.29971043857951379 0.19298806906372529 0 0.29743995151898561 0.17866098634217961 0 0.3101655001798202 0.17563615506282959 0 0.30040947706207388 0.16512632217721829 0 0.29743995151898561 0.17866098634217961 0 0.3101655001798202 0.17563615506282959 0 0.30929675685570829 0.1858318568065235 0 0.30040947706207388 0.16512632217721829 0 0.30453528129870422 0.15487579661148021 0 0.32848741365188411 0.1727716232507491 0 0.29097703849613438 0.15773848939083679 0 0.30040947706207388 0.16512632217721829 0 0.30453528129870422 0.15487579661148021 0 0.2931647794093819 0.16879209887591959 0 0.29743995151898561 0.17866098634217961 0 0.30040947706207388 0.16512632217721829 0 0.29097703849613438 0.15773848939083679 0 0.30453528129870422 0.15487579661148021 0 0.29618567382365713 0.14404403195872001 0 0.30453528129870422 0.15487579661148021 0 0.30873747279203018 0.14281046260302349 0 0.29618567382365713 0.14404403195872001 0 0.30453528129870422 0.15487579661148021 0 0.30873747279203018 0.14281046260302349 0 0.32007589174333823 0.14676000458717811 0 0.30873747279203018 0.14281046260302349 0 0.30313841955192899 0.13260249050964579 0 0.3195478300457561 0.1332621056988223 0 0.31114536757858358 0.11742006929579971 0 0.30313841955192899 0.13260249050964579 0 0.3195478300457561 0.1332621056988223 0 0.30873747279203018 0.14281046260302349 0 0.30313841955192899 0.13260249050964579 0 0.29618567382365713 0.14404403195872001 0 0.294250496481684 0.12267566802032639 0 0.30313841955192899 0.13260249050964579 0 0.28666270206708028 0.1324408374186071 0 0.30313841955192899 0.13260249050964579 0 0.28666270206708028 0.1324408374186071 0 0.29618567382365713 0.14404403195872001 0 0.294250496481684 0.12267566802032639 0 0.28067449336876182 0.1220521091494646 0 0.28666270206708028 0.1324408374186071 0 0.28666270206708028 0.1324408374186071 0 0.28320971359092417 0.1429987979602943 0 0.29618567382365713 0.14404403195872001 0 0.27436529468354132 0.15433220537778311 0 0.29097703849613438 0.15773848939083679 0 0.28320971359092417 0.1429987979602943 0 0.29097703849613438 0.15773848939083679 0 0.28320971359092417 0.1429987979602943 0 0.29618567382365713 0.14404403195872001 0 0.28119448123381058 0.25405304303149878 0 0.26221447651104962 0.2479993693513689 0 0.28440499104296979 0.23439140090611099 0 0.26221447651104962 0.2479993693513689 0 0.26853130556434218 0.23400660741274959 0 0.28440499104296979 0.23439140090611099 0 0.26221447651104962 0.2479993693513689 0 0.28440499104296979 0.23439140090611099 0 0.2457442494512444 0.24022391879071339 0 0.26221447651104962 0.2479993693513689 0 0.25511338863332461 0.22468137717712711 0 0.26221447651104962 0.2479993693513689 0 0.25511338863332461 0.22468137717712711 0 0.26853130556434218 0.23400660741274959 0 0.26221447651104962 0.2479993693513689 0 0.25511338863332461 0.22468137717712711 0 0.25511338863332461 0.22468137717712711 0 0.25242827713160498 0.21540237912569379 0 0.25511338863332461 0.22468137717712711 0 0.2794126892910288 0.21617120911671081 0 0.25511338863332461 0.22468137717712711 0 0.26853130556434218 0.23400660741274959 0 0.2794126892910288 0.21617120911671081 0 0.26853130556434218 0.23400660741274959 0 0.2794126892910288 0.21617120911671081 0 0.28440499104296979 0.23439140090611099 0 0.25511338863332461 0.22468137717712711 0 0.2794126892910288 0.21617120911671081 0 0.26644318031571418 0.20408753099865831 0 0.2794126892910288 0.21617120911671081 0 0.26644318031571418 0.20408753099865831 0 0.27722953884408802 0.19656269719262509 0 0.24528107816237801 0.1907036486386274 0 0.26644318031571418 0.20408753099865831 0 0.25242827713160498 0.21540237912569379 0 0.25511338863332461 0.22468137717712711 0 0.26644318031571418 0.20408753099865831 0 0.25242827713160498 0.21540237912569379 0 0.26644318031571418 0.20408753099865831 0 0.25242827713160498 0.21540237912569379 0 0.24528107816237801 0.1907036486386274 0 0.26633433714882182 0.18577592949096661 0 0.26644318031571418 0.20408753099865831 0 0.26633433714882182 0.18577592949096661 0 0.26644318031571418 0.20408753099865831 0 0.27722953884408802 0.19656269719262509 0 0.27723266788850742 0.181048228772968 0 0.28743664533084129 0.187357279865842 0 0.27722953884408802 0.19656269719262509 0 0.26633433714882182 0.18577592949096661 0 0.27723266788850742 0.181048228772968 0 0.27722953884408802 0.19656269719262509 0 0.28743664533084129 0.187357279865842 0 0.27722953884408802 0.19656269719262509 0 0.28939512316467059 0.2005252056429343 0 0.28743664533084129 0.187357279865842 0 0.28939512316467059 0.2005252056429343 0 0.29971043857951379 0.19298806906372529 0 0.30929675685570829 0.1858318568065235 0 0.29971043857951379 0.19298806906372529 0 0.31162694501442678 0.19735313208654229 0 0.29971043857951379 0.19298806906372529 0 0.31162694501442678 0.19735313208654229 0 0.30371198994873311 0.20766104105629449 0 0.28939512316467059 0.2005252056429343 0 0.29971043857951379 0.19298806906372529 0 0.30371198994873311 0.20766104105629449 0 0.2794126892910288 0.21617120911671081 0 0.30371198994873311 0.20766104105629449 0 0.2794126892910288 0.21617120911671081 0 0.30371198994873311 0.20766104105629449 0 0.30659550557489001 0.220783432460853 0 0.2794126892910288 0.21617120911671081 0 0.27722953884408802 0.19656269719262509 0 0.28939512316467059 0.2005252056429343 0 0.2794126892910288 0.21617120911671081 0 0.28939512316467059 0.2005252056429343 0 0.30371198994873311 0.20766104105629449 0 0.30659550557489001 0.220783432460853 0 0.28440499104296979 0.23439140090611099 0 0.2794126892910288 0.21617120911671081 0 0.30659550557489001 0.220783432460853 0 0.28440499104296979 0.23439140090611099 0 0.30659550557489001 0.220783432460853 0 0.30328699804120918 0.24394477185791469 0 0.28440499104296979 0.23439140090611099 0 0.30659550557489001 0.220783432460853 0 0.30328699804120918 0.24394477185791469 0 0.31607427666693672 0.2331905299380852 0 0.28119448123381058 0.25405304303149878 0 0.30328699804120918 0.24394477185791469 0 0.28440499104296979 0.23439140090611099 0 0.3433555784436142 0.25004320974280247 0 0.34183468199228573 0.23727684870966961 0 0.33092809789354199 0.24744869965648561 0 0.34183468199228573 0.23727684870966961 0 0.3288410404878227 0.2348757256337824 0 0.33092809789354199 0.24744869965648561 0 0.3288410404878227 0.2348757256337824 0 0.33092809789354199 0.24744869965648561 0 0.31845456220733243 0.24449663650262579 0 0.31879452400631653 0.25919465198291952 0 0.30328699804120918 0.24394477185791469 0 0.31845456220733243 0.24449663650262579 0 0.30328699804120918 0.24394477185791469 0 0.31845456220733243 0.24449663650262579 0 0.31607427666693672 0.2331905299380852 0 0.3288410404878227 0.2348757256337824 0 0.31845456220733243 0.24449663650262579 0 0.31607427666693672 0.2331905299380852 0 0.3288410404878227 0.2348757256337824 0 0.31607427666693672 0.2331905299380852 0 0.32372534117020862 0.22390137225637691 0 0.30659550557489001 0.220783432460853 0 0.31607427666693672 0.2331905299380852 0 0.32372534117020862 0.22390137225637691 0 0.3288410404878227 0.2348757256337824 0 0.32372534117020862 0.22390137225637691 0 0.33832986301458301 0.22348170923356889 0 0.34183468199228573 0.23727684870966961 0 0.3288410404878227 0.2348757256337824 0 0.33832986301458301 0.22348170923356889 0 0.32372534117020862 0.22390137225637691 0 0.33832986301458301 0.22348170923356889 0 0.32878602010681029 0.20717546401559489 0 0.33832986301458301 0.22348170923356889 0 0.32878602010681029 0.20717546401559489 0 0.35089693608391498 0.21212819010674691 0 0.32878602010681029 0.20717546401559489 0 0.35097653463873058 0.19356749557033681 0 0.35089693608391498 0.21212819010674691 0 0.30659550557489001 0.220783432460853 0 0.32372534117020862 0.22390137225637691 0 0.32878602010681029 0.20717546401559489 0 0.31162694501442678 0.19735313208654229 0 0.30371198994873311 0.20766104105629449 0 0.32878602010681029 0.20717546401559489 0 0.30371198994873311 0.20766104105629449 0 0.30659550557489001 0.220783432460853 0 0.32878602010681029 0.20717546401559489 0 0.30659550557489001 0.220783432460853 0 0.32878602010681029 0.20717546401559489 0 0.32878602010681029 0.20717546401559489 0 0.31972446529152482 0.19052244909679969 0 0.3336272658304279 0.18895925974375941 0 0.31162694501442678 0.19735313208654229 0 0.32878602010681029 0.20717546401559489 0 0.31972446529152482 0.19052244909679969 0 0.30929675685570829 0.1858318568065235 0 0.31162694501442678 0.19735313208654229 0 0.31972446529152482 0.19052244909679969 0 0.32878602010681029 0.20717546401559489 0 0.3336272658304279 0.18895925974375941 0 0.35097653463873058 0.19356749557033681 0 0.32878602010681029 0.20717546401559489 0 0.35097653463873058 0.19356749557033681 0 0.3336272658304279 0.18895925974375941 0 0.35097653463873058 0.19356749557033681 0 0.35656535024169428 0.1804169243242798 0 0.35097653463873058 0.19356749557033681 0 0.35896651107905142 0.20360726904620211 0 0.35089693608391498 0.21212819010674691 0 0.35097653463873058 0.19356749557033681 0 0.36405518175537521 0.19484170215684679 0 0.35896651107905142 0.20360726904620211 0 0.35097653463873058 0.19356749557033681 0 0.36405518175537521 0.19484170215684679 0 0.35656535024169428 0.1804169243242798 0 0.36405518175537521 0.19484170215684679 0 0.35656535024169428 0.1804169243242798 0 0.38464328683150451 0.18806222539781059 0 0.36405518175537521 0.19484170215684679 0 0.36923798170140371 0.20928007436804161 0 0.38464328683150451 0.18806222539781059 0 0.36405518175537521 0.19484170215684679 0 0.36923798170140371 0.20928007436804161 0 0.35896651107905142 0.20360726904620211 0 0.36923798170140371 0.20928007436804161 0 0.36132702422268731 0.21787493872225441 0 0.35896651107905142 0.20360726904620211 0 0.36923798170140371 0.20928007436804161 0 0.36132702422268731 0.21787493872225441 0 0.37292139258550783 0.22672254500020811 0 0.36132702422268731 0.21787493872225441 0 0.35896651107905142 0.20360726904620211 0 0.35089693608391498 0.21212819010674691 0 0.34183468199228573 0.23727684870966961 0 0.33832986301458301 0.22348170923356889 0 0.35524969613090918 0.22837961108452459 0 0.36132702422268731 0.21787493872225441 0 0.35089693608391498 0.21212819010674691 0 0.35524969613090918 0.22837961108452459 0 0.33832986301458301 0.22348170923356889 0 0.35089693608391498 0.21212819010674691 0 0.35524969613090918 0.22837961108452459 0 0.36132702422268731 0.21787493872225441 0 0.35524969613090918 0.22837961108452459 0 0.37292139258550783 0.22672254500020811 0 0.35524969613090918 0.22837961108452459 0 0.37292139258550783 0.22672254500020811 0 0.36587213359177301 0.2378375665458646 0 0.37292139258550783 0.22672254500020811 0 0.36587213359177301 0.2378375665458646 0 0.3757768555661396 0.240133652284411 0 0.36587213359177301 0.2378375665458646 0 0.37169426656027921 0.24972740256563611 0 0.3757768555661396 0.240133652284411 0 0.36587213359177301 0.2378375665458646 0 0.37169426656027921 0.24972740256563611 0 0.36205361842742478 0.24882498742118489 0 0.36587213359177301 0.2378375665458646 0 0.36205361842742478 0.24882498742118489 0 0.35356337405553911 0.24205426642971811 0 0.35175757775775729 0.2532797976346674 0 0.36205361842742478 0.24882498742118489 0 0.35356337405553911 0.24205426642971811 0 0.35524969613090918 0.22837961108452459 0 0.36587213359177301 0.2378375665458646 0 0.35356337405553911 0.24205426642971811 0 0.34183468199228573 0.23727684870966961 0 0.35524969613090918 0.22837961108452459 0 0.35356337405553911 0.24205426642971811 0 0.3433555784436142 0.25004320974280247 0 0.34183468199228573 0.23727684870966961 0 0.35356337405553911 0.24205426642971811 0 0.3433555784436142 0.25004320974280247 0 0.35175757775775729 0.2532797976346674 0 0.35356337405553911 0.24205426642971811 0 0.33379856680907583 0.1437068241164389 0 0.32007589174333823 0.14676000458717811 0 0.33365817402274128 0.15789089208148979 0 0.33379856680907583 0.1437068241164389 0 0.33365817402274128 0.15789089208148979 0 0.34780073530519279 0.14835628742565241 0 0.33379856680907583 0.1437068241164389 0 0.34780073530519279 0.14835628742565241 0 0.34586764947947463 0.1362539899128139 0 0.33379856680907583 0.1437068241164389 0 0.33436770153514289 0.13112975471366969 0 0.34586764947947463 0.1362539899128139 0 0.34956654336434939 0.1234914401014125 0 0.33436770153514289 0.13112975471366969 0 0.34586764947947463 0.1362539899128139 0 0.33379856680907583 0.1437068241164389 0 0.33436770153514289 0.13112975471366969 0 0.3195478300457561 0.1332621056988223 0 0.32606950933900308 0.1158177097477945 0 0.33436770153514289 0.13112975471366969 0 0.3195478300457561 0.1332621056988223 0 0.30873747279203018 0.14281046260302349 0 0.3195478300457561 0.1332621056988223 0 0.32007589174333823 0.14676000458717811 0 0.30453528129870422 0.15487579661148021 0 0.32007589174333823 0.14676000458717811 0 0.33365817402274128 0.15789089208148979 0 0.33379856680907583 0.1437068241164389 0 0.3195478300457561 0.1332621056988223 0 0.32007589174333823 0.14676000458717811 0 0.30453528129870422 0.15487579661148021 0 0.33365817402274128 0.15789089208148979 0 0.30453528129870422 0.15487579661148021 0 0.32848741365188411 0.1727716232507491 0 0.33365817402274128 0.15789089208148979 0 0.30040947706207388 0.16512632217721829 0 0.32848741365188411 0.1727716232507491 0 0.3101655001798202 0.17563615506282959 0 0.30040947706207388 0.16512632217721829 0 0.32848741365188411 0.1727716232507491 0 0.3101655001798202 0.17563615506282959 0 0.31983557186529732 0.18171103000860481 0 0.32848741365188411 0.1727716232507491 0 0.3336272658304279 0.18895925974375941 0 0.31983557186529732 0.18171103000860481 0 0.32848741365188411 0.1727716232507491 0 0.3101655001798202 0.17563615506282959 0 0.30929675685570829 0.1858318568065235 0 0.31983557186529732 0.18171103000860481 0 0.30929675685570829 0.1858318568065235 0 0.31972446529152482 0.19052244909679969 0 0.31983557186529732 0.18171103000860481 0 0.31972446529152482 0.19052244909679969 0 0.3336272658304279 0.18895925974375941 0 0.31983557186529732 0.18171103000860481 0 0.32848741365188411 0.1727716232507491 0 0.34507730906385942 0.16855187839241309 0 0.35656535024169428 0.1804169243242798 0 0.3336272658304279 0.18895925974375941 0 0.32848741365188411 0.1727716232507491 0 0.35656535024169428 0.1804169243242798 0 0.32848741365188411 0.1727716232507491 0 0.35656535024169428 0.1804169243242798 0 0.32848741365188411 0.1727716232507491 0 0.33365817402274128 0.15789089208148979 0 0.34507730906385942 0.16855187839241309 0 0.33365817402274128 0.15789089208148979 0 0.34507730906385942 0.16855187839241309 0 0.36278106674677829 0.1609059875514994 0 0.34507730906385942 0.16855187839241309 0 0.35656535024169428 0.1804169243242798 0 0.36278106674677829 0.1609059875514994 0 0.33365817402274128 0.15789089208148979 0 0.36278106674677829 0.1609059875514994 0 0.35656535024169428 0.1804169243242798 0 0.37356219856206202 0.1741215612114578 0 0.38464328683150451 0.18806222539781059 0 0.35656535024169428 0.1804169243242798 0 0.38464328683150451 0.18806222539781059 0 0.35656535024169428 0.1804169243242798 0 0.37356219856206202 0.1741215612114578 0 0.36278106674677829 0.1609059875514994 0 0.36278106674677829 0.1609059875514994 0 0.36531512046589693 0.1378839500987098 0 0.37680076681991098 0.15092733218095339 0 0.36278106674677829 0.1609059875514994 0 0.34780073530519279 0.14835628742565241 0 0.36531512046589693 0.1378839500987098 0 0.34780073530519279 0.14835628742565241 0 0.34586764947947463 0.1362539899128139 0 0.36531512046589693 0.1378839500987098 0 0.33365817402274128 0.15789089208148979 0 0.36278106674677829 0.1609059875514994 0 0.34780073530519279 0.14835628742565241 0 0.34956654336434939 0.1234914401014125 0 0.34586764947947463 0.1362539899128139 0 0.36531512046589693 0.1378839500987098 0 0.34956654336434939 0.1234914401014125 0 0.36322639358210312 0.11848039068348271 0 0.36531512046589693 0.1378839500987098 0 0.36322639358210312 0.11848039068348271 0 0.36531512046589693 0.1378839500987098 0 0.38482072671029011 0.13725767299229241 0 0.36322639358210312 0.11848039068348271 0 0.38482072671029011 0.13725767299229241 0 0.36322639358210312 0.11848039068348271 0 0.38482072671029011 0.13725767299229241 0 0.38005682511468147 0.12140739343396729 0 0.38482072671029011 0.13725767299229241 0 0.39398634319161102 0.12556361147638159 0 0.38005682511468147 0.12140739343396729 0 0.38482072671029011 0.13725767299229241 0 0.39398634319161102 0.12556361147638159 0 0.40386822996399702 0.1370092008917044 0 0.39398634319161102 0.12556361147638159 0 0.40386822996399702 0.1370092008917044 0 0.40630256149234217 0.12337914253670321 0 0.38482072671029011 0.13725767299229241 0 0.40641505983847698 0.15603495530110209 0 0.38482072671029011 0.13725767299229241 0 0.40386822996399702 0.1370092008917044 0 0.40641505983847698 0.15603495530110209 0 0.38482072671029011 0.13725767299229241 0 0.39190395947081519 0.16392108302150901 0 0.40641505983847698 0.15603495530110209 0 0.36531512046589693 0.1378839500987098 0 0.38482072671029011 0.13725767299229241 0 0.37680076681991098 0.15092733218095339 0 0.38482072671029011 0.13725767299229241 0 0.37680076681991098 0.15092733218095339 0 0.39190395947081519 0.16392108302150901 0 0.36278106674677829 0.1609059875514994 0 0.39190395947081519 0.16392108302150901 0 0.36278106674677829 0.1609059875514994 0 0.37680076681991098 0.15092733218095339 0 0.39190395947081519 0.16392108302150901 0 0.37356219856206202 0.1741215612114578 0 0.36278106674677829 0.1609059875514994 0 0.39190395947081519 0.16392108302150901 0 0.37356219856206202 0.1741215612114578 0 0.39190395947081519 0.16392108302150901 0 0.38464328683150451 0.18806222539781059 0 0.4059128807594603 0.17981630131623391 0 0.39190395947081519 0.16392108302150901 0 0.38464328683150451 0.18806222539781059 0 0.39190395947081519 0.16392108302150901 0 0.42102685219485209 0.16693617849151851 0 0.40641505983847698 0.15603495530110209 0 0.4059128807594603 0.17981630131623391 0 0.39190395947081519 0.16392108302150901 0 0.42102685219485209 0.16693617849151851 0 0.42102685219485209 0.16693617849151851 0 0.40641505983847698 0.15603495530110209 0 0.41490094777653419 0.14712571815411829 0 0.39190395947081519 0.16392108302150901 0 0.42102685219485209 0.16693617849151851 0 0.4059128807594603 0.17981630131623391 0 0.42102685219485209 0.16693617849151851 0 0.42759287120751482 0.1799189573059411 0 0.4059128807594603 0.17981630131623391 0 0.42759287120751482 0.1799189573059411 0 0.42045703890892938 0.19185412915784311 0 0.42102685219485209 0.16693617849151851 0 0.42759287120751482 0.1799189573059411 0 0.45014974491888898 0.16995127396152809 0 0.42759287120751482 0.1799189573059411 0 0.42045703890892938 0.19185412915784311 0 0.43799329450951457 0.1898848624547933 0 0.42102685219485209 0.16693617849151851 0 0.45014974491888898 0.16995127396152809 0 0.42102685219485209 0.16693617849151851 0 0.43641214087317609 0.15776157540708571 0 0.42820809332857229 0.14540676379554701 0 0.42102685219485209 0.16693617849151851 0 0.43641214087317609 0.15776157540708571 0 0.45014974491888898 0.16995127396152809 0 0.43641214087317609 0.15776157540708571 0 0.42820809332857229 0.14540676379554701 0 0.44305345270963392 0.14224085277467549 0 0.42820809332857229 0.14540676379554701 0 0.43267139290449452 0.12562392175117529 0 0.41815906511665779 0.13368892679480551 0 0.42820809332857229 0.14540676379554701 0 0.43267139290449452 0.12562392175117529 0 0.44305345270963392 0.14224085277467549 0 0.43267139290449452 0.12562392175117529 0 0.41815906511665779 0.13368892679480551 0 0.41840244549433692 0.1204435227777134 0 0.41815906511665779 0.13368892679480551 0 0.41840244549433692 0.1204435227777134 0 0.40630256149234217 0.12337914253670321 0 0.40386822996399702 0.1370092008917044 0 0.41815906511665779 0.13368892679480551 0 0.40630256149234217 0.12337914253670321 0 0.40386822996399702 0.1370092008917044 0 0.41815906511665779 0.13368892679480551 0 0.41490094777653419 0.14712571815411829 0 0.42102685219485209 0.16693617849151851 0 0.42820809332857229 0.14540676379554701 0 0.41490094777653419 0.14712571815411829 0 0.40386822996399702 0.1370092008917044 0 0.40641505983847698 0.15603495530110209 0 0.41490094777653419 0.14712571815411829 0 0.42820809332857229 0.14540676379554701 0 0.41815906511665779 0.13368892679480551 0 0.41490094777653419 0.14712571815411829 0 0.39196586341458151 0.242441409442547 0 0.40329821407583749 0.23025496453590971 0 0.40866327585672191 0.24600766979752939 0 0.38129994004966872 0.25577407136566988 0 0.39196586341458151 0.242441409442547 0 0.40866327585672191 0.24600766979752939 0 0.38129994004966872 0.25577407136566988 0 0.39196586341458151 0.242441409442547 0 0.38106847269238292 0.24536179082341181 0 0.37169426656027921 0.24972740256563611 0 0.38106847269238292 0.24536179082341181 0 0.3757768555661396 0.240133652284411 0 0.37292139258550783 0.22672254500020811 0 0.3757768555661396 0.240133652284411 0 0.38460543787124563 0.238732418458795 0 0.38106847269238292 0.24536179082341181 0 0.3757768555661396 0.240133652284411 0 0.38460543787124563 0.238732418458795 0 0.39196586341458151 0.242441409442547 0 0.38106847269238292 0.24536179082341181 0 0.38460543787124563 0.238732418458795 0 0.39196586341458151 0.242441409442547 0 0.38460543787124563 0.238732418458795 0 0.38844350160088592 0.2284985707660753 0 0.37292139258550783 0.22672254500020811 0 0.38460543787124563 0.238732418458795 0 0.38844350160088592 0.2284985707660753 0 0.37292139258550783 0.22672254500020811 0 0.38844350160088592 0.2284985707660753 0 0.38369130631537601 0.21297307403445409 0 0.38844350160088592 0.2284985707660753 0 0.39679964264504158 0.21937630878092959 0 0.38369130631537601 0.21297307403445409 0 0.38844350160088592 0.2284985707660753 0 0.39679964264504158 0.21937630878092959 0 0.40329821407583749 0.23025496453590971 0 0.39196586341458151 0.242441409442547 0 0.38844350160088592 0.2284985707660753 0 0.40329821407583749 0.23025496453590971 0 0.39679964264504158 0.21937630878092959 0 0.40329821407583749 0.23025496453590971 0 0.41066806580544729 0.2160617609406458 0 0.39598296716959969 0.20626700748070109 0 0.40513352984814438 0.19492560706685999 0 0.41066806580544729 0.2160617609406458 0 0.39679964264504158 0.21937630878092959 0 0.39598296716959969 0.20626700748070109 0 0.41066806580544729 0.2160617609406458 0 0.39679964264504158 0.21937630878092959 0 0.39598296716959969 0.20626700748070109 0 0.38369130631537601 0.21297307403445409 0 0.36923798170140371 0.20928007436804161 0 0.37292139258550783 0.22672254500020811 0 0.38369130631537601 0.21297307403445409 0 0.36923798170140371 0.20928007436804161 0 0.38369130631537601 0.21297307403445409 0 0.38464328683150451 0.18806222539781059 0 0.39598296716959969 0.20626700748070109 0 0.38369130631537601 0.21297307403445409 0 0.38464328683150451 0.18806222539781059 0 0.39598296716959969 0.20626700748070109 0 0.38464328683150451 0.18806222539781059 0 0.40513352984814438 0.19492560706685999 0 0.4059128807594603 0.17981630131623391 0 0.38464328683150451 0.18806222539781059 0 0.40513352984814438 0.19492560706685999 0 0.40513352984814438 0.19492560706685999 0 0.42045703890892938 0.19185412915784311 0 0.42444067869502011 0.20693424997503959 0 0.4059128807594603 0.17981630131623391 0 0.40513352984814438 0.19492560706685999 0 0.42045703890892938 0.19185412915784311 0 0.42045703890892938 0.19185412915784311 0 0.42444067869502011 0.20693424997503959 0 0.43799329450951457 0.1898848624547933 0 0.42444067869502011 0.20693424997503959 0 0.44184419378540352 0.2076794424592901 0 0.43799329450951457 0.1898848624547933 0 0.42444067869502011 0.20693424997503959 0 0.4302098735549707 0.2206458244329694 0 0.44184419378540352 0.2076794424592901 0 0.42444067869502011 0.20693424997503959 0 0.41066806580544729 0.2160617609406458 0 0.4302098735549707 0.2206458244329694 0 0.40513352984814438 0.19492560706685999 0 0.42444067869502011 0.20693424997503959 0 0.41066806580544729 0.2160617609406458 0 0.41066806580544729 0.2160617609406458 0 0.41777320819135039 0.22984229758728861 0 0.4302098735549707 0.2206458244329694 0 0.40329821407583749 0.23025496453590971 0 0.41066806580544729 0.2160617609406458 0 0.41777320819135039 0.22984229758728861 0 0.4302098735549707 0.2206458244329694 0 0.43602661166377499 0.2362412682293889 0 0.44584438813649652 0.2203436080528294 0 0.41777320819135039 0.22984229758728861 0 0.4302098735549707 0.2206458244329694 0 0.43602661166377499 0.2362412682293889 0 0.43602661166377499 0.2362412682293889 0 0.43076425121212841 0.2486853010718087 0 0.40866327585672191 0.24600766979752939 0 0.43602661166377499 0.2362412682293889 0 0.40866327585672191 0.24600766979752939 0 0.41777320819135039 0.22984229758728861 0 0.43602661166377499 0.2362412682293889 0 0.40866327585672191 0.24600766979752939 0 0.41664462513020523 0.25422696758609492 0 0.43076425121212841 0.2486853010718087 0 0.40866327585672191 0.24600766979752939 0 0.40329821407583749 0.23025496453590971 0 0.41777320819135039 0.22984229758728861 0 0.40866327585672191 0.24600766979752939 0 0.45166362976964691 0.25106894999712381 0 0.45384283414141641 0.23962742592169059 0 0.47583181488482379 0.2451422378191761 0 0.45166362976964691 0.25106894999712381 0 0.47583181488482379 0.2451422378191761 0 0.45384283414141641 0.23962742592169059 0 0.47692141707070451 0.23056955077157251 0 0.45166362976964691 0.25106894999712381 0 0.43076425121212841 0.2486853010718087 0 0.45384283414141641 0.23962742592169059 0 0.43602661166377499 0.2362412682293889 0 0.43076425121212841 0.2486853010718087 0 0.45384283414141641 0.23962742592169059 0 0.43076425121212841 0.2486853010718087 0 0.45384283414141641 0.23962742592169059 0 0.43602661166377499 0.2362412682293889 0 0.46338994747082818 0.22647486666124839 0 0.43602661166377499 0.2362412682293889 0 0.44584438813649652 0.2203436080528294 0 0.46338994747082818 0.22647486666124839 0 0.43602661166377499 0.2362412682293889 0 0.45384283414141641 0.23962742592169059 0 0.46338994747082818 0.22647486666124839 0 0.44584438813649652 0.2203436080528294 0 0.46338994747082818 0.22647486666124839 0 0.4574246187180494 0.20998202225832771 0 0.45384283414141641 0.23962742592169059 0 0.46338994747082818 0.22647486666124839 0 0.47692141707070451 0.23056955077157251 0 0.46338994747082818 0.22647486666124839 0 0.4574246187180494 0.20998202225832771 0 0.47311107537994651 0.21060674662752529 0 0.4574246187180494 0.20998202225832771 0 0.46861366351278472 0.19789432193598561 0 0.47311107537994651 0.21060674662752529 0 0.44584438813649652 0.2203436080528294 0 0.4574246187180494 0.20998202225832771 0 0.44184419378540352 0.2076794424592901 0 0.4302098735549707 0.2206458244329694 0 0.44584438813649652 0.2203436080528294 0 0.44184419378540352 0.2076794424592901 0 0.4574246187180494 0.20998202225832771 0 0.44184419378540352 0.2076794424592901 0 0.45120510308892831 0.19507838461398491 0 0.44184419378540352 0.2076794424592901 0 0.43799329450951457 0.1898848624547933 0 0.45120510308892831 0.19507838461398491 0 0.4574246187180494 0.20998202225832771 0 0.45120510308892831 0.19507838461398491 0 0.46861366351278472 0.19789432193598561 0 0.45120510308892831 0.19507838461398491 0 0.46861366351278472 0.19789432193598561 0 0.45014974491888898 0.16995127396152809 0 0.46861366351278472 0.19789432193598561 0 0.48377650321145821 0.20030440734603891 0 0.47890777313388699 0.17818810929941131 0 0.46861366351278472 0.19789432193598561 0 0.48377650321145821 0.20030440734603891 0 0.47311107537994651 0.21060674662752529 0 0.48377650321145821 0.20030440734603891 0 0.5 0.19442179120654851 0 0.47890777313388699 0.17818810929941131 0 0.48377650321145821 0.20030440734603891 0 0.5 0.19442179120654851 0 0.49075328327788142 0.2167084650931079 0 0.5 0.19442179120654851 0 0.49075328327788142 0.2167084650931079 0 0.49999999999999339 0.2215116756214566 0 0.48377650321145821 0.20030440734603891 0 0.49075328327788142 0.2167084650931079 0 0.47311107537994651 0.21060674662752529 0 0.46338994747082818 0.22647486666124839 0 0.49075328327788142 0.2167084650931079 0 0.47311107537994651 0.21060674662752529 0 0.46338994747082818 0.22647486666124839 0 0.49075328327788142 0.2167084650931079 0 0.46338994747082818 0.22647486666124839 0 0.49075328327788142 0.2167084650931079 0 0.47692141707070451 0.23056955077157251 0 0.47692141707070451 0.23056955077157251 0 0.49999999999999339 0.2215116756214566 0 0.50000000000000067 0.2392155256412283 0 0.49075328327788142 0.2167084650931079 0 0.47692141707070451 0.23056955077157251 0 0.49999999999999339 0.2215116756214566 0 0.47692141707070451 0.23056955077157251 0 0.49999999999999339 0.2215116756214566 0 0.50000000000000067 0.2392155256412283 0 0.47583181488482379 0.2451422378191761 0 0.48341195364679568 0.26002408893105827 0 0.50000000000000067 0.2392155256412283 0 0.47583181488482379 0.2451422378191761 0 0.47692141707070451 0.23056955077157251 0 0.50000000000000067 0.2392155256412283 0 0.47583181488482379 0.2451422378191761 0 0.45384283414141641 0.23962742592169059 0 0.47692141707070451 0.23056955077157251 0 0.47583181488482379 0.2451422378191761 0 0.46053260521531592 0.14091734283165991 0 0.45014974491888898 0.16995127396152809 0 0.47759274938693741 0.15337993901402261 0 0.46053260521531592 0.14091734283165991 0 0.47596637305353268 0.1236489788231635 0 0.45094723062946279 0.12208098845927939 0 0.46053260521531592 0.14091734283165991 0 0.44305345270963392 0.14224085277467549 0 0.45094723062946279 0.12208098845927939 0 0.43267139290449452 0.12562392175117529 0 0.44305345270963392 0.14224085277467549 0 0.45094723062946279 0.12208098845927939 0 0.46053260521531592 0.14091734283165991 0 0.44305345270963392 0.14224085277467549 0 0.45014974491888898 0.16995127396152809 0 0.43641214087317609 0.15776157540708571 0 0.44305345270963392 0.14224085277467549 0 0.45014974491888898 0.16995127396152809 0 0.42759287120751482 0.1799189573059411 0 0.43799329450951457 0.1898848624547933 0 0.45014974491888898 0.16995127396152809 0 0.43799329450951457 0.1898848624547933 0 0.45120510308892831 0.19507838461398491 0 0.45014974491888898 0.16995127396152809 0 0.46861366351278472 0.19789432193598561 0 0.45014974491888898 0.16995127396152809 0 0.47890777313388699 0.17818810929941131 0 0.45014974491888898 0.16995127396152809 0 0.47890777313388699 0.17818810929941131 0 0.47759274938693741 0.15337993901402261 0 0.5 0.19442179120654851 0 0.47890777313388699 0.17818810929941131 0 0.5 0.16733190679164031 0 0.47890777313388699 0.17818810929941131 0 0.5 0.16733190679164031 0 0.47759274938693741 0.15337993901402261 0 0.5 0.16733190679164031 0 0.47759274938693741 0.15337993901402261 0 0.5 0.14024202237673219 0 0.46053260521531592 0.14091734283165991 0 0.47759274938693741 0.15337993901402261 0 0.47596637305353268 0.1236489788231635 0 0.5 0.14024202237673219 0 0.5 0.11315213796182411 0 0.47596637305353268 0.1236489788231635 0 0.47759274938693741 0.15337993901402261 0 0.5 0.14024202237673219 0 0.47596637305353268 0.1236489788231635 0 0.5 0.11315213796182411 0 0.48146508414057748 0.097867616362435003 0 0.47596637305353268 0.1236489788231635 0 0.5 0.11315213796182411 0 0.48146508414057748 0.097867616362435003 0 0.5 0.08606225354691599 0 0.48146508414057748 0.097867616362435003 0 0.46684480345772023 0.083704774648097419 0 0.46085076100455152 0.1051260388446932 0 0.48146508414057748 0.097867616362435003 0 0.47596637305353268 0.1236489788231635 0 0.46085076100455152 0.1051260388446932 0 0.5 0.08606225354691599 0 0.48297411160829701 0.071419164250366693 0 0.5 0.058972369132007867 0 0.48146508414057748 0.097867616362435003 0 0.5 0.08606225354691599 0 0.48297411160829701 0.071419164250366693 0 0.48146508414057748 0.097867616362435003 0 0.48297411160829701 0.071419164250366693 0 0.46684480345772023 0.083704774648097419 0 0.48297411160829701 0.071419164250366693 0 0.46368779630991369 0.062884433647911922 0 0.46684480345772023 0.083704774648097419 0 0.46368779630991369 0.062884433647911922 0 0.4455316944648699 0.078385408113317706 0 0.46368779630991369 0.062884433647911922 0 0.46684480345772023 0.083704774648097419 0 0.4455316944648699 0.078385408113317706 0 0.46684480345772023 0.083704774648097419 0 0.4455316944648699 0.078385408113317706 0 0.46085076100455152 0.1051260388446932 0 0.4455316944648699 0.078385408113317706 0 0.46085076100455152 0.1051260388446932 0 0.43655847815144871 0.087567909291679069 0 0.4455316944648699 0.078385408113317706 0 0.43655847815144871 0.087567909291679069 0 0.43300293116684879 0.070359854062556224 0 0.4455316944648699 0.078385408113317706 0 0.43300293116684879 0.070359854062556224 0 0.44432728466234178 0.059795406129610977 0 0.46368779630991369 0.062884433647911922 0 0.4455316944648699 0.078385408113317706 0 0.44432728466234178 0.059795406129610977 0 0.47596637305353268 0.1236489788231635 0 0.46085076100455152 0.1051260388446932 0 0.45094723062946279 0.12208098845927939 0 0.46085076100455152 0.1051260388446932 0 0.43655847815144871 0.087567909291679069 0 0.46085076100455152 0.1051260388446932 0 0.43845481143497073 0.110031162788742 0 0.43302597451412722 0.09911942802672713 0 0.46085076100455152 0.1051260388446932 0 0.43302597451412722 0.09911942802672713 0 0.43655847815144871 0.087567909291679069 0 0.43267139290449452 0.12562392175117529 0 0.45094723062946279 0.12208098845927939 0 0.43845481143497073 0.110031162788742 0 0.46085076100455152 0.1051260388446932 0 0.45094723062946279 0.12208098845927939 0 0.43845481143497073 0.110031162788742 0 0.43267139290449452 0.12562392175117529 0 0.43845481143497073 0.110031162788742 0 0.42512360996164289 0.1101942667169049 0 0.43267139290449452 0.12562392175117529 0 0.42512360996164289 0.1101942667169049 0 0.41840244549433692 0.1204435227777134 0 0.42512360996164289 0.1101942667169049 0 0.41840244549433692 0.1204435227777134 0 0.41145911669595331 0.1096997076075869 0 0.41840244549433692 0.1204435227777134 0 0.41145911669595331 0.1096997076075869 0 0.40630256149234217 0.12337914253670321 0 0.41145911669595331 0.1096997076075869 0 0.41782870111656589 0.098086010242617663 0 0.40188519574572068 0.098349840232826835 0 0.41782870111656589 0.098086010242617663 0 0.41132824907511162 0.087668761689670915 0 0.40188519574572068 0.098349840232826835 0 0.42512360996164289 0.1101942667169049 0 0.41145911669595331 0.1096997076075869 0 0.41782870111656589 0.098086010242617663 0 0.41782870111656589 0.098086010242617663 0 0.43302597451412722 0.09911942802672713 0 0.42198136315300161 0.08812274721924529 0 0.42512360996164289 0.1101942667169049 0 0.41782870111656589 0.098086010242617663 0 0.43302597451412722 0.09911942802672713 0 0.43845481143497073 0.110031162788742 0 0.42512360996164289 0.1101942667169049 0 0.43302597451412722 0.09911942802672713 0 0.43655847815144871 0.087567909291679069 0 0.42198136315300161 0.08812274721924529 0 0.41226619529834591 0.070009779738664735 0 0.43655847815144871 0.087567909291679069 0 0.41226619529834591 0.070009779738664735 0 0.43302597451412722 0.09911942802672713 0 0.43655847815144871 0.087567909291679069 0 0.42198136315300161 0.08812274721924529 0 0.43300293116684879 0.070359854062556224 0 0.41226619529834591 0.070009779738664735 0 0.42739758089851382 0.054541393999090262 0 0.43655847815144871 0.087567909291679069 0 0.43300293116684879 0.070359854062556224 0 0.41226619529834591 0.070009779738664735 0 0.42198136315300161 0.08812274721924529 0 0.41226619529834591 0.070009779738664735 0 0.41132824907511162 0.087668761689670915 0 0.41226619529834591 0.070009779738664735 0 0.41132824907511162 0.087668761689670915 0 0.39992923875424519 0.082621500021195282 0 0.41782870111656589 0.098086010242617663 0 0.42198136315300161 0.08812274721924529 0 0.41132824907511162 0.087668761689670915 0 0.41132824907511162 0.087668761689670915 0 0.39992923875424519 0.082621500021195282 0 0.40188519574572068 0.098349840232826835 0 0.39992923875424519 0.082621500021195282 0 0.38759228221014619 0.095233220303727467 0 0.40188519574572068 0.098349840232826835 0 0.39992923875424519 0.082621500021195282 0 0.38759228221014619 0.095233220303727467 0 0.41226619529834591 0.070009779738664735 0 0.39707386889515511 0.070908779594843374 0 0.39683376059791597 0.058855427163935138 0 0.41226619529834591 0.070009779738664735 0 0.39683376059791597 0.058855427163935138 0 0.41226619529834591 0.070009779738664735 0 0.39992923875424519 0.082621500021195282 0 0.41226619529834591 0.070009779738664735 0 0.39992923875424519 0.082621500021195282 0 0.39707386889515511 0.070908779594843374 0 0.39992923875424519 0.082621500021195282 0 0.39707386889515511 0.070908779594843374 0 0.38583977896057609 0.075316135258006081 0 0.39707386889515511 0.070908779594843374 0 0.38282045226763678 0.060547433734587333 0 0.39683376059791597 0.058855427163935138 0 0.39707386889515511 0.070908779594843374 0 0.38583977896057609 0.075316135258006081 0 0.38282045226763678 0.060547433734587333 0 0.38583977896057609 0.075316135258006081 0 0.37596532967213542 0.069868995675824025 0 0.37682589963749002 0.081332762740894418 0 0.37307104071443398 0.061065176941414383 0 0.37596532967213542 0.069868995675824025 0 0.38282045226763678 0.060547433734587333 0 0.38583977896057609 0.075316135258006081 0 0.37596532967213542 0.069868995675824025 0 0.38282045226763678 0.060547433734587333 0 0.39992923875424519 0.082621500021195282 0 0.38412803848747967 0.086259474622970303 0 0.38759228221014619 0.095233220303727467 0 0.39992923875424519 0.082621500021195282 0 0.38583977896057609 0.075316135258006081 0 0.38412803848747967 0.086259474622970303 0 0.37045299287494049 0.09679375479102828 0 0.38412803848747967 0.086259474622970303 0 0.38759228221014619 0.095233220303727467 0 0.38583977896057609 0.075316135258006081 0 0.38412803848747967 0.086259474622970303 0 0.37682589963749002 0.081332762740894418 0 0.37045299287494049 0.09679375479102828 0 0.38412803848747967 0.086259474622970303 0 0.37682589963749002 0.081332762740894418 0 0.37045299287494049 0.09679375479102828 0 0.38005682511468147 0.12140739343396729 0 0.37045299287494049 0.09679375479102828 0 0.38759228221014619 0.095233220303727467 0 0.38890959528695412 0.1083938038889192 0 0.37045299287494049 0.09679375479102828 0 0.38890959528695412 0.1083938038889192 0 0.38005682511468147 0.12140739343396729 0 0.39398634319161102 0.12556361147638159 0 0.38890959528695412 0.1083938038889192 0 0.38005682511468147 0.12140739343396729 0 0.39398634319161102 0.12556361147638159 0 0.38890959528695412 0.1083938038889192 0 0.39948393258462489 0.11301500309558379 0 0.39398634319161102 0.12556361147638159 0 0.40630256149234217 0.12337914253670321 0 0.39948393258462489 0.11301500309558379 0 0.41145911669595331 0.1096997076075869 0 0.40630256149234217 0.12337914253670321 0 0.39948393258462489 0.11301500309558379 0 0.41145911669595331 0.1096997076075869 0 0.39948393258462489 0.11301500309558379 0 0.40188519574572068 0.098349840232826835 0 0.38759228221014619 0.095233220303727467 0 0.38890959528695412 0.1083938038889192 0 0.40188519574572068 0.098349840232826835 0 0.38890959528695412 0.1083938038889192 0 0.39948393258462489 0.11301500309558379 0 0.40188519574572068 0.098349840232826835 0 0.3912475249538237 0.025882868266216091 0 0.40325323122183843 0.024352223252143548 0 0.39536881189699241 0.01378873843063998 0 0.3912475249538237 0.025882868266216091 0 0.40325323122183843 0.024352223252143548 0 0.39805180056669343 0.032772735105760037 0 0.40325323122183843 0.024352223252143548 0 0.39805180056669343 0.032772735105760037 0 0.40655765028286611 0.035582104639029083 0 0.40325323122183843 0.024352223252143548 0 0.39536881189699241 0.01378873843063998 0 0.40720094273855439 0.01372602960598159 0 0.40060323373222451 0.0042547197705496897 0 0.39536881189699241 0.01378873843063998 0 0.40720094273855439 0.01372602960598159 0 0.40060323373222451 0.0042547197705496897 0 0.41081432206005303 0.0037114498956348132 0 0.4046584776842293 -0.0050702490882302163 0 0.40060323373222451 0.0042547197705496897 0 0.41081432206005303 0.0037114498956348132 0 0.40720094273855439 0.01372602960598159 0 0.40060323373222451 0.0042547197705496897 0 0.39025836247721268 0.0036292771787240202 0 0.39531848553630572 -0.0042569273994520467 0 0.40060323373222451 0.0042547197705496897 0 0.39536881189699241 0.01378873843063998 0 0.39025836247721268 0.0036292771787240202 0 0.37844401144479839 0.012609093579625891 0 0.38356146703633898 -0.0078565650350033434 0 0.37844401144479839 0.012609093579625891 0 0.39025836247721268 0.0036292771787240202 0 0.38356146703633898 -0.0078565650350033434 0 0.39536881189699241 0.01378873843063998 0 0.37844401144479839 0.012609093579625891 0 0.39025836247721268 0.0036292771787240202 0 0.3912475249538237 0.025882868266216091 0 0.37844401144479839 0.012609093579625891 0 0.38063223185621792 0.036578263657106522 0 0.37844401144479839 0.012609093579625891 0 0.38063223185621792 0.036578263657106522 0 0.37146335928247548 0.04052602251159599 0 0.37844401144479839 0.012609093579625891 0 0.38063223185621792 0.036578263657106522 0 0.3912475249538237 0.025882868266216091 0 0.39536881189699241 0.01378873843063998 0 0.37844401144479839 0.012609093579625891 0 0.37146335928247548 0.04052602251159599 0 0.38063223185621792 0.036578263657106522 0 0.38282045226763678 0.060547433734587333 0 0.3912475249538237 0.025882868266216091 0 0.38063223185621792 0.036578263657106522 0 0.3908528121234538 0.035995570554822158 0 0.38063223185621792 0.036578263657106522 0 0.38791705742610771 0.044539104287684539 0 0.3908528121234538 0.035995570554822158 0 0.38791705742610771 0.044539104287684539 0 0.38282045226763678 0.060547433734587333 0 0.39079668350586277 0.051215399393808793 0 0.37307104071443398 0.061065176941414383 0 0.37146335928247548 0.04052602251159599 0 0.38282045226763678 0.060547433734587333 0 0.38063223185621792 0.036578263657106522 0 0.38791705742610771 0.044539104287684539 0 0.38282045226763678 0.060547433734587333 0 0.38063223185621792 0.036578263657106522 0 0.38282045226763678 0.060547433734587333 0 0.38282045226763678 0.060547433734587333 0 0.39683376059791597 0.058855427163935138 0 0.39079668350586277 0.051215399393808793 0 0.41226619529834591 0.070009779738664735 0 0.39683376059791597 0.058855427163935138 0 0.40948896714378957 0.05055434744181983 0 0.39683376059791597 0.058855427163935138 0 0.39079668350586277 0.051215399393808793 0 0.39674782008621368 0.04348041067995833 0 0.39683376059791597 0.058855427163935138 0 0.39674782008621368 0.04348041067995833 0 0.40948896714378957 0.05055434744181983 0 0.3908528121234538 0.035995570554822158 0 0.39805180056669343 0.032772735105760037 0 0.39674782008621368 0.04348041067995833 0 0.3912475249538237 0.025882868266216091 0 0.3908528121234538 0.035995570554822158 0 0.39805180056669343 0.032772735105760037 0 0.38791705742610771 0.044539104287684539 0 0.3908528121234538 0.035995570554822158 0 0.39674782008621368 0.04348041067995833 0 0.38791705742610771 0.044539104287684539 0 0.39079668350586277 0.051215399393808793 0 0.39674782008621368 0.04348041067995833 0 0.39674782008621368 0.04348041067995833 0 0.40655765028286611 0.035582104639029083 0 0.40948896714378957 0.05055434744181983 0 0.39805180056669343 0.032772735105760037 0 0.39674782008621368 0.04348041067995833 0 0.40655765028286611 0.035582104639029083 0 0.40655765028286611 0.035582104639029083 0 0.41713079569888262 0.040856968430241461 0 0.41557099838193923 0.024039796491718179 0 0.41713079569888262 0.040856968430241461 0 0.42755741698364552 0.032815777208855347 0 0.41557099838193923 0.024039796491718179 0 0.40655765028286611 0.035582104639029083 0 0.41713079569888262 0.040856968430241461 0 0.40948896714378957 0.05055434744181983 0 0.41226619529834591 0.070009779738664735 0 0.40948896714378957 0.05055434744181983 0 0.42739758089851382 0.054541393999090262 0 0.41713079569888262 0.040856968430241461 0 0.40948896714378957 0.05055434744181983 0 0.42739758089851382 0.054541393999090262 0 0.41226619529834591 0.070009779738664735 0 0.42739758089851382 0.054541393999090262 0 0.43300293116684879 0.070359854062556224 0 0.42739758089851382 0.054541393999090262 0 0.44432728466234178 0.059795406129610977 0 0.41713079569888262 0.040856968430241461 0 0.42739758089851382 0.054541393999090262 0 0.42755741698364552 0.032815777208855347 0 0.42739758089851382 0.054541393999090262 0 0.42755741698364552 0.032815777208855347 0 0.44252896649868317 0.039073008259517338 0 0.42739758089851382 0.054541393999090262 0 0.44252896649868317 0.039073008259517338 0 0.42755741698364552 0.032815777208855347 0 0.4358194844604939 0.024219735287320941 0 0.44252896649868317 0.039073008259517338 0 0.42755741698364552 0.032815777208855347 0 0.41557099838193923 0.024039796491718179 0 0.4265644217351573 0.014684511896395219 0 0.4358194844604939 0.024219735287320941 0 0.4265644217351573 0.014684511896395219 0 0.44548351627008242 0.01642882659412407 0 0.42755741698364552 0.032815777208855347 0 0.4358194844604939 0.024219735287320941 0 0.4265644217351573 0.014684511896395219 0 0.41557099838193923 0.024039796491718179 0 0.4165272652869268 0.01155925859927168 0 0.4265644217351573 0.014684511896395219 0 0.41557099838193923 0.024039796491718179 0 0.40720094273855439 0.01372602960598159 0 0.4165272652869268 0.01155925859927168 0 0.40325323122183843 0.024352223252143548 0 0.41557099838193923 0.024039796491718179 0 0.40720094273855439 0.01372602960598159 0 0.40325323122183843 0.024352223252143548 0 0.40655765028286611 0.035582104639029083 0 0.41557099838193923 0.024039796491718179 0 0.41081432206005303 0.0037114498956348132 0 0.40720094273855439 0.01372602960598159 0 0.4165272652869268 0.01155925859927168 0 0.4165272652869268 0.01155925859927168 0 0.42248564151892998 0.0016345051066286029 0 0.4265644217351573 0.014684511896395219 0 0.41081432206005303 0.0037114498956348132 0 0.4165272652869268 0.01155925859927168 0 0.42248564151892998 0.0016345051066286029 0 0.42248564151892998 0.0016345051066286029 0 0.4265644217351573 0.014684511896395219 0 0.4382820622288856 -0.0014159552958160841 0 0.4265644217351573 0.014684511896395219 0 0.44548351627008242 0.01642882659412407 0 0.4382820622288856 -0.0014159552958160841 0 0.45100246047295739 0.0046664116742636159 0 0.44548351627008242 0.01642882659412407 0 0.4382820622288856 -0.0014159552958160841 0 0.45100246047295739 0.0046664116742636159 0 0.44548351627008242 0.01642882659412407 0 0.4580470330794123 0.0188547641718908 0 0.4358194844604939 0.024219735287320941 0 0.4514029071021442 0.02821869916314456 0 0.44548351627008242 0.01642882659412407 0 0.4358194844604939 0.024219735287320941 0 0.4514029071021442 0.02821869916314456 0 0.44252896649868317 0.039073008259517338 0 0.4514029071021442 0.02821869916314456 0 0.44548351627008242 0.01642882659412407 0 0.4580470330794123 0.0188547641718908 0 0.4514029071021442 0.02821869916314456 0 0.4580470330794123 0.0188547641718908 0 0.46553563141862692 0.027383902935855992 0 0.4580470330794123 0.0188547641718908 0 0.46553563141862692 0.027383902935855992 0 0.471035018561343 0.01684384088441979 0 0.4580470330794123 0.0188547641718908 0 0.4620271672997433 0.0081957990277541914 0 0.471035018561343 0.01684384088441979 0 0.4620271672997433 0.0081957990277541914 0 0.47207727543944228 0.0077163925679632076 0 0.45540766643685782 -0.0078732224449345398 0 0.4620271672997433 0.0081957990277541914 0 0.47207727543944228 0.0077163925679632076 0 0.471035018561343 0.01684384088441979 0 0.45100246047295739 0.0046664116742636159 0 0.4620271672997433 0.0081957990277541914 0 0.45540766643685782 -0.0078732224449345398 0 0.45100246047295739 0.0046664116742636159 0 0.4580470330794123 0.0188547641718908 0 0.4620271672997433 0.0081957990277541914 0 0.42739758089851382 0.054541393999090262 0 0.44432728466234178 0.059795406129610977 0 0.44252896649868317 0.039073008259517338 0 0.44432728466234178 0.059795406129610977 0 0.44252896649868317 0.039073008259517338 0 0.46100281088556699 0.043351957730158222 0 0.4514029071021442 0.02821869916314456 0 0.44252896649868317 0.039073008259517338 0 0.46100281088556699 0.043351957730158222 0 0.4514029071021442 0.02821869916314456 0 0.46553563141862692 0.027383902935855992 0 0.46100281088556699 0.043351957730158222 0 0.46553563141862692 0.027383902935855992 0 0.46100281088556699 0.043351957730158222 0 0.4764725540003833 0.035303178421407518 0 0.46368779630991369 0.062884433647911922 0 0.44432728466234178 0.059795406129610977 0 0.46100281088556699 0.043351957730158222 0 0.48297411160829701 0.071419164250366693 0 0.46368779630991369 0.062884433647911922 0 0.48184389815495748 0.047383459182506117 0 0.46368779630991369 0.062884433647911922 0 0.46100281088556699 0.043351957730158222 0 0.48184389815495748 0.047383459182506117 0 0.46368779630991369 0.062884433647911922 0 0.48184389815495748 0.047383459182506117 0 0.46100281088556699 0.043351957730158222 0 0.48184389815495748 0.047383459182506117 0 0.4764725540003833 0.035303178421407518 0 0.48184389815495748 0.047383459182506117 0 0.50000000000000089 0.031882484717099757 0 0.48184389815495748 0.047383459182506117 0 0.50000000000000089 0.031882484717099757 0 0.5 0.058972369132007867 0 0.48184389815495748 0.047383459182506117 0 0.4764725540003833 0.035303178421407518 0 0.50000000000000089 0.031882484717099757 0 0.48297411160829701 0.071419164250366693 0 0.48184389815495748 0.047383459182506117 0 0.5 0.058972369132007867 0 0.48173822001607031 0.002441982684480838 0 0.47207727543944228 0.0077163925679632076 0 0.45540766643685782 -0.0078732224449345398 0 0.48073089036299149 0.01447516008145705 0 0.48088876464914698 0.0066420825236524483 0 0.47207727543944228 0.0077163925679632076 0 0.48088876464914698 0.0066420825236524483 0 0.48173822001607031 0.002441982684480838 0 0.48944624590280772 0.014576472087587141 0 0.48073089036299149 0.01447516008145705 0 0.48088876464914698 0.0066420825236524483 0 0.48944624590280772 0.014576472087587141 0 0.48088876464914698 0.0066420825236524483 0 0.48173822001607031 0.002441982684480838 0 0.47207727543944228 0.0077163925679632076 0 0.48088876464914698 0.0066420825236524483 0 0.48173822001607031 0.002441982684480838 0 0.48073089036299149 0.01447516008145705 0 0.47207727543944228 0.0077163925679632076 0 0.471035018561343 0.01684384088441979 0 0.46553563141862692 0.027383902935855992 0 0.471035018561343 0.01684384088441979 0 0.48098968552297122 0.023479159592672289 0 0.46553563141862692 0.027383902935855992 0 0.4764725540003833 0.035303178421407518 0 0.48098968552297122 0.023479159592672289 0 0.48073089036299149 0.01447516008145705 0 0.471035018561343 0.01684384088441979 0 0.48098968552297122 0.023479159592672289 0 0.48073089036299149 0.01447516008145705 0 0.48098968552297122 0.023479159592672289 0 0.48944624590280772 0.014576472087587141 0 0.50000000000000089 0.031882484717099757 0 0.50000000000000044 0.0095961811708810997 0 0.48944624590280772 0.014576472087587141 0 0.4764725540003833 0.035303178421407518 0 0.50000000000000089 0.031882484717099757 0 0.48098968552297122 0.023479159592672289 0 0.50000000000000089 0.031882484717099757 0 0.48098968552297122 0.023479159592672289 0 0.48944624590280772 0.014576472087587141 0 0.48173822001607031 0.002441982684480838 0 0.50000000000000044 0.0095961811708810997 0 0.48944624590280772 0.014576472087587141 0 0.48173822001607031 0.002441982684480838 0 0.50000000000000044 0.0095961811708810997 0 0.48173822001607031 0.002441982684480838 0 0.50000000000000044 0.0095961811708810997 0 0.5 -0.01553848795347695 0 0.48173822001607031 0.002441982684480838 0 0.5 -0.01553848795347695 0 0.48723509010938909 -0.024737082977995831 0 0.48173822001607031 0.002441982684480838 0 0.48723509010938909 -0.024737082977995831 0 0.48173822001607031 0.002441982684480838 0 0.46944239540012012 -0.021901386132034111 0 0.45540766643685782 -0.0078732224449345398 0 0.48173822001607031 0.002441982684480838 0 0.46944239540012012 -0.021901386132034111 0 0.48723509010938909 -0.024737082977995831 0 0.46944239540012012 -0.021901386132034111 0 0.48723509010938909 -0.024737082977995831 0 0.47311684284700922 -0.039980301183512167 0 0.5 -0.01553848795347695 0 0.48723509010938909 -0.024737082977995831 0 0.5 -0.040673157077835087 0 0.48723509010938909 -0.024737082977995831 0 0.49273196020270971 -0.051916148640471983 0 0.48034048547664182 -0.050194577481915269 0 0.48723509010938909 -0.024737082977995831 0 0.49273196020270971 -0.051916148640471983 0 0.48723509010938909 -0.024737082977995831 0 0.5 -0.040673157077835087 0 0.49273196020270971 -0.051916148640471983 0 0.5 -0.040673157077835087 0 0.49273196020270971 -0.051916148640471983 0 0.5 -0.065807826202193331 0 0.49273196020270971 -0.051916148640471983 0 0.48384360039889979 -0.062204599920787272 0 0.48034048547664182 -0.050194577481915269 0 0.48034048547664182 -0.050194577481915269 0 0.47035120232490191 -0.060528185902064997 0 0.47311684284700922 -0.039980301183512167 0 0.47035120232490191 -0.060528185902064997 0 0.47311684284700922 -0.039980301183512167 0 0.48384360039889979 -0.062204599920787272 0 0.48034048547664182 -0.050194577481915269 0 0.47035120232490191 -0.060528185902064997 0 0.48723509010938909 -0.024737082977995831 0 0.48034048547664182 -0.050194577481915269 0 0.47311684284700922 -0.039980301183512167 0 0.46944239540012012 -0.021901386132034111 0 0.47311684284700922 -0.039980301183512167 0 0.44971415759127392 -0.039358306738208573 0 0.47035120232490191 -0.060528185902064997 0 0.47311684284700922 -0.039980301183512167 0 0.44971415759127392 -0.039358306738208573 0 0.47035120232490191 -0.060528185902064997 0 0.44971415759127392 -0.039358306738208573 0 0.47035120232490191 -0.060528185902064997 0 0.43963483674523918 -0.055334607978488382 0 0.44971415759127392 -0.039358306738208573 0 0.43963483674523918 -0.055334607978488382 0 0.44971415759127392 -0.039358306738208573 0 0.42419530264354072 -0.042652000491910397 0 0.46944239540012012 -0.021901386132034111 0 0.44971415759127392 -0.039358306738208573 0 0.45540766643685782 -0.0078732224449345398 0 0.44971415759127392 -0.039358306738208573 0 0.42907711285764621 -0.01818842757435184 0 0.44971415759127392 -0.039358306738208573 0 0.45540766643685782 -0.0078732224449345398 0 0.42907711285764621 -0.01818842757435184 0 0.45540766643685782 -0.0078732224449345398 0 0.42907711285764621 -0.01818842757435184 0 0.45100246047295739 0.0046664116742636159 0 0.4382820622288856 -0.0014159552958160841 0 0.45540766643685782 -0.0078732224449345398 0 0.4382820622288856 -0.0014159552958160841 0 0.45540766643685782 -0.0078732224449345398 0 0.42907711285764621 -0.01818842757435184 0 0.48173822001607031 0.002441982684480838 0 0.45540766643685782 -0.0078732224449345398 0 0.47129126618897188 -0.1223351355815797 0 0.47148248434309947 -0.114916285604633 0 0.48087269318342413 -0.1216818802472065 0 0.47148248434309947 -0.114916285604633 0 0.48087269318342413 -0.1216818802472065 0 0.47838814501791832 -0.1066654575105275 0 0.48087269318342413 -0.1216818802472065 0 0.48924328608656842 -0.1141618265083332 0 0.47838814501791832 -0.1066654575105275 0 0.5 -0.1122204549214597 0 0.48924328608656842 -0.1141618265083332 0 0.5 -0.13349841451636779 0 0.48087269318342413 -0.1216818802472065 0 0.48924328608656842 -0.1141618265083332 0 0.5 -0.13349841451636779 0 0.5 -0.1122204549214597 0 0.48924328608656842 -0.1141618265083332 0 0.48827073793524339 -0.097774102912636218 0 0.48924328608656842 -0.1141618265083332 0 0.48827073793524339 -0.097774102912636218 0 0.47838814501791832 -0.1066654575105275 0 0.5 -0.1122204549214597 0 0.48827073793524339 -0.097774102912636218 0 0.50000000000000266 -0.090942495326551576 0 0.47652975213937199 -0.091635549067057065 0 0.46683976751390588 -0.086617099886465918 0 0.46456669494636288 -0.10350535152343909 0 0.48827073793524339 -0.097774102912636218 0 0.47838814501791832 -0.1066654575105275 0 0.47652975213937199 -0.091635549067057065 0 0.47148248434309947 -0.114916285604633 0 0.47838814501791832 -0.1066654575105275 0 0.46456669494636288 -0.10350535152343909 0 0.47838814501791832 -0.1066654575105275 0 0.47652975213937199 -0.091635549067057065 0 0.46456669494636288 -0.10350535152343909 0 0.48827073793524339 -0.097774102912636218 0 0.47652975213937199 -0.091635549067057065 0 0.48517560116245317 -0.075735340614307423 0 0.47652975213937199 -0.091635549067057065 0 0.48517560116245317 -0.075735340614307423 0 0.46683976751390588 -0.086617099886465918 0 0.47652975213937199 -0.091635549067057065 0 0.46683976751390588 -0.086617099886465918 0 0.50000000000000266 -0.090942495326551576 0 0.49822883029603021 -0.079095214302948247 0 0.5 -0.065807826202193331 0 0.48827073793524339 -0.097774102912636218 0 0.50000000000000266 -0.090942495326551576 0 0.48517560116245317 -0.075735340614307423 0 0.50000000000000266 -0.090942495326551576 0 0.48517560116245317 -0.075735340614307423 0 0.50000000000000266 -0.090942495326551576 0 0.49822883029603021 -0.079095214302948247 0 0.48517560116245317 -0.075735340614307423 0 0.49273196020270971 -0.051916148640471983 0 0.49822883029603021 -0.079095214302948247 0 0.48384360039889979 -0.062204599920787272 0 0.49822883029603021 -0.079095214302948247 0 0.48517560116245317 -0.075735340614307423 0 0.49273196020270971 -0.051916148640471983 0 0.48384360039889979 -0.062204599920787272 0 0.49822883029603021 -0.079095214302948247 0 0.49273196020270971 -0.051916148640471983 0 0.49822883029603021 -0.079095214302948247 0 0.5 -0.065807826202193331 0 0.47035120232490191 -0.060528185902064997 0 0.48517560116245317 -0.075735340614307423 0 0.47035120232490191 -0.060528185902064997 0 0.48517560116245317 -0.075735340614307423 0 0.46683976751390588 -0.086617099886465918 0 0.48384360039889979 -0.062204599920787272 0 0.47035120232490191 -0.060528185902064997 0 0.48517560116245317 -0.075735340614307423 0 0.47035120232490191 -0.060528185902064997 0 0.46683976751390588 -0.086617099886465918 0 0.47035120232490191 -0.060528185902064997 0 0.44249197108241189 -0.074007360679063244 0 0.46683976751390588 -0.086617099886465918 0 0.47035120232490191 -0.060528185902064997 0 0.43963483674523918 -0.055334607978488382 0 0.44249197108241189 -0.074007360679063244 0 0.44249197108241189 -0.074007360679063244 0 0.46683976751390588 -0.086617099886465918 0 0.4490662803509099 -0.094083529251462475 0 0.44249197108241189 -0.074007360679063244 0 0.4490662803509099 -0.094083529251462475 0 0.42834270349958448 -0.099226311759436261 0 0.44249197108241189 -0.074007360679063244 0 0.46683976751390588 -0.086617099886465918 0 0.46683976751390588 -0.086617099886465918 0 0.46456669494636288 -0.10350535152343909 0 0.4490662803509099 -0.094083529251462475 0 0.46683976751390588 -0.086617099886465918 0 0.46456669494636288 -0.10350535152343909 0 0.46456669494636288 -0.10350535152343909 0 0.4490662803509099 -0.094083529251462475 0 0.44386094964032902 -0.11054798122052439 0 0.4490662803509099 -0.094083529251462475 0 0.44386094964032902 -0.11054798122052439 0 0.42834270349958448 -0.099226311759436261 0 0.44386094964032902 -0.11054798122052439 0 0.46257396642688631 -0.12529077885077469 0 0.45239247298790419 -0.125419693033265 0 0.44386094964032902 -0.11054798122052439 0 0.42916935431308728 -0.1205456085246996 0 0.4435038969132965 -0.12540022695152131 0 0.44386094964032902 -0.11054798122052439 0 0.45239247298790419 -0.125419693033265 0 0.4435038969132965 -0.12540022695152131 0 0.44386094964032902 -0.11054798122052439 0 0.46229362237882032 -0.1203936031604123 0 0.46257396642688631 -0.12529077885077469 0 0.46456669494636288 -0.10350535152343909 0 0.46229362237882032 -0.1203936031604123 0 0.46456669494636288 -0.10350535152343909 0 0.44386094964032902 -0.11054798122052439 0 0.46229362237882032 -0.1203936031604123 0 0.44386094964032902 -0.11054798122052439 0 0.46257396642688631 -0.12529077885077469 0 0.47148248434309947 -0.114916285604633 0 0.46456669494636288 -0.10350535152343909 0 0.46229362237882032 -0.1203936031604123 0 0.47129126618897188 -0.1223351355815797 0 0.46229362237882032 -0.1203936031604123 0 0.46257396642688631 -0.12529077885077469 0 0.47129126618897188 -0.1223351355815797 0 0.47148248434309947 -0.114916285604633 0 0.46229362237882032 -0.1203936031604123 0 0.44386094964032902 -0.11054798122052439 0 0.42916935431308728 -0.1205456085246996 0 0.42834270349958448 -0.099226311759436261 0 0.41143930547928681 -0.11934523636421419 0 0.42916935431308728 -0.1205456085246996 0 0.42834270349958448 -0.099226311759436261 0 0.41143930547928681 -0.11934523636421419 0 0.40555832972599831 -0.095826118330896617 0 0.41143930547928681 -0.11934523636421419 0 0.42834270349958448 -0.099226311759436261 0 0.40555832972599831 -0.095826118330896617 0 0.42834270349958448 -0.099226311759436261 0 0.41884290658632428 -0.080552882507727325 0 0.40555832972599831 -0.095826118330896617 0 0.41884290658632428 -0.080552882507727325 0 0.39967735397270959 -0.072307000297579083 0 0.40555832972599831 -0.095826118330896617 0 0.44249197108241189 -0.074007360679063244 0 0.42834270349958448 -0.099226311759436261 0 0.41884290658632428 -0.080552882507727325 0 0.44249197108241189 -0.074007360679063244 0 0.41814417465091752 -0.061397621471661459 0 0.43963483674523918 -0.055334607978488382 0 0.44249197108241189 -0.074007360679063244 0 0.41814417465091752 -0.061397621471661459 0 0.44249197108241189 -0.074007360679063244 0 0.41884290658632428 -0.080552882507727325 0 0.41814417465091752 -0.061397621471661459 0 0.41884290658632428 -0.080552882507727325 0 0.39967735397270959 -0.072307000297579083 0 0.41814417465091752 -0.061397621471661459 0 0.39967735397270959 -0.072307000297579083 0 0.38669795957132042 -0.057310603286660967 0 0.37240766699872252 -0.068318548019290964 0 0.39967735397270959 -0.072307000297579083 0 0.37781097748786241 -0.089314889372882261 0 0.37240766699872252 -0.068318548019290964 0 0.39967735397270959 -0.072307000297579083 0 0.37781097748786241 -0.089314889372882261 0 0.40555832972599831 -0.095826118330896617 0 0.39967735397270959 -0.072307000297579083 0 0.40555832972599831 -0.095826118330896617 0 0.40555832972599831 -0.095826118330896617 0 0.38953803654933628 -0.10754997095337659 0 0.39823574772599779 -0.11763079726210079 0 0.37781097748786241 -0.089314889372882261 0 0.40555832972599831 -0.095826118330896617 0 0.38953803654933628 -0.10754997095337659 0 0.37781097748786241 -0.089314889372882261 0 0.38953803654933628 -0.10754997095337659 0 0.37644505785585192 -0.1058120404938334 0 0.38953803654933628 -0.10754997095337659 0 0.37644505785585192 -0.1058120404938334 0 0.37720890243704291 -0.12310924361699779 0 0.38953803654933628 -0.10754997095337659 0 0.37720890243704291 -0.12310924361699779 0 0.38918813321375051 -0.12739880168557821 0 0.38953803654933628 -0.10754997095337659 0 0.39823574772599779 -0.11763079726210079 0 0.38918813321375051 -0.12739880168557821 0 0.41143930547928681 -0.11934523636421419 0 0.39823574772599779 -0.11763079726210079 0 0.40257569972698831 -0.13396225485532559 0 0.41143930547928681 -0.11934523636421419 0 0.40555832972599831 -0.095826118330896617 0 0.39823574772599779 -0.11763079726210079 0 0.42011428296152808 -0.02169968792975261 0 0.41401194260749391 -0.028450411104576211 0 0.41343304557213612 -0.018371446868227208 0 0.42011428296152808 -0.02169968792975261 0 0.41343304557213612 -0.018371446868227208 0 0.41928481904255338 -0.01548900553927589 0 0.42011428296152808 -0.02169968792975261 0 0.41928481904255338 -0.01548900553927589 0 0.42542521438275183 -0.0144422395697206 0 0.42011428296152808 -0.02169968792975261 0 0.41401194260749391 -0.028450411104576211 0 0.42742255973229643 -0.030069766767760062 0 0.41401194260749391 -0.028450411104576211 0 0.40522076275047969 -0.019933987949522329 0 0.40044964155059998 -0.029094842751199331 0 0.41401194260749391 -0.028450411104576211 0 0.41343304557213612 -0.018371446868227208 0 0.40522076275047969 -0.019933987949522329 0 0.41343304557213612 -0.018371446868227208 0 0.40806592415966281 -0.01253819616599721 0 0.40522076275047969 -0.019933987949522329 0 0.40806592415966281 -0.01253819616599721 0 0.4135204533098043 -0.0054466611181140526 0 0.41498054603746559 -0.011947546426581419 0 0.41343304557213612 -0.018371446868227208 0 0.40806592415966281 -0.01253819616599721 0 0.41498054603746559 -0.011947546426581419 0 0.41081432206005303 0.0037114498956348132 0 0.4135204533098043 -0.0054466611181140526 0 0.4046584776842293 -0.0050702490882302163 0 0.40806592415966281 -0.01253819616599721 0 0.4135204533098043 -0.0054466611181140526 0 0.4046584776842293 -0.0050702490882302163 0 0.41081432206005303 0.0037114498956348132 0 0.42248564151892998 0.0016345051066286029 0 0.4135204533098043 -0.0054466611181140526 0 0.42248564151892998 0.0016345051066286029 0 0.4135204533098043 -0.0054466611181140526 0 0.42119781252485211 -0.0083000839364812864 0 0.41343304557213612 -0.018371446868227208 0 0.41498054603746559 -0.011947546426581419 0 0.41928481904255338 -0.01548900553927589 0 0.4135204533098043 -0.0054466611181140526 0 0.41498054603746559 -0.011947546426581419 0 0.42119781252485211 -0.0083000839364812864 0 0.41498054603746559 -0.011947546426581419 0 0.42119781252485211 -0.0083000839364812864 0 0.41928481904255338 -0.01548900553927589 0 0.42542521438275183 -0.0144422395697206 0 0.42820760236351979 -0.0076976995852137747 0 0.42907711285764621 -0.01818842757435184 0 0.4382820622288856 -0.0014159552958160841 0 0.42820760236351979 -0.0076976995852137747 0 0.42907711285764621 -0.01818842757435184 0 0.42119781252485211 -0.0083000839364812864 0 0.41928481904255338 -0.01548900553927589 0 0.42542521438275183 -0.0144422395697206 0 0.42248564151892998 0.0016345051066286029 0 0.4382820622288856 -0.0014159552958160841 0 0.42820760236351979 -0.0076976995852137747 0 0.42119781252485211 -0.0083000839364812864 0 0.42542521438275183 -0.0144422395697206 0 0.42820760236351979 -0.0076976995852137747 0 0.42248564151892998 0.0016345051066286029 0 0.42119781252485211 -0.0083000839364812864 0 0.42820760236351979 -0.0076976995852137747 0 0.44971415759127392 -0.039358306738208573 0 0.42907711285764621 -0.01818842757435184 0 0.42742255973229643 -0.030069766767760062 0 0.42011428296152808 -0.02169968792975261 0 0.42907711285764621 -0.01818842757435184 0 0.42742255973229643 -0.030069766767760062 0 0.42011428296152808 -0.02169968792975261 0 0.42542521438275183 -0.0144422395697206 0 0.42907711285764621 -0.01818842757435184 0 0.42011428296152808 -0.02169968792975261 0 0.42907711285764621 -0.01818842757435184 0 0.42542521438275183 -0.0144422395697206 0 0.42907711285764621 -0.01818842757435184 0 0.44971415759127392 -0.039358306738208573 0 0.42742255973229643 -0.030069766767760062 0 0.42419530264354072 -0.042652000491910397 0 0.41401194260749391 -0.028450411104576211 0 0.42742255973229643 -0.030069766767760062 0 0.42419530264354072 -0.042652000491910397 0 0.43963483674523918 -0.055334607978488382 0 0.42419530264354072 -0.042652000491910397 0 0.41814417465091752 -0.061397621471661459 0 0.41814417465091752 -0.061397621471661459 0 0.41107184061272262 -0.047596707948501772 0 0.39379637821942232 -0.04878788226426127 0 0.42419530264354072 -0.042652000491910397 0 0.41814417465091752 -0.061397621471661459 0 0.41107184061272262 -0.047596707948501772 0 0.41401194260749391 -0.028450411104576211 0 0.42419530264354072 -0.042652000491910397 0 0.40815150693701141 -0.037549327566173699 0 0.42419530264354072 -0.042652000491910397 0 0.41107184061272262 -0.047596707948501772 0 0.40815150693701141 -0.037549327566173699 0 0.41401194260749391 -0.028450411104576211 0 0.40815150693701141 -0.037549327566173699 0 0.40044964155059998 -0.029094842751199331 0 0.41107184061272262 -0.047596707948501772 0 0.40815150693701141 -0.037549327566173699 0 0.39379637821942232 -0.04878788226426127 0 0.40815150693701141 -0.037549327566173699 0 0.39379637821942232 -0.04878788226426127 0 0.40044964155059998 -0.029094842751199331 0 0.39379637821942232 -0.04878788226426127 0 0.38867892262788012 -0.028322223649632432 0 0.39379637821942232 -0.04878788226426127 0 0.38867892262788012 -0.028322223649632432 0 0.40044964155059998 -0.029094842751199331 0 0.39967735397270959 -0.072307000297579083 0 0.39379637821942232 -0.04878788226426127 0 0.38669795957132042 -0.057310603286660967 0 0.41814417465091752 -0.061397621471661459 0 0.39379637821942232 -0.04878788226426127 0 0.39967735397270959 -0.072307000297579083 0 0.39379637821942232 -0.04878788226426127 0 0.39967735397270959 -0.072307000297579083 0 0.41814417465091752 -0.061397621471661459 0 0.39379637821942232 -0.04878788226426127 0 0.39379637821942232 -0.04878788226426127 0 0.38896036142985008 -0.046283306103098283 0 0.38669795957132042 -0.057310603286660967 0 0.37839056082150663 -0.050608978831784571 0 0.37240766699872252 -0.068318548019290964 0 0.38669795957132042 -0.057310603286660967 0 0.37839056082150663 -0.050608978831784571 0 0.38896036142985008 -0.046283306103098283 0 0.39379637821942232 -0.04878788226426127 0 0.38669795957132042 -0.057310603286660967 0 0.38896036142985008 -0.046283306103098283 0 0.39379637821942232 -0.04878788226426127 0 0.38896036142985008 -0.046283306103098283 0 0.38867892262788012 -0.028322223649632432 0 0.3834615598562825 -0.037386722635115492 0 0.38896036142985008 -0.046283306103098283 0 0.38867892262788012 -0.028322223649632432 0 0.37839056082150663 -0.050608978831784571 0 0.3834615598562825 -0.037386722635115492 0 0.38896036142985008 -0.046283306103098283 0 0.37839056082150663 -0.050608978831784571 0 0.3834615598562825 -0.037386722635115492 0 0.37356965880113402 -0.040783236975350308 0 0.38867892262788012 -0.028322223649632432 0 0.38356146703633898 -0.0078565650350033434 0 0.3834615598562825 -0.037386722635115492 0 0.37600683512296651 -0.014087071697862221 0 0.37356965880113402 -0.040783236975350308 0 0.3834615598562825 -0.037386722635115492 0 0.38867892262788012 -0.028322223649632432 0 0.37600683512296651 -0.014087071697862221 0 0.38867892262788012 -0.028322223649632432 0 0.37600683512296651 -0.014087071697862221 0 0.38356146703633898 -0.0078565650350033434 0 0.38867892262788012 -0.028322223649632432 0 0.39658225960386179 -0.014459285545308009 0 0.38356146703633898 -0.0078565650350033434 0 0.38867892262788012 -0.028322223649632432 0 0.40044964155059998 -0.029094842751199331 0 0.39658225960386179 -0.014459285545308009 0 0.40522076275047969 -0.019933987949522329 0 0.40044964155059998 -0.029094842751199331 0 0.39658225960386179 -0.014459285545308009 0 0.40806592415966281 -0.01253819616599721 0 0.40522076275047969 -0.019933987949522329 0 0.39658225960386179 -0.014459285545308009 0 0.40060323373222451 0.0042547197705496897 0 0.4046584776842293 -0.0050702490882302163 0 0.39531848553630572 -0.0042569273994520467 0 0.40806592415966281 -0.01253819616599721 0 0.4046584776842293 -0.0050702490882302163 0 0.39658225960386179 -0.014459285545308009 0 0.4046584776842293 -0.0050702490882302163 0 0.39658225960386179 -0.014459285545308009 0 0.39531848553630572 -0.0042569273994520467 0 0.39658225960386179 -0.014459285545308009 0 0.39531848553630572 -0.0042569273994520467 0 0.38356146703633898 -0.0078565650350033434 0 0.39025836247721268 0.0036292771787240202 0 0.39531848553630572 -0.0042569273994520467 0 0.38356146703633898 -0.0078565650350033434 0 0.37844401144479839 0.012609093579625891 0 0.37600683512296651 -0.014087071697862221 0 0.37844401144479839 0.012609093579625891 0 0.37600683512296651 -0.014087071697862221 0 0.38356146703633898 -0.0078565650350033434 0 0.37600683512296651 -0.014087071697862221 0 0.36665723294200347 -0.001883505129568449 0 0.35850646790810559 -0.01395473468271459 0 0.37844401144479839 0.012609093579625891 0 0.37600683512296651 -0.014087071697862221 0 0.36665723294200347 -0.001883505129568449 0 0.36665723294200347 -0.001883505129568449 0 0.35531676971978082 -0.0033532784323768001 0 0.35850646790810559 -0.01395473468271459 0 0.37600683512296651 -0.014087071697862221 0 0.37356965880113402 -0.040783236975350308 0 0.37600683512296651 -0.014087071697862221 0 0.36404947753274258 -0.026706798856440471 0 0.35850646790810559 -0.01395473468271459 0 0.37600683512296651 -0.014087071697862221 0 0.36404947753274258 -0.026706798856440471 0 0.37356965880113402 -0.040783236975350308 0 0.34748556133762742 -0.02738266599094942 0 0.35850646790810559 -0.01395473468271459 0 0.34370628527030811 -0.0115647124322744 0 0.36404947753274258 -0.026706798856440471 0 0.34748556133762742 -0.02738266599094942 0 0.35850646790810559 -0.01395473468271459 0 0.36404947753274258 -0.026706798856440471 0 0.34748556133762742 -0.02738266599094942 0 0.36012817770438982 -0.039413746555128387 0 0.33689267375143878 0.0039255003288513873 0 0.35531676971978082 -0.0033532784323768001 0 0.34370628527030811 -0.0115647124322744 0 0.35531676971978082 -0.0033532784323768001 0 0.35850646790810559 -0.01395473468271459 0 0.34370628527030811 -0.0115647124322744 0 0.33689267375143878 0.0039255003288513873 0 0.34370628527030811 -0.0115647124322744 0 0.32469666258817742 -0.019557632270551 0 0.33689267375143878 0.0039255003288513873 0 0.30352242257352219 0.0039185454548519476 0 0.32469666258817742 -0.019557632270551 0 0.34748556133762742 -0.02738266599094942 0 0.34370628527030811 -0.0115647124322744 0 0.32469666258817742 -0.019557632270551 0 0.34748556133762742 -0.02738266599094942 0 0.32469666258817742 -0.019557632270551 0 0.33457477032001748 -0.043965109755099818 0 0.31326255248553708 -0.043768501277314603 0 0.32924913997341337 -0.063603686862235317 0 0.31014365419524398 -0.06072536978512106 0 0.31326255248553708 -0.043768501277314603 0 0.32924913997341337 -0.063603686862235317 0 0.31326255248553708 -0.043768501277314603 0 0.33457477032001748 -0.043965109755099818 0 0.32924913997341337 -0.063603686862235317 0 0.32469666258817742 -0.019557632270551 0 0.31326255248553708 -0.043768501277314603 0 0.33457477032001748 -0.043965109755099818 0 0.33457477032001748 -0.043965109755099818 0 0.34313363496153881 -0.061193084728204693 0 0.35029003257871461 -0.048624574981710279 0 0.33457477032001748 -0.043965109755099818 0 0.34313363496153881 -0.061193084728204693 0 0.32924913997341337 -0.063603686862235317 0 0.35029003257871461 -0.048624574981710279 0 0.36524615827173029 -0.053571455971191423 0 0.35631850447425872 -0.066333179594821989 0 0.34313363496153881 -0.061193084728204693 0 0.35029003257871461 -0.048624574981710279 0 0.35631850447425872 -0.066333179594821989 0 0.35029003257871461 -0.048624574981710279 0 0.36012817770438982 -0.039413746555128387 0 0.36524615827173029 -0.053571455971191423 0 0.34748556133762742 -0.02738266599094942 0 0.33457477032001748 -0.043965109755099818 0 0.35029003257871461 -0.048624574981710279 0 0.34748556133762742 -0.02738266599094942 0 0.35029003257871461 -0.048624574981710279 0 0.36012817770438982 -0.039413746555128387 0 0.36404947753274258 -0.026706798856440471 0 0.36012817770438982 -0.039413746555128387 0 0.37356965880113402 -0.040783236975350308 0 0.36012817770438982 -0.039413746555128387 0 0.37356965880113402 -0.040783236975350308 0 0.36524615827173029 -0.053571455971191423 0 0.37839056082150663 -0.050608978831784571 0 0.36524615827173029 -0.053571455971191423 0 0.37240766699872252 -0.068318548019290964 0 0.37839056082150663 -0.050608978831784571 0 0.37356965880113402 -0.040783236975350308 0 0.36524615827173029 -0.053571455971191423 0 0.36524615827173029 -0.053571455971191423 0 0.37240766699872252 -0.068318548019290964 0 0.35631850447425872 -0.066333179594821989 0 0.37240766699872252 -0.068318548019290964 0 0.36259903827425999 -0.08213590949324566 0 0.35631850447425872 -0.066333179594821989 0 0.37781097748786241 -0.089314889372882261 0 0.37240766699872252 -0.068318548019290964 0 0.36259903827425999 -0.08213590949324566 0 0.37781097748786241 -0.089314889372882261 0 0.36259903827425999 -0.08213590949324566 0 0.3612223149491664 -0.1032740580320769 0 0.34523572746128989 -0.083438872447156087 0 0.3612223149491664 -0.1032740580320769 0 0.36259903827425999 -0.08213590949324566 0 0.34523572746128989 -0.083438872447156087 0 0.3612223149491664 -0.1032740580320769 0 0.34313363496153881 -0.061193084728204693 0 0.34523572746128989 -0.083438872447156087 0 0.35631850447425872 -0.066333179594821989 0 0.36259903827425999 -0.08213590949324566 0 0.34523572746128989 -0.083438872447156087 0 0.35631850447425872 -0.066333179594821989 0 0.37720890243704291 -0.12310924361699779 0 0.36253108037134668 -0.1248744885805331 0 0.3612223149491664 -0.1032740580320769 0 0.37644505785585192 -0.1058120404938334 0 0.37720890243704291 -0.12310924361699779 0 0.3612223149491664 -0.1032740580320769 0 0.37720890243704291 -0.12310924361699779 0 0.3612223149491664 -0.1032740580320769 0 0.37781097748786241 -0.089314889372882261 0 0.37644505785585192 -0.1058120404938334 0 0.3612223149491664 -0.1032740580320769 0 0.34523572746128989 -0.083438872447156087 0 0.3612223149491664 -0.1032740580320769 0 0.33932087337301742 -0.1007066993955318 0 0.3612223149491664 -0.1032740580320769 0 0.34941185211170689 -0.1127717253903176 0 0.33932087337301742 -0.1007066993955318 0 0.36253108037134668 -0.1248744885805331 0 0.33587402752894302 -0.122350175475488 0 0.36253108037134668 -0.1248744885805331 0 0.34941185211170689 -0.1127717253903176 0 0.33587402752894302 -0.122350175475488 0 0.36253108037134668 -0.1248744885805331 0 0.3612223149491664 -0.1032740580320769 0 0.34941185211170689 -0.1127717253903176 0 0.34941185211170689 -0.1127717253903176 0 0.33587402752894302 -0.122350175475488 0 0.33932087337301742 -0.1007066993955318 0 0.33587402752894302 -0.122350175475488 0 0.33932087337301742 -0.1007066993955318 0 0.31943204723016899 -0.10139701157958859 0 0.33932087337301742 -0.1007066993955318 0 0.31943204723016899 -0.10139701157958859 0 0.32474927095682959 -0.081008353448563344 0 0.33587402752894302 -0.122350175475488 0 0.31943204723016899 -0.10139701157958859 0 0.3092169746865393 -0.1198258623704429 0 0.33587402752894302 -0.122350175475488 0 0.3092169746865393 -0.1198258623704429 0 0.34523572746128989 -0.083438872447156087 0 0.32924913997341337 -0.063603686862235317 0 0.32474927095682959 -0.081008353448563344 0 0.34523572746128989 -0.083438872447156087 0 0.32924913997341337 -0.063603686862235317 0 0.34313363496153881 -0.061193084728204693 0 0.34523572746128989 -0.083438872447156087 0 0.32924913997341337 -0.063603686862235317 0 0.34523572746128989 -0.083438872447156087 0 0.33932087337301742 -0.1007066993955318 0 0.32474927095682959 -0.081008353448563344 0 0.31943204723016899 -0.10139701157958859 0 0.32474927095682959 -0.081008353448563344 0 0.31117343018006932 -0.08835554327446378 0 0.32474927095682959 -0.081008353448563344 0 0.30201438303726968 -0.075929904193525521 0 0.32474927095682959 -0.081008353448563344 0 0.30201438303726968 -0.075929904193525521 0 0.31117343018006932 -0.08835554327446378 0 0.32924913997341337 -0.063603686862235317 0 0.32474927095682959 -0.081008353448563344 0 0.31014365419524398 -0.06072536978512106 0 0.32474927095682959 -0.081008353448563344 0 0.30201438303726968 -0.075929904193525521 0 0.31014365419524398 -0.06072536978512106 0 0.30201438303726968 -0.075929904193525521 0 0.31014365419524398 -0.06072536978512106 0 0.29222542489931519 -0.060978945333093171 0 0.31117343018006932 -0.08835554327446378 0 0.29442961060618023 -0.089764156713605506 0 0.30306705175182019 -0.101009202806625 0 0.30201438303726968 -0.075929904193525521 0 0.31117343018006932 -0.08835554327446378 0 0.29442961060618023 -0.089764156713605506 0 0.29442961060618023 -0.089764156713605506 0 0.28691460331806928 -0.079185378374353493 0 0.27734124638624891 -0.089737863242296378 0 0.30201438303726968 -0.075929904193525521 0 0.29442961060618023 -0.089764156713605506 0 0.28691460331806928 -0.079185378374353493 0 0.30201438303726968 -0.075929904193525521 0 0.27927949511770961 -0.070851454938488739 0 0.29222542489931519 -0.060978945333093171 0 0.30201438303726968 -0.075929904193525521 0 0.27927949511770961 -0.070851454938488739 0 0.30201438303726968 -0.075929904193525521 0 0.28691460331806928 -0.079185378374353493 0 0.27927949511770961 -0.070851454938488739 0 0.28691460331806928 -0.079185378374353493 0 0.27927949511770961 -0.070851454938488739 0 0.27809334201771629 -0.079209584513290715 0 0.28691460331806928 -0.079185378374353493 0 0.27927949511770961 -0.070851454938488739 0 0.27927949511770961 -0.070851454938488739 0 0.27868582307562201 -0.055886184139343542 0 0.29222542489931519 -0.060978945333093171 0 0.31943204723016899 -0.10139701157958859 0 0.3092169746865393 -0.1198258623704429 0 0.30306705175182019 -0.101009202806625 0 0.3092169746865393 -0.1198258623704429 0 0.30306705175182019 -0.101009202806625 0 0.28879183359809052 -0.10393054527906551 0 0.31943204723016899 -0.10139701157958859 0 0.31117343018006932 -0.08835554327446378 0 0.30306705175182019 -0.101009202806625 0 0.28879183359809052 -0.10393054527906551 0 0.28255992184413548 -0.11730154926539781 0 0.27267591943638608 -0.1048970298088977 0 0.29442961060618023 -0.089764156713605506 0 0.28879183359809052 -0.10393054527906551 0 0.27734124638624891 -0.089737863242296378 0 0.29442961060618023 -0.089764156713605506 0 0.30306705175182019 -0.101009202806625 0 0.28879183359809052 -0.10393054527906551 0 0.3092169746865393 -0.1198258623704429 0 0.28255992184413548 -0.11730154926539781 0 0.3092169746865393 -0.1198258623704429 0 0.28879183359809052 -0.10393054527906551 0 0.28255992184413548 -0.11730154926539781 0 0.3092169746865393 -0.1198258623704429 0 0.28255992184413548 -0.11730154926539781 0 0.28721398294742878 -0.13035474923543569 0 0.28255992184413548 -0.11730154926539781 0 0.26776517015272971 -0.1222840496799191 0 0.28721398294742878 -0.13035474923543569 0 0.28255992184413548 -0.11730154926539781 0 0.26776517015272971 -0.1222840496799191 0 0.27267591943638608 -0.1048970298088977 0 0.26776517015272971 -0.1222840496799191 0 0.27267591943638608 -0.1048970298088977 0 0.26047800574605201 -0.11084537767631369 0 0.28879183359809052 -0.10393054527906551 0 0.27267591943638608 -0.1048970298088977 0 0.27734124638624891 -0.089737863242296378 0 0.27267591943638608 -0.1048970298088977 0 0.27734124638624891 -0.089737863242296378 0 0.26256105175446781 -0.092679464148907056 0 0.25771864553297669 -0.099620140202181948 0 0.26047800574605201 -0.11084537767631369 0 0.24375228786211539 -0.116580291014256 0 0.27267591943638608 -0.1048970298088977 0 0.25771864553297669 -0.099620140202181948 0 0.26256105175446781 -0.092679464148907056 0 0.25771864553297669 -0.099620140202181948 0 0.25304747237378489 -0.090741332181114118 0 0.24292322406264641 -0.096552741650977186 0 0.25771864553297669 -0.099620140202181948 0 0.26256105175446781 -0.092679464148907056 0 0.25304747237378489 -0.090741332181114118 0 0.27267591943638608 -0.1048970298088977 0 0.25771864553297669 -0.099620140202181948 0 0.26047800574605201 -0.11084537767631369 0 0.26776517015272971 -0.1222840496799191 0 0.26153006621115998 -0.13421007507225571 0 0.24375228786211539 -0.116580291014256 0 0.26776517015272971 -0.1222840496799191 0 0.24375228786211539 -0.116580291014256 0 0.26776517015272971 -0.1222840496799191 0 0.26047800574605201 -0.11084537767631369 0 0.24375228786211539 -0.116580291014256 0 0.27927949511770961 -0.070851454938488739 0 0.25811154610651499 -0.066123023671663908 0 0.26329678137076351 -0.053405898285071182 0 0.27927949511770961 -0.070851454938488739 0 0.25811154610651499 -0.066123023671663908 0 0.26883802324883782 -0.077063641498024305 0 0.27927949511770961 -0.070851454938488739 0 0.25811154610651499 -0.066123023671663908 0 0.26883802324883782 -0.077063641498024305 0 0.27927949511770961 -0.070851454938488739 0 0.27809334201771629 -0.079209584513290715 0 0.26883802324883782 -0.077063641498024305 0 0.27809334201771629 -0.079209584513290715 0 0.27734124638624891 -0.089737863242296378 0 0.26883802324883782 -0.077063641498024305 0 0.27734124638624891 -0.089737863242296378 0 0.25202197504294188 -0.078400955310045109 0 0.28691460331806928 -0.079185378374353493 0 0.27809334201771629 -0.079209584513290715 0 0.27734124638624891 -0.089737863242296378 0 0.27734124638624891 -0.089737863242296378 0 0.26256105175446781 -0.092679464148907056 0 0.25202197504294188 -0.078400955310045109 0 0.27734124638624891 -0.089737863242296378 0 0.25202197504294188 -0.078400955310045109 0 0.26256105175446781 -0.092679464148907056 0 0.25304747237378489 -0.090741332181114118 0 0.25202197504294188 -0.078400955310045109 0 0.25304747237378489 -0.090741332181114118 0 0.25202197504294188 -0.078400955310045109 0 0.24624903761231479 -0.086847438891893419 0 0.26883802324883782 -0.077063641498024305 0 0.25202197504294188 -0.078400955310045109 0 0.25811154610651499 -0.066123023671663908 0 0.25811154610651499 -0.066123023671663908 0 0.26329678137076351 -0.053405898285071182 0 0.24870160087168189 -0.052882304334001928 0 0.26329678137076351 -0.053405898285071182 0 0.24870160087168189 -0.052882304334001928 0 0.24731406762381819 -0.035960341631652723 0 0.27927949511770961 -0.070851454938488739 0 0.26329678137076351 -0.053405898285071182 0 0.27868582307562201 -0.055886184139343542 0 0.27927949511770961 -0.070851454938488739 0 0.26329678137076351 -0.053405898285071182 0 0.26329678137076351 -0.053405898285071182 0 0.27868582307562201 -0.055886184139343542 0 0.27337213238318842 -0.044040078526876879 0 0.27868582307562201 -0.055886184139343542 0 0.27337213238318842 -0.044040078526876879 0 0.28525528160713332 -0.050154543613187753 0 0.26329678137076351 -0.053405898285071182 0 0.27337213238318842 -0.044040078526876879 0 0.26311483972878968 -0.036713614733010089 0 0.27337213238318842 -0.044040078526876879 0 0.27217486102646721 -0.027861542379398439 0 0.28494473946257981 -0.034556038004921102 0 0.27337213238318842 -0.044040078526876879 0 0.26311483972878968 -0.036713614733010089 0 0.27217486102646721 -0.027861542379398439 0 0.27337213238318842 -0.044040078526876879 0 0.28525528160713332 -0.050154543613187753 0 0.28494473946257981 -0.034556038004921102 0 0.26311483972878968 -0.036713614733010089 0 0.25941635623971138 -0.02230021284205122 0 0.24731406762381819 -0.035960341631652723 0 0.26329678137076351 -0.053405898285071182 0 0.24731406762381819 -0.035960341631652723 0 0.26329678137076351 -0.053405898285071182 0 0.26311483972878968 -0.036713614733010089 0 0.24731406762381819 -0.035960341631652723 0 0.25941635623971138 -0.02230021284205122 0 0.24731406762381819 -0.035960341631652723 0 0.2482857443068576 -0.021714794414400052 0 0.25941635623971138 -0.02230021284205122 0 0.25508119948702751 -0.010083838205662381 0 0.2482857443068576 -0.021714794414400052 0 0.26311483972878968 -0.036713614733010089 0 0.25941635623971138 -0.02230021284205122 0 0.27217486102646721 -0.027861542379398439 0 0.2541426920980116 -0.0036136263454906951 0 0.25508119948702751 -0.010083838205662381 0 0.24138147174972829 -0.0061427828714447699 0 0.2541426920980116 -0.0036136263454906951 0 0.25508119948702751 -0.010083838205662381 0 0.26047117107291767 -0.0019720443344692288 0 0.25446675038947358 0.0029162606258486688 0 0.2541426920980116 -0.0036136263454906951 0 0.26047117107291767 -0.0019720443344692288 0 0.25941635623971138 -0.02230021284205122 0 0.25508119948702751 -0.010083838205662381 0 0.26474460583379889 -0.01023883548432745 0 0.25941635623971138 -0.02230021284205122 0 0.26474460583379889 -0.01023883548432745 0 0.27166734417845928 -0.01430021117376327 0 0.25508119948702751 -0.010083838205662381 0 0.26474460583379889 -0.01023883548432745 0 0.26047117107291767 -0.0019720443344692288 0 0.26474460583379889 -0.01023883548432745 0 0.26047117107291767 -0.0019720443344692288 0 0.27708695819087842 -0.0025378708656911609 0 0.26474460583379889 -0.01023883548432745 0 0.27166734417845928 -0.01430021117376327 0 0.27708695819087842 -0.0025378708656911609 0 0.27166734417845928 -0.01430021117376327 0 0.27708695819087842 -0.0025378708656911609 0 0.28469269166600031 -0.01545933141113482 0 0.27217486102646721 -0.027861542379398439 0 0.28469269166600031 -0.01545933141113482 0 0.28494473946257981 -0.034556038004921102 0 0.25941635623971138 -0.02230021284205122 0 0.27166734417845928 -0.01430021117376327 0 0.27217486102646721 -0.027861542379398439 0 0.27166734417845928 -0.01430021117376327 0 0.27217486102646721 -0.027861542379398439 0 0.28469269166600031 -0.01545933141113482 0 0.28469269166600031 -0.01545933141113482 0 0.29727596499766062 -0.023933315692393788 0 0.28494473946257981 -0.034556038004921102 0 0.30352242257352219 0.0039185454548519476 0 0.28469269166600031 -0.01545933141113482 0 0.29727596499766062 -0.023933315692393788 0 0.30352242257352219 0.0039185454548519476 0 0.27708695819087842 -0.0025378708656911609 0 0.28469269166600031 -0.01545933141113482 0 0.30352242257352219 0.0039185454548519476 0 0.32469666258817742 -0.019557632270551 0 0.29727596499766062 -0.023933315692393788 0 0.32469666258817742 -0.019557632270551 0 0.31326255248553708 -0.043768501277314603 0 0.29727596499766062 -0.023933315692393788 0 0.31326255248553708 -0.043768501277314603 0 0.29727596499766062 -0.023933315692393788 0 0.2968975050950291 -0.045887416406534938 0 0.31326255248553708 -0.043768501277314603 0 0.29727596499766062 -0.023933315692393788 0 0.31326255248553708 -0.043768501277314603 0 0.2968975050950291 -0.045887416406534938 0 0.31014365419524398 -0.06072536978512106 0 0.2968975050950291 -0.045887416406534938 0 0.31014365419524398 -0.06072536978512106 0 0.29222542489931519 -0.060978945333093171 0 0.2968975050950291 -0.045887416406534938 0 0.29222542489931519 -0.060978945333093171 0 0.28525528160713332 -0.050154543613187753 0 0.27868582307562201 -0.055886184139343542 0 0.29222542489931519 -0.060978945333093171 0 0.28525528160713332 -0.050154543613187753 0 0.2968975050950291 -0.045887416406534938 0 0.28525528160713332 -0.050154543613187753 0 0.28494473946257981 -0.034556038004921102 0 0.29727596499766062 -0.023933315692393788 0 0.2968975050950291 -0.045887416406534938 0 0.28494473946257981 -0.034556038004921102 0 0.29579617193404978 -0.19432558104056491 0 0.30588539897632072 -0.22256652654210629 0 0.2776594049058328 -0.2175861504380624 0 0.29579617193404978 -0.19432558104056491 0 0.2776594049058328 -0.2175861504380624 0 0.2764107852420567 -0.19644220614923899 0 0.29579617193404978 -0.19432558104056491 0 0.2764107852420567 -0.19644220614923899 0 0.2792899687438003 -0.18116405860585089 0 0.29579617193404978 -0.19432558104056491 0 0.31045946319455608 -0.20263901644370941 0 0.31057073564158039 -0.17760626025882659 0 0.29579617193404978 -0.19432558104056491 0 0.30588539897632072 -0.22256652654210629 0 0.31045946319455608 -0.20263901644370941 0 0.30588539897632072 -0.22256652654210629 0 0.32020032842118662 -0.2136972324735969 0 0.29579617193404978 -0.19432558104056491 0 0.31045946319455608 -0.20263901644370941 0 0.30588539897632072 -0.22256652654210629 0 0.29681701546221179 -0.23419681124085551 0 0.31597462601859122 -0.25080747204364812 0 0.30111904597271899 -0.2536098058489899 0 0.30588539897632072 -0.22256652654210629 0 0.29681701546221179 -0.23419681124085551 0 0.31597462601859122 -0.25080747204364812 0 0.30588539897632072 -0.22256652654210629 0 0.31597462601859122 -0.25080747204364812 0 0.29681701546221179 -0.23419681124085551 0 0.31597462601859122 -0.25080747204364812 0 0.29681701546221179 -0.23419681124085551 0 0.30111904597271899 -0.2536098058489899 0 0.28456511698073272 -0.25518130134833977 0 0.29681701546221179 -0.23419681124085551 0 0.27830026498091959 -0.23745462562099759 0 0.28456511698073272 -0.25518130134833977 0 0.30588539897632072 -0.22256652654210629 0 0.29681701546221179 -0.23419681124085551 0 0.2776594049058328 -0.2175861504380624 0 0.29681701546221179 -0.23419681124085551 0 0.27830026498091959 -0.23745462562099759 0 0.2776594049058328 -0.2175861504380624 0 0.29681701546221179 -0.23419681124085551 0 0.2776594049058328 -0.2175861504380624 0 0.26584409390649738 -0.23415831621220631 0 0.27830026498091959 -0.23745462562099759 0 0.2776594049058328 -0.2175861504380624 0 0.26584409390649738 -0.23415831621220631 0 0.25658827463044448 -0.2222138965281123 0 0.2776594049058328 -0.2175861504380624 0 0.27830026498091959 -0.23745462562099759 0 0.28456511698073272 -0.25518130134833977 0 0.26629969424128969 -0.25192769388052821 0 0.26584409390649738 -0.23415831621220631 0 0.27830026498091959 -0.23745462562099759 0 0.26629969424128969 -0.25192769388052821 0 0.26584409390649738 -0.23415831621220631 0 0.25037283077400019 -0.2416092145933311 0 0.26629969424128969 -0.25192769388052821 0 0.25037283077400019 -0.2416092145933311 0 0.25658827463044448 -0.2222138965281123 0 0.2446094219978813 -0.2276121794933563 0 0.26584409390649738 -0.23415831621220631 0 0.25037283077400019 -0.2416092145933311 0 0.25658827463044448 -0.2222138965281123 0 0.25658827463044448 -0.2222138965281123 0 0.2776594049058328 -0.2175861504380624 0 0.25850179434945381 -0.20097548963526929 0 0.25658827463044448 -0.2222138965281123 0 0.25850179434945381 -0.20097548963526929 0 0.23907695871134879 -0.21289681242661959 0 0.2776594049058328 -0.2175861504380624 0 0.25850179434945381 -0.20097548963526929 0 0.2776594049058328 -0.2175861504380624 0 0.2764107852420567 -0.19644220614923899 0 0.25850179434945381 -0.20097548963526929 0 0.2764107852420567 -0.19644220614923899 0 0.25850179434945381 -0.20097548963526929 0 0.26539786460737957 -0.18100391429238191 0 0.25850179434945381 -0.20097548963526929 0 0.26539786460737957 -0.18100391429238191 0 0.23934418379307471 -0.18436482883247621 0 0.26539786460737957 -0.18100391429238191 0 0.25449645062408999 -0.16331052089379791 0 0.23934418379307471 -0.18436482883247621 0 0.26539786460737957 -0.18100391429238191 0 0.25449645062408999 -0.16331052089379791 0 0.27043371620885309 -0.16438603764101259 0 0.25449645062408999 -0.16331052089379791 0 0.27043371620885309 -0.16438603764101259 0 0.2633734196266177 -0.15149826902969399 0 0.27043371620885309 -0.16438603764101259 0 0.2792899687438003 -0.18116405860585089 0 0.28570694489177878 -0.1660846355390232 0 0.27043371620885309 -0.16438603764101259 0 0.27930784456020519 -0.15183985913025491 0 0.28570694489177878 -0.1660846355390232 0 0.26539786460737957 -0.18100391429238191 0 0.27043371620885309 -0.16438603764101259 0 0.2792899687438003 -0.18116405860585089 0 0.2764107852420567 -0.19644220614923899 0 0.26539786460737957 -0.18100391429238191 0 0.2792899687438003 -0.18116405860585089 0 0.26153006621115998 -0.13421007507225571 0 0.24375228786211539 -0.116580291014256 0 0.24955680073527009 -0.143898101237383 0 0.26153006621115998 -0.13421007507225571 0 0.24375228786211539 -0.116580291014256 0 0.25449645062408999 -0.16331052089379791 0 0.2633734196266177 -0.15149826902969399 0 0.24955680073527009 -0.143898101237383 0 0.26153006621115998 -0.13421007507225571 0 0.2633734196266177 -0.15149826902969399 0 0.24955680073527009 -0.143898101237383 0 0.27043371620885309 -0.16438603764101259 0 0.2633734196266177 -0.15149826902969399 0 0.27930784456020519 -0.15183985913025491 0 0.27561771784950778 -0.13784369003748159 0 0.28570694489177878 -0.1660846355390232 0 0.26153006621115998 -0.13421007507225571 0 0.27930784456020519 -0.15183985913025491 0 0.27561771784950778 -0.13784369003748159 0 0.27930784456020519 -0.15183985913025491 0 0.27561771784950778 -0.13784369003748159 0 0.28570694489177878 -0.1660846355390232 0 0.26153006621115998 -0.13421007507225571 0 0.2633734196266177 -0.15149826902969399 0 0.27930784456020519 -0.15183985913025491 0 0.26153006621115998 -0.13421007507225571 0 0.27930784456020519 -0.15183985913025491 0 0.26776517015272971 -0.1222840496799191 0 0.27561771784950778 -0.13784369003748159 0 0.28721398294742878 -0.13035474923543569 0 0.26776517015272971 -0.1222840496799191 0 0.26153006621115998 -0.13421007507225571 0 0.27561771784950778 -0.13784369003748159 0 0.27561771784950778 -0.13784369003748159 0 0.28721398294742878 -0.13035474923543569 0 0.28891568690104508 -0.14625428249578579 0 0.28721398294742878 -0.13035474923543569 0 0.28891568690104508 -0.14625428249578579 0 0.29920842625061578 -0.1386190615635868 0 0.28891568690104508 -0.14625428249578579 0 0.29920842625061578 -0.1386190615635868 0 0.29789574789403661 -0.15876522012859751 0 0.27561771784950778 -0.13784369003748159 0 0.28891568690104508 -0.14625428249578579 0 0.28570694489177878 -0.1660846355390232 0 0.30985117626407932 -0.1486491484402036 0 0.29920842625061578 -0.1386190615635868 0 0.29789574789403661 -0.15876522012859751 0 0.30985117626407932 -0.1486491484402036 0 0.29789574789403661 -0.15876522012859751 0 0.3134799250960158 -0.16133035304856411 0 0.30985117626407932 -0.1486491484402036 0 0.29920842625061578 -0.1386190615635868 0 0.31980994510895661 -0.13408045692276491 0 0.3092169746865393 -0.1198258623704429 0 0.28721398294742878 -0.13035474923543569 0 0.29920842625061578 -0.1386190615635868 0 0.3092169746865393 -0.1198258623704429 0 0.29920842625061578 -0.1386190615635868 0 0.31980994510895661 -0.13408045692276491 0 0.29579617193404978 -0.19432558104056491 0 0.2792899687438003 -0.18116405860585089 0 0.28570694489177878 -0.1660846355390232 0 0.29579617193404978 -0.19432558104056491 0 0.28570694489177878 -0.1660846355390232 0 0.29579617193404978 -0.19432558104056491 0 0.28570694489177878 -0.1660846355390232 0 0.29784246694311001 -0.17248502473641619 0 0.28891568690104508 -0.14625428249578579 0 0.28570694489177878 -0.1660846355390232 0 0.29789574789403661 -0.15876522012859751 0 0.28570694489177878 -0.1660846355390232 0 0.29789574789403661 -0.15876522012859751 0 0.29784246694311001 -0.17248502473641619 0 0.29789574789403661 -0.15876522012859751 0 0.31057073564158039 -0.17760626025882659 0 0.3134799250960158 -0.16133035304856411 0 0.29789574789403661 -0.15876522012859751 0 0.31057073564158039 -0.17760626025882659 0 0.29784246694311001 -0.17248502473641619 0 0.29789574789403661 -0.15876522012859751 0 0.31057073564158039 -0.17760626025882659 0 0.29579617193404978 -0.19432558104056491 0 0.31057073564158039 -0.17760626025882659 0 0.29784246694311001 -0.17248502473641619 0 0.31057073564158039 -0.17760626025882659 0 0.33117051957001492 -0.16690810347740409 0 0.33960500058918919 -0.18923554211963439 0 0.31057073564158039 -0.17760626025882659 0 0.32324572338912438 -0.19644730038905581 0 0.3134799250960158 -0.16133035304856411 0 0.33117051957001492 -0.16690810347740409 0 0.32297156368297691 -0.15191279281852399 0 0.31057073564158039 -0.17760626025882659 0 0.3134799250960158 -0.16133035304856411 0 0.33117051957001492 -0.16690810347740409 0 0.33117051957001492 -0.16690810347740409 0 0.34312821131240068 -0.1490342399984359 0 0.35150112372442083 -0.17432517416681301 0 0.33117051957001492 -0.16690810347740409 0 0.35150112372442083 -0.17432517416681301 0 0.33960500058918919 -0.18923554211963439 0 0.33587402752894302 -0.122350175475488 0 0.3092169746865393 -0.1198258623704429 0 0.31980994510895661 -0.13408045692276491 0 0.30985117626407932 -0.1486491484402036 0 0.31980994510895661 -0.13408045692276491 0 0.32297156368297691 -0.15191279281852399 0 0.30985117626407932 -0.1486491484402036 0 0.3134799250960158 -0.16133035304856411 0 0.32297156368297691 -0.15191279281852399 0 0.33117051957001492 -0.16690810347740409 0 0.32297156368297691 -0.15191279281852399 0 0.34312821131240068 -0.1490342399984359 0 0.31980994510895661 -0.13408045692276491 0 0.32297156368297691 -0.15191279281852399 0 0.34312821131240068 -0.1490342399984359 0 0.33587402752894302 -0.122350175475488 0 0.31980994510895661 -0.13408045692276491 0 0.34312821131240068 -0.1490342399984359 0 0.36253108037134668 -0.1248744885805331 0 0.33587402752894302 -0.122350175475488 0 0.3555623608711499 -0.1359942506039106 0 0.33587402752894302 -0.122350175475488 0 0.34312821131240068 -0.1490342399984359 0 0.3555623608711499 -0.1359942506039106 0 0.34312821131240068 -0.1490342399984359 0 0.3555623608711499 -0.1359942506039106 0 0.36858459771950869 -0.15733985743645959 0 0.3555623608711499 -0.1359942506039106 0 0.36652086356581781 -0.12946943863695781 0 0.36858459771950869 -0.15733985743645959 0 0.36652086356581781 -0.12946943863695781 0 0.36858459771950869 -0.15733985743645959 0 0.36652086356581781 -0.12946943863695781 0 0.36858459771950869 -0.15733985743645959 0 0.3787995421462832 -0.1425544525875144 0 0.36652086356581781 -0.12946943863695781 0 0.37808333446084269 -0.1309391893982525 0 0.3787995421462832 -0.1425544525875144 0 0.36253108037134668 -0.1248744885805331 0 0.36652086356581781 -0.12946943863695781 0 0.37808333446084269 -0.1309391893982525 0 0.36253108037134668 -0.1248744885805331 0 0.3555623608711499 -0.1359942506039106 0 0.36652086356581781 -0.12946943863695781 0 0.35150112372442083 -0.17432517416681301 0 0.37064833187319962 -0.1852102762359614 0 0.35587008128221181 -0.19822302573298239 0 0.35150112372442083 -0.17432517416681301 0 0.35587008128221181 -0.19822302573298239 0 0.33960500058918919 -0.18923554211963439 0 0.34312821131240068 -0.1490342399984359 0 0.35150112372442083 -0.17432517416681301 0 0.36858459771950869 -0.15733985743645959 0 0.36858459771950869 -0.15733985743645959 0 0.37064833187319962 -0.1852102762359614 0 0.35150112372442083 -0.17432517416681301 0 0.36858459771950869 -0.15733985743645959 0 0.37064833187319962 -0.1852102762359614 0 0.36858459771950869 -0.15733985743645959 0 0.37064833187319962 -0.1852102762359614 0 0.3834788620725188 -0.17954848884060079 0 0.37064833187319962 -0.1852102762359614 0 0.37271206602689039 -0.21308069503546309 0 0.38139900114097952 -0.20469292352659629 0 0.37064833187319962 -0.1852102762359614 0 0.37271206602689039 -0.21308069503546309 0 0.37064833187319962 -0.1852102762359614 0 0.37271206602689039 -0.21308069503546309 0 0.35587008128221181 -0.19822302573298239 0 0.37271206602689039 -0.21308069503546309 0 0.35603419272415182 -0.2169366224123114 0 0.35587008128221181 -0.19822302573298239 0 0.35603419272415182 -0.2169366224123114 0 0.35587008128221181 -0.19822302573298239 0 0.33592071113666833 -0.21528834051928489 0 0.35587008128221181 -0.19822302573298239 0 0.33960500058918919 -0.18923554211963439 0 0.33592071113666833 -0.21528834051928489 0 0.33960500058918919 -0.18923554211963439 0 0.33592071113666833 -0.21528834051928489 0 0.32324572338912438 -0.19644730038905581 0 0.33592071113666833 -0.21528834051928489 0 0.32324572338912438 -0.19644730038905581 0 0.33592071113666833 -0.21528834051928489 0 0.32020032842118662 -0.2136972324735969 0 0.32324572338912438 -0.19644730038905581 0 0.31045946319455608 -0.20263901644370941 0 0.32020032842118662 -0.2136972324735969 0 0.32324572338912438 -0.19644730038905581 0 0.31057073564158039 -0.17760626025882659 0 0.33960500058918919 -0.18923554211963439 0 0.32324572338912438 -0.19644730038905581 0 0.31045946319455608 -0.20263901644370941 0 0.31057073564158039 -0.17760626025882659 0 0.32324572338912438 -0.19644730038905581 0 0.32549034540926353 -0.23154497847382799 0 0.33517615116993849 -0.24743488902137309 0 0.31597462601859122 -0.25080747204364812 0 0.30588539897632072 -0.22256652654210629 0 0.32549034540926353 -0.23154497847382799 0 0.31597462601859122 -0.25080747204364812 0 0.30588539897632072 -0.22256652654210629 0 0.32020032842118662 -0.2136972324735969 0 0.32549034540926353 -0.23154497847382799 0 0.33592071113666833 -0.21528834051928489 0 0.32020032842118662 -0.2136972324735969 0 0.32549034540926353 -0.23154497847382799 0 0.33592071113666833 -0.21528834051928489 0 0.32549034540926353 -0.23154497847382799 0 0.34859569888421221 -0.23412938064951411 0 0.33592071113666833 -0.21528834051928489 0 0.34859569888421221 -0.23412938064951411 0 0.32549034540926353 -0.23154497847382799 0 0.33517615116993849 -0.24743488902137309 0 0.34859569888421221 -0.23412938064951411 0 0.33517615116993849 -0.24743488902137309 0 0.34859569888421221 -0.23412938064951411 0 0.35185333732921159 -0.25428502110151557 0 0.34859569888421221 -0.23412938064951411 0 0.36075586336603621 -0.2426037127049111 0 0.35185333732921159 -0.25428502110151557 0 0.34859569888421221 -0.23412938064951411 0 0.36291464790978972 -0.22902601310760301 0 0.36075586336603621 -0.2426037127049111 0 0.35603419272415182 -0.2169366224123114 0 0.34859569888421221 -0.23412938064951411 0 0.36291464790978972 -0.22902601310760301 0 0.35603419272415182 -0.2169366224123114 0 0.33592071113666833 -0.21528834051928489 0 0.34859569888421221 -0.23412938064951411 0 0.37271206602689039 -0.21308069503546309 0 0.35603419272415182 -0.2169366224123114 0 0.36291464790978972 -0.22902601310760301 0 0.37271206602689039 -0.21308069503546309 0 0.37477580018058132 -0.24095111383496479 0 0.37555308153547928 -0.22286467051027881 0 0.37271206602689039 -0.21308069503546309 0 0.37477580018058132 -0.24095111383496479 0 0.37271206602689039 -0.21308069503546309 0 0.36291464790978972 -0.22902601310760301 0 0.37477580018058132 -0.24095111383496479 0 0.36075586336603621 -0.2426037127049111 0 0.37477580018058132 -0.24095111383496479 0 0.36563983252638571 -0.25462703483095822 0 0.36291464790978972 -0.22902601310760301 0 0.36075586336603621 -0.2426037127049111 0 0.37477580018058132 -0.24095111383496479 0 0.37477580018058132 -0.24095111383496479 0 0.39321551516580561 -0.23618023300957031 0 0.38725375881062551 -0.25185160038302579 0 0.39321551516580561 -0.23618023300957031 0 0.41087794879613182 -0.2494957955088617 0 0.40741230325918792 -0.23450562481703699 0 0.39321551516580561 -0.23618023300957031 0 0.41087794879613182 -0.2494957955088617 0 0.39321551516580561 -0.23618023300957031 0 0.38725375881062551 -0.25185160038302579 0 0.39640803358832022 -0.25154779433757402 0 0.39321551516580561 -0.23618023300957031 0 0.41087794879613182 -0.2494957955088617 0 0.39640803358832022 -0.25154779433757402 0 0.4055308246994358 -0.22407667781788709 0 0.39424069285124719 -0.22310079746779379 0 0.40434357831770951 -0.21487406561090469 0 0.4055308246994358 -0.22407667781788709 0 0.39424069285124719 -0.22310079746779379 0 0.40741230325918792 -0.23450562481703699 0 0.39321551516580561 -0.23618023300957031 0 0.39424069285124719 -0.22310079746779379 0 0.40741230325918792 -0.23450562481703699 0 0.37477580018058132 -0.24095111383496479 0 0.39321551516580561 -0.23618023300957031 0 0.37555308153547928 -0.22286467051027881 0 0.39424069285124719 -0.22310079746779379 0 0.37555308153547928 -0.22286467051027881 0 0.38300691860546521 -0.21527996176244341 0 0.39321551516580561 -0.23618023300957031 0 0.37555308153547928 -0.22286467051027881 0 0.39321551516580561 -0.23618023300957031 0 0.39424069285124719 -0.22310079746779379 0 0.37555308153547928 -0.22286467051027881 0 0.37271206602689039 -0.21308069503546309 0 0.37555308153547928 -0.22286467051027881 0 0.38300691860546521 -0.21527996176244341 0 0.37271206602689039 -0.21308069503546309 0 0.38139900114097952 -0.20469292352659629 0 0.38300691860546521 -0.21527996176244341 0 0.38139900114097952 -0.20469292352659629 0 0.39078770323730427 -0.19674260859680251 0 0.39112975147272949 -0.2126607222720846 0 0.38139900114097952 -0.20469292352659629 0 0.38300691860546521 -0.21527996176244341 0 0.39112975147272949 -0.2126607222720846 0 0.39424069285124719 -0.22310079746779379 0 0.38300691860546521 -0.21527996176244341 0 0.39112975147272949 -0.2126607222720846 0 0.37064833187319962 -0.1852102762359614 0 0.38139900114097952 -0.20469292352659629 0 0.39078770323730427 -0.19674260859680251 0 0.39078770323730427 -0.19674260859680251 0 0.40475141021500721 -0.1910589369573561 0 0.39510197637232292 -0.1839605883432579 0 0.39078770323730427 -0.19674260859680251 0 0.40426546228868082 -0.20108352786525729 0 0.397631623829106 -0.20634023108626229 0 0.39078770323730427 -0.19674260859680251 0 0.40426546228868082 -0.20108352786525729 0 0.40475141021500721 -0.1910589369573561 0 0.39078770323730427 -0.19674260859680251 0 0.39112975147272949 -0.2126607222720846 0 0.397631623829106 -0.20634023108626229 0 0.39112975147272949 -0.2126607222720846 0 0.397631623829106 -0.20634023108626229 0 0.40434357831770951 -0.21487406561090469 0 0.39424069285124719 -0.22310079746779379 0 0.39112975147272949 -0.2126607222720846 0 0.40434357831770951 -0.21487406561090469 0 0.40426546228868082 -0.20108352786525729 0 0.397631623829106 -0.20634023108626229 0 0.40434357831770951 -0.21487406561090469 0 0.40434357831770951 -0.21487406561090469 0 0.41713092845542321 -0.20900944133272009 0 0.41612672436959858 -0.22382622337581301 0 0.40426546228868082 -0.20108352786525729 0 0.40434357831770951 -0.21487406561090469 0 0.41713092845542321 -0.20900944133272009 0 0.41713092845542321 -0.20900944133272009 0 0.42330136258736267 -0.2174116668913772 0 0.41612672436959858 -0.22382622337581301 0 0.40475141021500721 -0.1910589369573561 0 0.41487892771890261 -0.19826025474908979 0 0.4146572714410397 -0.186958864794112 0 0.40426546228868082 -0.20108352786525729 0 0.41713092845542321 -0.20900944133272009 0 0.41487892771890261 -0.19826025474908979 0 0.40426546228868082 -0.20108352786525729 0 0.40475141021500721 -0.1910589369573561 0 0.41487892771890261 -0.19826025474908979 0 0.41713092845542321 -0.20900944133272009 0 0.41487892771890261 -0.19826025474908979 0 0.42701217502226602 -0.19751647228806199 0 0.41487892771890261 -0.19826025474908979 0 0.42053294087941678 -0.1923617771039739 0 0.42701217502226602 -0.19751647228806199 0 0.42053294087941678 -0.1923617771039739 0 0.4146572714410397 -0.186958864794112 0 0.42558338933545942 -0.1867115165846317 0 0.41487892771890261 -0.19826025474908979 0 0.42053294087941678 -0.1923617771039739 0 0.4146572714410397 -0.186958864794112 0 0.42701217502226602 -0.19751647228806199 0 0.43844209377108118 -0.18689286854296691 0 0.44355474576021348 -0.2050869029196882 0 0.42053294087941678 -0.1923617771039739 0 0.42701217502226602 -0.19751647228806199 0 0.42558338933545942 -0.1867115165846317 0 0.42701217502226602 -0.19751647228806199 0 0.42558338933545942 -0.1867115165846317 0 0.43844209377108118 -0.18689286854296691 0 0.42701217502226602 -0.19751647228806199 0 0.43006687167525981 -0.21185300334864521 0 0.44355474576021348 -0.2050869029196882 0 0.41713092845542321 -0.20900944133272009 0 0.42330136258736267 -0.2174116668913772 0 0.43006687167525981 -0.21185300334864521 0 0.42330136258736267 -0.2174116668913772 0 0.43006687167525981 -0.21185300334864521 0 0.42988092584916948 -0.2249579995083304 0 0.41713092845542321 -0.20900944133272009 0 0.42701217502226602 -0.19751647228806199 0 0.43006687167525981 -0.21185300334864521 0 0.43006687167525981 -0.21185300334864521 0 0.42988092584916948 -0.2249579995083304 0 0.44009267276725389 -0.2176624614444449 0 0.42330136258736267 -0.2174116668913772 0 0.42988092584916948 -0.2249579995083304 0 0.41612672436959858 -0.22382622337581301 0 0.42988092584916948 -0.2249579995083304 0 0.43458399188612801 -0.2397076170126072 0 0.42159465327244361 -0.23640953485310751 0 0.42988092584916948 -0.2249579995083304 0 0.42159465327244361 -0.23640953485310751 0 0.41612672436959858 -0.22382622337581301 0 0.42988092584916948 -0.2249579995083304 0 0.43458399188612801 -0.2397076170126072 0 0.44416109061426973 -0.22983272991065171 0 0.43458399188612801 -0.2397076170126072 0 0.42656562700980838 -0.24831468624349931 0 0.4372088962240912 -0.25169219704383999 0 0.43458399188612801 -0.2397076170126072 0 0.42656562700980838 -0.24831468624349931 0 0.42159465327244361 -0.23640953485310751 0 0.42656562700980838 -0.24831468624349931 0 0.42159465327244361 -0.23640953485310751 0 0.41087794879613182 -0.2494957955088617 0 0.42159465327244361 -0.23640953485310751 0 0.41087794879613182 -0.2494957955088617 0 0.40741230325918792 -0.23450562481703699 0 0.4055308246994358 -0.22407667781788709 0 0.40741230325918792 -0.23450562481703699 0 0.41612672436959858 -0.22382622337581301 0 0.4055308246994358 -0.22407667781788709 0 0.40434357831770951 -0.21487406561090469 0 0.41612672436959858 -0.22382622337581301 0 0.42159465327244361 -0.23640953485310751 0 0.40741230325918792 -0.23450562481703699 0 0.41612672436959858 -0.22382622337581301 0 0.39823574772599779 -0.11763079726210079 0 0.40257569972698831 -0.13396225485532559 0 0.38918813321375051 -0.12739880168557821 0 0.40257569972698831 -0.13396225485532559 0 0.38918813321375051 -0.12739880168557821 0 0.39017348084279901 -0.13955387731924049 0 0.38918813321375051 -0.12739880168557821 0 0.37808333446084269 -0.1309391893982525 0 0.39017348084279901 -0.13955387731924049 0 0.37720890243704291 -0.12310924361699779 0 0.36253108037134668 -0.1248744885805331 0 0.38918813321375051 -0.12739880168557821 0 0.36253108037134668 -0.1248744885805331 0 0.38918813321375051 -0.12739880168557821 0 0.37808333446084269 -0.1309391893982525 0 0.36253108037134668 -0.1248744885805331 0 0.38918813321375051 -0.12739880168557821 0 0.37808333446084269 -0.1309391893982525 0 0.39017348084279901 -0.13955387731924049 0 0.3787995421462832 -0.1425544525875144 0 0.36858459771950869 -0.15733985743645959 0 0.3787995421462832 -0.1425544525875144 0 0.38535727780346091 -0.1527557998392445 0 0.39017348084279901 -0.13955387731924049 0 0.3787995421462832 -0.1425544525875144 0 0.38535727780346091 -0.1527557998392445 0 0.40257569972698831 -0.13396225485532559 0 0.39822107621443897 -0.1501202070538992 0 0.41732028123257531 -0.14286435439753159 0 0.40257569972698831 -0.13396225485532559 0 0.39017348084279901 -0.13955387731924049 0 0.39822107621443897 -0.1501202070538992 0 0.39017348084279901 -0.13955387731924049 0 0.38535727780346091 -0.1527557998392445 0 0.39822107621443897 -0.1501202070538992 0 0.39822107621443897 -0.1501202070538992 0 0.39107178753907162 -0.16851380255406381 0 0.40713652226246821 -0.16744863749245631 0 0.39107178753907162 -0.16851380255406381 0 0.40713652226246821 -0.16744863749245631 0 0.38535727780346091 -0.1527557998392445 0 0.39822107621443897 -0.1501202070538992 0 0.39107178753907162 -0.16851380255406381 0 0.39107178753907162 -0.16851380255406381 0 0.40460499843718001 -0.17902112385493851 0 0.40713652226246821 -0.16744863749245631 0 0.36858459771950869 -0.15733985743645959 0 0.38535727780346091 -0.1527557998392445 0 0.39107178753907162 -0.16851380255406381 0 0.36858459771950869 -0.15733985743645959 0 0.39107178753907162 -0.16851380255406381 0 0.3834788620725188 -0.17954848884060079 0 0.39107178753907162 -0.16851380255406381 0 0.3834788620725188 -0.17954848884060079 0 0.39510197637232292 -0.1839605883432579 0 0.39078770323730427 -0.19674260859680251 0 0.3834788620725188 -0.17954848884060079 0 0.39510197637232292 -0.1839605883432579 0 0.37064833187319962 -0.1852102762359614 0 0.39078770323730427 -0.19674260859680251 0 0.3834788620725188 -0.17954848884060079 0 0.39107178753907162 -0.16851380255406381 0 0.39510197637232292 -0.1839605883432579 0 0.40460499843718001 -0.17902112385493851 0 0.40475141021500721 -0.1910589369573561 0 0.39510197637232292 -0.1839605883432579 0 0.40460499843718001 -0.17902112385493851 0 0.40475141021500721 -0.1910589369573561 0 0.40460499843718001 -0.17902112385493851 0 0.4146572714410397 -0.186958864794112 0 0.40460499843718001 -0.17902112385493851 0 0.41491102279317088 -0.17618591298838529 0 0.4146572714410397 -0.186958864794112 0 0.40460499843718001 -0.17902112385493851 0 0.41491102279317088 -0.17618591298838529 0 0.40713652226246821 -0.16744863749245631 0 0.41491102279317088 -0.17618591298838529 0 0.42527009306055918 -0.1746571334479238 0 0.4232012569858648 -0.16638347243084889 0 0.41491102279317088 -0.17618591298838529 0 0.42095079563492938 -0.18072636251124541 0 0.42527009306055918 -0.1746571334479238 0 0.41491102279317088 -0.17618591298838529 0 0.42095079563492938 -0.18072636251124541 0 0.4146572714410397 -0.186958864794112 0 0.42095079563492938 -0.18072636251124541 0 0.4146572714410397 -0.186958864794112 0 0.42558338933545942 -0.1867115165846317 0 0.43180268423531071 -0.1802632517690351 0 0.42527009306055918 -0.1746571334479238 0 0.44880083799057491 -0.164686103644653 0 0.42095079563492938 -0.18072636251124541 0 0.42558338933545942 -0.1867115165846317 0 0.43180268423531071 -0.1802632517690351 0 0.42558338933545942 -0.1867115165846317 0 0.43180268423531071 -0.1802632517690351 0 0.43844209377108118 -0.18689286854296691 0 0.42095079563492938 -0.18072636251124541 0 0.43180268423531071 -0.1802632517690351 0 0.42527009306055918 -0.1746571334479238 0 0.42527009306055918 -0.1746571334479238 0 0.4232012569858648 -0.16638347243084889 0 0.44880083799057491 -0.164686103644653 0 0.4232012569858648 -0.16638347243084889 0 0.43334283997313311 -0.15135273030925811 0 0.44880083799057491 -0.164686103644653 0 0.4232012569858648 -0.16638347243084889 0 0.44880083799057491 -0.164686103644653 0 0.42527009306055918 -0.1746571334479238 0 0.4232012569858648 -0.16638347243084889 0 0.4232012569858648 -0.16638347243084889 0 0.40713652226246821 -0.16744863749245631 0 0.41732028123257531 -0.14286435439753159 0 0.41491102279317088 -0.17618591298838529 0 0.4232012569858648 -0.16638347243084889 0 0.40713652226246821 -0.16744863749245631 0 0.4232012569858648 -0.16638347243084889 0 0.40713652226246821 -0.16744863749245631 0 0.4232012569858648 -0.16638347243084889 0 0.41732028123257531 -0.14286435439753159 0 0.39822107621443897 -0.1501202070538992 0 0.40713652226246821 -0.16744863749245631 0 0.41732028123257531 -0.14286435439753159 0 0.41732028123257531 -0.14286435439753159 0 0.43334283997313311 -0.15135273030925811 0 0.43763345530417341 -0.13584027725706749 0 0.4232012569858648 -0.16638347243084889 0 0.41732028123257531 -0.14286435439753159 0 0.43334283997313311 -0.15135273030925811 0 0.42916935431308728 -0.1205456085246996 0 0.41732028123257531 -0.14286435439753159 0 0.43763345530417341 -0.13584027725706749 0 0.42916935431308728 -0.1205456085246996 0 0.4435038969132965 -0.12540022695152131 0 0.43763345530417341 -0.13584027725706749 0 0.41143930547928681 -0.11934523636421419 0 0.42916935431308728 -0.1205456085246996 0 0.41732028123257531 -0.14286435439753159 0 0.41143930547928681 -0.11934523636421419 0 0.40257569972698831 -0.13396225485532559 0 0.41732028123257531 -0.14286435439753159 0 0.41143930547928681 -0.11934523636421419 0 0.41732028123257531 -0.14286435439753159 0 0.46257396642688631 -0.12529077885077469 0 0.46381730130484328 -0.1363472541609663 0 0.4585659370706795 -0.1308283620105129 0 0.46381730130484328 -0.1363472541609663 0 0.4585659370706795 -0.1308283620105129 0 0.45274550479158487 -0.1345999168850856 0 0.46381730130484328 -0.1363472541609663 0 0.45274550479158487 -0.1345999168850856 0 0.46138481906560302 -0.14686228775601681 0 0.46257396642688631 -0.12529077885077469 0 0.4585659370706795 -0.1308283620105129 0 0.45239247298790419 -0.125419693033265 0 0.4585659370706795 -0.1308283620105129 0 0.45239247298790419 -0.125419693033265 0 0.45274550479158487 -0.1345999168850856 0 0.45239247298790419 -0.125419693033265 0 0.4435038969132965 -0.12540022695152131 0 0.45274550479158487 -0.1345999168850856 0 0.4435038969132965 -0.12540022695152131 0 0.43763345530417341 -0.13584027725706749 0 0.45274550479158487 -0.1345999168850856 0 0.43763345530417341 -0.13584027725706749 0 0.45274550479158487 -0.1345999168850856 0 0.44678149142501389 -0.1466682631704162 0 0.43334283997313311 -0.15135273030925811 0 0.44678149142501389 -0.1466682631704162 0 0.44880083799057491 -0.164686103644653 0 0.44678149142501389 -0.1466682631704162 0 0.46138481906560302 -0.14686228775601681 0 0.44880083799057491 -0.164686103644653 0 0.43334283997313311 -0.15135273030925811 0 0.43763345530417341 -0.13584027725706749 0 0.44678149142501389 -0.1466682631704162 0 0.45274550479158487 -0.1345999168850856 0 0.44678149142501389 -0.1466682631704162 0 0.46138481906560302 -0.14686228775601681 0 0.46138481906560302 -0.14686228775601681 0 0.44880083799057491 -0.164686103644653 0 0.47440041899528501 -0.16298873485845719 0 0.44880083799057491 -0.164686103644653 0 0.46834799031954211 -0.17915452781490099 0 0.47440041899528501 -0.16298873485845719 0 0.44880083799057491 -0.164686103644653 0 0.47440041899528501 -0.16298873485845719 0 0.43180268423531071 -0.1802632517690351 0 0.44880083799057491 -0.164686103644653 0 0.43844209377108118 -0.18689286854296691 0 0.44880083799057491 -0.164686103644653 0 0.43844209377108118 -0.18689286854296691 0 0.45508032593701309 -0.1914137801830845 0 0.44880083799057491 -0.164686103644653 0 0.46834799031954211 -0.17915452781490099 0 0.45508032593701309 -0.1914137801830845 0 0.46834799031954211 -0.17915452781490099 0 0.48419704391512092 -0.17843144908975531 0 0.47440041899528501 -0.16298873485845719 0 0.46834799031954211 -0.17915452781490099 0 0.48419704391512092 -0.17843144908975531 0 0.47823681026078202 -0.19812675643970101 0 0.48419704391512092 -0.17843144908975531 0 0.49999999999999523 -0.16129136607226169 0 0.5 -0.1905958602634561 0 0.49999999999999523 -0.16129136607226169 0 0.47440041899528501 -0.16298873485845719 0 0.50000000000000067 -0.1547763741112759 0 0.48419704391512092 -0.17843144908975531 0 0.49999999999999523 -0.16129136607226169 0 0.47440041899528501 -0.16298873485845719 0 0.49999999999999523 -0.16129136607226169 0 0.47440041899528501 -0.16298873485845719 0 0.46138481906560302 -0.14686228775601681 0 0.47440041899528501 -0.16298873485845719 0 0.48128698321344371 -0.14003357648102521 0 0.46381730130484328 -0.1363472541609663 0 0.46138481906560302 -0.14686228775601681 0 0.48128698321344371 -0.14003357648102521 0 0.50000000000000067 -0.1547763741112759 0 0.48128698321344371 -0.14003357648102521 0 0.50000000000000067 -0.1547763741112759 0 0.5 -0.13349841451636779 0 0.48128698321344371 -0.14003357648102521 0 0.47440041899528501 -0.16298873485845719 0 0.50000000000000067 -0.1547763741112759 0 0.48128698321344371 -0.14003357648102521 0 0.48087269318342413 -0.1216818802472065 0 0.5 -0.13349841451636779 0 0.48128698321344371 -0.14003357648102521 0 0.46257396642688631 -0.12529077885077469 0 0.48128698321344371 -0.14003357648102521 0 0.46257396642688631 -0.12529077885077469 0 0.46381730130484328 -0.1363472541609663 0 0.48128698321344371 -0.14003357648102521 0 0.47129126618897188 -0.1223351355815797 0 0.48087269318342413 -0.1216818802472065 0 0.48128698321344371 -0.14003357648102521 0 0.47129126618897188 -0.1223351355815797 0 0.46257396642688631 -0.12529077885077469 0 0.48128698321344371 -0.14003357648102521 0 0.46029750420545162 -0.23134667767863379 0 0.45079963313025367 -0.219495204315066 0 0.46126535540865482 -0.21094244298034759 0 0.46029750420545162 -0.23134667767863379 0 0.46126535540865482 -0.21094244298034759 0 0.47937109712497578 -0.22608105856418539 0 0.46029750420545162 -0.23134667767863379 0 0.44856132313442931 -0.24393079079591279 0 0.47387431588802909 -0.25499376211151131 0 0.46029750420545162 -0.23134667767863379 0 0.44856132313442931 -0.24393079079591279 0 0.44416109061426973 -0.22983272991065171 0 0.43458399188612801 -0.2397076170126072 0 0.44856132313442931 -0.24393079079591279 0 0.4372088962240912 -0.25169219704383999 0 0.43458399188612801 -0.2397076170126072 0 0.44856132313442931 -0.24393079079591279 0 0.44416109061426973 -0.22983272991065171 0 0.46029750420545162 -0.23134667767863379 0 0.44416109061426973 -0.22983272991065171 0 0.45079963313025367 -0.219495204315066 0 0.44416109061426973 -0.22983272991065171 0 0.45079963313025367 -0.219495204315066 0 0.44009267276725389 -0.2176624614444449 0 0.42988092584916948 -0.2249579995083304 0 0.44416109061426973 -0.22983272991065171 0 0.44009267276725389 -0.2176624614444449 0 0.45079963313025367 -0.219495204315066 0 0.44355474576021348 -0.2050869029196882 0 0.46126535540865482 -0.21094244298034759 0 0.43006687167525981 -0.21185300334864521 0 0.44009267276725389 -0.2176624614444449 0 0.44355474576021348 -0.2050869029196882 0 0.45079963313025367 -0.219495204315066 0 0.44009267276725389 -0.2176624614444449 0 0.44355474576021348 -0.2050869029196882 0 0.43844209377108118 -0.18689286854296691 0 0.44355474576021348 -0.2050869029196882 0 0.45508032593701309 -0.1914137801830845 0 0.46834799031954211 -0.17915452781490099 0 0.45508032593701309 -0.1914137801830845 0 0.47823681026078202 -0.19812675643970101 0 0.44355474576021348 -0.2050869029196882 0 0.45508032593701309 -0.1914137801830845 0 0.46126535540865482 -0.21094244298034759 0 0.45508032593701309 -0.1914137801830845 0 0.46126535540865482 -0.21094244298034759 0 0.47823681026078202 -0.19812675643970101 0 0.46126535540865482 -0.21094244298034759 0 0.47823681026078202 -0.19812675643970101 0 0.47937109712497578 -0.22608105856418539 0 0.48419704391512092 -0.17843144908975531 0 0.47823681026078202 -0.19812675643970101 0 0.5 -0.1905958602634561 0 0.47823681026078202 -0.19812675643970101 0 0.5 -0.1905958602634561 0 0.5 -0.21990035445465039 0 0.47823681026078202 -0.19812675643970101 0 0.5 -0.21990035445465039 0 0.47937109712497578 -0.22608105856418539 0 0.5 -0.21990035445465039 0 0.47937109712497578 -0.22608105856418539 0 0.50000000000000444 -0.24920484864584491 0 0.46029750420545162 -0.23134667767863379 0 0.47937109712497578 -0.22608105856418539 0 0.47387431588802909 -0.25499376211151131 0 0.47937109712497578 -0.22608105856418539 0 0.50000000000000444 -0.24920484864584491 0 0.47387431588802909 -0.25499376211151131 0 0.50000000000000444 -0.24920484864584491 0 0.4915669900217115 -0.25615479242606781 0 0.5 -0.27170772691138367 0 0.50000000000000444 -0.24920484864584491 0 0.4915669900217115 -0.25615479242606781 0 0.47387431588802909 -0.25499376211151131 0 0.50000000000000444 -0.24920484864584491 0 0.47387431588802909 -0.25499376211151131 0 0.4915669900217115 -0.25615479242606781 0 0.48280749151585822 -0.27129304150170008 0 0.47954864786353962 -0.26301133191085868 0 0.4915669900217115 -0.25615479242606781 0 0.5 -0.27170772691138367 0 0.48280749151585822 -0.27129304150170008 0 0.5 -0.27170772691138367 0 0.48280749151585822 -0.27129304150170008 0 0.48951500520952212 -0.28458010338455908 0 0.48280749151585822 -0.27129304150170008 0 0.47474596181800061 -0.28621450290334632 0 0.48951500520952212 -0.28458010338455908 0 0.48280749151585822 -0.27129304150170008 0 0.47416229901770612 -0.26612875971404459 0 0.47954864786353962 -0.26301133191085868 0 0.48280749151585822 -0.27129304150170008 0 0.47416229901770612 -0.26612875971404459 0 0.47052118473631321 -0.27447720361836658 0 0.47416229901770612 -0.26612875971404459 0 0.47052118473631321 -0.27447720361836658 0 0.46319689217890331 -0.26835660325056299 0 0.48280749151585822 -0.27129304150170008 0 0.47052118473631321 -0.27447720361836658 0 0.47474596181800061 -0.28621450290334632 0 0.4915669900217115 -0.25615479242606781 0 0.46965781089888248 -0.25846873400162218 0 0.4915669900217115 -0.25615479242606781 0 0.47387431588802909 -0.25499376211151131 0 0.46965781089888248 -0.25846873400162218 0 0.4915669900217115 -0.25615479242606781 0 0.47954864786353962 -0.26301133191085868 0 0.46965781089888248 -0.25846873400162218 0 0.47416229901770612 -0.26612875971404459 0 0.47954864786353962 -0.26301133191085868 0 0.46965781089888248 -0.25846873400162218 0 0.47416229901770612 -0.26612875971404459 0 0.46965781089888248 -0.25846873400162218 0 0.46319689217890331 -0.26835660325056299 0 0.46965781089888248 -0.25846873400162218 0 0.46319689217890331 -0.26835660325056299 0 0.4477486317760534 -0.26078267557717671 0 0.44856132313442931 -0.24393079079591279 0 0.47387431588802909 -0.25499376211151131 0 0.4477486317760534 -0.26078267557717671 0 0.47387431588802909 -0.25499376211151131 0 0.4477486317760534 -0.26078267557717671 0 0.46965781089888248 -0.25846873400162218 0 0.4477486317760534 -0.26078267557717671 0 0.47387431588802909 -0.25499376211151131 0 0.46965781089888248 -0.25846873400162218 0 0.4477486317760534 -0.26078267557717671 0 0.47052118473631321 -0.27447720361836658 0 0.45389453446556111 -0.28192564334160541 0 0.47474596181800061 -0.28621450290334632 0 0.47052118473631321 -0.27447720361836658 0 0.46319689217890331 -0.26835660325056299 0 0.45389453446556111 -0.28192564334160541 0 0.46319689217890331 -0.26835660325056299 0 0.4477486317760534 -0.26078267557717671 0 0.45389453446556111 -0.28192564334160541 0 0.45389453446556111 -0.28192564334160541 0 0.430823863629894 -0.26453285558412298 0 0.45389453446556111 -0.28192564334160541 0 0.430823863629894 -0.26453285558412298 0 0.43570592202634773 -0.28205449164250063 0 0.4477486317760534 -0.26078267557717671 0 0.45389453446556111 -0.28192564334160541 0 0.430823863629894 -0.26453285558412298 0 0.4477486317760534 -0.26078267557717671 0 0.42854038242645709 -0.26281135800815408 0 0.44856132313442931 -0.24393079079591279 0 0.4477486317760534 -0.26078267557717671 0 0.4372088962240912 -0.25169219704383999 0 0.4477486317760534 -0.26078267557717671 0 0.42854038242645709 -0.26281135800815408 0 0.4372088962240912 -0.25169219704383999 0 0.4477486317760534 -0.26078267557717671 0 0.430823863629894 -0.26453285558412298 0 0.44815314542162782 -0.30273998798419938 0 0.44271266904340639 -0.31513600928105973 0 0.43092107089682352 -0.30573631325696571 0 0.44815314542162782 -0.30273998798419938 0 0.43874415768382158 -0.29310671547163403 0 0.43092107089682352 -0.30573631325696571 0 0.43874415768382158 -0.29310671547163403 0 0.45389453446556111 -0.28192564334160541 0 0.43570592202634773 -0.28205449164250063 0 0.44815314542162782 -0.30273998798419938 0 0.43874415768382158 -0.29310671547163403 0 0.45389453446556111 -0.28192564334160541 0 0.45389453446556111 -0.28192564334160541 0 0.46668010371271101 -0.29937682325086112 0 0.47474596181800061 -0.28621450290334632 0 0.44815314542162782 -0.30273998798419938 0 0.45389453446556111 -0.28192564334160541 0 0.46668010371271101 -0.29937682325086112 0 0.46668010371271101 -0.29937682325086112 0 0.45907432653114449 -0.32014896664993769 0 0.44815314542162782 -0.30273998798419938 0 0.46668010371271101 -0.29937682325086112 0 0.45907432653114449 -0.32014896664993769 0 0.46668010371271101 -0.29937682325086112 0 0.48375110351916628 -0.30725513966339157 0 0.45907432653114449 -0.32014896664993769 0 0.46668010371271101 -0.29937682325086112 0 0.48375110351916628 -0.30725513966339157 0 0.47474596181800061 -0.28621450290334632 0 0.48375110351916628 -0.30725513966339157 0 0.47474596181800061 -0.28621450290334632 0 0.48951500520952212 -0.28458010338455908 0 0.48375110351916628 -0.30725513966339157 0 0.5 -0.29421060517692271 0 0.48951500520952212 -0.28458010338455908 0 0.5 -0.27170772691138367 0 0.5 -0.29421060517692271 0 0.48951500520952212 -0.28458010338455908 0 0.48375110351916628 -0.30725513966339157 0 0.5 -0.29421060517692271 0 0.49999999999999972 -0.31671348344246159 0 0.48375110351916628 -0.30725513966339157 0 0.49999999999999972 -0.31671348344246159 0 0.48658745812515303 -0.32591538654610069 0 0.49999999999999972 -0.31671348344246159 0 0.49107839048707969 -0.33844651150006611 0 0.49999999999999972 -0.31671348344246159 0 0.48658745812515303 -0.32591538654610069 0 0.49107839048707969 -0.33844651150006611 0 0.49999999999999972 -0.31671348344246159 0 0.5 -0.34354646621870782 0 0.49107839048707969 -0.33844651150006611 0 0.48658745812515303 -0.32591538654610069 0 0.49107839048707969 -0.33844651150006611 0 0.48013111160135669 -0.33592777501669763 0 0.48658745812515303 -0.32591538654610069 0 0.48013111160135669 -0.33592777501669763 0 0.47588582758327369 -0.32632043512378739 0 0.48013111160135669 -0.33592777501669763 0 0.46883970942210401 -0.33989811375075968 0 0.47588582758327369 -0.32632043512378739 0 0.48375110351916628 -0.30725513966339157 0 0.48658745812515303 -0.32591538654610069 0 0.47588582758327369 -0.32632043512378739 0 0.48375110351916628 -0.30725513966339157 0 0.47588582758327369 -0.32632043512378739 0 0.45907432653114449 -0.32014896664993769 0 0.5 -0.37037944899495368 0 0.48466784746851571 -0.3739080713738358 0 0.48215678097416009 -0.36017953955767068 0 0.5 -0.34354646621870782 0 0.49107839048707969 -0.33844651150006611 0 0.48215678097416009 -0.36017953955767068 0 0.49107839048707969 -0.33844651150006611 0 0.48013111160135669 -0.33592777501669763 0 0.48215678097416009 -0.36017953955767068 0 0.5 -0.34354646621870782 0 0.5 -0.37037944899495368 0 0.48215678097416009 -0.36017953955767068 0 0.49107839048707969 -0.33844651150006611 0 0.48215678097416009 -0.36017953955767068 0 0.48013111160135669 -0.33592777501669763 0 0.46883970942210401 -0.33989811375075968 0 0.48215678097416009 -0.36017953955767068 0 0.46883970942210401 -0.33989811375075968 0 0.48215678097416009 -0.36017953955767068 0 0.46166172922915721 -0.35810144835948332 0 0.48215678097416009 -0.36017953955767068 0 0.47323517146124039 -0.38191256761527542 0 0.48215678097416009 -0.36017953955767068 0 0.4671179630262795 -0.37324494563770522 0 0.47323517146124039 -0.38191256761527542 0 0.48466784746851571 -0.3739080713738358 0 0.48215678097416009 -0.36017953955767068 0 0.47323517146124039 -0.38191256761527542 0 0.48215678097416009 -0.36017953955767068 0 0.4671179630262795 -0.37324494563770522 0 0.46166172922915721 -0.35810144835948332 0 0.45652460043480969 -0.37267172771365881 0 0.46166172922915721 -0.35810144835948332 0 0.44386277216801179 -0.36169325344809122 0 0.45652460043480969 -0.37267172771365881 0 0.4671179630262795 -0.37324494563770522 0 0.46166172922915721 -0.35810144835948332 0 0.46883970942210401 -0.33989811375075968 0 0.46166172922915721 -0.35810144835948332 0 0.45146854934957792 -0.34092111004901438 0 0.43963091224731599 -0.34751792105314822 0 0.44386277216801179 -0.36169325344809122 0 0.45146854934957792 -0.34092111004901438 0 0.44386277216801179 -0.36169325344809122 0 0.45146854934957792 -0.34092111004901438 0 0.46166172922915721 -0.35810144835948332 0 0.44386277216801179 -0.36169325344809122 0 0.45146854934957792 -0.34092111004901438 0 0.44386277216801179 -0.36169325344809122 0 0.43376943787959182 -0.36708850497004442 0 0.43808065797110041 -0.37748478958974491 0 0.45652460043480969 -0.37267172771365881 0 0.44386277216801179 -0.36169325344809122 0 0.44783900322824399 -0.38008781189722518 0 0.44386277216801179 -0.36169325344809122 0 0.43808065797110041 -0.37748478958974491 0 0.44386277216801179 -0.36169325344809122 0 0.43808065797110041 -0.37748478958974491 0 0.44783900322824399 -0.38008781189722518 0 0.45652460043480969 -0.37267172771365881 0 0.44386277216801179 -0.36169325344809122 0 0.46883970942210401 -0.33989811375075968 0 0.45907432653114449 -0.32014896664993769 0 0.45146854934957792 -0.34092111004901438 0 0.45907432653114449 -0.32014896664993769 0 0.45146854934957792 -0.34092111004901438 0 0.46883970942210401 -0.33989811375075968 0 0.47588582758327369 -0.32632043512378739 0 0.45907432653114449 -0.32014896664993769 0 0.43963091224731599 -0.34751792105314822 0 0.45146854934957792 -0.34092111004901438 0 0.43565299676263758 -0.3352386806192425 0 0.45146854934957792 -0.34092111004901438 0 0.44493724809618768 -0.32603283426431229 0 0.43565299676263758 -0.3352386806192425 0 0.45907432653114449 -0.32014896664993769 0 0.45146854934957792 -0.34092111004901438 0 0.44493724809618768 -0.32603283426431229 0 0.45907432653114449 -0.32014896664993769 0 0.44493724809618768 -0.32603283426431229 0 0.44271266904340639 -0.31513600928105973 0 0.44493724809618768 -0.32603283426431229 0 0.44271266904340639 -0.31513600928105973 0 0.43047755427124879 -0.32102194424988317 0 0.44815314542162782 -0.30273998798419938 0 0.45907432653114449 -0.32014896664993769 0 0.44271266904340639 -0.31513600928105973 0 0.44271266904340639 -0.31513600928105973 0 0.43047755427124879 -0.32102194424988317 0 0.43092107089682352 -0.30573631325696571 0 0.43047755427124879 -0.32102194424988317 0 0.41919911313656122 -0.31385112706466711 0 0.41739686236043672 -0.32199345155319897 0 0.43047755427124879 -0.32102194424988317 0 0.41919911313656122 -0.31385112706466711 0 0.43092107089682352 -0.30573631325696571 0 0.43047755427124879 -0.32102194424988317 0 0.42053718701310799 -0.32957674384091618 0 0.41739686236043672 -0.32199345155319897 0 0.44493724809618768 -0.32603283426431229 0 0.43047755427124879 -0.32102194424988317 0 0.43565299676263758 -0.3352386806192425 0 0.43565299676263758 -0.3352386806192425 0 0.42053718701310799 -0.32957674384091618 0 0.4250793590774925 -0.34540704162396091 0 0.43963091224731599 -0.34751792105314822 0 0.43565299676263758 -0.3352386806192425 0 0.4250793590774925 -0.34540704162396091 0 0.43047755427124879 -0.32102194424988317 0 0.43565299676263758 -0.3352386806192425 0 0.42053718701310799 -0.32957674384091618 0 0.4062959459869725 -0.32912082979983148 0 0.4250793590774925 -0.34540704162396091 0 0.41055923831377589 -0.34398547157316572 0 0.42053718701310799 -0.32957674384091618 0 0.4062959459869725 -0.32912082979983148 0 0.4250793590774925 -0.34540704162396091 0 0.4062959459869725 -0.32912082979983148 0 0.4250793590774925 -0.34540704162396091 0 0.42053718701310799 -0.32957674384091618 0 0.4062959459869725 -0.32912082979983148 0 0.40802480504278882 -0.32457497099322458 0 0.4062959459869725 -0.32912082979983148 0 0.40802480504278882 -0.32457497099322458 0 0.4062959459869725 -0.32912082979983148 0 0.40802480504278882 -0.32457497099322458 0 0.40572459905769331 -0.31910551143285631 0 0.40802480504278882 -0.32457497099322458 0 0.4119015194344513 -0.31818912214386269 0 0.41739686236043672 -0.32199345155319897 0 0.40802480504278882 -0.32457497099322458 0 0.4119015194344513 -0.31818912214386269 0 0.40572459905769331 -0.31910551143285631 0 0.4119015194344513 -0.31818912214386269 0 0.41919911313656122 -0.31385112706466711 0 0.40916221757477672 -0.31142054967536659 0 0.4119015194344513 -0.31818912214386269 0 0.40572459905769331 -0.31910551143285631 0 0.40916221757477672 -0.31142054967536659 0 0.4119015194344513 -0.31818912214386269 0 0.41919911313656122 -0.31385112706466711 0 0.41739686236043672 -0.32199345155319897 0 0.42053718701310799 -0.32957674384091618 0 0.40802480504278882 -0.32457497099322458 0 0.41739686236043672 -0.32199345155319897 0 0.44386277216801179 -0.36169325344809122 0 0.43376943787959182 -0.36708850497004442 0 0.42728564025893462 -0.35958684797927032 0 0.42489657602010461 -0.37065940299189432 0 0.43376943787959182 -0.36708850497004442 0 0.43808065797110041 -0.37748478958974491 0 0.42489657602010461 -0.37065940299189432 0 0.43376943787959182 -0.36708850497004442 0 0.42728564025893462 -0.35958684797927032 0 0.44386277216801179 -0.36169325344809122 0 0.4250793590774925 -0.34540704162396091 0 0.43963091224731599 -0.34751792105314822 0 0.44386277216801179 -0.36169325344809122 0 0.4250793590774925 -0.34540704162396091 0 0.44386277216801179 -0.36169325344809122 0 0.42728564025893462 -0.35958684797927032 0 0.4250793590774925 -0.34540704162396091 0 0.42728564025893462 -0.35958684797927032 0 0.4250793590774925 -0.34540704162396091 0 0.41069622259092692 -0.35617360609135817 0 0.4250793590774925 -0.34540704162396091 0 0.41055923831377589 -0.34398547157316572 0 0.41069622259092692 -0.35617360609135817 0 0.41055923831377589 -0.34398547157316572 0 0.41069622259092692 -0.35617360609135817 0 0.40016542559971202 -0.34524040877751239 0 0.42489657602010461 -0.37065940299189432 0 0.42728564025893462 -0.35958684797927032 0 0.41069622259092692 -0.35617360609135817 0 0.42489657602010461 -0.37065940299189432 0 0.41069622259092692 -0.35617360609135817 0 0.4070765621089808 -0.37107032214525337 0 0.42489657602010461 -0.37065940299189432 0 0.41069622259092692 -0.35617360609135817 0 0.39585190457779329 -0.37201308858561799 0 0.3940349052124521 -0.36135998775519362 0 0.38601585554704992 -0.38244526212700758 0 0.41069622259092692 -0.35617360609135817 0 0.4070765621089808 -0.37107032214525337 0 0.3940349052124521 -0.36135998775519362 0 0.4070765621089808 -0.37107032214525337 0 0.39585190457779329 -0.37201308858561799 0 0.3940349052124521 -0.36135998775519362 0 0.39585190457779329 -0.37201308858561799 0 0.3940349052124521 -0.36135998775519362 0 0.3940349052124521 -0.36135998775519362 0 0.40016542559971202 -0.34524040877751239 0 0.38974443050024338 -0.33620485529262373 0 0.3940349052124521 -0.36135998775519362 0 0.38974443050024338 -0.33620485529262373 0 0.3940349052124521 -0.36135998775519362 0 0.40016542559971202 -0.34524040877751239 0 0.41069622259092692 -0.35617360609135817 0 0.3940349052124521 -0.36135998775519362 0 0.40016542559971202 -0.34524040877751239 0 0.3940349052124521 -0.36135998775519362 0 0.38974443050024338 -0.33620485529262373 0 0.37368731816096312 -0.34897020548070451 0 0.3940349052124521 -0.36135998775519362 0 0.38601585554704992 -0.38244526212700758 0 0.3940349052124521 -0.36135998775519362 0 0.38601585554704992 -0.38244526212700758 0 0.3689120952668708 -0.37284951495870189 0 0.3940349052124521 -0.36135998775519362 0 0.3689120952668708 -0.37284951495870189 0 0.37368731816096312 -0.34897020548070451 0 0.4062959459869725 -0.32912082979983148 0 0.40572459905769331 -0.31910551143285631 0 0.39816778062817881 -0.31191488097197773 0 0.4062959459869725 -0.32912082979983148 0 0.38974443050024338 -0.33620485529262373 0 0.38545395578803499 -0.31104972283005378 0 0.4062959459869725 -0.32912082979983148 0 0.38545395578803499 -0.31104972283005378 0 0.4062959459869725 -0.32912082979983148 0 0.38545395578803499 -0.31104972283005378 0 0.39816778062817881 -0.31191488097197773 0 0.40572459905769331 -0.31910551143285631 0 0.39816778062817881 -0.31191488097197773 0 0.40916221757477672 -0.31142054967536659 0 0.4062959459869725 -0.32912082979983148 0 0.40016542559971202 -0.34524040877751239 0 0.38974443050024338 -0.33620485529262373 0 0.4062959459869725 -0.32912082979983148 0 0.40016542559971202 -0.34524040877751239 0 0.4062959459869725 -0.32912082979983148 0 0.41055923831377589 -0.34398547157316572 0 0.40016542559971202 -0.34524040877751239 0 0.38974443050024338 -0.33620485529262373 0 0.36945761595668469 -0.32738841673247931 0 0.37368731816096312 -0.34897020548070451 0 0.38974443050024338 -0.33620485529262373 0 0.38545395578803499 -0.31104972283005378 0 0.36945761595668469 -0.32738841673247931 0 0.38974443050024338 -0.33620485529262373 0 0.38545395578803499 -0.31104972283005378 0 0.38545395578803499 -0.31104972283005378 0 0.38245755150739558 -0.29348174920317632 0 0.37101427446782781 -0.29852975601036341 0 0.38545395578803499 -0.31104972283005378 0 0.38245755150739558 -0.29348174920317632 0 0.38545395578803499 -0.31104972283005378 0 0.37101427446782781 -0.29852975601036341 0 0.38545395578803499 -0.31104972283005378 0 0.39567659353887108 -0.29306988619604551 0 0.38245755150739558 -0.29348174920317632 0 0.39816778062817881 -0.31191488097197773 0 0.40563314249086863 -0.30155395497769039 0 0.39567659353887108 -0.29306988619604551 0 0.38545395578803499 -0.31104972283005378 0 0.39816778062817881 -0.31191488097197773 0 0.39567659353887108 -0.29306988619604551 0 0.39816778062817881 -0.31191488097197773 0 0.40563314249086863 -0.30155395497769039 0 0.40916221757477672 -0.31142054967536659 0 0.39567659353887108 -0.29306988619604551 0 0.40514250542832608 -0.27022331558021301 0 0.41160024963212011 -0.28933460066763711 0 0.40563314249086863 -0.30155395497769039 0 0.39567659353887108 -0.29306988619604551 0 0.41160024963212011 -0.28933460066763711 0 0.38245755150739558 -0.29348174920317632 0 0.37946114722675722 -0.27591377557629859 0 0.39567659353887108 -0.29306988619604551 0 0.38245755150739558 -0.29348174920317632 0 0.37946114722675722 -0.27591377557629859 0 0.38245755150739558 -0.29348174920317632 0 0.37795999762798671 -0.28395322059410122 0 0.37946114722675722 -0.27591377557629859 0 0.37519981906117678 -0.29055939022370142 0 0.38245755150739558 -0.29348174920317632 0 0.37101427446782781 -0.29852975601036341 0 0.37519981906117678 -0.29055939022370142 0 0.38245755150739558 -0.29348174920317632 0 0.37795999762798671 -0.28395322059410122 0 0.37795999762798671 -0.28395322059410122 0 0.37946114722675722 -0.27591377557629859 0 0.37739853904771847 -0.27637080706343392 0 0.37739853904771847 -0.27637080706343392 0 0.37683953433427181 -0.26882153263446662 0 0.37273728942595791 -0.27740364396778311 0 0.37795999762798671 -0.28395322059410122 0 0.37739853904771847 -0.27637080706343392 0 0.37273728942595791 -0.27740364396778311 0 0.37946114722675722 -0.27591377557629859 0 0.38774772661347989 -0.26664574742688191 0 0.3964002279028962 -0.26984905957103239 0 0.37946114722675722 -0.27591377557629859 0 0.3964002279028962 -0.26984905957103239 0 0.37795999762798671 -0.28395322059410122 0 0.37739853904771847 -0.27637080706343392 0 0.37739853904771847 -0.27637080706343392 0 0.37273728942595791 -0.27740364396778311 0 0.37946114722675722 -0.27591377557629859 0 0.37739853904771847 -0.27637080706343392 0 0.37683953433427181 -0.26882153263446662 0 0.37946114722675722 -0.27591377557629859 0 0.37739853904771847 -0.27637080706343392 0 0.37946114722675722 -0.27591377557629859 0 0.37843581040967561 -0.26746760801825881 0 0.38284686623937531 -0.26497045393317709 0 0.37946114722675722 -0.27591377557629859 0 0.37683953433427181 -0.26882153263446662 0 0.37843581040967561 -0.26746760801825881 0 0.37739853904771847 -0.27637080706343392 0 0.37683953433427181 -0.26882153263446662 0 0.37683953433427181 -0.26882153263446662 0 0.37843581040967561 -0.26746760801825881 0 0.37946114722675722 -0.27591377557629859 0 0.38774772661347989 -0.26664574742688191 0 0.38284686623937531 -0.26497045393317709 0 0.37477580018058132 -0.24095111383496479 0 0.37683953433427181 -0.26882153263446662 0 0.38107906364546162 -0.25934379353391329 0 0.37477580018058132 -0.24095111383496479 0 0.37683953433427181 -0.26882153263446662 0 0.37477580018058132 -0.24095111383496479 0 0.38107906364546162 -0.25934379353391329 0 0.38725375881062551 -0.25185160038302579 0 0.37843581040967561 -0.26746760801825881 0 0.38107906364546162 -0.25934379353391329 0 0.38284686623937531 -0.26497045393317709 0 0.37683953433427181 -0.26882153263446662 0 0.37843581040967561 -0.26746760801825881 0 0.38107906364546162 -0.25934379353391329 0 0.38107906364546162 -0.25934379353391329 0 0.38632261189823958 -0.26200045239958702 0 0.38284686623937531 -0.26497045393317709 0 0.38774772661347989 -0.26664574742688191 0 0.38632261189823958 -0.26200045239958702 0 0.38284686623937531 -0.26497045393317709 0 0.38774772661347989 -0.26664574742688191 0 0.38955528694719099 -0.2630172622662057 0 0.39295554709344072 -0.26445586107842978 0 0.38774772661347989 -0.26664574742688191 0 0.38632261189823958 -0.26200045239958702 0 0.38955528694719099 -0.2630172622662057 0 0.38632261189823958 -0.26200045239958702 0 0.38955528694719099 -0.2630172622662057 0 0.39119526218360401 -0.25896698815992442 0 0.38632261189823958 -0.26200045239958702 0 0.38725375881062551 -0.25185160038302579 0 0.39119526218360401 -0.25896698815992442 0 0.38107906364546162 -0.25934379353391329 0 0.38632261189823958 -0.26200045239958702 0 0.38725375881062551 -0.25185160038302579 0 0.40314688718896508 -0.2619981766022052 0 0.39707581272688741 -0.26613449373937459 0 0.41345304600685079 -0.26440480953867462 0 0.39707581272688741 -0.26613449373937459 0 0.41345304600685079 -0.26440480953867462 0 0.38725375881062551 -0.25185160038302579 0 0.39640803358832022 -0.25154779433757402 0 0.39119526218360401 -0.25896698815992442 0 0.39640803358832022 -0.25154779433757402 0 0.39702034872720737 -0.26014738253762237 0 0.39119526218360401 -0.25896698815992442 0 0.39702034872720737 -0.26014738253762237 0 0.39119526218360401 -0.25896698815992442 0 0.39295554709344072 -0.26445586107842978 0 0.38955528694719099 -0.2630172622662057 0 0.39119526218360401 -0.25896698815992442 0 0.39295554709344072 -0.26445586107842978 0 0.39702034872720737 -0.26014738253762237 0 0.39295554709344072 -0.26445586107842978 0 0.39707581272688741 -0.26613449373937459 0 0.39702034872720737 -0.26014738253762237 0 0.40314688718896508 -0.2619981766022052 0 0.39707581272688741 -0.26613449373937459 0 0.40314688718896508 -0.2619981766022052 0 0.40257909468765629 -0.25704117102420471 0 0.40998094690083942 -0.2590606397541646 0 0.39702034872720737 -0.26014738253762237 0 0.40314688718896508 -0.2619981766022052 0 0.40257909468765629 -0.25704117102420471 0 0.39640803358832022 -0.25154779433757402 0 0.39702034872720737 -0.26014738253762237 0 0.40257909468765629 -0.25704117102420471 0 0.41087794879613182 -0.2494957955088617 0 0.39640803358832022 -0.25154779433757402 0 0.40257909468765629 -0.25704117102420471 0 0.40514250542832608 -0.27022331558021301 0 0.3964002279028962 -0.26984905957103239 0 0.41345304600685079 -0.26440480953867462 0 0.37946114722675722 -0.27591377557629859 0 0.40514250542832608 -0.27022331558021301 0 0.3964002279028962 -0.26984905957103239 0 0.39707581272688741 -0.26613449373937459 0 0.3964002279028962 -0.26984905957103239 0 0.41345304600685079 -0.26440480953867462 0 0.37946114722675722 -0.27591377557629859 0 0.40514250542832608 -0.27022331558021301 0 0.3964002279028962 -0.26984905957103239 0 0.41345304600685079 -0.26440480953867462 0 0.39567659353887108 -0.29306988619604551 0 0.37946114722675722 -0.27591377557629859 0 0.40514250542832608 -0.27022331558021301 0 0.38774772661347989 -0.26664574742688191 0 0.39295554709344072 -0.26445586107842978 0 0.3964002279028962 -0.26984905957103239 0 0.39295554709344072 -0.26445586107842978 0 0.39707581272688741 -0.26613449373937459 0 0.3964002279028962 -0.26984905957103239 0 0.40514250542832608 -0.27022331558021301 0 0.41345304600685079 -0.26440480953867462 0 0.430823863629894 -0.26453285558412298 0 0.40514250542832608 -0.27022331558021301 0 0.430823863629894 -0.26453285558412298 0 0.40514250542832608 -0.27022331558021301 0 0.42166373126508722 -0.27984448092147479 0 0.41160024963212011 -0.28933460066763711 0 0.40514250542832608 -0.27022331558021301 0 0.42166373126508722 -0.27984448092147479 0 0.430823863629894 -0.26453285558412298 0 0.41087794879613182 -0.2494957955088617 0 0.41984775782459283 -0.2623632460968765 0 0.42854038242645709 -0.26281135800815408 0 0.41087794879613182 -0.2494957955088617 0 0.42854038242645709 -0.26281135800815408 0 0.41087794879613182 -0.2494957955088617 0 0.40257909468765629 -0.25704117102420471 0 0.40998094690083942 -0.2590606397541646 0 0.41087794879613182 -0.2494957955088617 0 0.40998094690083942 -0.2590606397541646 0 0.41984775782459283 -0.2623632460968765 0 0.40314688718896508 -0.2619981766022052 0 0.40998094690083942 -0.2590606397541646 0 0.41345304600685079 -0.26440480953867462 0 0.41345304600685079 -0.26440480953867462 0 0.41984775782459283 -0.2623632460968765 0 0.42854038242645709 -0.26281135800815408 0 0.40998094690083942 -0.2590606397541646 0 0.41345304600685079 -0.26440480953867462 0 0.41984775782459283 -0.2623632460968765 0 0.41345304600685079 -0.26440480953867462 0 0.42854038242645709 -0.26281135800815408 0 0.41345304600685079 -0.26440480953867462 0 0.41984775782459283 -0.2623632460968765 0 0.42656562700980838 -0.24831468624349931 0 0.41087794879613182 -0.2494957955088617 0 0.42854038242645709 -0.26281135800815408 0 0.4477486317760534 -0.26078267557717671 0 0.42854038242645709 -0.26281135800815408 0 0.430823863629894 -0.26453285558412298 0 0.41345304600685079 -0.26440480953867462 0 0.42854038242645709 -0.26281135800815408 0 0.430823863629894 -0.26453285558412298 0 0.42854038242645709 -0.26281135800815408 0 0.430823863629894 -0.26453285558412298 0 0.42656562700980838 -0.24831468624349931 0 0.42854038242645709 -0.26281135800815408 0 0.4372088962240912 -0.25169219704383999 0 0.42166373126508722 -0.27984448092147479 0 0.430823863629894 -0.26453285558412298 0 0.43570592202634773 -0.28205449164250063 0 0.42166373126508722 -0.27984448092147479 0 0.43570592202634773 -0.28205449164250063 0 0.42504611560874761 -0.29307714113289868 0 0.43874415768382158 -0.29310671547163403 0 0.43570592202634773 -0.28205449164250063 0 0.42504611560874761 -0.29307714113289868 0 0.43874415768382158 -0.29310671547163403 0 0.42504611560874761 -0.29307714113289868 0 0.43092107089682352 -0.30573631325696571 0 0.41919911313656122 -0.31385112706466711 0 0.43092107089682352 -0.30573631325696571 0 0.41692698488998292 -0.30249561446253759 0 0.42504611560874761 -0.29307714113289868 0 0.43092107089682352 -0.30573631325696571 0 0.41692698488998292 -0.30249561446253759 0 0.41919911313656122 -0.31385112706466711 0 0.41692698488998292 -0.30249561446253759 0 0.40916221757477672 -0.31142054967536659 0 0.40563314249086863 -0.30155395497769039 0 0.41692698488998292 -0.30249561446253759 0 0.40916221757477672 -0.31142054967536659 0 0.40563314249086863 -0.30155395497769039 0 0.41692698488998292 -0.30249561446253759 0 0.41160024963212011 -0.28933460066763711 0 0.42166373126508722 -0.27984448092147479 0 0.42504611560874761 -0.29307714113289868 0 0.41160024963212011 -0.28933460066763711 0 0.42504611560874761 -0.29307714113289868 0 0.41692698488998292 -0.30249561446253759 0 0.41160024963212011 -0.28933460066763711 0 0.5 -0.5 0 0.47532784176218862 -0.47257481327436679 0 0.43264288253940292 -0.48275234633568048 0 0.5 -0.5 0 0.41749257905485199 -0.50000000000000033 0 0.43264288253940292 -0.48275234633568048 0 0.47532784176218862 -0.47257481327436679 0 0.44779318602395363 -0.46550469267136052 0 0.43264288253940292 -0.48275234633568048 0 0.44779318602395363 -0.46550469267136052 0 0.43264288253940292 -0.48275234633568048 0 0.5 -0.5 0 0.47532784176218862 -0.47257481327436679 0 0.49999999999999828 -0.44642064777577001 0 0.47532784176218862 -0.47257481327436679 0 0.47918453573141367 -0.4495963838019249 0 0.46294348950850428 -0.44825703900704061 0 0.47532784176218862 -0.47257481327436679 0 0.49999999999999828 -0.44642064777577001 0 0.47918453573141367 -0.4495963838019249 0 0.49999999999999828 -0.44642064777577001 0 0.47846681165496419 -0.4311330351505217 0 0.49999999999999828 -0.44642064777577001 0 0.47918453573141367 -0.4495963838019249 0 0.47846681165496419 -0.4311330351505217 0 0.47918453573141367 -0.4495963838019249 0 0.46294348950850428 -0.44825703900704061 0 0.47846681165496419 -0.4311330351505217 0 0.46294348950850428 -0.44825703900704061 0 0.44442683605218691 -0.44583817528272968 0 0.45721208074107311 -0.43281318479414382 0 0.46294348950850428 -0.44825703900704061 0 0.44779318602395363 -0.46550469267136052 0 0.47532784176218862 -0.47257481327436679 0 0.46294348950850428 -0.44825703900704061 0 0.44779318602395363 -0.46550469267136052 0 0.44779318602395363 -0.46550469267136052 0 0.44442683605218691 -0.44583817528272968 0 0.43057418754349119 -0.46211781715143319 0 0.46294348950850428 -0.44825703900704061 0 0.44779318602395363 -0.46550469267136052 0 0.44442683605218691 -0.44583817528272968 0 0.44442683605218691 -0.44583817528272968 0 0.44324354583686831 -0.42153379012121539 0 0.45721208074107311 -0.43281318479414382 0 0.44442683605218691 -0.44583817528272968 0 0.44324354583686831 -0.42153379012121539 0 0.42653452723640378 -0.44279137365393179 0 0.44324354583686831 -0.42153379012121539 0 0.45693362330993059 -0.41584542252527262 0 0.45721208074107311 -0.43281318479414382 0 0.45693362330993059 -0.41584542252527262 0 0.4354004349648965 -0.40055780990002432 0 0.44324354583686831 -0.42153379012121539 0 0.45693362330993059 -0.41584542252527262 0 0.4354004349648965 -0.40055780990002432 0 0.45693362330993059 -0.41584542252527262 0 0.46461049463358839 -0.41117161714406408 0 0.47846681165496419 -0.4311330351505217 0 0.45693362330993059 -0.41584542252527262 0 0.46461049463358839 -0.41117161714406408 0 0.45329728287846061 -0.39963099679296588 0 0.46294348950850428 -0.44825703900704061 0 0.45721208074107311 -0.43281318479414382 0 0.47846681165496419 -0.4311330351505217 0 0.45693362330993059 -0.41584542252527262 0 0.45721208074107311 -0.43281318479414382 0 0.47846681165496419 -0.4311330351505217 0 0.45693362330993059 -0.41584542252527262 0 0.47846681165496419 -0.4311330351505217 0 0.49999999999999828 -0.44642064777577001 0 0.47846681165496419 -0.4311330351505217 0 0.5 -0.42181653977348488 0 0.5 -0.42181653977348488 0 0.48394518954555588 -0.41195106762427058 0 0.49999999999999789 -0.3972124317711998 0 0.47846681165496419 -0.4311330351505217 0 0.5 -0.42181653977348488 0 0.48394518954555588 -0.41195106762427058 0 0.46461049463358839 -0.41117161714406408 0 0.47846681165496419 -0.4311330351505217 0 0.48394518954555588 -0.41195106762427058 0 0.46461049463358839 -0.41117161714406408 0 0.48394518954555588 -0.41195106762427058 0 0.47664864143922919 -0.39842171428208217 0 0.47664864143922919 -0.39842171428208217 0 0.47975395238035062 -0.3854291032725421 0 0.46812846895096999 -0.38912968091376021 0 0.47664864143922919 -0.39842171428208217 0 0.49999999999999789 -0.3972124317711998 0 0.48779058149940679 -0.38751051868815611 0 0.48394518954555588 -0.41195106762427058 0 0.47664864143922919 -0.39842171428208217 0 0.49999999999999789 -0.3972124317711998 0 0.47664864143922919 -0.39842171428208217 0 0.49999999999999789 -0.3972124317711998 0 0.5 -0.37037944899495368 0 0.49999999999999789 -0.3972124317711998 0 0.48779058149940679 -0.38751051868815611 0 0.5 -0.37037944899495368 0 0.48466784746851571 -0.3739080713738358 0 0.48779058149940679 -0.38751051868815611 0 0.48466784746851571 -0.3739080713738358 0 0.47975395238035062 -0.3854291032725421 0 0.47323517146124039 -0.38191256761527542 0 0.48466784746851571 -0.3739080713738358 0 0.48779058149940679 -0.38751051868815611 0 0.47975395238035062 -0.3854291032725421 0 0.47664864143922919 -0.39842171428208217 0 0.48779058149940679 -0.38751051868815611 0 0.47975395238035062 -0.3854291032725421 0 0.47975395238035062 -0.3854291032725421 0 0.47323517146124039 -0.38191256761527542 0 0.46812846895096999 -0.38912968091376021 0 0.46918642870160698 -0.38365020197922722 0 0.47323517146124039 -0.38191256761527542 0 0.46812846895096999 -0.38912968091376021 0 0.4671179630262795 -0.37324494563770522 0 0.46918642870160698 -0.38365020197922722 0 0.47323517146124039 -0.38191256761527542 0 0.45652460043480969 -0.37267172771365881 0 0.4671179630262795 -0.37324494563770522 0 0.46918642870160698 -0.38365020197922722 0 0.45652460043480969 -0.37267172771365881 0 0.46918642870160698 -0.38365020197922722 0 0.45652460043480969 -0.37267172771365881 0 0.45606522570456098 -0.38599652494351028 0 0.44783900322824399 -0.38008781189722518 0 0.45652460043480969 -0.37267172771365881 0 0.46918642870160698 -0.38365020197922722 0 0.45606522570456098 -0.38599652494351028 0 0.46918642870160698 -0.38365020197922722 0 0.45606522570456098 -0.38599652494351028 0 0.46812846895096999 -0.38912968091376021 0 0.46461049463358839 -0.41117161714406408 0 0.47664864143922919 -0.39842171428208217 0 0.45329728287846061 -0.39963099679296588 0 0.47664864143922919 -0.39842171428208217 0 0.45329728287846061 -0.39963099679296588 0 0.47664864143922919 -0.39842171428208217 0 0.46812846895096999 -0.38912968091376021 0 0.45329728287846061 -0.39963099679296588 0 0.46461049463358839 -0.41117161714406408 0 0.45329728287846061 -0.39963099679296588 0 0.45606522570456098 -0.38599652494351028 0 0.46812846895096999 -0.38912968091376021 0 0.45329728287846061 -0.39963099679296588 0 0.45693362330993059 -0.41584542252527262 0 0.45329728287846061 -0.39963099679296588 0 0.4354004349648965 -0.40055780990002432 0 0.45329728287846061 -0.39963099679296588 0 0.4354004349648965 -0.40055780990002432 0 0.45329728287846061 -0.39963099679296588 0 0.4390969294492823 -0.3851451998924304 0 0.4354004349648965 -0.40055780990002432 0 0.45329728287846061 -0.39963099679296588 0 0.4390969294492823 -0.3851451998924304 0 0.45606522570456098 -0.38599652494351028 0 0.4390969294492823 -0.3851451998924304 0 0.44783900322824399 -0.38008781189722518 0 0.45606522570456098 -0.38599652494351028 0 0.45329728287846061 -0.39963099679296588 0 0.4390969294492823 -0.3851451998924304 0 0.4390969294492823 -0.3851451998924304 0 0.43808065797110041 -0.37748478958974491 0 0.44783900322824399 -0.38008781189722518 0 0.42782015831496062 -0.38505662608606978 0 0.4354004349648965 -0.40055780990002432 0 0.41188669282555868 -0.38386409155992901 0 0.42489657602010461 -0.37065940299189432 0 0.4390969294492823 -0.3851451998924304 0 0.42782015831496062 -0.38505662608606978 0 0.42489657602010461 -0.37065940299189432 0 0.4390969294492823 -0.3851451998924304 0 0.43808065797110041 -0.37748478958974491 0 0.42489657602010461 -0.37065940299189432 0 0.4390969294492823 -0.3851451998924304 0 0.4390969294492823 -0.3851451998924304 0 0.42782015831496062 -0.38505662608606978 0 0.4354004349648965 -0.40055780990002432 0 0.4354004349648965 -0.40055780990002432 0 0.41188669282555868 -0.38386409155992901 0 0.4354004349648965 -0.40055780990002432 0 0.40669862042327182 -0.40204417319942209 0 0.4354004349648965 -0.40055780990002432 0 0.40669862042327182 -0.40204417319942209 0 0.41188669282555868 -0.38386409155992901 0 0.42489657602010461 -0.37065940299189432 0 0.42782015831496062 -0.38505662608606978 0 0.41188669282555868 -0.38386409155992901 0 0.42489657602010461 -0.37065940299189432 0 0.4070765621089808 -0.37107032214525337 0 0.41188669282555868 -0.38386409155992901 0 0.4070765621089808 -0.37107032214525337 0 0.39585190457779329 -0.37201308858561799 0 0.39886607975096749 -0.38470810625682389 0 0.40669862042327182 -0.40204417319942209 0 0.41188669282555868 -0.38386409155992901 0 0.39886607975096749 -0.38470810625682389 0 0.4070765621089808 -0.37107032214525337 0 0.41188669282555868 -0.38386409155992901 0 0.39886607975096749 -0.38470810625682389 0 0.39585190457779329 -0.37201308858561799 0 0.39886607975096749 -0.38470810625682389 0 0.38601585554704992 -0.38244526212700758 0 0.39886607975096749 -0.38470810625682389 0 0.38601585554704992 -0.38244526212700758 0 0.37799680588164719 -0.40353053649882148 0 0.38601585554704992 -0.38244526212700758 0 0.37799680588164719 -0.40353053649882148 0 0.38601585554704992 -0.38244526212700758 0 0.37799680588164719 -0.40353053649882148 0 0.36816388811638329 -0.39545065246060412 0 0.37799680588164719 -0.40353053649882148 0 0.37635446215448021 -0.40784891206015261 0 0.37799680588164719 -0.40353053649882148 0 0.37505152225636262 -0.40368306209891941 0 0.37635446215448021 -0.40784891206015261 0 0.37799680588164719 -0.40353053649882148 0 0.37505152225636262 -0.40368306209891941 0 0.40669862042327182 -0.40204417319942209 0 0.39886607975096749 -0.38470810625682389 0 0.37799680588164719 -0.40353053649882148 0 0.40669862042327182 -0.40204417319942209 0 0.37799680588164719 -0.40353053649882148 0 0.40669862042327182 -0.40204417319942209 0 0.38553791301154328 -0.41840677215457472 0 0.40567792500840172 -0.4277251834563135 0 0.40669862042327182 -0.40204417319942209 0 0.37799680588164719 -0.40353053649882148 0 0.38553791301154328 -0.41840677215457472 0 0.38553791301154328 -0.41840677215457472 0 0.36905142820508552 -0.42917232846767789 0 0.37241381966677689 -0.417360225696081 0 0.38553791301154328 -0.41840677215457472 0 0.37635446215448021 -0.40784891206015261 0 0.37241381966677689 -0.417360225696081 0 0.37799680588164719 -0.40353053649882148 0 0.38553791301154328 -0.41840677215457472 0 0.37635446215448021 -0.40784891206015261 0 0.38553791301154328 -0.41840677215457472 0 0.38807715457860831 -0.4388905332329941 0 0.36905142820508552 -0.42917232846767789 0 0.38553791301154328 -0.41840677215457472 0 0.40567792500840172 -0.4277251834563135 0 0.38807715457860831 -0.4388905332329941 0 0.40567792500840172 -0.4277251834563135 0 0.42351101069396863 -0.41893046606618117 0 0.42653452723640378 -0.44279137365393179 0 0.4354004349648965 -0.40055780990002432 0 0.40669862042327182 -0.40204417319942209 0 0.42351101069396863 -0.41893046606618117 0 0.40669862042327182 -0.40204417319942209 0 0.40567792500840172 -0.4277251834563135 0 0.42351101069396863 -0.41893046606618117 0 0.44324354583686831 -0.42153379012121539 0 0.4354004349648965 -0.40055780990002432 0 0.42351101069396863 -0.41893046606618117 0 0.44324354583686831 -0.42153379012121539 0 0.42653452723640378 -0.44279137365393179 0 0.44324354583686831 -0.42153379012121539 0 0.42351101069396863 -0.41893046606618117 0 0.42653452723640378 -0.44279137365393179 0 0.44442683605218691 -0.44583817528272968 0 0.42653452723640378 -0.44279137365393179 0 0.43057418754349119 -0.46211781715143319 0 0.42653452723640378 -0.44279137365393179 0 0.43057418754349119 -0.46211781715143319 0 0.40982550863593931 -0.46404895718664829 0 0.42653452723640378 -0.44279137365393179 0 0.40982550863593931 -0.46404895718664829 0 0.42653452723640378 -0.44279137365393179 0 0.40982550863593931 -0.46404895718664829 0 0.4036378289262339 -0.44671034290208689 0 0.40567792500840172 -0.4277251834563135 0 0.42653452723640378 -0.44279137365393179 0 0.4036378289262339 -0.44671034290208689 0 0.40567792500840172 -0.4277251834563135 0 0.4036378289262339 -0.44671034290208689 0 0.38807715457860831 -0.4388905332329941 0 0.4036378289262339 -0.44671034290208689 0 0.38807715457860831 -0.4388905332329941 0 0.38807402917181633 -0.46009566698054732 0 0.38807715457860831 -0.4388905332329941 0 0.3733961412993268 -0.45022493016754961 0 0.36905142820508552 -0.42917232846767789 0 0.38807715457860831 -0.4388905332329941 0 0.38807402917181633 -0.46009566698054732 0 0.3733961412993268 -0.45022493016754961 0 0.38807402917181633 -0.46009566698054732 0 0.36593927904035028 -0.47432204071884282 0 0.3733961412993268 -0.45022493016754961 0 0.40982550863593931 -0.46404895718664829 0 0.4036378289262339 -0.44671034290208689 0 0.38807402917181633 -0.46009566698054732 0 0.40982550863593931 -0.46404895718664829 0 0.39311649003547477 -0.48530654071936469 0 0.40982550863593931 -0.46404895718664829 0 0.38807402917181633 -0.46009566698054732 0 0.39311649003547477 -0.48530654071936469 0 0.38807402917181633 -0.46009566698054732 0 0.39311649003547477 -0.48530654071936469 0 0.36593927904035028 -0.47432204071884282 0 0.37603974257992701 -0.49999999999999978 0 0.39311649003547477 -0.48530654071936469 0 0.36593927904035028 -0.47432204071884282 0 0.37603974257992701 -0.49999999999999978 0 0.39676616081738958 -0.5 0 0.39311649003547477 -0.48530654071936469 0 0.39676616081738958 -0.5 0 0.39311649003547477 -0.48530654071936469 0 0.41749257905485199 -0.50000000000000033 0 0.40982550863593931 -0.46404895718664829 0 0.41749257905485199 -0.50000000000000033 0 0.43264288253940292 -0.48275234633568048 0 0.40982550863593931 -0.46404895718664829 0 0.39311649003547477 -0.48530654071936469 0 0.41749257905485199 -0.50000000000000033 0 0.43057418754349119 -0.46211781715143319 0 0.40982550863593931 -0.46404895718664829 0 0.43264288253940292 -0.48275234633568048 0 0.44779318602395363 -0.46550469267136052 0 0.43057418754349119 -0.46211781715143319 0 0.43264288253940292 -0.48275234633568048 0 0.41749257905485199 -0.50000000000000033 0 0.43264288253940292 -0.48275234633568048 0 0.32215468257820618 -0.5 0 0.33760568703239408 -0.47417818032706111 0 0.31005432530219129 -0.48106067464861729 0 0.33760568703239408 -0.47417818032706111 0 0.3189449745883719 -0.46117016543644002 0 0.31005432530219129 -0.48106067464861729 0 0.32215468257820618 -0.5 0 0.33760568703239408 -0.47417818032706111 0 0.34909721257906662 -0.5 0 0.37603974257992701 -0.49999999999999978 0 0.34909721257906662 -0.5 0 0.36593927904035028 -0.47432204071884282 0 0.37603974257992701 -0.49999999999999978 0 0.36593927904035028 -0.47432204071884282 0 0.33760568703239408 -0.47417818032706111 0 0.34909721257906662 -0.5 0 0.36593927904035028 -0.47432204071884282 0 0.33760568703239408 -0.47417818032706111 0 0.36593927904035028 -0.47432204071884282 0 0.35583881550077368 -0.44864408143768569 0 0.36593927904035028 -0.47432204071884282 0 0.35583881550077368 -0.44864408143768569 0 0.36593927904035028 -0.47432204071884282 0 0.3733961412993268 -0.45022493016754961 0 0.35583881550077368 -0.44864408143768569 0 0.3733961412993268 -0.45022493016754961 0 0.35583881550077368 -0.44864408143768569 0 0.36905142820508552 -0.42917232846767789 0 0.35583881550077368 -0.44864408143768569 0 0.33540415989768779 -0.44905252560006492 0 0.34573835196119679 -0.42296612215652868 0 0.33760568703239408 -0.47417818032706111 0 0.35583881550077368 -0.44864408143768569 0 0.33540415989768779 -0.44905252560006492 0 0.33760568703239408 -0.47417818032706111 0 0.33540415989768779 -0.44905252560006492 0 0.3189449745883719 -0.46117016543644002 0 0.33540415989768779 -0.44905252560006492 0 0.3189449745883719 -0.46117016543644002 0 0.32126124445813709 -0.43429719032362252 0 0.3189449745883719 -0.46117016543644002 0 0.32126124445813709 -0.43429719032362252 0 0.30480654487456732 -0.44641521679941309 0 0.32126124445813709 -0.43429719032362252 0 0.3193156137706864 -0.40941365839269389 0 0.29937418247959258 -0.41817563384508599 0 0.3193156137706864 -0.40941365839269389 0 0.34573835196119679 -0.42296612215652868 0 0.33563788842162012 -0.39728816287537172 0 0.34573835196119679 -0.42296612215652868 0 0.33563788842162012 -0.39728816287537172 0 0.33540415989768779 -0.44905252560006492 0 0.32126124445813709 -0.43429719032362252 0 0.34573835196119679 -0.42296612215652868 0 0.32126124445813709 -0.43429719032362252 0 0.3193156137706864 -0.40941365839269389 0 0.34573835196119679 -0.42296612215652868 0 0.35583881550077368 -0.44864408143768569 0 0.34573835196119679 -0.42296612215652868 0 0.36905142820508552 -0.42917232846767789 0 0.35583881550077368 -0.44864408143768569 0 0.34573835196119679 -0.42296612215652868 0 0.36905142820508552 -0.42917232846767789 0 0.37241381966677689 -0.417360225696081 0 0.36195200988480669 -0.41065981681110758 0 0.36990343230398692 -0.40830781576793279 0 0.37241381966677689 -0.417360225696081 0 0.36195200988480669 -0.41065981681110758 0 0.37635446215448021 -0.40784891206015261 0 0.36990343230398692 -0.40830781576793279 0 0.37241381966677689 -0.417360225696081 0 0.37505152225636262 -0.40368306209891941 0 0.37635446215448021 -0.40784891206015261 0 0.36990343230398692 -0.40830781576793279 0 0.36990343230398692 -0.40830781576793279 0 0.36195200988480669 -0.41065981681110758 0 0.36876771314038492 -0.40452533678464098 0 0.34573835196119679 -0.42296612215652868 0 0.36195200988480669 -0.41065981681110758 0 0.35211107663302149 -0.40015425695529971 0 0.34573835196119679 -0.42296612215652868 0 0.36905142820508552 -0.42917232846767789 0 0.36195200988480669 -0.41065981681110758 0 0.34573835196119679 -0.42296612215652868 0 0.35211107663302149 -0.40015425695529971 0 0.33563788842162012 -0.39728816287537172 0 0.35211107663302149 -0.40015425695529971 0 0.35352794608594401 -0.38791341326287138 0 0.33563788842162012 -0.39728816287537172 0 0.35211107663302149 -0.40015425695529971 0 0.36816388811638329 -0.39545065246060412 0 0.35352794608594401 -0.38791341326287138 0 0.36195200988480669 -0.41065981681110758 0 0.36816388811638329 -0.39545065246060412 0 0.36876771314038492 -0.40452533678464098 0 0.36195200988480669 -0.41065981681110758 0 0.35211107663302149 -0.40015425695529971 0 0.36816388811638329 -0.39545065246060412 0 0.37505152225636262 -0.40368306209891941 0 0.36816388811638329 -0.39545065246060412 0 0.36876771314038492 -0.40452533678464098 0 0.37799680588164719 -0.40353053649882148 0 0.37505152225636262 -0.40368306209891941 0 0.36816388811638329 -0.39545065246060412 0 0.37505152225636262 -0.40368306209891941 0 0.36990343230398692 -0.40830781576793279 0 0.36876771314038492 -0.40452533678464098 0 0.38601585554704992 -0.38244526212700758 0 0.36816388811638329 -0.39545065246060412 0 0.3689120952668708 -0.37284951495870189 0 0.36816388811638329 -0.39545065246060412 0 0.35352794608594401 -0.38791341326287138 0 0.3689120952668708 -0.37284951495870189 0 0.35352794608594401 -0.38791341326287138 0 0.33563788842162012 -0.39728816287537172 0 0.34467783115022588 -0.37252705130409253 0 0.35352794608594401 -0.38791341326287138 0 0.3689120952668708 -0.37284951495870189 0 0.34467783115022588 -0.37252705130409253 0 0.33563788842162012 -0.39728816287537172 0 0.3255374248820434 -0.37161020359421471 0 0.33563788842162012 -0.39728816287537172 0 0.34467783115022588 -0.37252705130409253 0 0.3255374248820434 -0.37161020359421471 0 0.3193156137706864 -0.40941365839269389 0 0.33563788842162012 -0.39728816287537172 0 0.30534853388527528 -0.38930881101125692 0 0.33563788842162012 -0.39728816287537172 0 0.30534853388527528 -0.38930881101125692 0 0.3255374248820434 -0.37161020359421471 0 0.30534853388527528 -0.38930881101125692 0 0.3255374248820434 -0.37161020359421471 0 0.30525369772634148 -0.37164386163485291 0 0.30534853388527528 -0.38930881101125692 0 0.28783989868818821 -0.37644057584389279 0 0.30525369772634148 -0.37164386163485291 0 0.3193156137706864 -0.40941365839269389 0 0.30534853388527528 -0.38930881101125692 0 0.29937418247959258 -0.41817563384508599 0 0.30534853388527528 -0.38930881101125692 0 0.28922044672054198 -0.39637746652331562 0 0.29937418247959258 -0.41817563384508599 0 0.28922044672054198 -0.39637746652331562 0 0.27510086349567708 -0.39798721671617321 0 0.28320928432356041 -0.41012407252970262 0 0.28922044672054198 -0.39637746652331562 0 0.28783989868818821 -0.37644057584389279 0 0.27924907625512951 -0.38731579260330862 0 0.30534853388527528 -0.38930881101125692 0 0.28922044672054198 -0.39637746652331562 0 0.28783989868818821 -0.37644057584389279 0 0.30534853388527528 -0.38930881101125692 0 0.28783989868818821 -0.37644057584389279 0 0.28783989868818821 -0.37644057584389279 0 0.27447250226623809 -0.37821124143188289 0 0.27924907625512951 -0.38731579260330862 0 0.27447250226623809 -0.37821124143188289 0 0.27924907625512951 -0.38731579260330862 0 0.26961167010500181 -0.38756246250127813 0 0.27447250226623809 -0.37821124143188289 0 0.26961167010500181 -0.38756246250127813 0 0.26423397132697279 -0.37890457124200982 0 0.26961167010500181 -0.38756246250127813 0 0.26423397132697279 -0.37890457124200982 0 0.25687819372407023 -0.38903915957053298 0 0.26423397132697279 -0.37890457124200982 0 0.25687819372407023 -0.38903915957053298 0 0.24987622704845311 -0.37613765202982719 0 0.25108303853213881 -0.40002667887407228 0 0.26390234922262928 -0.39930308446362528 0 0.256136481120742 -0.41447562176841068 0 0.25687819372407023 -0.38903915957053298 0 0.25108303853213881 -0.40002667887407228 0 0.24309899287842279 -0.39271330151873202 0 0.25687819372407023 -0.38903915957053298 0 0.25108303853213881 -0.40002667887407228 0 0.26390234922262928 -0.39930308446362528 0 0.26961167010500181 -0.38756246250127813 0 0.25687819372407023 -0.38903915957053298 0 0.26390234922262928 -0.39930308446362528 0 0.26390234922262928 -0.39930308446362528 0 0.27510086349567708 -0.39798721671617321 0 0.2708804648698091 -0.41009655218672442 0 0.26961167010500181 -0.38756246250127813 0 0.26390234922262928 -0.39930308446362528 0 0.27510086349567708 -0.39798721671617321 0 0.28922044672054198 -0.39637746652331562 0 0.27924907625512951 -0.38731579260330862 0 0.27510086349567708 -0.39798721671617321 0 0.27924907625512951 -0.38731579260330862 0 0.26961167010500181 -0.38756246250127813 0 0.27510086349567708 -0.39798721671617321 0 0.27510086349567708 -0.39798721671617321 0 0.2708804648698091 -0.41009655218672442 0 0.28320928432356041 -0.41012407252970262 0 0.2708804648698091 -0.41009655218672442 0 0.256136481120742 -0.41447562176841068 0 0.27433621812851161 -0.42550461519375637 0 0.2708804648698091 -0.41009655218672442 0 0.27433621812851161 -0.42550461519375637 0 0.28320928432356041 -0.41012407252970262 0 0.26390234922262928 -0.39930308446362528 0 0.2708804648698091 -0.41009655218672442 0 0.256136481120742 -0.41447562176841068 0 0.25108303853213881 -0.40002667887407228 0 0.256136481120742 -0.41447562176841068 0 0.24629253832767661 -0.41022035877505542 0 0.256136481120742 -0.41447562176841068 0 0.25513396950241118 -0.43290986753561628 0 0.2453827316299185 -0.42192330194190181 0 0.256136481120742 -0.41447562176841068 0 0.25513396950241118 -0.43290986753561628 0 0.27433621812851161 -0.42550461519375637 0 0.25513396950241118 -0.43290986753561628 0 0.27433621812851161 -0.42550461519375637 0 0.26752346795397081 -0.44788636482661331 0 0.27433621812851161 -0.42550461519375637 0 0.29937418247959258 -0.41817563384508599 0 0.28546596250580908 -0.44246723239800262 0 0.29937418247959258 -0.41817563384508599 0 0.30480654487456732 -0.44641521679941309 0 0.28546596250580908 -0.44246723239800262 0 0.28922044672054198 -0.39637746652331562 0 0.28320928432356041 -0.41012407252970262 0 0.29937418247959258 -0.41817563384508599 0 0.27433621812851161 -0.42550461519375637 0 0.28320928432356041 -0.41012407252970262 0 0.29937418247959258 -0.41817563384508599 0 0.32126124445813709 -0.43429719032362252 0 0.29937418247959258 -0.41817563384508599 0 0.30480654487456732 -0.44641521679941309 0 0.3189449745883719 -0.46117016543644002 0 0.30480654487456732 -0.44641521679941309 0 0.28880919487484108 -0.4658549053918814 0 0.30480654487456732 -0.44641521679941309 0 0.28880919487484108 -0.4658549053918814 0 0.28546596250580908 -0.44246723239800262 0 0.27433621812851161 -0.42550461519375637 0 0.28546596250580908 -0.44246723239800262 0 0.26752346795397081 -0.44788636482661331 0 0.28880919487484108 -0.4658549053918814 0 0.28546596250580908 -0.44246723239800262 0 0.26752346795397081 -0.44788636482661331 0 0.25513396950241118 -0.43290986753561628 0 0.26752346795397081 -0.44788636482661331 0 0.24480843210435321 -0.45079661158300749 0 0.26752346795397081 -0.44788636482661331 0 0.2588368117714554 -0.46700690363883102 0 0.24480843210435321 -0.45079661158300749 0 0.28880919487484108 -0.4658549053918814 0 0.26752346795397081 -0.44788636482661331 0 0.2588368117714554 -0.46700690363883102 0 0.28880919487484108 -0.4658549053918814 0 0.2588368117714554 -0.46700690363883102 0 0.27227655507569209 -0.48076744006000099 0 0.2588368117714554 -0.46700690363883102 0 0.27227655507569209 -0.48076744006000099 0 0.25270961841775552 -0.48460016746525392 0 0.2588368117714554 -0.46700690363883102 0 0.25270961841775552 -0.48460016746525392 0 0.23949561189523169 -0.47426551941090739 0 0.25270961841775552 -0.48460016746525392 0 0.26826962257648529 -0.5 0 0.2413270925756249 -0.5 0 0.27227655507569209 -0.48076744006000099 0 0.25270961841775552 -0.48460016746525392 0 0.26826962257648529 -0.5 0 0.27227655507569209 -0.48076744006000099 0 0.26826962257648529 -0.5 0 0.29521215257734579 -0.5 0 0.28880919487484108 -0.4658549053918814 0 0.27227655507569209 -0.48076744006000099 0 0.29521215257734579 -0.5 0 0.28880919487484108 -0.4658549053918814 0 0.29521215257734579 -0.5 0 0.31005432530219129 -0.48106067464861729 0 0.3189449745883719 -0.46117016543644002 0 0.28880919487484108 -0.4658549053918814 0 0.31005432530219129 -0.48106067464861729 0 0.32215468257820618 -0.5 0 0.29521215257734579 -0.5 0 0.31005432530219129 -0.48106067464861729 0 0.33463237856908817 -0.28956894479377399 0 0.33485830675890288 -0.30442904333306592 0 0.35657459314761941 -0.2860097891906741 0 0.33463237856908817 -0.28956894479377399 0 0.32894302133540282 -0.28710755170783531 0 0.35195887039823659 -0.28200771363307098 0 0.32894302133540282 -0.28710755170783531 0 0.35195887039823659 -0.28200771363307098 0 0.32894302133540282 -0.28710755170783531 0 0.33255663915089151 -0.29722249741805129 0 0.33463237856908817 -0.28956894479377399 0 0.32894302133540282 -0.28710755170783531 0 0.33255663915089151 -0.29722249741805129 0 0.32894302133540282 -0.28710755170783531 0 0.33255663915089151 -0.29722249741805129 0 0.32301709761150521 -0.2972128627914089 0 0.33485830675890288 -0.30442904333306592 0 0.34824447571033601 -0.30253517369681238 0 0.34533870308018377 -0.31598934501886372 0 0.33485830675890288 -0.30442904333306592 0 0.33255663915089151 -0.29722249741805129 0 0.32434770264142349 -0.30499280498860082 0 0.33463237856908817 -0.28956894479377399 0 0.33485830675890288 -0.30442904333306592 0 0.33255663915089151 -0.29722249741805129 0 0.32301709761150521 -0.2972128627914089 0 0.32434770264142349 -0.30499280498860082 0 0.3171485971304504 -0.30589952111326829 0 0.32434770264142349 -0.30499280498860082 0 0.3171485971304504 -0.30589952111326829 0 0.31314202037018413 -0.32284829747545468 0 0.33485830675890288 -0.30442904333306592 0 0.32434770264142349 -0.30499280498860082 0 0.31314202037018413 -0.32284829747545468 0 0.33255663915089151 -0.29722249741805129 0 0.32301709761150521 -0.2972128627914089 0 0.32434770264142349 -0.30499280498860082 0 0.3171485971304504 -0.30589952111326829 0 0.31208952779935789 -0.2908419387292881 0 0.30833746379913463 -0.30503745501229762 0 0.32301709761150521 -0.2972128627914089 0 0.3171485971304504 -0.30589952111326829 0 0.31208952779935789 -0.2908419387292881 0 0.32894302133540282 -0.28710755170783531 0 0.31611371382327402 -0.28007222207304999 0 0.31208952779935789 -0.2908419387292881 0 0.32894302133540282 -0.28710755170783531 0 0.32301709761150521 -0.2972128627914089 0 0.31208952779935789 -0.2908419387292881 0 0.32894302133540282 -0.28710755170783531 0 0.31208952779935789 -0.2908419387292881 0 0.32894302133540282 -0.28710755170783531 0 0.32245882367699719 -0.26895751187574157 0 0.32894302133540282 -0.28710755170783531 0 0.31611371382327402 -0.28007222207304999 0 0.32245882367699719 -0.26895751187574157 0 0.31611371382327402 -0.28007222207304999 0 0.32245882367699719 -0.26895751187574157 0 0.30706455279928557 -0.27339796693147528 0 0.32245882367699719 -0.26895751187574157 0 0.30981211567343969 -0.26250129009931661 0 0.30706455279928557 -0.27339796693147528 0 0.32245882367699719 -0.26895751187574157 0 0.31597462601859122 -0.25080747204364812 0 0.32245882367699719 -0.26895751187574157 0 0.31597462601859122 -0.25080747204364812 0 0.30981211567343969 -0.26250129009931661 0 0.32245882367699719 -0.26895751187574157 0 0.31597462601859122 -0.25080747204364812 0 0.33396674820841349 -0.26640759283836002 0 0.31597462601859122 -0.25080747204364812 0 0.33396674820841349 -0.26640759283836002 0 0.33517615116993849 -0.24743488902137309 0 0.33396674820841349 -0.26640759283836002 0 0.35185333732921159 -0.25428502110151557 0 0.33517615116993849 -0.24743488902137309 0 0.31597462601859122 -0.25080747204364812 0 0.33396674820841349 -0.26640759283836002 0 0.32894302133540282 -0.28710755170783531 0 0.32245882367699719 -0.26895751187574157 0 0.33396674820841349 -0.26640759283836002 0 0.33396674820841349 -0.26640759283836002 0 0.35195887039823659 -0.28200771363307098 0 0.32894302133540282 -0.28710755170783531 0 0.33396674820841349 -0.26640759283836002 0 0.35195887039823659 -0.28200771363307098 0 0.33396674820841349 -0.26640759283836002 0 0.35159414215374007 -0.26901089914998932 0 0.35195887039823659 -0.28200771363307098 0 0.35159414215374007 -0.26901089914998932 0 0.36459381448795669 -0.2792080702757721 0 0.35195887039823659 -0.28200771363307098 0 0.36459381448795669 -0.2792080702757721 0 0.35195887039823659 -0.28200771363307098 0 0.33396674820841349 -0.26640759283836002 0 0.35159414215374007 -0.26901089914998932 0 0.35185333732921159 -0.25428502110151557 0 0.35159414215374007 -0.26901089914998932 0 0.35185333732921159 -0.25428502110151557 0 0.36435388824524378 -0.26651308148643732 0 0.37477580018058132 -0.24095111383496479 0 0.37683953433427181 -0.26882153263446662 0 0.36563983252638571 -0.25462703483095822 0 0.36075586336603621 -0.2426037127049111 0 0.35185333732921159 -0.25428502110151557 0 0.36563983252638571 -0.25462703483095822 0 0.35185333732921159 -0.25428502110151557 0 0.36563983252638571 -0.25462703483095822 0 0.36435388824524378 -0.26651308148643732 0 0.37683953433427181 -0.26882153263446662 0 0.36563983252638571 -0.25462703483095822 0 0.36435388824524378 -0.26651308148643732 0 0.36459381448795669 -0.2792080702757721 0 0.36308990924476459 -0.28048364807874221 0 0.35195887039823659 -0.28200771363307098 0 0.36459381448795669 -0.2792080702757721 0 0.36308990924476459 -0.28048364807874221 0 0.37273728942595791 -0.27740364396778311 0 0.36459381448795669 -0.2792080702757721 0 0.36308990924476459 -0.28048364807874221 0 0.35159414215374007 -0.26901089914998932 0 0.36459381448795669 -0.2792080702757721 0 0.36435388824524378 -0.26651308148643732 0 0.37683953433427181 -0.26882153263446662 0 0.36459381448795669 -0.2792080702757721 0 0.36435388824524378 -0.26651308148643732 0 0.36459381448795669 -0.2792080702757721 0 0.37273728942595791 -0.27740364396778311 0 0.37683953433427181 -0.26882153263446662 0 0.36459381448795669 -0.2792080702757721 0 0.37273728942595791 -0.27740364396778311 0 0.37683953433427181 -0.26882153263446662 0 0.36459381448795669 -0.2792080702757721 0 0.36308990924476459 -0.28048364807874221 0 0.37273728942595791 -0.27740364396778311 0 0.37795999762798671 -0.28395322059410122 0 0.37273728942595791 -0.27740364396778311 0 0.36936745264149701 -0.28627283508716472 0 0.35657459314761941 -0.2860097891906741 0 0.35620629985463748 -0.30371251724464648 0 0.37101427446782781 -0.29852975601036341 0 0.36308990924476459 -0.28048364807874221 0 0.37273728942595791 -0.27740364396778311 0 0.36936745264149701 -0.28627283508716472 0 0.37519981906117678 -0.29055939022370142 0 0.37795999762798671 -0.28395322059410122 0 0.36936745264149701 -0.28627283508716472 0 0.37519981906117678 -0.29055939022370142 0 0.36936745264149701 -0.28627283508716472 0 0.37101427446782781 -0.29852975601036341 0 0.36936745264149701 -0.28627283508716472 0 0.35657459314761941 -0.2860097891906741 0 0.37101427446782781 -0.29852975601036341 0 0.35657459314761941 -0.2860097891906741 0 0.37101427446782781 -0.29852975601036341 0 0.36308990924476459 -0.28048364807874221 0 0.36936745264149701 -0.28627283508716472 0 0.35657459314761941 -0.2860097891906741 0 0.36308990924476459 -0.28048364807874221 0 0.35657459314761941 -0.2860097891906741 0 0.36308990924476459 -0.28048364807874221 0 0.35366972758071469 -0.28349111722646431 0 0.33463237856908817 -0.28956894479377399 0 0.35366972758071469 -0.28349111722646431 0 0.33463237856908817 -0.28956894479377399 0 0.35366972758071469 -0.28349111722646431 0 0.35195887039823659 -0.28200771363307098 0 0.36308990924476459 -0.28048364807874221 0 0.35366972758071469 -0.28349111722646431 0 0.35195887039823659 -0.28200771363307098 0 0.33485830675890288 -0.30442904333306592 0 0.35657459314761941 -0.2860097891906741 0 0.36308990924476459 -0.28048364807874221 0 0.35366972758071469 -0.28349111722646431 0 0.35657459314761941 -0.2860097891906741 0 0.33463237856908817 -0.28956894479377399 0 0.35366972758071469 -0.28349111722646431 0 0.35657459314761941 -0.2860097891906741 0 0.35366972758071469 -0.28349111722646431 0 0.35657459314761941 -0.2860097891906741 0 0.35366972758071469 -0.28349111722646431 0 0.35195887039823659 -0.28200771363307098 0 0.35620629985463748 -0.30371251724464648 0 0.36380134767337091 -0.31365371592763602 0 0.34533870308018377 -0.31598934501886372 0 0.35657459314761941 -0.2860097891906741 0 0.34824447571033601 -0.30253517369681238 0 0.35620629985463748 -0.30371251724464648 0 0.33485830675890288 -0.30442904333306592 0 0.35657459314761941 -0.2860097891906741 0 0.34824447571033601 -0.30253517369681238 0 0.34824447571033601 -0.30253517369681238 0 0.35620629985463748 -0.30371251724464648 0 0.34533870308018377 -0.31598934501886372 0 0.38545395578803499 -0.31104972283005378 0 0.37101427446782781 -0.29852975601036341 0 0.36380134767337091 -0.31365371592763602 0 0.35620629985463748 -0.30371251724464648 0 0.37101427446782781 -0.29852975601036341 0 0.36380134767337091 -0.31365371592763602 0 0.38545395578803499 -0.31104972283005378 0 0.36380134767337091 -0.31365371592763602 0 0.36945761595668469 -0.32738841673247931 0 0.36380134767337091 -0.31365371592763602 0 0.36945761595668469 -0.32738841673247931 0 0.35533723689285712 -0.32525253772940937 0 0.36945761595668469 -0.32738841673247931 0 0.35618710249729552 -0.34088690244721892 0 0.35533723689285712 -0.32525253772940937 0 0.36945761595668469 -0.32738841673247931 0 0.35618710249729552 -0.34088690244721892 0 0.37368731816096312 -0.34897020548070451 0 0.35618710249729552 -0.34088690244721892 0 0.33810128782584858 -0.35072533414536311 0 0.34064131712366241 -0.33181983138849169 0 0.35618710249729552 -0.34088690244721892 0 0.35533723689285712 -0.32525253772940937 0 0.34064131712366241 -0.33181983138849169 0 0.34533870308018377 -0.31598934501886372 0 0.35533723689285712 -0.32525253772940937 0 0.34064131712366241 -0.33181983138849169 0 0.36380134767337091 -0.31365371592763602 0 0.34533870308018377 -0.31598934501886372 0 0.35533723689285712 -0.32525253772940937 0 0.3689120952668708 -0.37284951495870189 0 0.37368731816096312 -0.34897020548070451 0 0.35738528973841999 -0.35772904562383351 0 0.35618710249729552 -0.34088690244721892 0 0.37368731816096312 -0.34897020548070451 0 0.35738528973841999 -0.35772904562383351 0 0.35618710249729552 -0.34088690244721892 0 0.35738528973841999 -0.35772904562383351 0 0.33810128782584858 -0.35072533414536311 0 0.35738528973841999 -0.35772904562383351 0 0.34467783115022588 -0.37252705130409253 0 0.33810128782584858 -0.35072533414536311 0 0.3689120952668708 -0.37284951495870189 0 0.35738528973841999 -0.35772904562383351 0 0.34467783115022588 -0.37252705130409253 0 0.34467783115022588 -0.37252705130409253 0 0.33810128782584858 -0.35072533414536311 0 0.3255374248820434 -0.37161020359421471 0 0.31543696134246668 -0.34593224431305769 0 0.3255374248820434 -0.37161020359421471 0 0.30900602422585888 -0.35865430802761772 0 0.31543696134246668 -0.34593224431305769 0 0.3255374248820434 -0.37161020359421471 0 0.33810128782584858 -0.35072533414536311 0 0.31543696134246668 -0.34593224431305769 0 0.3255374248820434 -0.37161020359421471 0 0.3255374248820434 -0.37161020359421471 0 0.30525369772634148 -0.37164386163485291 0 0.30900602422585888 -0.35865430802761772 0 0.34533870308018377 -0.31598934501886372 0 0.33130220335757699 -0.32186248444176119 0 0.34064131712366241 -0.33181983138849169 0 0.33485830675890288 -0.30442904333306592 0 0.34533870308018377 -0.31598934501886372 0 0.33130220335757699 -0.32186248444176119 0 0.33810128782584858 -0.35072533414536311 0 0.34064131712366241 -0.33181983138849169 0 0.3268430880468266 -0.33457206034663262 0 0.33130220335757699 -0.32186248444176119 0 0.34064131712366241 -0.33181983138849169 0 0.3268430880468266 -0.33457206034663262 0 0.31543696134246668 -0.34593224431305769 0 0.3268430880468266 -0.33457206034663262 0 0.31314202037018413 -0.32284829747545468 0 0.33810128782584858 -0.35072533414536311 0 0.31543696134246668 -0.34593224431305769 0 0.3268430880468266 -0.33457206034663262 0 0.33130220335757699 -0.32186248444176119 0 0.3268430880468266 -0.33457206034663262 0 0.31314202037018413 -0.32284829747545468 0 0.33485830675890288 -0.30442904333306592 0 0.31314202037018413 -0.32284829747545468 0 0.3171485971304504 -0.30589952111326829 0 0.31314202037018413 -0.32284829747545468 0 0.3109911447756647 -0.31350988965823029 0 0.33485830675890288 -0.30442904333306592 0 0.33130220335757699 -0.32186248444176119 0 0.31314202037018413 -0.32284829747545468 0 0.31314202037018413 -0.32284829747545468 0 0.30533649780288991 -0.32025428503190068 0 0.3109911447756647 -0.31350988965823029 0 0.30533649780288991 -0.32025428503190068 0 0.3109911447756647 -0.31350988965823029 0 0.30833746379913463 -0.30503745501229762 0 0.31543696134246668 -0.34593224431305769 0 0.30533649780288991 -0.32025428503190068 0 0.30314188851555429 -0.3464145030398364 0 0.30533649780288991 -0.32025428503190068 0 0.29792146783109758 -0.32077626486014349 0 0.30314188851555429 -0.3464145030398364 0 0.31543696134246668 -0.34593224431305769 0 0.31314202037018413 -0.32284829747545468 0 0.30533649780288991 -0.32025428503190068 0 0.29792146783109758 -0.32077626486014349 0 0.30314188851555429 -0.3464145030398364 0 0.31543696134246668 -0.34593224431305769 0 0.30533649780288991 -0.32025428503190068 0 0.29792146783109758 -0.32077626486014349 0 0.29422135484035322 -0.33366994296298719 0 0.30314188851555429 -0.3464145030398364 0 0.29422135484035322 -0.33366994296298719 0 0.29546103181119637 -0.34185893253319311 0 0.30314188851555429 -0.3464145030398364 0 0.29422135484035322 -0.33366994296298719 0 0.29546103181119637 -0.34185893253319311 0 0.28827175492889229 -0.34275780055790278 0 0.29546103181119637 -0.34185893253319311 0 0.28827175492889229 -0.34275780055790278 0 0.29811044553331972 -0.34650788457159087 0 0.29422135484035322 -0.33366994296298719 0 0.28827175492889229 -0.34275780055790278 0 0.27955848846152698 -0.33666113426449551 0 0.29422135484035322 -0.33366994296298719 0 0.28744860979629389 -0.32474860906702402 0 0.27955848846152698 -0.33666113426449551 0 0.28744860979629389 -0.32474860906702402 0 0.29019889155513462 -0.31620785207956748 0 0.28097437988070417 -0.31138482246715898 0 0.29792146783109758 -0.32077626486014349 0 0.29019889155513462 -0.31620785207956748 0 0.29244758100571983 -0.32385066724243061 0 0.29422135484035322 -0.33366994296298719 0 0.28744860979629389 -0.32474860906702402 0 0.29244758100571983 -0.32385066724243061 0 0.29792146783109758 -0.32077626486014349 0 0.29422135484035322 -0.33366994296298719 0 0.29244758100571983 -0.32385066724243061 0 0.28744860979629389 -0.32474860906702402 0 0.29019889155513462 -0.31620785207956748 0 0.29244758100571983 -0.32385066724243061 0 0.30525369772634148 -0.37164386163485291 0 0.30031449930387721 -0.36082981960256849 0 0.30900602422585888 -0.35865430802761772 0 0.30525369772634148 -0.37164386163485291 0 0.30031449930387721 -0.36082981960256849 0 0.29483415024835152 -0.36747827247447862 0 0.30080593951138668 -0.35381036279877531 0 0.30900602422585888 -0.35865430802761772 0 0.30314188851555429 -0.3464145030398364 0 0.30080593951138668 -0.35381036279877531 0 0.29811044553331972 -0.34650788457159087 0 0.29345683997832372 -0.35664529875226292 0 0.30031449930387721 -0.36082981960256849 0 0.30080593951138668 -0.35381036279877531 0 0.30900602422585888 -0.35865430802761772 0 0.30031449930387721 -0.36082981960256849 0 0.30080593951138668 -0.35381036279877531 0 0.29345683997832372 -0.35664529875226292 0 0.31543696134246668 -0.34593224431305769 0 0.30900602422585888 -0.35865430802761772 0 0.30314188851555429 -0.3464145030398364 0 0.30080593951138668 -0.35381036279877531 0 0.30314188851555429 -0.3464145030398364 0 0.29811044553331972 -0.34650788457159087 0 0.29546103181119637 -0.34185893253319311 0 0.30314188851555429 -0.3464145030398364 0 0.29811044553331972 -0.34650788457159087 0 0.29811044553331972 -0.34650788457159087 0 0.29345683997832372 -0.35664529875226292 0 0.28122462644821988 -0.35688066365974619 0 0.28827175492889229 -0.34275780055790278 0 0.29811044553331972 -0.34650788457159087 0 0.28122462644821988 -0.35688066365974619 0 0.28827175492889229 -0.34275780055790278 0 0.28122462644821988 -0.35688066365974619 0 0.27955848846152698 -0.33666113426449551 0 0.29811044553331972 -0.34650788457159087 0 0.28122462644821988 -0.35688066365974619 0 0.29345683997832372 -0.35664529875226292 0 0.28676543400443838 -0.36101512068260139 0 0.28122462644821988 -0.35688066365974619 0 0.28676543400443838 -0.36101512068260139 0 0.28122462644821988 -0.35688066365974619 0 0.28783989868818821 -0.37644057584389279 0 0.30525369772634148 -0.37164386163485291 0 0.29483415024835152 -0.36747827247447862 0 0.28783989868818821 -0.37644057584389279 0 0.28676543400443838 -0.36101512068260139 0 0.27033126349110148 -0.36357234067652822 0 0.29357505063040601 -0.36145191270551408 0 0.28676543400443838 -0.36101512068260139 0 0.29483415024835152 -0.36747827247447862 0 0.30031449930387721 -0.36082981960256849 0 0.29357505063040601 -0.36145191270551408 0 0.29483415024835152 -0.36747827247447862 0 0.30031449930387721 -0.36082981960256849 0 0.29345683997832372 -0.35664529875226292 0 0.29357505063040601 -0.36145191270551408 0 0.29345683997832372 -0.35664529875226292 0 0.29357505063040601 -0.36145191270551408 0 0.28676543400443838 -0.36101512068260139 0 0.28783989868818821 -0.37644057584389279 0 0.28676543400443838 -0.36101512068260139 0 0.29483415024835152 -0.36747827247447862 0 0.28783989868818821 -0.37644057584389279 0 0.27033126349110148 -0.36357234067652822 0 0.28783989868818821 -0.37644057584389279 0 0.27447250226623809 -0.37821124143188289 0 0.27033126349110148 -0.36357234067652822 0 0.28676543400443838 -0.36101512068260139 0 0.27033126349110148 -0.36357234067652822 0 0.28122462644821988 -0.35688066365974619 0 0.27447250226623809 -0.37821124143188289 0 0.26423397132697279 -0.37890457124200982 0 0.27033126349110148 -0.36357234067652822 0 0.27033126349110148 -0.36357234067652822 0 0.28122462644821988 -0.35688066365974619 0 0.28122462644821988 -0.35688066365974619 0 0.26082083375001269 -0.34165569813656432 0 0.27033126349110148 -0.36357234067652822 0 0.28122462644821988 -0.35688066365974619 0 0.26082083375001269 -0.34165569813656432 0 0.28122462644821988 -0.35688066365974619 0 0.27955848846152698 -0.33666113426449551 0 0.26082083375001269 -0.34165569813656432 0 0.27033126349110148 -0.36357234067652822 0 0.25099839141978419 -0.34936335514031408 0 0.27033126349110148 -0.36357234067652822 0 0.25099839141978419 -0.34936335514031408 0 0.26082083375001269 -0.34165569813656432 0 0.27033126349110148 -0.36357234067652822 0 0.25099839141978419 -0.34936335514031408 0 0.24534349961555019 -0.36253701182870851 0 0.26423397132697279 -0.37890457124200982 0 0.27033126349110148 -0.36357234067652822 0 0.24987622704845311 -0.37613765202982719 0 0.27033126349110148 -0.36357234067652822 0 0.24534349961555019 -0.36253701182870851 0 0.24987622704845311 -0.37613765202982719 0 0.27033126349110148 -0.36357234067652822 0 0.24987622704845311 -0.37613765202982719 0 0.28744860979629389 -0.32474860906702402 0 0.26598899428458778 -0.32103793389256657 0 0.27955848846152698 -0.33666113426449551 0 0.28744860979629389 -0.32474860906702402 0 0.26598899428458778 -0.32103793389256657 0 0.28097437988070417 -0.31138482246715898 0 0.26598899428458778 -0.32103793389256657 0 0.27955848846152698 -0.33666113426449551 0 0.26082083375001269 -0.34165569813656432 0 0.26082083375001269 -0.34165569813656432 0 0.2404170410518052 -0.32643073261338312 0 0.26598899428458778 -0.32103793389256657 0 0.26082083375001269 -0.34165569813656432 0 0.2404170410518052 -0.32643073261338312 0 0.25099839141978419 -0.34936335514031408 0 0.26082083375001269 -0.34165569813656432 0 0.2404170410518052 -0.32643073261338312 0 0.26598899428458778 -0.32103793389256657 0 0.24423538898563429 -0.30587701823941071 0 0.2404170410518052 -0.32643073261338312 0 0.26846821806613752 -0.30050752245993012 0 0.24423538898563429 -0.30587701823941071 0 0.25301376652256202 -0.2892367573709661 0 0.26846821806613752 -0.30050752245993012 0 0.24423538898563429 -0.30587701823941071 0 0.26598899428458778 -0.32103793389256657 0 0.26846821806613752 -0.30050752245993012 0 0.24423538898563429 -0.30587701823941071 0 0.25301376652256202 -0.2892367573709661 0 0.26500420865911251 -0.28331687632378699 0 0.26846821806613752 -0.30050752245993012 0 0.25301376652256202 -0.2892367573709661 0 0.26500420865911251 -0.28331687632378699 0 0.2507153324002197 -0.27704953531328702 0 0.26500420865911251 -0.28331687632378699 0 0.27805302037335089 -0.28584974436810762 0 0.26846821806613752 -0.30050752245993012 0 0.27805302037335089 -0.28584974436810762 0 0.26846821806613752 -0.30050752245993012 0 0.29270104714664102 -0.29513802668045069 0 0.26500420865911251 -0.28331687632378699 0 0.27805302037335089 -0.28584974436810762 0 0.27342558025451552 -0.27498979272208851 0 0.26598899428458778 -0.32103793389256657 0 0.26846821806613752 -0.30050752245993012 0 0.28097437988070417 -0.31138482246715898 0 0.26846821806613752 -0.30050752245993012 0 0.28097437988070417 -0.31138482246715898 0 0.29270104714664102 -0.29513802668045069 0 0.26846821806613752 -0.30050752245993012 0 0.29270104714664102 -0.29513802668045069 0 0.29792146783109758 -0.32077626486014349 0 0.29270104714664102 -0.29513802668045069 0 0.29019889155513462 -0.31620785207956748 0 0.28097437988070417 -0.31138482246715898 0 0.29270104714664102 -0.29513802668045069 0 0.29792146783109758 -0.32077626486014349 0 0.29019889155513462 -0.31620785207956748 0 0.29270104714664102 -0.29513802668045069 0 0.29792146783109758 -0.32077626486014349 0 0.29270104714664102 -0.29513802668045069 0 0.29523603426331357 -0.29457632575074338 0 0.27805302037335089 -0.28584974436810762 0 0.29026987947112831 -0.28319821192468808 0 0.29270104714664102 -0.29513802668045069 0 0.27805302037335089 -0.28584974436810762 0 0.29026987947112831 -0.28319821192468808 0 0.28863308206368682 -0.27515966401439529 0 0.29026987947112831 -0.28319821192468808 0 0.29523603426331357 -0.29457632575074338 0 0.29026987947112831 -0.28319821192468808 0 0.29523603426331357 -0.29457632575074338 0 0.30320790951940702 -0.28313078900162059 0 0.29026987947112831 -0.28319821192468808 0 0.29270104714664102 -0.29513802668045069 0 0.29523603426331357 -0.29457632575074338 0 0.29026987947112831 -0.28319821192468808 0 0.29270104714664102 -0.29513802668045069 0 0.29270104714664102 -0.29513802668045069 0 0.29523603426331357 -0.29457632575074338 0 0.29523603426331357 -0.29457632575074338 0 0.31208952779935789 -0.2908419387292881 0 0.29523603426331357 -0.29457632575074338 0 0.30320790951940702 -0.28313078900162059 0 0.31208952779935789 -0.2908419387292881 0 0.29523603426331357 -0.29457632575074338 0 0.31208952779935789 -0.2908419387292881 0 0.30833746379913463 -0.30503745501229762 0 0.31611371382327402 -0.28007222207304999 0 0.30320790951940702 -0.28313078900162059 0 0.31208952779935789 -0.2908419387292881 0 0.30533649780288991 -0.32025428503190068 0 0.29523603426331357 -0.29457632575074338 0 0.30833746379913463 -0.30503745501229762 0 0.30533649780288991 -0.32025428503190068 0 0.29792146783109758 -0.32077626486014349 0 0.29523603426331357 -0.29457632575074338 0 0.30533649780288991 -0.32025428503190068 0 0.29523603426331357 -0.29457632575074338 0 0.3171485971304504 -0.30589952111326829 0 0.3109911447756647 -0.31350988965823029 0 0.30833746379913463 -0.30503745501229762 0 0.29812220868357159 -0.26533402464574418 0 0.30111904597271899 -0.2536098058489899 0 0.30981211567343969 -0.26250129009931661 0 0.31597462601859122 -0.25080747204364812 0 0.30111904597271899 -0.2536098058489899 0 0.30981211567343969 -0.26250129009931661 0 0.29812220868357159 -0.26533402464574418 0 0.30981211567343969 -0.26250129009931661 0 0.30706455279928557 -0.27339796693147528 0 0.31611371382327402 -0.28007222207304999 0 0.30320790951940702 -0.28313078900162059 0 0.30706455279928557 -0.27339796693147528 0 0.29026987947112831 -0.28319821192468808 0 0.30320790951940702 -0.28313078900162059 0 0.29755036247591721 -0.27602563541609298 0 0.30320790951940702 -0.28313078900162059 0 0.30706455279928557 -0.27339796693147528 0 0.29755036247591721 -0.27602563541609298 0 0.29812220868357159 -0.26533402464574418 0 0.30706455279928557 -0.27339796693147528 0 0.29755036247591721 -0.27602563541609298 0 0.29812220868357159 -0.26533402464574418 0 0.29755036247591721 -0.27602563541609298 0 0.28863308206368682 -0.27515966401439529 0 0.29026987947112831 -0.28319821192468808 0 0.28863308206368682 -0.27515966401439529 0 0.29026987947112831 -0.28319821192468808 0 0.29755036247591721 -0.27602563541609298 0 0.28863308206368682 -0.27515966401439529 0 0.28863308206368682 -0.27515966401439529 0 0.28456511698073272 -0.25518130134833977 0 0.29812220868357159 -0.26533402464574418 0 0.28863308206368682 -0.27515966401439529 0 0.28456511698073272 -0.25518130134833977 0 0.29812220868357159 -0.26533402464574418 0 0.30111904597271899 -0.2536098058489899 0 0.28456511698073272 -0.25518130134833977 0 0.28863308206368682 -0.27515966401439529 0 0.28456511698073272 -0.25518130134833977 0 0.27223885194073971 -0.26265851400849172 0 0.28456511698073272 -0.25518130134833977 0 0.27223885194073971 -0.26265851400849172 0 0.26629969424128969 -0.25192769388052821 0 0.27223885194073971 -0.26265851400849172 0 0.26629969424128969 -0.25192769388052821 0 0.2629172406837702 -0.26740365320709081 0 0.26500420865911251 -0.28331687632378699 0 0.27342558025451552 -0.27498979272208851 0 0.2629172406837702 -0.26740365320709081 0 0.28863308206368682 -0.27515966401439529 0 0.27223885194073971 -0.26265851400849172 0 0.27342558025451552 -0.27498979272208851 0 0.27805302037335089 -0.28584974436810762 0 0.28863308206368682 -0.27515966401439529 0 0.27342558025451552 -0.27498979272208851 0 0.27223885194073971 -0.26265851400849172 0 0.27342558025451552 -0.27498979272208851 0 0.2629172406837702 -0.26740365320709081 0 0.26500420865911251 -0.28331687632378699 0 0.2629172406837702 -0.26740365320709081 0 0.2507153324002197 -0.27704953531328702 0 0.2629172406837702 -0.26740365320709081 0 0.2507153324002197 -0.27704953531328702 0 0.2466218950091964 -0.26012473444713258 0 0.25037283077400019 -0.2416092145933311 0 0.26629969424128969 -0.25192769388052821 0 0.2466218950091964 -0.26012473444713258 0 0.26629969424128969 -0.25192769388052821 0 0.2629172406837702 -0.26740365320709081 0 0.2466218950091964 -0.26012473444713258 0 0.25037283077400019 -0.2416092145933311 0 0.2466218950091964 -0.26012473444713258 0 0.2339549802858914 -0.24933471903745599 0 0.2466218950091964 -0.26012473444713258 0 0.22717476572977791 -0.26325637954660608 0 0.2339549802858914 -0.24933471903745599 0 0.2466218950091964 -0.26012473444713258 0 0.23628574795648369 -0.27498419313581679 0 0.22717476572977791 -0.26325637954660608 0 0.2507153324002197 -0.27704953531328702 0 0.2466218950091964 -0.26012473444713258 0 0.23628574795648369 -0.27498419313581679 0 0.2507153324002197 -0.27704953531328702 0 0.23628574795648369 -0.27498419313581679 0 0.24044913557019401 -0.28723099739492908 0 0.2247339410531527 -0.27667652802353632 0 0.21554844428562811 -0.26491471108287651 0 0.21653111649902579 -0.28712771180040292 0 0.23628574795648369 -0.27498419313581679 0 0.2247339410531527 -0.27667652802353632 0 0.22717476572977791 -0.26325637954660608 0 0.2247339410531527 -0.27667652802353632 0 0.22717476572977791 -0.26325637954660608 0 0.21554844428562811 -0.26491471108287651 0 0.22717476572977791 -0.26325637954660608 0 0.22331750647786899 -0.25281133177650322 0 0.2339549802858914 -0.24933471903745599 0 0.22717476572977791 -0.26325637954660608 0 0.22331750647786899 -0.25281133177650322 0 0.21554844428562811 -0.26491471108287651 0 0.2084475354763706 -0.25511513831035743 0 0.21554844428562811 -0.26491471108287651 0 0.1982966667633215 -0.26354120971092698 0 0.21554844428562811 -0.26491471108287651 0 0.21456577207223029 -0.24270171036535029 0 0.22331750647786899 -0.25281133177650322 0 0.21554844428562811 -0.26491471108287651 0 0.21456577207223029 -0.24270171036535029 0 0.2084475354763706 -0.25511513831035743 0 0.21554844428562811 -0.26491471108287651 0 0.21336353465090491 -0.24693864317134839 0 0.21554844428562811 -0.26491471108287651 0 0.21336353465090491 -0.24693864317134839 0 0.21456577207223029 -0.24270171036535029 0 0.2084475354763706 -0.25511513831035743 0 0.1982966667633215 -0.26354120971092698 0 0.2080714594183444 -0.2424179483002232 0 0.1982966667633215 -0.26354120971092698 0 0.2080714594183444 -0.2424179483002232 0 0.21554844428562811 -0.26491471108287651 0 0.21653111649902579 -0.28712771180040292 0 0.21554844428562811 -0.26491471108287651 0 0.20859607852913339 -0.28093905456482821 0 0.21653111649902579 -0.28712771180040292 0 0.21554844428562811 -0.26491471108287651 0 0.20859607852913339 -0.28093905456482821 0 0.2011380539128553 -0.27767933622792518 0 0.21554844428562811 -0.26491471108287651 0 0.2011380539128553 -0.27767933622792518 0 0.1982966667633215 -0.26354120971092698 0 0.1982966667633215 -0.26354120971092698 0 0.18852187410829821 -0.28466447112163068 0 0.1982966667633215 -0.26354120971092698 0 0.18852187410829821 -0.28466447112163068 0 0.1845366839674035 -0.26640487959885623 0 0.2011380539128553 -0.27767933622792518 0 0.1982966667633215 -0.26354120971092698 0 0.18852187410829821 -0.28466447112163068 0 0.1982966667633215 -0.26354120971092698 0 0.2080714594183444 -0.2424179483002232 0 0.19254414318066221 -0.24961624770678509 0 0.1982966667633215 -0.26354120971092698 0 0.18706352147094041 -0.25756661524031438 0 0.1845366839674035 -0.26640487959885623 0 0.1982966667633215 -0.26354120971092698 0 0.18706352147094041 -0.25756661524031438 0 0.19254414318066221 -0.24961624770678509 0 0.18706352147094041 -0.25756661524031438 0 0.19254414318066221 -0.24961624770678509 0 0.18399505531774341 -0.24981832115951039 0 0.20249447748908611 -0.29813355613580778 0 0.1976485991634879 -0.30796138879627621 0 0.19462594870140809 -0.30164723750547567 0 0.20249447748908611 -0.29813355613580778 0 0.19462594870140809 -0.30164723750547567 0 0.19392418081794471 -0.29575522021664652 0 0.20249447748908611 -0.29813355613580778 0 0.1976485991634879 -0.30796138879627621 0 0.20782414549410869 -0.30817847155873718 0 0.1976485991634879 -0.30796138879627621 0 0.20782414549410869 -0.30817847155873718 0 0.20282381327660201 -0.31505297042611552 0 0.1976485991634879 -0.30796138879627621 0 0.19009702279388629 -0.3064242775921906 0 0.18802618722583669 -0.31833181955932999 0 0.1976485991634879 -0.30796138879627621 0 0.19009702279388629 -0.3064242775921906 0 0.19462594870140809 -0.30164723750547567 0 0.19009702279388629 -0.3064242775921906 0 0.19462594870140809 -0.30164723750547567 0 0.1880606218677118 -0.30022154946313712 0 0.19462594870140809 -0.30164723750547567 0 0.19110113081553529 -0.29631368747161629 0 0.19392418081794471 -0.29575522021664652 0 0.1880606218677118 -0.30022154946313712 0 0.19110113081553529 -0.29631368747161629 0 0.18734834214976739 -0.29514628785519947 0 0.19462594870140809 -0.30164723750547567 0 0.1880606218677118 -0.30022154946313712 0 0.19110113081553529 -0.29631368747161629 0 0.20249447748908611 -0.29813355613580778 0 0.18747516626574931 -0.28692639975368628 0 0.20249447748908611 -0.29813355613580778 0 0.19392418081794471 -0.29575522021664652 0 0.18747516626574931 -0.28692639975368628 0 0.19110113081553529 -0.29631368747161629 0 0.19392418081794471 -0.29575522021664652 0 0.18747516626574931 -0.28692639975368628 0 0.19110113081553529 -0.29631368747161629 0 0.18747516626574931 -0.28692639975368628 0 0.18734834214976739 -0.29514628785519947 0 0.18852187410829821 -0.28466447112163068 0 0.19787122383615691 -0.29172525818392958 0 0.18852187410829821 -0.28466447112163068 0 0.19731262536099689 -0.28481999283041842 0 0.19787122383615691 -0.29172525818392958 0 0.18852187410829821 -0.28466447112163068 0 0.19787122383615691 -0.29172525818392958 0 0.18747516626574931 -0.28692639975368628 0 0.18852187410829821 -0.28466447112163068 0 0.18747516626574931 -0.28692639975368628 0 0.2011380539128553 -0.27767933622792518 0 0.18852187410829821 -0.28466447112163068 0 0.19731262536099689 -0.28481999283041842 0 0.201719349586677 -0.2852109057881882 0 0.19787122383615691 -0.29172525818392958 0 0.206049533411369 -0.28982701925762389 0 0.19731262536099689 -0.28481999283041842 0 0.201719349586677 -0.2852109057881882 0 0.19787122383615691 -0.29172525818392958 0 0.2011380539128553 -0.27767933622792518 0 0.19731262536099689 -0.28481999283041842 0 0.201719349586677 -0.2852109057881882 0 0.20249447748908611 -0.29813355613580778 0 0.19787122383615691 -0.29172525818392958 0 0.18747516626574931 -0.28692639975368628 0 0.20249447748908611 -0.29813355613580778 0 0.19787122383615691 -0.29172525818392958 0 0.206049533411369 -0.28982701925762389 0 0.20249447748908611 -0.29813355613580778 0 0.206049533411369 -0.28982701925762389 0 0.20903552332543929 -0.29406903275804652 0 0.206049533411369 -0.28982701925762389 0 0.20903552332543929 -0.29406903275804652 0 0.21653111649902579 -0.28712771180040292 0 0.20249447748908611 -0.29813355613580778 0 0.20903552332543929 -0.29406903275804652 0 0.2123558614978226 -0.29827812898856709 0 0.20859607852913339 -0.28093905456482821 0 0.206049533411369 -0.28982701925762389 0 0.21653111649902579 -0.28712771180040292 0 0.20859607852913339 -0.28093905456482821 0 0.201719349586677 -0.2852109057881882 0 0.206049533411369 -0.28982701925762389 0 0.20859607852913339 -0.28093905456482821 0 0.2011380539128553 -0.27767933622792518 0 0.201719349586677 -0.2852109057881882 0 0.20903552332543929 -0.29406903275804652 0 0.21653111649902579 -0.28712771180040292 0 0.2123558614978226 -0.29827812898856709 0 0.21653111649902579 -0.28712771180040292 0 0.2175137887124228 -0.30934071251792922 0 0.21653111649902579 -0.28712771180040292 0 0.2123558614978226 -0.29827812898856709 0 0.2175137887124228 -0.30934071251792922 0 0.20249447748908611 -0.29813355613580778 0 0.2123558614978226 -0.29827812898856709 0 0.2175137887124228 -0.30934071251792922 0 0.20249447748908611 -0.29813355613580778 0 0.2175137887124228 -0.30934071251792922 0 0.20782414549410869 -0.30817847155873718 0 0.2176214393273678 -0.31177412129290383 0 0.20282381327660201 -0.31505297042611552 0 0.20249447748908611 -0.29813355613580778 0 0.20782414549410869 -0.30817847155873718 0 0.2175137887124228 -0.30934071251792922 0 0.20782414549410869 -0.30817847155873718 0 0.2175137887124228 -0.30934071251792922 0 0.2176214393273678 -0.31177412129290383 0 0.2175137887124228 -0.30934071251792922 0 0.2176214393273678 -0.31177412129290383 0 0.2175137887124228 -0.30934071251792922 0 0.2176214393273678 -0.31177412129290383 0 0.21999804566891551 -0.31122614102315033 0 0.21999804566891551 -0.31122614102315033 0 0.24423538898563429 -0.30587701823941071 0 0.2175137887124228 -0.30934071251792922 0 0.21999804566891551 -0.31122614102315033 0 0.22812963079484819 -0.29309964455197901 0 0.21999804566891551 -0.31122614102315033 0 0.22812963079484819 -0.29309964455197901 0 0.21999804566891551 -0.31122614102315033 0 0.22812963079484819 -0.29309964455197901 0 0.24423538898563429 -0.30587701823941071 0 0.2176214393273678 -0.31177412129290383 0 0.21999804566891551 -0.31122614102315033 0 0.2175137887124228 -0.30934071251792922 0 0.21999804566891551 -0.31122614102315033 0 0.23628574795648369 -0.27498419313581679 0 0.22812963079484819 -0.29309964455197901 0 0.2247339410531527 -0.27667652802353632 0 0.21653111649902579 -0.28712771180040292 0 0.22812963079484819 -0.29309964455197901 0 0.23628574795648369 -0.27498419313581679 0 0.2247339410531527 -0.27667652802353632 0 0.22812963079484819 -0.29309964455197901 0 0.21653111649902579 -0.28712771180040292 0 0.2175137887124228 -0.30934071251792922 0 0.22812963079484819 -0.29309964455197901 0 0.23628574795648369 -0.27498419313581679 0 0.22812963079484819 -0.29309964455197901 0 0.24044913557019401 -0.28723099739492908 0 0.25301376652256202 -0.2892367573709661 0 0.24044913557019401 -0.28723099739492908 0 0.24423538898563429 -0.30587701823941071 0 0.22812963079484819 -0.29309964455197901 0 0.24044913557019401 -0.28723099739492908 0 0.24423538898563429 -0.30587701823941071 0 0.25301376652256202 -0.2892367573709661 0 0.2507153324002197 -0.27704953531328702 0 0.24044913557019401 -0.28723099739492908 0 0.21999804566891551 -0.31122614102315033 0 0.24423538898563429 -0.30587701823941071 0 0.2404170410518052 -0.32643073261338312 0 0.25099839141978419 -0.34936335514031408 0 0.2316655193484673 -0.33515436960409939 0 0.25099839141978419 -0.34936335514031408 0 0.2404170410518052 -0.32643073261338312 0 0.2316655193484673 -0.33515436960409939 0 0.2404170410518052 -0.32643073261338312 0 0.2316655193484673 -0.33515436960409939 0 0.2247705650129608 -0.32491873692320528 0 0.2316655193484673 -0.33515436960409939 0 0.22208049410379579 -0.34309390150507102 0 0.22867514261462599 -0.34782526071452929 0 0.2316655193484673 -0.33515436960409939 0 0.22208049410379579 -0.34309390150507102 0 0.220555537226792 -0.33578323097752499 0 0.22208049410379579 -0.34309390150507102 0 0.220555537226792 -0.33578323097752499 0 0.21451162402718699 -0.34512658597487872 0 0.220555537226792 -0.33578323097752499 0 0.2247705650129608 -0.32491873692320528 0 0.21820242441149371 -0.32490710899175251 0 0.2316655193484673 -0.33515436960409939 0 0.220555537226792 -0.33578323097752499 0 0.2247705650129608 -0.32491873692320528 0 0.21999804566891551 -0.31122614102315033 0 0.2404170410518052 -0.32643073261338312 0 0.2247705650129608 -0.32491873692320528 0 0.21999804566891551 -0.31122614102315033 0 0.2404170410518052 -0.32643073261338312 0 0.2247705650129608 -0.32491873692320528 0 0.21780935440599439 -0.31602188338433101 0 0.21820242441149371 -0.32490710899175251 0 0.21999804566891551 -0.31122614102315033 0 0.2247705650129608 -0.32491873692320528 0 0.21780935440599439 -0.31602188338433101 0 0.21999804566891551 -0.31122614102315033 0 0.21780935440599439 -0.31602188338433101 0 0.23679608458568241 -0.3713456781615978 0 0.24534349961555019 -0.36253701182870851 0 0.24987622704845311 -0.37613765202982719 0 0.23679608458568241 -0.3713456781615978 0 0.24534349961555019 -0.36253701182870851 0 0.23133102347449649 -0.35950822589080189 0 0.25099839141978419 -0.34936335514031408 0 0.2316655193484673 -0.33515436960409939 0 0.23760271529458479 -0.35087764463569071 0 0.24534349961555019 -0.36253701182870851 0 0.23760271529458479 -0.35087764463569071 0 0.23133102347449649 -0.35950822589080189 0 0.25099839141978419 -0.34936335514031408 0 0.24534349961555019 -0.36253701182870851 0 0.23760271529458479 -0.35087764463569071 0 0.2316655193484673 -0.33515436960409939 0 0.23760271529458479 -0.35087764463569071 0 0.22867514261462599 -0.34782526071452929 0 0.22208049410379579 -0.34309390150507102 0 0.22076837523631451 -0.35267920974236072 0 0.21451162402718699 -0.34512658597487872 0 0.22208049410379579 -0.34309390150507102 0 0.22867514261462599 -0.34782526071452929 0 0.22076837523631451 -0.35267920974236072 0 0.22076837523631451 -0.35267920974236072 0 0.22341137818785181 -0.36337688942730773 0 0.21609027172906259 -0.36087537471117581 0 0.22076837523631451 -0.35267920974236072 0 0.23133102347449649 -0.35950822589080189 0 0.22341137818785181 -0.36337688942730773 0 0.22867514261462599 -0.34782526071452929 0 0.22076837523631451 -0.35267920974236072 0 0.23133102347449649 -0.35950822589080189 0 0.23760271529458479 -0.35087764463569071 0 0.22867514261462599 -0.34782526071452929 0 0.23133102347449649 -0.35950822589080189 0 0.23133102347449649 -0.35950822589080189 0 0.22341137818785181 -0.36337688942730773 0 0.22699371624108439 -0.37103399677892651 0 0.22341137818785181 -0.36337688942730773 0 0.22699371624108439 -0.37103399677892651 0 0.21663927632257499 -0.37152038636996992 0 0.22699371624108439 -0.37103399677892651 0 0.21663927632257499 -0.37152038636996992 0 0.22189277223980711 -0.38054577212349588 0 0.23679608458568241 -0.3713456781615978 0 0.22699371624108439 -0.37103399677892651 0 0.23010576568282681 -0.37607478874810818 0 0.23679608458568241 -0.3713456781615978 0 0.23133102347449649 -0.35950822589080189 0 0.22699371624108439 -0.37103399677892651 0 0.21663927632257499 -0.37152038636996992 0 0.20683644217058031 -0.36558797855932218 0 0.20576161095015591 -0.37595213443190167 0 0.22341137818785181 -0.36337688942730773 0 0.21663927632257499 -0.37152038636996992 0 0.21609027172906259 -0.36087537471117581 0 0.21609027172906259 -0.36087537471117581 0 0.20683644217058031 -0.36558797855932218 0 0.21089823393406021 -0.35324530101306001 0 0.21663927632257499 -0.37152038636996992 0 0.21609027172906259 -0.36087537471117581 0 0.20683644217058031 -0.36558797855932218 0 0.19940837682496099 -0.35689206815154528 0 0.20777431361625601 -0.33831058893907762 0 0.21089823393406021 -0.35324530101306001 0 0.19940837682496099 -0.35689206815154528 0 0.20777431361625601 -0.33831058893907762 0 0.20683644217058031 -0.36558797855932218 0 0.21089823393406021 -0.35324530101306001 0 0.19940837682496099 -0.35689206815154528 0 0.22076837523631451 -0.35267920974236072 0 0.21609027172906259 -0.36087537471117581 0 0.21089823393406021 -0.35324530101306001 0 0.21089823393406021 -0.35324530101306001 0 0.21451162402718699 -0.34512658597487872 0 0.20777431361625601 -0.33831058893907762 0 0.22076837523631451 -0.35267920974236072 0 0.21089823393406021 -0.35324530101306001 0 0.21451162402718699 -0.34512658597487872 0 0.1971616983813648 -0.34495631128618592 0 0.19940837682496099 -0.35689206815154528 0 0.20777431361625601 -0.33831058893907762 0 0.1971616983813648 -0.34495631128618592 0 0.18787137947787569 -0.35180034780069419 0 0.18864170350563411 -0.33720407153827198 0 0.1971616983813648 -0.34495631128618592 0 0.18787137947787569 -0.35180034780069419 0 0.19940837682496099 -0.35689206815154528 0 0.20683644217058031 -0.36558797855932218 0 0.20576161095015591 -0.37595213443190167 0 0.1910424400336663 -0.37547354736401328 0 0.18787137947787569 -0.35180034780069419 0 0.19940837682496099 -0.35689206815154528 0 0.1910424400336663 -0.37547354736401328 0 0.19940837682496099 -0.35689206815154528 0 0.1910424400336663 -0.37547354736401328 0 0.20683644217058031 -0.36558797855932218 0 0.19940837682496099 -0.35689206815154528 0 0.1910424400336663 -0.37547354736401328 0 0.21780935440599439 -0.31602188338433101 0 0.20777431361625601 -0.33831058893907762 0 0.21780935440599439 -0.31602188338433101 0 0.20777431361625601 -0.33831058893907762 0 0.20282381327660201 -0.31505297042611552 0 0.21780935440599439 -0.31602188338433101 0 0.21820242441149371 -0.32490710899175251 0 0.20777431361625601 -0.33831058893907762 0 0.2176214393273678 -0.31177412129290383 0 0.20282381327660201 -0.31505297042611552 0 0.2176214393273678 -0.31177412129290383 0 0.21780935440599439 -0.31602188338433101 0 0.20282381327660201 -0.31505297042611552 0 0.2176214393273678 -0.31177412129290383 0 0.21780935440599439 -0.31602188338433101 0 0.2176214393273678 -0.31177412129290383 0 0.21999804566891551 -0.31122614102315033 0 0.21780935440599439 -0.31602188338433101 0 0.21780935440599439 -0.31602188338433101 0 0.21820242441149371 -0.32490710899175251 0 0.220555537226792 -0.33578323097752499 0 0.21820242441149371 -0.32490710899175251 0 0.20777431361625601 -0.33831058893907762 0 0.220555537226792 -0.33578323097752499 0 0.21451162402718699 -0.34512658597487872 0 0.20777431361625601 -0.33831058893907762 0 0.21451162402718699 -0.34512658597487872 0 0.20777431361625601 -0.33831058893907762 0 0.1971616983813648 -0.34495631128618592 0 0.20777431361625601 -0.33831058893907762 0 0.18864170350563411 -0.33720407153827198 0 0.20777431361625601 -0.33831058893907762 0 0.18802618722583669 -0.31833181955932999 0 0.20777431361625601 -0.33831058893907762 0 0.18864170350563411 -0.33720407153827198 0 0.18802618722583669 -0.31833181955932999 0 0.20777431361625601 -0.33831058893907762 0 0.20282381327660201 -0.31505297042611552 0 0.18802618722583669 -0.31833181955932999 0 0.20282381327660201 -0.31505297042611552 0 0.18802618722583669 -0.31833181955932999 0 0.1976485991634879 -0.30796138879627621 0 0.20282381327660201 -0.31505297042611552 0 0.18802618722583669 -0.31833181955932999 0 0.18802618722583669 -0.31833181955932999 0 0.1791507244663583 -0.32983729973660558 0 0.16791254130802971 -0.3227885891963716 0 0.18802618722583669 -0.31833181955932999 0 0.17151825735526699 -0.31325416760549368 0 0.16791254130802971 -0.3227885891963716 0 0.18802618722583669 -0.31833181955932999 0 0.16791254130802971 -0.3227885891963716 0 0.18864170350563411 -0.33720407153827198 0 0.18802618722583669 -0.31833181955932999 0 0.1791507244663583 -0.32983729973660558 0 0.17202246582593331 -0.34102471865244838 0 0.1791507244663583 -0.32983729973660558 0 0.16791254130802971 -0.3227885891963716 0 0.18787137947787569 -0.35180034780069419 0 0.18864170350563411 -0.33720407153827198 0 0.17202246582593331 -0.34102471865244838 0 0.18864170350563411 -0.33720407153827198 0 0.17202246582593331 -0.34102471865244838 0 0.1791507244663583 -0.32983729973660558 0 0.17202246582593331 -0.34102471865244838 0 0.1546435437787094 -0.34381338892778002 0 0.1557586906108582 -0.32786840018592928 0 0.17202246582593331 -0.34102471865244838 0 0.16791254130802971 -0.3227885891963716 0 0.1557586906108582 -0.32786840018592928 0 0.16791254130802971 -0.3227885891963716 0 0.1557586906108582 -0.32786840018592928 0 0.1602411687519314 -0.31190927739118429 0 0.17151825735526699 -0.31325416760549368 0 0.16791254130802971 -0.3227885891963716 0 0.1602411687519314 -0.31190927739118429 0 0.18787137947787569 -0.35180034780069419 0 0.17662324672053431 -0.35795823269279659 0 0.1910424400336663 -0.37547354736401328 0 0.17662324672053431 -0.35795823269279659 0 0.17035242753357599 -0.36877211446365682 0 0.1910424400336663 -0.37547354736401328 0 0.17035242753357599 -0.36877211446365682 0 0.1910424400336663 -0.37547354736401328 0 0.1737051017910701 -0.38004230502140057 0 0.18787137947787569 -0.35180034780069419 0 0.17202246582593331 -0.34102471865244838 0 0.17662324672053431 -0.35795823269279659 0 0.17202246582593331 -0.34102471865244838 0 0.17662324672053431 -0.35795823269279659 0 0.16265844046108829 -0.35526087104265458 0 0.17202246582593331 -0.34102471865244838 0 0.16265844046108829 -0.35526087104265458 0 0.1546435437787094 -0.34381338892778002 0 0.17662324672053431 -0.35795823269279659 0 0.16265844046108829 -0.35526087104265458 0 0.17035242753357599 -0.36877211446365682 0 0.16265844046108829 -0.35526087104265458 0 0.1569593121701936 -0.36832063090657668 0 0.17035242753357599 -0.36877211446365682 0 0.1569593121701936 -0.36832063090657668 0 0.17035242753357599 -0.36877211446365682 0 0.16307541855137739 -0.37743582412871929 0 0.14536400873927011 -0.3681220756701501 0 0.1426630499740982 -0.35652090160864008 0 0.13524945632583441 -0.37311377610700652 0 0.16265844046108829 -0.35526087104265458 0 0.1569593121701936 -0.36832063090657668 0 0.1426630499740982 -0.35652090160864008 0 0.14536400873927011 -0.3681220756701501 0 0.13524945632583441 -0.37311377610700652 0 0.14973869037300869 -0.38096853745143089 0 0.1569593121701936 -0.36832063090657668 0 0.14536400873927011 -0.3681220756701501 0 0.14973869037300869 -0.38096853745143089 0 0.1569593121701936 -0.36832063090657668 0 0.14536400873927011 -0.3681220756701501 0 0.1426630499740982 -0.35652090160864008 0 0.1546435437787094 -0.34381338892778002 0 0.1426630499740982 -0.35652090160864008 0 0.1424354920479888 -0.33775294740649747 0 0.16265844046108829 -0.35526087104265458 0 0.1546435437787094 -0.34381338892778002 0 0.1426630499740982 -0.35652090160864008 0 0.13449730155472761 -0.34743155680512378 0 0.12784456261830821 -0.36308533366748658 0 0.123981461538115 -0.35128285539313481 0 0.1426630499740982 -0.35652090160864008 0 0.13449730155472761 -0.34743155680512378 0 0.1424354920479888 -0.33775294740649747 0 0.1426630499740982 -0.35652090160864008 0 0.13449730155472761 -0.34743155680512378 0 0.12784456261830821 -0.36308533366748658 0 0.13449730155472761 -0.34743155680512378 0 0.13051916655351839 -0.33696304048325831 0 0.123981461538115 -0.35128285539313481 0 0.1426630499740982 -0.35652090160864008 0 0.12784456261830821 -0.36308533366748658 0 0.13524945632583441 -0.37311377610700652 0 0.12784456261830821 -0.36308533366748658 0 0.13524945632583441 -0.37311377610700652 0 0.12609635470998201 -0.38402791619100712 0 0.14855409589738661 -0.31441038212804873 0 0.1557586906108582 -0.32786840018592928 0 0.1602411687519314 -0.31190927739118429 0 0.1445015266660287 -0.32337949759917511 0 0.14855409589738661 -0.31441038212804873 0 0.13871327718005111 -0.31332369293528212 0 0.1445015266660287 -0.32337949759917511 0 0.14855409589738661 -0.31441038212804873 0 0.1557586906108582 -0.32786840018592928 0 0.1546435437787094 -0.34381338892778002 0 0.1557586906108582 -0.32786840018592928 0 0.1424354920479888 -0.33775294740649747 0 0.1445015266660287 -0.32337949759917511 0 0.1557586906108582 -0.32786840018592928 0 0.1424354920479888 -0.33775294740649747 0 0.1445015266660287 -0.32337949759917511 0 0.1424354920479888 -0.33775294740649747 0 0.13219802669416811 -0.32498852212276208 0 0.1424354920479888 -0.33775294740649747 0 0.13051916655351839 -0.33696304048325831 0 0.13219802669416811 -0.32498852212276208 0 0.13449730155472761 -0.34743155680512378 0 0.1424354920479888 -0.33775294740649747 0 0.13051916655351839 -0.33696304048325831 0 0.13051916655351839 -0.33696304048325831 0 0.13219802669416811 -0.32498852212276208 0 0.12260601330919629 -0.33072698382653798 0 0.1445015266660287 -0.32337949759917511 0 0.13219802669416811 -0.32498852212276208 0 0.13871327718005111 -0.31332369293528212 0 0.13219802669416811 -0.32498852212276208 0 0.1265219532001009 -0.3124330460259736 0 0.1192961391526948 -0.32261879728377291 0 0.13219802669416811 -0.32498852212276208 0 0.13871327718005111 -0.31332369293528212 0 0.1265219532001009 -0.3124330460259736 0 0.1265219532001009 -0.3124330460259736 0 0.1332586495603032 -0.30031372317270688 0 0.1198701537204314 -0.30089140532399938 0 0.1332586495603032 -0.30031372317270688 0 0.1242383748246253 -0.29131174999725179 0 0.1198701537204314 -0.30089140532399938 0 0.13871327718005111 -0.31332369293528212 0 0.1265219532001009 -0.3124330460259736 0 0.1332586495603032 -0.30031372317270688 0 0.13871327718005111 -0.31332369293528212 0 0.1332586495603032 -0.30031372317270688 0 0.147245411062319 -0.30441698656302629 0 0.14855409589738661 -0.31441038212804873 0 0.13871327718005111 -0.31332369293528212 0 0.147245411062319 -0.30441698656302629 0 0.147245411062319 -0.30441698656302629 0 0.15432967412725099 -0.29846298066074151 0 0.14327492933615671 -0.29425024746867751 0 0.1332586495603032 -0.30031372317270688 0 0.147245411062319 -0.30441698656302629 0 0.14327492933615671 -0.29425024746867751 0 0.147245411062319 -0.30441698656302629 0 0.15432967412725099 -0.29846298066074151 0 0.1602411687519314 -0.31190927739118429 0 0.14855409589738661 -0.31441038212804873 0 0.147245411062319 -0.30441698656302629 0 0.1602411687519314 -0.31190927739118429 0 0.15432967412725099 -0.29846298066074151 0 0.1517600770447052 -0.28164214899084639 0 0.14327492933615671 -0.29425024746867751 0 0.1517600770447052 -0.28164214899084639 0 0.14327492933615671 -0.29425024746867751 0 0.13646338677899769 -0.28546266283427663 0 0.1332586495603032 -0.30031372317270688 0 0.14327492933615671 -0.29425024746867751 0 0.13646338677899769 -0.28546266283427663 0 0.1332586495603032 -0.30031372317270688 0 0.13646338677899769 -0.28546266283427663 0 0.1242383748246253 -0.29131174999725179 0 0.13646338677899769 -0.28546266283427663 0 0.1233023238440631 -0.28097148456094378 0 0.1242383748246253 -0.29131174999725179 0 0.1517600770447052 -0.28164214899084639 0 0.13646338677899769 -0.28546266283427663 0 0.1311170075682456 -0.27142576198599933 0 0.1517600770447052 -0.28164214899084639 0 0.1311170075682456 -0.27142576198599933 0 0.1364827709165429 -0.26618641562940759 0 0.13646338677899769 -0.28546266283427663 0 0.1311170075682456 -0.27142576198599933 0 0.1233023238440631 -0.28097148456094378 0 0.1311170075682456 -0.27142576198599933 0 0.1364827709165429 -0.26618641562940759 0 0.1212054647883809 -0.25073068226796852 0 0.1364827709165429 -0.26618641562940759 0 0.13217397618885759 -0.25462043987800831 0 0.1212054647883809 -0.25073068226796852 0 0.1364827709165429 -0.26618641562940759 0 0.1212054647883809 -0.25073068226796852 0 0.1364827709165429 -0.26618641562940759 0 0.13217397618885759 -0.25462043987800831 0 0.14275904560399111 -0.25945725309375861 0 0.13217397618885759 -0.25462043987800831 0 0.1429630926125974 -0.2502577086919005 0 0.14275904560399111 -0.25945725309375861 0 0.1429630926125974 -0.2502577086919005 0 0.16574248336044761 -0.26746108990676593 0 0.1429630926125974 -0.2502577086919005 0 0.15128247879849499 -0.26292486595599002 0 0.16574248336044761 -0.26746108990676593 0 0.1429630926125974 -0.2502577086919005 0 0.16574248336044761 -0.26746108990676593 0 0.16001236861667459 -0.2513654190734112 0 0.1429630926125974 -0.2502577086919005 0 0.14275904560399111 -0.25945725309375861 0 0.15128247879849499 -0.26292486595599002 0 0.1364827709165429 -0.26618641562940759 0 0.14275904560399111 -0.25945725309375861 0 0.15128247879849499 -0.26292486595599002 0 0.1517600770447052 -0.28164214899084639 0 0.1364827709165429 -0.26618641562940759 0 0.15128247879849499 -0.26292486595599002 0 0.1517600770447052 -0.28164214899084639 0 0.15128247879849499 -0.26292486595599002 0 0.15776774232478771 -0.26956647822523339 0 0.1517600770447052 -0.28164214899084639 0 0.1311170075682456 -0.27142576198599933 0 0.1517600770447052 -0.28164214899084639 0 0.1364827709165429 -0.26618641562940759 0 0.1517600770447052 -0.28164214899084639 0 0.16209364730358741 -0.27452888323759039 0 0.16594555478614451 -0.28284233368471318 0 0.1517600770447052 -0.28164214899084639 0 0.16209364730358741 -0.27452888323759039 0 0.15776774232478771 -0.26956647822523339 0 0.16209364730358741 -0.27452888323759039 0 0.15776774232478771 -0.26956647822523339 0 0.16574248336044761 -0.26746108990676593 0 0.15128247879849499 -0.26292486595599002 0 0.15776774232478771 -0.26956647822523339 0 0.16574248336044761 -0.26746108990676593 0 0.16209364730358741 -0.27452888323759039 0 0.16574248336044761 -0.26746108990676593 0 0.16920230535812411 -0.27329149954452342 0 0.16209364730358741 -0.27452888323759039 0 0.16920230535812411 -0.27329149954452342 0 0.16594555478614451 -0.28284233368471318 0 0.16920230535812411 -0.27329149954452342 0 0.1710222018321049 -0.28124575318360368 0 0.16594555478614451 -0.28284233368471318 0 0.16574248336044761 -0.26746108990676593 0 0.16001236861667459 -0.2513654190734112 0 0.16988601458932601 -0.2589500224365659 0 0.16574248336044761 -0.26746108990676593 0 0.16988601458932601 -0.2589500224365659 0 0.17628584543496439 -0.26683535894776161 0 0.16001236861667459 -0.2513654190734112 0 0.16988601458932601 -0.2589500224365659 0 0.16978669848249819 -0.25098739912941831 0 0.1767458594742066 -0.25730285456071711 0 0.17619278994504239 -0.24587918172992959 0 0.18399505531774341 -0.24981832115951039 0 0.16978669848249819 -0.25098739912941831 0 0.1767458594742066 -0.25730285456071711 0 0.17619278994504239 -0.24587918172992959 0 0.16988601458932601 -0.2589500224365659 0 0.16978669848249819 -0.25098739912941831 0 0.1767458594742066 -0.25730285456071711 0 0.16988601458932601 -0.2589500224365659 0 0.1767458594742066 -0.25730285456071711 0 0.17628584543496439 -0.26683535894776161 0 0.1767458594742066 -0.25730285456071711 0 0.17628584543496439 -0.26683535894776161 0 0.1845366839674035 -0.26640487959885623 0 0.1767458594742066 -0.25730285456071711 0 0.18706352147094041 -0.25756661524031438 0 0.1845366839674035 -0.26640487959885623 0 0.1767458594742066 -0.25730285456071711 0 0.18706352147094041 -0.25756661524031438 0 0.18399505531774341 -0.24981832115951039 0 0.18852187410829821 -0.28466447112163068 0 0.17628584543496439 -0.26683535894776161 0 0.1845366839674035 -0.26640487959885623 0 0.18852187410829821 -0.28466447112163068 0 0.16574248336044761 -0.26746108990676593 0 0.18852187410829821 -0.28466447112163068 0 0.16574248336044761 -0.26746108990676593 0 0.17628584543496439 -0.26683535894776161 0 0.16920230535812411 -0.27329149954452342 0 0.18747516626574931 -0.28692639975368628 0 0.17602993407772211 -0.2832030986568283 0 0.18852187410829821 -0.28466447112163068 0 0.16574248336044761 -0.26746108990676593 0 0.16920230535812411 -0.27329149954452342 0 0.16920230535812411 -0.27329149954452342 0 0.18747516626574931 -0.28692639975368628 0 0.16920230535812411 -0.27329149954452342 0 0.1710222018321049 -0.28124575318360368 0 0.17602993407772211 -0.2832030986568283 0 0.18747516626574931 -0.28692639975368628 0 0.1806905449634813 -0.28832929748571318 0 0.17602993407772211 -0.2832030986568283 0 0.18852187410829821 -0.28466447112163068 0 0.16920230535812411 -0.27329149954452342 0 0.18747516626574931 -0.28692639975368628 0 0.18747516626574931 -0.28692639975368628 0 0.1806905449634813 -0.28832929748571318 0 0.18301660310609241 -0.29114958545392738 0 0.17291101310642881 -0.28564608084835003 0 0.17864991096044419 -0.29495009963706692 0 0.16594555478614451 -0.28284233368471318 0 0.1806905449634813 -0.28832929748571318 0 0.17602993407772211 -0.2832030986568283 0 0.17673138357400531 -0.28840876668861409 0 0.17602993407772211 -0.2832030986568283 0 0.17673138357400531 -0.28840876668861409 0 0.17291101310642881 -0.28564608084835003 0 0.1710222018321049 -0.28124575318360368 0 0.17602993407772211 -0.2832030986568283 0 0.17291101310642881 -0.28564608084835003 0 0.17673138357400531 -0.28840876668861409 0 0.17291101310642881 -0.28564608084835003 0 0.17864991096044419 -0.29495009963706692 0 0.17673138357400531 -0.28840876668861409 0 0.17909088347012619 -0.29088019083727579 0 0.17864991096044419 -0.29495009963706692 0 0.1806905449634813 -0.28832929748571318 0 0.17673138357400531 -0.28840876668861409 0 0.17909088347012619 -0.29088019083727579 0 0.17909088347012619 -0.29088019083727579 0 0.17864991096044419 -0.29495009963706692 0 0.18114425154506539 -0.29221912984395187 0 0.18747516626574931 -0.28692639975368628 0 0.18734834214976739 -0.29514628785519947 0 0.1827564496500734 -0.29712351473235832 0 0.18747516626574931 -0.28692639975368628 0 0.18301660310609241 -0.29114958545392738 0 0.1827564496500734 -0.29712351473235832 0 0.18114425154506539 -0.29221912984395187 0 0.18301660310609241 -0.29114958545392738 0 0.1827564496500734 -0.29712351473235832 0 0.17864991096044419 -0.29495009963706692 0 0.18114425154506539 -0.29221912984395187 0 0.1827564496500734 -0.29712351473235832 0 0.18747516626574931 -0.28692639975368628 0 0.1827564496500734 -0.29712351473235832 0 0.1806905449634813 -0.28832929748571318 0 0.18114425154506539 -0.29221912984395187 0 0.18301660310609241 -0.29114958545392738 0 0.1806905449634813 -0.28832929748571318 0 0.17909088347012619 -0.29088019083727579 0 0.18114425154506539 -0.29221912984395187 0 0.18802618722583669 -0.31833181955932999 0 0.18221347423979239 -0.30458962683289892 0 0.1698931321352706 -0.29998698427508858 0 0.1880606218677118 -0.30022154946313712 0 0.18734834214976739 -0.29514628785519947 0 0.1827564496500734 -0.29712351473235832 0 0.19009702279388629 -0.3064242775921906 0 0.1880606218677118 -0.30022154946313712 0 0.18221347423979239 -0.30458962683289892 0 0.18802618722583669 -0.31833181955932999 0 0.17151825735526699 -0.31325416760549368 0 0.1698931321352706 -0.29998698427508858 0 0.1880606218677118 -0.30022154946313712 0 0.18221347423979239 -0.30458962683289892 0 0.1827564496500734 -0.29712351473235832 0 0.18802618722583669 -0.31833181955932999 0 0.1698931321352706 -0.29998698427508858 0 0.17864991096044419 -0.29495009963706692 0 0.1827564496500734 -0.29712351473235832 0 0.17837824174639511 -0.29916255636935318 0 0.18221347423979239 -0.30458962683289892 0 0.1827564496500734 -0.29712351473235832 0 0.17837824174639511 -0.29916255636935318 0 0.19009702279388629 -0.3064242775921906 0 0.18802618722583669 -0.31833181955932999 0 0.18221347423979239 -0.30458962683289892 0 0.18221347423979239 -0.30458962683289892 0 0.17837824174639511 -0.29916255636935318 0 0.1698931321352706 -0.29998698427508858 0 0.17864991096044419 -0.29495009963706692 0 0.17837824174639511 -0.29916255636935318 0 0.1698931321352706 -0.29998698427508858 0 0.17151825735526699 -0.31325416760549368 0 0.1698931321352706 -0.29998698427508858 0 0.1602411687519314 -0.31190927739118429 0 0.15432967412725099 -0.29846298066074151 0 0.1698931321352706 -0.29998698427508858 0 0.1602411687519314 -0.31190927739118429 0 0.1517600770447052 -0.28164214899084639 0 0.17864991096044419 -0.29495009963706692 0 0.1698931321352706 -0.29998698427508858 0 0.1517600770447052 -0.28164214899084639 0 0.1698931321352706 -0.29998698427508858 0 0.15432967412725099 -0.29846298066074151 0 0.1517600770447052 -0.28164214899084639 0 0.1698931321352706 -0.29998698427508858 0 0.1517600770447052 -0.28164214899084639 0 0.17864991096044419 -0.29495009963706692 0 0.1517600770447052 -0.28164214899084639 0 0.17864991096044419 -0.29495009963706692 0 0.16594555478614451 -0.28284233368471318 0 0.1710222018321049 -0.28124575318360368 0 0.17291101310642881 -0.28564608084835003 0 0.16594555478614451 -0.28284233368471318 0 0.21438456257476449 -0.5 0 0.2048745361024723 -0.48472171768082351 0 0.18744203257390391 -0.5 0 0.19122796324104871 -0.48466606029959602 0 0.2048745361024723 -0.48472171768082351 0 0.18744203257390391 -0.5 0 0.19122796324104871 -0.48466606029959602 0 0.20365346230900849 -0.47086657296764728 0 0.1938641377332887 -0.4633108835168005 0 0.19122796324104871 -0.48466606029959602 0 0.20365346230900849 -0.47086657296764728 0 0.2048745361024723 -0.48472171768082351 0 0.21766866328091511 -0.47157360957620892 0 0.2048745361024723 -0.48472171768082351 0 0.22288060450936709 -0.48400008360299168 0 0.20365346230900849 -0.47086657296764728 0 0.21766866328091511 -0.47157360957620892 0 0.2048745361024723 -0.48472171768082351 0 0.21438456257476449 -0.5 0 0.2048745361024723 -0.48472171768082351 0 0.22288060450936709 -0.48400008360299168 0 0.21438456257476449 -0.5 0 0.23633351028628971 -0.48712361601618398 0 0.2413270925756249 -0.5 0 0.21438456257476449 -0.5 0 0.23633351028628971 -0.48712361601618398 0 0.22288060450936709 -0.48400008360299168 0 0.25270961841775552 -0.48460016746525392 0 0.23633351028628971 -0.48712361601618398 0 0.2413270925756249 -0.5 0 0.25270961841775552 -0.48460016746525392 0 0.23633351028628971 -0.48712361601618398 0 0.23949561189523169 -0.47426551941090739 0 0.23949561189523169 -0.47426551941090739 0 0.22288060450936709 -0.48400008360299168 0 0.22545312399173489 -0.46028769725088831 0 0.21766866328091511 -0.47157360957620892 0 0.22288060450936709 -0.48400008360299168 0 0.22545312399173489 -0.46028769725088831 0 0.23633351028628971 -0.48712361601618398 0 0.23949561189523169 -0.47426551941090739 0 0.22288060450936709 -0.48400008360299168 0 0.22288060450936709 -0.48400008360299168 0 0.22545312399173489 -0.46028769725088831 0 0.21766866328091511 -0.47157360957620892 0 0.22545312399173489 -0.46028769725088831 0 0.2186728293425339 -0.44755637628226819 0 0.2588368117714554 -0.46700690363883102 0 0.23949561189523169 -0.47426551941090739 0 0.2409729068143365 -0.46262444708906358 0 0.22545312399173489 -0.46028769725088831 0 0.2409729068143365 -0.46262444708906358 0 0.24480843210435321 -0.45079661158300749 0 0.2588368117714554 -0.46700690363883102 0 0.2409729068143365 -0.46262444708906358 0 0.24480843210435321 -0.45079661158300749 0 0.23949561189523169 -0.47426551941090739 0 0.22545312399173489 -0.46028769725088831 0 0.2409729068143365 -0.46262444708906358 0 0.24480843210435321 -0.45079661158300749 0 0.22802564347410281 -0.43657531089878487 0 0.2418992233321238 -0.43333026798624508 0 0.25513396950241118 -0.43290986753561628 0 0.24480843210435321 -0.45079661158300749 0 0.2418992233321238 -0.43333026798624508 0 0.22545312399173489 -0.46028769725088831 0 0.22802564347410281 -0.43657531089878487 0 0.2186728293425339 -0.44755637628226819 0 0.21246462128442831 -0.43168381348743168 0 0.22802564347410281 -0.43657531089878487 0 0.22545312399173489 -0.46028769725088831 0 0.2186728293425339 -0.44755637628226819 0 0.22802564347410281 -0.43657531089878487 0 0.22545312399173489 -0.46028769725088831 0 0.24480843210435321 -0.45079661158300749 0 0.22802564347410281 -0.43657531089878487 0 0.20442019459899149 -0.44533796874460208 0 0.2186728293425339 -0.44755637628226819 0 0.21246462128442831 -0.43168381348743168 0 0.21766866328091511 -0.47157360957620892 0 0.20442019459899149 -0.44533796874460208 0 0.21766866328091511 -0.47157360957620892 0 0.20442019459899149 -0.44533796874460208 0 0.2186728293425339 -0.44755637628226819 0 0.20365346230900849 -0.47086657296764728 0 0.21766866328091511 -0.47157360957620892 0 0.20442019459899149 -0.44533796874460208 0 0.20365346230900849 -0.47086657296764728 0 0.20442019459899149 -0.44533796874460208 0 0.1938641377332887 -0.4633108835168005 0 0.20442019459899149 -0.44533796874460208 0 0.18484232774876749 -0.43033534366960768 0 0.18590039067086719 -0.44115637567916172 0 0.20442019459899149 -0.44533796874460208 0 0.18923595964957429 -0.45067509688328122 0 0.18590039067086719 -0.44115637567916172 0 0.20442019459899149 -0.44533796874460208 0 0.1938641377332887 -0.4633108835168005 0 0.18923595964957429 -0.45067509688328122 0 0.20442019459899149 -0.44533796874460208 0 0.1911717259170673 -0.41910232791299562 0 0.20473537155931409 -0.42802668409371708 0 0.20442019459899149 -0.44533796874460208 0 0.1911717259170673 -0.41910232791299562 0 0.20442019459899149 -0.44533796874460208 0 0.1911717259170673 -0.41910232791299562 0 0.18484232774876749 -0.43033534366960768 0 0.1911717259170673 -0.41910232791299562 0 0.21088494443676881 -0.41598262622983972 0 0.20473537155931409 -0.42802668409371708 0 0.18851111772050869 -0.41383358608972459 0 0.208966154163157 -0.40126827473642579 0 0.1911717259170673 -0.41910232791299562 0 0.21088494443676881 -0.41598262622983972 0 0.1911717259170673 -0.41910232791299562 0 0.18851111772050869 -0.41383358608972459 0 0.21088494443676881 -0.41598262622983972 0 0.18851111772050869 -0.41383358608972459 0 0.21088494443676881 -0.41598262622983972 0 0.208966154163157 -0.40126827473642579 0 0.1911717259170673 -0.41910232791299562 0 0.18851111772050869 -0.41383358608972459 0 0.21088494443676881 -0.41598262622983972 0 0.22155668588658281 -0.40529615173032069 0 0.208966154163157 -0.40126827473642579 0 0.21088494443676881 -0.41598262622983972 0 0.20473537155931409 -0.42802668409371708 0 0.21246462128442831 -0.43168381348743168 0 0.21088494443676881 -0.41598262622983972 0 0.21246462128442831 -0.43168381348743168 0 0.21959695705502991 -0.42408781639437282 0 0.20442019459899149 -0.44533796874460208 0 0.20473537155931409 -0.42802668409371708 0 0.21246462128442831 -0.43168381348743168 0 0.21246462128442831 -0.43168381348743168 0 0.21959695705502991 -0.42408781639437282 0 0.22802564347410281 -0.43657531089878487 0 0.22802564347410281 -0.43657531089878487 0 0.23614533994983331 -0.4244462479719151 0 0.23059816295646979 -0.4128629245466815 0 0.22802564347410281 -0.43657531089878487 0 0.23059816295646979 -0.4128629245466815 0 0.21959695705502991 -0.42408781639437282 0 0.22802564347410281 -0.43657531089878487 0 0.23059816295646979 -0.4128629245466815 0 0.22802564347410281 -0.43657531089878487 0 0.2418992233321238 -0.43333026798624508 0 0.23614533994983331 -0.4244462479719151 0 0.2418992233321238 -0.43333026798624508 0 0.23614533994983331 -0.4244462479719151 0 0.2453827316299185 -0.42192330194190181 0 0.25513396950241118 -0.43290986753561628 0 0.2418992233321238 -0.43333026798624508 0 0.2453827316299185 -0.42192330194190181 0 0.256136481120742 -0.41447562176841068 0 0.2453827316299185 -0.42192330194190181 0 0.24629253832767661 -0.41022035877505542 0 0.2453827316299185 -0.42192330194190181 0 0.24629253832767661 -0.41022035877505542 0 0.2366098857920339 -0.41191154353144788 0 0.23614533994983331 -0.4244462479719151 0 0.2366098857920339 -0.41191154353144788 0 0.23059816295646979 -0.4128629245466815 0 0.23614533994983331 -0.4244462479719151 0 0.2453827316299185 -0.42192330194190181 0 0.2366098857920339 -0.41191154353144788 0 0.24629253832767661 -0.41022035877505542 0 0.2366098857920339 -0.41191154353144788 0 0.2422505545635501 -0.40276464775944387 0 0.21088494443676881 -0.41598262622983972 0 0.23059816295646979 -0.4128629245466815 0 0.2366098857920339 -0.41191154353144788 0 0.23059816295646979 -0.4128629245466815 0 0.23156745731421779 -0.4039283829592023 0 0.23059816295646979 -0.4128629245466815 0 0.22155668588658281 -0.40529615173032069 0 0.23156745731421779 -0.4039283829592023 0 0.23059816295646979 -0.4128629245466815 0 0.23156745731421779 -0.4039283829592023 0 0.21088494443676881 -0.41598262622983972 0 0.23059816295646979 -0.4128629245466815 0 0.22155668588658281 -0.40529615173032069 0 0.21088494443676881 -0.41598262622983972 0 0.21959695705502991 -0.42408781639437282 0 0.23059816295646979 -0.4128629245466815 0 0.2366098857920339 -0.41191154353144788 0 0.23059816295646979 -0.4128629245466815 0 0.22155668588658281 -0.40529615173032069 0 0.22942119060580499 -0.38870296338312649 0 0.208966154163157 -0.40126827473642579 0 0.22155668588658281 -0.40529615173032069 0 0.23156745731421779 -0.4039283829592023 0 0.22942119060580499 -0.38870296338312649 0 0.22942119060580499 -0.38870296338312649 0 0.208966154163157 -0.40126827473642579 0 0.23156745731421779 -0.4039283829592023 0 0.24309899287842279 -0.39271330151873202 0 0.2422505545635501 -0.40276464775944387 0 0.2366098857920339 -0.41191154353144788 0 0.23156745731421779 -0.4039283829592023 0 0.2422505545635501 -0.40276464775944387 0 0.23156745731421779 -0.4039283829592023 0 0.24309899287842279 -0.39271330151873202 0 0.22942119060580499 -0.38870296338312649 0 0.25108303853213881 -0.40002667887407228 0 0.24629253832767661 -0.41022035877505542 0 0.2422505545635501 -0.40276464775944387 0 0.25108303853213881 -0.40002667887407228 0 0.24309899287842279 -0.39271330151873202 0 0.2422505545635501 -0.40276464775944387 0 0.24987622704845311 -0.37613765202982719 0 0.22942119060580499 -0.38870296338312649 0 0.24309899287842279 -0.39271330151873202 0 0.24987622704845311 -0.37613765202982719 0 0.22942119060580499 -0.38870296338312649 0 0.24987622704845311 -0.37613765202982719 0 0.23474048966473349 -0.38137370792841258 0 0.22942119060580499 -0.38870296338312649 0 0.25687819372407023 -0.38903915957053298 0 0.24309899287842279 -0.39271330151873202 0 0.24987622704845311 -0.37613765202982719 0 0.23679608458568241 -0.3713456781615978 0 0.24987622704845311 -0.37613765202982719 0 0.23474048966473349 -0.38137370792841258 0 0.23474048966473349 -0.38137370792841258 0 0.23010576568282681 -0.37607478874810818 0 0.22189277223980711 -0.38054577212349588 0 0.23474048966473349 -0.38137370792841258 0 0.22189277223980711 -0.38054577212349588 0 0.20961824525516401 -0.3936281247522696 0 0.23474048966473349 -0.38137370792841258 0 0.22942119060580499 -0.38870296338312649 0 0.20961824525516401 -0.3936281247522696 0 0.23679608458568241 -0.3713456781615978 0 0.23474048966473349 -0.38137370792841258 0 0.23010576568282681 -0.37607478874810818 0 0.23474048966473349 -0.38137370792841258 0 0.20961824525516401 -0.3936281247522696 0 0.22699371624108439 -0.37103399677892651 0 0.23010576568282681 -0.37607478874810818 0 0.22189277223980711 -0.38054577212349588 0 0.21663927632257499 -0.37152038636996992 0 0.22189277223980711 -0.38054577212349588 0 0.21119602619295649 -0.38157571206759561 0 0.21663927632257499 -0.37152038636996992 0 0.21119602619295649 -0.38157571206759561 0 0.20576161095015591 -0.37595213443190167 0 0.21119602619295649 -0.38157571206759561 0 0.20576161095015591 -0.37595213443190167 0 0.20229958674085519 -0.38616776423662919 0 0.21119602619295649 -0.38157571206759561 0 0.20961824525516401 -0.3936281247522696 0 0.20229958674085519 -0.38616776423662919 0 0.22189277223980711 -0.38054577212349588 0 0.21119602619295649 -0.38157571206759561 0 0.20961824525516401 -0.3936281247522696 0 0.22942119060580499 -0.38870296338312649 0 0.208966154163157 -0.40126827473642579 0 0.20961824525516401 -0.3936281247522696 0 0.20961824525516401 -0.3936281247522696 0 0.18449600084559339 -0.40588254157612419 0 0.20961824525516401 -0.3936281247522696 0 0.19262774622386039 -0.39991289132556063 0 0.20229958674085519 -0.38616776423662919 0 0.18851111772050869 -0.41383358608972459 0 0.20961824525516401 -0.3936281247522696 0 0.18449600084559339 -0.40588254157612419 0 0.19262774622386039 -0.39991289132556063 0 0.193172237845981 -0.38760648281860499 0 0.20229958674085519 -0.38616776423662919 0 0.20961824525516401 -0.3936281247522696 0 0.19262774622386039 -0.39991289132556063 0 0.18449600084559339 -0.40588254157612419 0 0.18851111772050869 -0.41383358608972459 0 0.208966154163157 -0.40126827473642579 0 0.20961824525516401 -0.3936281247522696 0 0.19262774622386039 -0.39991289132556063 0 0.18963514604776821 -0.39361523539988952 0 0.193172237845981 -0.38760648281860499 0 0.19262774622386039 -0.39991289132556063 0 0.18963514604776821 -0.39361523539988952 0 0.18221634088723479 -0.40136818287387582 0 0.18963514604776821 -0.39361523539988952 0 0.193172237845981 -0.38760648281860499 0 0.18267650324237161 -0.39405502657648112 0 0.193172237845981 -0.38760648281860499 0 0.1910424400336663 -0.37547354736401328 0 0.18267650324237161 -0.39405502657648112 0 0.20576161095015591 -0.37595213443190167 0 0.1910424400336663 -0.37547354736401328 0 0.20229958674085519 -0.38616776423662919 0 0.193172237845981 -0.38760648281860499 0 0.1910424400336663 -0.37547354736401328 0 0.20229958674085519 -0.38616776423662919 0 0.1910424400336663 -0.37547354736401328 0 0.17822948803450961 -0.38676940160015832 0 0.1737051017910701 -0.38004230502140057 0 0.1910424400336663 -0.37547354736401328 0 0.18267650324237161 -0.39405502657648112 0 0.1910424400336663 -0.37547354736401328 0 0.17822948803450961 -0.38676940160015832 0 0.18267650324237161 -0.39405502657648112 0 0.17822948803450961 -0.38676940160015832 0 0.17910183421640119 -0.39520059623836468 0 0.1646215608890387 -0.38907553280053181 0 0.17822948803450961 -0.38676940160015832 0 0.1737051017910701 -0.38004230502140057 0 0.1646215608890387 -0.38907553280053181 0 0.17822948803450961 -0.38676940160015832 0 0.18267650324237161 -0.39405502657648112 0 0.17910183421640119 -0.39520059623836468 0 0.18221634088723479 -0.40136818287387582 0 0.17910183421640119 -0.39520059623836468 0 0.15805845094365739 -0.40474493864538458 0 0.18963514604776821 -0.39361523539988952 0 0.18267650324237161 -0.39405502657648112 0 0.18221634088723479 -0.40136818287387582 0 0.18267650324237161 -0.39405502657648112 0 0.18221634088723479 -0.40136818287387582 0 0.17910183421640119 -0.39520059623836468 0 0.18221634088723479 -0.40136818287387582 0 0.17910183421640119 -0.39520059623836468 0 0.19262774622386039 -0.39991289132556063 0 0.18221634088723479 -0.40136818287387582 0 0.19262774622386039 -0.39991289132556063 0 0.18449600084559339 -0.40588254157612419 0 0.18221634088723479 -0.40136818287387582 0 0.18449600084559339 -0.40588254157612419 0 0.18221634088723479 -0.40136818287387582 0 0.17910183421640119 -0.39520059623836468 0 0.15805845094365739 -0.40474493864538458 0 0.1646215608890387 -0.38907553280053181 0 0.18221634088723479 -0.40136818287387582 0 0.15805845094365739 -0.40474493864538458 0 0.15805845094365739 -0.40474493864538458 0 0.1646215608890387 -0.38907553280053181 0 0.14706277844018539 -0.39464292458295508 0 0.1737051017910701 -0.38004230502140057 0 0.1646215608890387 -0.38907553280053181 0 0.16307541855137739 -0.37743582412871929 0 0.17035242753357599 -0.36877211446365682 0 0.1737051017910701 -0.38004230502140057 0 0.16307541855137739 -0.37743582412871929 0 0.1569593121701936 -0.36832063090657668 0 0.16307541855137739 -0.37743582412871929 0 0.14973869037300869 -0.38096853745143089 0 0.1646215608890387 -0.38907553280053181 0 0.16307541855137739 -0.37743582412871929 0 0.14973869037300869 -0.38096853745143089 0 0.1646215608890387 -0.38907553280053181 0 0.14973869037300869 -0.38096853745143089 0 0.14706277844018539 -0.39464292458295508 0 0.14973869037300869 -0.38096853745143089 0 0.1375772795987745 -0.38493757303029391 0 0.14706277844018539 -0.39464292458295508 0 0.13524945632583441 -0.37311377610700652 0 0.14973869037300869 -0.38096853745143089 0 0.1375772795987745 -0.38493757303029391 0 0.13524945632583441 -0.37311377610700652 0 0.1375772795987745 -0.38493757303029391 0 0.12609635470998201 -0.38402791619100712 0 0.1375772795987745 -0.38493757303029391 0 0.12609635470998201 -0.38402791619100712 0 0.13569313113510631 -0.39589912548093298 0 0.12645644117523869 -0.39722706905544619 0 0.13569313113510631 -0.39589912548093298 0 0.1339005610000801 -0.40812169441689322 0 0.12645644117523869 -0.39722706905544619 0 0.1339005610000801 -0.40812169441689322 0 0.1250254850364893 -0.40936224001308058 0 0.12609635470998201 -0.38402791619100712 0 0.12645644117523869 -0.39722706905544619 0 0.13569313113510631 -0.39589912548093298 0 0.1375772795987745 -0.38493757303029391 0 0.13569313113510631 -0.39589912548093298 0 0.14706277844018539 -0.39464292458295508 0 0.13569313113510631 -0.39589912548093298 0 0.14706277844018539 -0.39464292458295508 0 0.1339005610000801 -0.40812169441689322 0 0.13569313113510631 -0.39589912548093298 0 0.1339005610000801 -0.40812169441689322 0 0.15805845094365739 -0.40474493864538458 0 0.14706277844018539 -0.39464292458295508 0 0.1339005610000801 -0.40812169441689322 0 0.15805845094365739 -0.40474493864538458 0 0.1339005610000801 -0.40812169441689322 0 0.15805845094365739 -0.40474493864538458 0 0.15398562739609989 -0.414436145328195 0 0.14500783119440661 -0.41410657591589572 0 0.15805845094365739 -0.40474493864538458 0 0.14500783119440661 -0.41410657591589572 0 0.1339005610000801 -0.40812169441689322 0 0.15398562739609989 -0.414436145328195 0 0.15088002640467921 -0.42009116626417142 0 0.14500783119440661 -0.41410657591589572 0 0.15088002640467921 -0.42009116626417142 0 0.15979138776423191 -0.42406840149736191 0 0.15636365466176849 -0.41960526040447821 0 0.15398562739609989 -0.414436145328195 0 0.15088002640467921 -0.42009116626417142 0 0.15636365466176849 -0.41960526040447821 0 0.15088002640467921 -0.42009116626417142 0 0.14500783119440661 -0.41410657591589572 0 0.14354831806896931 -0.42663893719234869 0 0.14500783119440661 -0.41410657591589572 0 0.1339005610000801 -0.40812169441689322 0 0.13212255532719441 -0.42024495614079282 0 0.14500783119440661 -0.41410657591589572 0 0.13212255532719441 -0.42024495614079282 0 0.14354831806896931 -0.42663893719234869 0 0.1339005610000801 -0.40812169441689322 0 0.13212255532719441 -0.42024495614079282 0 0.13212255532719441 -0.42024495614079282 0 0.1250254850364893 -0.40936224001308058 0 0.117866085899093 -0.41583132647739651 0 0.13212255532719441 -0.42024495614079282 0 0.1250254850364893 -0.40936224001308058 0 0.1339005610000801 -0.40812169441689322 0 0.13212255532719441 -0.42024495614079282 0 0.1250254850364893 -0.40936224001308058 0 0.1339005610000801 -0.40812169441689322 0 0.1250254850364893 -0.40936224001308058 0 0.13212255532719441 -0.42024495614079282 0 0.14354831806896931 -0.42663893719234869 0 0.1460535583969573 -0.44160689079445481 0 0.13212255532719441 -0.42024495614079282 0 0.128223579302082 -0.44682997076052833 0 0.13212255532719441 -0.42024495614079282 0 0.128223579302082 -0.44682997076052833 0 0.1159996351348133 -0.43474120747525058 0 0.13212255532719441 -0.42024495614079282 0 0.1460535583969573 -0.44160689079445481 0 0.13212255532719441 -0.42024495614079282 0 0.1460535583969573 -0.44160689079445481 0 0.128223579302082 -0.44682997076052833 0 0.15088002640467921 -0.42009116626417142 0 0.14354831806896931 -0.42663893719234869 0 0.15979138776423191 -0.42406840149736191 0 0.14354831806896931 -0.42663893719234869 0 0.15979138776423191 -0.42406840149736191 0 0.14354831806896931 -0.42663893719234869 0 0.15423293294423909 -0.43386412417913311 0 0.1460535583969573 -0.44160689079445481 0 0.14354831806896931 -0.42663893719234869 0 0.15423293294423909 -0.43386412417913311 0 0.15979138776423191 -0.42406840149736191 0 0.15423293294423909 -0.43386412417913311 0 0.16088991666547389 -0.43196094602310392 0 0.16557730454712019 -0.44172028084172121 0 0.1713980071398 -0.42434598792645378 0 0.15979138776423191 -0.42406840149736191 0 0.1760344574594947 -0.42149786580237669 0 0.15423293294423909 -0.43386412417913311 0 0.16088991666547389 -0.43196094602310392 0 0.15979138776423191 -0.42406840149736191 0 0.15979138776423191 -0.42406840149736191 0 0.1760344574594947 -0.42149786580237669 0 0.16626302434537371 -0.43076979168845952 0 0.17509911994716071 -0.43336510097506958 0 0.16557730454712019 -0.44172028084172121 0 0.16088991666547389 -0.43196094602310392 0 0.16626302434537371 -0.43076979168845952 0 0.16557730454712019 -0.44172028084172121 0 0.16626302434537371 -0.43076979168845952 0 0.1713980071398 -0.42434598792645378 0 0.17509911994716071 -0.43336510097506958 0 0.16626302434537371 -0.43076979168845952 0 0.1713980071398 -0.42434598792645378 0 0.15979138776423191 -0.42406840149736191 0 0.16088991666547389 -0.43196094602310392 0 0.16626302434537371 -0.43076979168845952 0 0.15979138776423191 -0.42406840149736191 0 0.15636365466176849 -0.41960526040447821 0 0.16176651730702801 -0.41283252991975622 0 0.17042982775368151 -0.41274390099030239 0 0.18221634088723479 -0.40136818287387582 0 0.15805845094365739 -0.40474493864538458 0 0.17042982775368151 -0.41274390099030239 0 0.15979138776423191 -0.42406840149736191 0 0.15636365466176849 -0.41960526040447821 0 0.17042982775368151 -0.41274390099030239 0 0.15636365466176849 -0.41960526040447821 0 0.17042982775368151 -0.41274390099030239 0 0.15979138776423191 -0.42406840149736191 0 0.17042982775368151 -0.41274390099030239 0 0.1760344574594947 -0.42149786580237669 0 0.15398562739609989 -0.414436145328195 0 0.15636365466176849 -0.41960526040447821 0 0.16176651730702801 -0.41283252991975622 0 0.15805845094365739 -0.40474493864538458 0 0.15398562739609989 -0.414436145328195 0 0.16176651730702801 -0.41283252991975622 0 0.15805845094365739 -0.40474493864538458 0 0.16176651730702801 -0.41283252991975622 0 0.17042982775368151 -0.41274390099030239 0 0.17042982775368151 -0.41274390099030239 0 0.1760344574594947 -0.42149786580237669 0 0.17986785094481991 -0.4134894736146324 0 0.18449600084559339 -0.40588254157612419 0 0.17042982775368151 -0.41274390099030239 0 0.18449600084559339 -0.40588254157612419 0 0.18221634088723479 -0.40136818287387582 0 0.17042982775368151 -0.41274390099030239 0 0.18449600084559339 -0.40588254157612419 0 0.17042982775368151 -0.41274390099030239 0 0.17986785094481991 -0.4134894736146324 0 0.18851111772050869 -0.41383358608972459 0 0.18449600084559339 -0.40588254157612419 0 0.18851111772050869 -0.41383358608972459 0 0.18449600084559339 -0.40588254157612419 0 0.17986785094481991 -0.4134894736146324 0 0.18851111772050869 -0.41383358608972459 0 0.1760344574594947 -0.42149786580237669 0 0.1911717259170673 -0.41910232791299562 0 0.1760344574594947 -0.42149786580237669 0 0.18851111772050869 -0.41383358608972459 0 0.1760344574594947 -0.42149786580237669 0 0.17986785094481991 -0.4134894736146324 0 0.1911717259170673 -0.41910232791299562 0 0.18851111772050869 -0.41383358608972459 0 0.1760344574594947 -0.42149786580237669 0 0.1911717259170673 -0.41910232791299562 0 0.1760344574594947 -0.42149786580237669 0 0.18484232774876749 -0.43033534366960768 0 0.18484232774876749 -0.43033534366960768 0 0.17509911994716071 -0.43336510097506958 0 0.18590039067086719 -0.44115637567916172 0 0.18484232774876749 -0.43033534366960768 0 0.17509911994716071 -0.43336510097506958 0 0.17653319474121221 -0.42750765242104072 0 0.1713980071398 -0.42434598792645378 0 0.17509911994716071 -0.43336510097506958 0 0.17653319474121221 -0.42750765242104072 0 0.1760344574594947 -0.42149786580237669 0 0.18484232774876749 -0.43033534366960768 0 0.17653319474121221 -0.42750765242104072 0 0.1713980071398 -0.42434598792645378 0 0.1760344574594947 -0.42149786580237669 0 0.17653319474121221 -0.42750765242104072 0 0.1713980071398 -0.42434598792645378 0 0.1760344574594947 -0.42149786580237669 0 0.17791556380287959 -0.4455361086535346 0 0.17376504419967539 -0.46076368888843938 0 0.16557730454712019 -0.44172028084172121 0 0.17509911994716071 -0.43336510097506958 0 0.17791556380287959 -0.4455361086535346 0 0.18590039067086719 -0.44115637567916172 0 0.17509911994716071 -0.43336510097506958 0 0.17791556380287959 -0.4455361086535346 0 0.16557730454712019 -0.44172028084172121 0 0.18923595964957429 -0.45067509688328122 0 0.17791556380287959 -0.4455361086535346 0 0.18590039067086719 -0.44115637567916172 0 0.18923595964957429 -0.45067509688328122 0 0.17791556380287959 -0.4455361086535346 0 0.17376504419967539 -0.46076368888843938 0 0.1938641377332887 -0.4633108835168005 0 0.18923595964957429 -0.45067509688328122 0 0.17376504419967539 -0.46076368888843938 0 0.1938641377332887 -0.4633108835168005 0 0.17376504419967539 -0.46076368888843938 0 0.17718182015316611 -0.48165544175840053 0 0.17376504419967539 -0.46076368888843938 0 0.15550290350416551 -0.45157236434768988 0 0.1539044029471725 -0.46809795184702829 0 0.17376504419967539 -0.46076368888843938 0 0.16557730454712019 -0.44172028084172121 0 0.15550290350416551 -0.45157236434768988 0 0.15423293294423909 -0.43386412417913311 0 0.16557730454712019 -0.44172028084172121 0 0.15550290350416551 -0.45157236434768988 0 0.15423293294423909 -0.43386412417913311 0 0.15550290350416551 -0.45157236434768988 0 0.1460535583969573 -0.44160689079445481 0 0.15550290350416551 -0.45157236434768988 0 0.1460535583969573 -0.44160689079445481 0 0.14153074802588431 -0.45654190970348868 0 0.1460535583969573 -0.44160689079445481 0 0.128223579302082 -0.44682997076052833 0 0.14153074802588431 -0.45654190970348868 0 0.128223579302082 -0.44682997076052833 0 0.12432460327697011 -0.47341498538026422 0 0.128223579302082 -0.44682997076052833 0 0.14153074802588431 -0.45654190970348868 0 0.12432460327697011 -0.47341498538026422 0 0.1539044029471725 -0.46809795184702829 0 0.14153074802588431 -0.45654190970348868 0 0.12432460327697011 -0.47341498538026422 0 0.15550290350416551 -0.45157236434768988 0 0.1539044029471725 -0.46809795184702829 0 0.14153074802588431 -0.45654190970348868 0 0.1539044029471725 -0.46809795184702829 0 0.15048103374274721 -0.48484579871078243 0 0.12432460327697011 -0.47341498538026422 0 0.1404625649124509 -0.5 0 0.15048103374274721 -0.48484579871078243 0 0.12432460327697011 -0.47341498538026422 0 0.1404625649124509 -0.5 0 0.12042562725185831 -0.49999999999999989 0 0.12432460327697011 -0.47341498538026422 0 0.1404625649124509 -0.5 0 0.15048103374274721 -0.48484579871078243 0 0.16049950257304349 -0.50000000000000033 0 0.16049950257304349 -0.50000000000000033 0 0.17718182015316611 -0.48165544175840053 0 0.15048103374274721 -0.48484579871078243 0 0.16049950257304349 -0.50000000000000033 0 0.17718182015316611 -0.48165544175840053 0 0.17376504419967539 -0.46076368888843938 0 0.1539044029471725 -0.46809795184702829 0 0.17718182015316611 -0.48165544175840053 0 0.1539044029471725 -0.46809795184702829 0 0.15048103374274721 -0.48484579871078243 0 0.17718182015316611 -0.48165544175840053 0 0.1938641377332887 -0.4633108835168005 0 0.17718182015316611 -0.48165544175840053 0 0.19122796324104871 -0.48466606029959602 0 0.1938641377332887 -0.4633108835168005 0 0.17718182015316611 -0.48165544175840053 0 0.16049950257304349 -0.50000000000000033 0 0.17718182015316611 -0.48165544175840053 0 0.18744203257390391 -0.5 0 0.19122796324104871 -0.48466606029959602 0 0.17718182015316611 -0.48165544175840053 0 0.18744203257390391 -0.5 0 0.072018957471098571 -0.48629524479662273 0 0.069142552082564368 -0.5 0 0.082735946582200875 -0.4892045976485363 0 0.072018957471098571 -0.48629524479662273 0 0.079568506083734697 -0.4785915255016745 0 0.082735946582200875 -0.4892045976485363 0 0.072018957471098571 -0.48629524479662273 0 0.062670741706174135 -0.48944359682069549 0 0.064881374578912687 -0.4815757870058418 0 0.072018957471098571 -0.48629524479662273 0 0.069142552082564368 -0.5 0 0.062670741706174135 -0.48944359682069549 0 0.073180054077148754 -0.46968413697177741 0 0.079568506083734697 -0.4785915255016745 0 0.081395248040860374 -0.46160025678040811 0 0.067447632246636219 -0.45716428258124142 0 0.05849497948899289 -0.47642287528831911 0 0.061758178687080389 -0.47580514524370598 0 0.072018957471098571 -0.48629524479662273 0 0.064881374578912687 -0.4815757870058418 0 0.070673492561877091 -0.4782128222507579 0 0.064881374578912687 -0.4815757870058418 0 0.066280053791524171 -0.47680462027284459 0 0.061758178687080389 -0.47580514524370598 0 0.064881374578912687 -0.4815757870058418 0 0.066280053791524171 -0.47680462027284459 0 0.070673492561877091 -0.4782128222507579 0 0.066280053791524171 -0.47680462027284459 0 0.067807169338226503 -0.47162472659107291 0 0.061758178687080389 -0.47580514524370598 0 0.066280053791524171 -0.47680462027284459 0 0.067807169338226503 -0.47162472659107291 0 0.070673492561877091 -0.4782128222507579 0 0.067807169338226503 -0.47162472659107291 0 0.073180054077148754 -0.46968413697177741 0 0.070673492561877091 -0.4782128222507579 0 0.073180054077148754 -0.46968413697177741 0 0.070673492561877091 -0.4782128222507579 0 0.079568506083734697 -0.4785915255016745 0 0.072018957471098571 -0.48629524479662273 0 0.070673492561877091 -0.4782128222507579 0 0.079568506083734697 -0.4785915255016745 0 0.096876661376123455 -0.48080012839020431 0 0.081395248040860374 -0.46160025678040811 0 0.096876661376123455 -0.48080012839020431 0 0.095349939854524335 -0.46404107218864848 0 0.081395248040860374 -0.46160025678040811 0 0.079568506083734697 -0.4785915255016745 0 0.082735946582200875 -0.4892045976485363 0 0.096876661376123455 -0.48080012839020431 0 0.079568506083734697 -0.4785915255016745 0 0.096876661376123455 -0.48080012839020431 0 0.081395248040860374 -0.46160025678040811 0 0.090750313396975479 -0.5 0 0.082735946582200875 -0.4892045976485363 0 0.096876661376123455 -0.48080012839020431 0 0.069142552082564368 -0.5 0 0.090750313396975479 -0.5 0 0.082735946582200875 -0.4892045976485363 0 0.1123580747113867 -0.50000000000000033 0 0.1124728586670535 -0.48406595427175642 0 0.096876661376123455 -0.48080012839020431 0 0.090750313396975479 -0.5 0 0.1123580747113867 -0.50000000000000033 0 0.096876661376123455 -0.48080012839020431 0 0.1123580747113867 -0.50000000000000033 0 0.096876661376123455 -0.48080012839020431 0 0.1123580747113867 -0.50000000000000033 0 0.12042562725185831 -0.49999999999999989 0 0.1124728586670535 -0.48406595427175642 0 0.12042562725185831 -0.49999999999999989 0 0.1124728586670535 -0.48406595427175642 0 0.12432460327697011 -0.47341498538026422 0 0.12042562725185831 -0.49999999999999989 0 0.12432460327697011 -0.47341498538026422 0 0.1124728586670535 -0.48406595427175642 0 0.12432460327697011 -0.47341498538026422 0 0.1082250197838846 -0.46311527911574241 0 0.096876661376123455 -0.48080012839020431 0 0.095349939854524335 -0.46404107218864848 0 0.1082250197838846 -0.46311527911574241 0 0.1124728586670535 -0.48406595427175642 0 0.096876661376123455 -0.48080012839020431 0 0.1082250197838846 -0.46311527911574241 0 0.095349939854524335 -0.46404107218864848 0 0.1082250197838846 -0.46311527911574241 0 0.094902830217228867 -0.45064862446823939 0 0.128223579302082 -0.44682997076052833 0 0.12432460327697011 -0.47341498538026422 0 0.1082250197838846 -0.46311527911574241 0 0.128223579302082 -0.44682997076052833 0 0.1069391861142964 -0.44299064961396012 0 0.1159996351348133 -0.43474120747525058 0 0.128223579302082 -0.44682997076052833 0 0.1082250197838846 -0.46311527911574241 0 0.1069391861142964 -0.44299064961396012 0 0.1082250197838846 -0.46311527911574241 0 0.1069391861142964 -0.44299064961396012 0 0.094902830217228867 -0.45064862446823939 0 0.1069391861142964 -0.44299064961396012 0 0.091812697424993442 -0.4386357446441016 0 0.098414951810672224 -0.43233268446502993 0 0.1069391861142964 -0.44299064961396012 0 0.094902830217228867 -0.45064862446823939 0 0.091812697424993442 -0.4386357446441016 0 0.094902830217228867 -0.45064862446823939 0 0.091812697424993442 -0.4386357446441016 0 0.082434724511159588 -0.44537142502386151 0 0.094902830217228867 -0.45064862446823939 0 0.082434724511159588 -0.44537142502386151 0 0.081395248040860374 -0.46160025678040811 0 0.091812697424993442 -0.4386357446441016 0 0.082434724511159588 -0.44537142502386151 0 0.078149012167117934 -0.43357211405594609 0 0.095349939854524335 -0.46404107218864848 0 0.094902830217228867 -0.45064862446823939 0 0.081395248040860374 -0.46160025678040811 0 0.067447632246636219 -0.45716428258124142 0 0.065913834705597293 -0.44240038517061198 0 0.057068655694905858 -0.46015288389510001 0 0.067447632246636219 -0.45716428258124142 0 0.05849497948899289 -0.47642287528831911 0 0.067807169338226503 -0.47162472659107291 0 0.067447632246636219 -0.45716428258124142 0 0.061758178687080389 -0.47580514524370598 0 0.081395248040860374 -0.46160025678040811 0 0.067447632246636219 -0.45716428258124142 0 0.065913834705597293 -0.44240038517061198 0 0.073180054077148754 -0.46968413697177741 0 0.081395248040860374 -0.46160025678040811 0 0.067447632246636219 -0.45716428258124142 0 0.067807169338226503 -0.47162472659107291 0 0.073180054077148754 -0.46968413697177741 0 0.067447632246636219 -0.45716428258124142 0 0.081395248040860374 -0.46160025678040811 0 0.065913834705597293 -0.44240038517061198 0 0.082434724511159588 -0.44537142502386151 0 0.081395248040860374 -0.46160025678040811 0 0.065913834705597293 -0.44240038517061198 0 0.082434724511159588 -0.44537142502386151 0 0.065913834705597293 -0.44240038517061198 0 0.078149012167117934 -0.43357211405594609 0 0.065921365320016911 -0.4273577277455588 0 0.073982485551444349 -0.42005290588181732 0 0.078149012167117934 -0.43357211405594609 0 0.065913834705597293 -0.44240038517061198 0 0.065921365320016911 -0.4273577277455588 0 0.078149012167117934 -0.43357211405594609 0 0.073982485551444349 -0.42005290588181732 0 0.069775570718114244 -0.40426700169235308 0 0.060774245729122177 -0.41691050055794487 0 0.065921365320016911 -0.4273577277455588 0 0.073982485551444349 -0.42005290588181732 0 0.060774245729122177 -0.41691050055794487 0 0.073982485551444349 -0.42005290588181732 0 0.086447448161059384 -0.41120764722282821 0 0.069775570718114244 -0.40426700169235308 0 0.073982485551444349 -0.42005290588181732 0 0.086447448161059384 -0.41120764722282821 0 0.088692331433278357 -0.42535053834926723 0 0.086447448161059384 -0.41120764722282821 0 0.093827427438274241 -0.41775801958915132 0 0.099702730965631758 -0.41290181884877419 0 0.086447448161059384 -0.41120764722282821 0 0.088692331433278357 -0.42535053834926723 0 0.093827427438274241 -0.41775801958915132 0 0.088692331433278357 -0.42535053834926723 0 0.097645949564215143 -0.42435504664253748 0 0.093827427438274241 -0.41775801958915132 0 0.073982485551444349 -0.42005290588181732 0 0.088692331433278357 -0.42535053834926723 0 0.078149012167117934 -0.43357211405594609 0 0.091812697424993442 -0.4386357446441016 0 0.088692331433278357 -0.42535053834926723 0 0.078149012167117934 -0.43357211405594609 0 0.091812697424993442 -0.4386357446441016 0 0.088692331433278357 -0.42535053834926723 0 0.098414951810672224 -0.43233268446502993 0 0.098414951810672224 -0.43233268446502993 0 0.097645949564215143 -0.42435504664253748 0 0.1061961683754654 -0.43004895598907111 0 0.088692331433278357 -0.42535053834926723 0 0.098414951810672224 -0.43233268446502993 0 0.097645949564215143 -0.42435504664253748 0 0.1061961683754654 -0.43004895598907111 0 0.11152958735588871 -0.42539382439527612 0 0.1045809803654715 -0.42051706085107571 0 0.097645949564215143 -0.42435504664253748 0 0.1061961683754654 -0.43004895598907111 0 0.1045809803654715 -0.42051706085107571 0 0.1069391861142964 -0.44299064961396012 0 0.098414951810672224 -0.43233268446502993 0 0.1061961683754654 -0.43004895598907111 0 0.1061961683754654 -0.43004895598907111 0 0.1159996351348133 -0.43474120747525058 0 0.11152958735588871 -0.42539382439527612 0 0.13212255532719441 -0.42024495614079282 0 0.1159996351348133 -0.43474120747525058 0 0.11851153239627241 -0.42275952171654291 0 0.1069391861142964 -0.44299064961396012 0 0.1061961683754654 -0.43004895598907111 0 0.1159996351348133 -0.43474120747525058 0 0.1159996351348133 -0.43474120747525058 0 0.11152958735588871 -0.42539382439527612 0 0.11851153239627241 -0.42275952171654291 0 0.11152958735588871 -0.42539382439527612 0 0.11851153239627241 -0.42275952171654291 0 0.1123596205074209 -0.41890237594444008 0 0.1250254850364893 -0.40936224001308058 0 0.117866085899093 -0.41583132647739651 0 0.1096180349996463 -0.41151587164058129 0 0.1250254850364893 -0.40936224001308058 0 0.1096180349996463 -0.41151587164058129 0 0.13212255532719441 -0.42024495614079282 0 0.11851153239627241 -0.42275952171654291 0 0.117866085899093 -0.41583132647739651 0 0.117866085899093 -0.41583132647739651 0 0.1123596205074209 -0.41890237594444008 0 0.1096180349996463 -0.41151587164058129 0 0.11851153239627241 -0.42275952171654291 0 0.117866085899093 -0.41583132647739651 0 0.1123596205074209 -0.41890237594444008 0 0.11152958735588871 -0.42539382439527612 0 0.1123596205074209 -0.41890237594444008 0 0.1045809803654715 -0.42051706085107571 0 0.1123596205074209 -0.41890237594444008 0 0.1096180349996463 -0.41151587164058129 0 0.1065506547415149 -0.41613106226330793 0 0.1096180349996463 -0.41151587164058129 0 0.1065506547415149 -0.41613106226330793 0 0.099702730965631758 -0.41290181884877419 0 0.1096180349996463 -0.41151587164058129 0 0.099702730965631758 -0.41290181884877419 0 0.1096180349996463 -0.41151587164058129 0 0.099702730965631758 -0.41290181884877419 0 0.1041447551606165 -0.40305668800175581 0 0.1123596205074209 -0.41890237594444008 0 0.1065506547415149 -0.41613106226330793 0 0.1045809803654715 -0.42051706085107571 0 0.1065506547415149 -0.41613106226330793 0 0.1045809803654715 -0.42051706085107571 0 0.099702730965631758 -0.41290181884877419 0 0.1045809803654715 -0.42051706085107571 0 0.093827427438274241 -0.41775801958915132 0 0.099702730965631758 -0.41290181884877419 0 0.097645949564215143 -0.42435504664253748 0 0.1045809803654715 -0.42051706085107571 0 0.093827427438274241 -0.41775801958915132 0 0.086447448161059384 -0.41120764722282821 0 0.099702730965631758 -0.41290181884877419 0 0.095691580682652475 -0.39908469234235189 0 0.095691580682652475 -0.39908469234235189 0 0.1041447551606165 -0.40305668800175581 0 0.1115666739945345 -0.38872436917531578 0 0.099702730965631758 -0.41290181884877419 0 0.095691580682652475 -0.39908469234235189 0 0.1041447551606165 -0.40305668800175581 0 0.1096180349996463 -0.41151587164058129 0 0.1041447551606165 -0.40305668800175581 0 0.1115666739945345 -0.38872436917531578 0 0.1250254850364893 -0.40936224001308058 0 0.1115666739945345 -0.38872436917531578 0 0.1096180349996463 -0.41151587164058129 0 0.1115666739945345 -0.38872436917531578 0 0.1250254850364893 -0.40936224001308058 0 0.1096180349996463 -0.41151587164058129 0 0.1115666739945345 -0.38872436917531578 0 0.12645644117523869 -0.39722706905544619 0 0.1250254850364893 -0.40936224001308058 0 0.1115666739945345 -0.38872436917531578 0 0.12609635470998201 -0.38402791619100712 0 0.1115666739945345 -0.38872436917531578 0 0.113745377556003 -0.36324200547299851 0 0.1115666739945345 -0.38872436917531578 0 0.113745377556003 -0.36324200547299851 0 0.12609635470998201 -0.38402791619100712 0 0.12645644117523869 -0.39722706905544619 0 0.1115666739945345 -0.38872436917531578 0 0.1115666739945345 -0.38872436917531578 0 0.096372132326470572 -0.36542491223168638 0 0.1115666739945345 -0.38872436917531578 0 0.089853218628298884 -0.38394717958202601 0 0.096372132326470572 -0.36542491223168638 0 0.095691580682652475 -0.39908469234235189 0 0.1115666739945345 -0.38872436917531578 0 0.089853218628298884 -0.38394717958202601 0 0.089853218628298884 -0.38394717958202601 0 0.082924844884061683 -0.39714926844771359 0 0.072939106935086151 -0.38728773006234168 0 0.089853218628298884 -0.38394717958202601 0 0.072939106935086151 -0.38728773006234168 0 0.07582030708563034 -0.37256671738353597 0 0.095691580682652475 -0.39908469234235189 0 0.089853218628298884 -0.38394717958202601 0 0.082924844884061683 -0.39714926844771359 0 0.086447448161059384 -0.41120764722282821 0 0.082924844884061683 -0.39714926844771359 0 0.069775570718114244 -0.40426700169235308 0 0.086447448161059384 -0.41120764722282821 0 0.095691580682652475 -0.39908469234235189 0 0.082924844884061683 -0.39714926844771359 0 0.069775570718114244 -0.40426700169235308 0 0.072939106935086151 -0.38728773006234168 0 0.058313699768321348 -0.39007371912844929 0 0.082924844884061683 -0.39714926844771359 0 0.069775570718114244 -0.40426700169235308 0 0.072939106935086151 -0.38728773006234168 0 0.072939106935086151 -0.38728773006234168 0 0.05933500968155693 -0.37671477575793533 0 0.058313699768321348 -0.39007371912844929 0 0.072939106935086151 -0.38728773006234168 0 0.05933500968155693 -0.37671477575793533 0 0.07582030708563034 -0.37256671738353597 0 0.05933500968155693 -0.37671477575793533 0 0.043300396670470892 -0.38581293046691678 0 0.039079294002052851 -0.37065651216905859 0 0.05933500968155693 -0.37671477575793533 0 0.058313699768321348 -0.39007371912844929 0 0.043300396670470892 -0.38581293046691678 0 0.058313699768321348 -0.39007371912844929 0 0.0466875803122518 -0.39705513158652528 0 0.054373060569327003 -0.40663711634463268 0 0.069775570718114244 -0.40426700169235308 0 0.058313699768321348 -0.39007371912844929 0 0.054373060569327003 -0.40663711634463268 0 0.058313699768321348 -0.39007371912844929 0 0.054373060569327003 -0.40663711634463268 0 0.0466875803122518 -0.39705513158652528 0 0.042121557959679479 -0.40689397827368962 0 0.054373060569327003 -0.40663711634463268 0 0.058313699768321348 -0.39007371912844929 0 0.0466875803122518 -0.39705513158652528 0 0.043300396670470892 -0.38581293046691678 0 0.0466875803122518 -0.39705513158652528 0 0.032645317368698572 -0.39721328630736241 0 0.043300396670470892 -0.38581293046691678 0 0.0466875803122518 -0.39705513158652528 0 0.032645317368698572 -0.39721328630736241 0 0.042121557959679479 -0.40689397827368962 0 0.032645317368698572 -0.39721328630736241 0 0.043300396670470892 -0.38581293046691678 0 0.025542853711361019 -0.38384675294920401 0 0.043300396670470892 -0.38581293046691678 0 0.025542853711361019 -0.38384675294920401 0 0.039079294002052851 -0.37065651216905859 0 0.025542853711361019 -0.38384675294920401 0 0.009690974369139977 -0.39295199195252922 0 0.016784443680880379 -0.36713146693108112 0 -0.0064694903547723136 -0.38059021958606692 0 0.009690974369139977 -0.39295199195252922 0 0.016784443680880379 -0.36713146693108112 0 0.032645317368698572 -0.39721328630736241 0 0.009690974369139977 -0.39295199195252922 0 0.030062121183744069 -0.41560348860952728 0 0.032645317368698572 -0.39721328630736241 0 0.025542853711361019 -0.38384675294920401 0 0.009690974369139977 -0.39295199195252922 0 0.009690974369139977 -0.39295199195252922 0 0.030062121183744069 -0.41560348860952728 0 0.01224976062295041 -0.42183763890738629 0 -0.0080625817845775948 -0.40608726553411861 0 0.009690974369139977 -0.39295199195252922 0 0.01224976062295041 -0.42183763890738629 0 0.009690974369139977 -0.39295199195252922 0 0.01224976062295041 -0.42183763890738629 0 0.01224976062295041 -0.42183763890738629 0 0.01480854687676085 -0.45072328586224342 0 0.030062121183744069 -0.41560348860952728 0 0.01224976062295041 -0.42183763890738629 0 0.028535899264767479 -0.43733174884408438 0 0.01224976062295041 -0.42183763890738629 0 0.028535899264767479 -0.43733174884408438 0 0.01480854687676085 -0.45072328586224342 0 0.030062121183744069 -0.41560348860952728 0 0.028535899264767479 -0.43733174884408438 0 0.039909128579099777 -0.42893709763038412 0 0.039909128579099777 -0.42893709763038412 0 0.050432421370333713 -0.42320051356081623 0 0.04400553312424714 -0.45021417746364167 0 0.039909128579099777 -0.42893709763038412 0 0.046509667952406512 -0.41833555967385072 0 0.050432421370333713 -0.42320051356081623 0 0.032645317368698572 -0.39721328630736241 0 0.030062121183744069 -0.41560348860952728 0 0.042121557959679479 -0.40689397827368962 0 0.030062121183744069 -0.41560348860952728 0 0.039909128579099777 -0.42893709763038412 0 0.046509667952406512 -0.41833555967385072 0 0.030062121183744069 -0.41560348860952728 0 0.042121557959679479 -0.40689397827368962 0 0.046509667952406512 -0.41833555967385072 0 0.054373060569327003 -0.40663711634463268 0 0.050432421370333713 -0.42320051356081623 0 0.046509667952406512 -0.41833555967385072 0 0.054373060569327003 -0.40663711634463268 0 0.050432421370333713 -0.42320051356081623 0 0.054373060569327003 -0.40663711634463268 0 0.060774245729122177 -0.41691050055794487 0 0.050432421370333713 -0.42320051356081623 0 0.046509667952406512 -0.41833555967385072 0 0.050432421370333713 -0.42320051356081623 0 0.042121557959679479 -0.40689397827368962 0 0.046509667952406512 -0.41833555967385072 0 0.054373060569327003 -0.40663711634463268 0 0.069775570718114244 -0.40426700169235308 0 0.054373060569327003 -0.40663711634463268 0 0.060774245729122177 -0.41691050055794487 0 0.050432421370333713 -0.42320051356081623 0 0.04400553312424714 -0.45021417746364167 0 0.065913834705597293 -0.44240038517061198 0 0.050432421370333713 -0.42320051356081623 0 0.065913834705597293 -0.44240038517061198 0 0.065921365320016911 -0.4273577277455588 0 0.050432421370333713 -0.42320051356081623 0 0.065921365320016911 -0.4273577277455588 0 0.060774245729122177 -0.41691050055794487 0 0.050432421370333713 -0.42320051356081623 0 0.065913834705597293 -0.44240038517061198 0 0.050432421370333713 -0.42320051356081623 0 0.04400553312424714 -0.45021417746364167 0 0.065913834705597293 -0.44240038517061198 0 0.057068655694905858 -0.46015288389510001 0 0.04400553312424714 -0.45021417746364167 0 0.057068655694905858 -0.46015288389510001 0 0.048043393468649283 -0.46676160836513853 0 0.04400553312424714 -0.45021417746364167 0 0.067447632246636219 -0.45716428258124142 0 0.057068655694905858 -0.46015288389510001 0 0.05849497948899289 -0.47642287528831911 0 0.057068655694905858 -0.46015288389510001 0 0.048043393468649283 -0.46676160836513853 0 0.052635520687858477 -0.47072247146996382 0 0.04400553312424714 -0.45021417746364167 0 0.037578644878161642 -0.47722784136646751 0 0.048043393468649283 -0.46676160836513853 0 0.04400553312424714 -0.45021417746364167 0 0.037578644878161642 -0.47722784136646751 0 0.04400553312424714 -0.45021417746364167 0 0.030366658319331299 -0.45781827645911538 0 0.037578644878161642 -0.47722784136646751 0 0.028535899264767479 -0.43733174884408438 0 0.039909128579099777 -0.42893709763038412 0 0.04400553312424714 -0.45021417746364167 0 0.028535899264767479 -0.43733174884408438 0 0.04400553312424714 -0.45021417746364167 0 0.030366658319331299 -0.45781827645911538 0 0.028535899264767479 -0.43733174884408438 0 0.01480854687676085 -0.45072328586224342 0 0.030366658319331299 -0.45781827645911538 0 -0.008216644178786571 -0.4466179140804285 0 0.01224976062295041 -0.42183763890738629 0 0.01480854687676085 -0.45072328586224342 0 0.01480854687676085 -0.45072328586224342 0 0.017367333130571299 -0.47960893281710049 0 0.0084119176919832291 -0.471974008478943 0 -0.0021957942935651631 -0.46571035637089769 0 0.01480854687676085 -0.45072328586224342 0 0.0084119176919832291 -0.471974008478943 0 -0.008216644178786571 -0.4466179140804285 0 -0.0021957942935651631 -0.46571035637089769 0 0.01480854687676085 -0.45072328586224342 0 0.01480854687676085 -0.45072328586224342 0 0.017367333130571299 -0.47960893281710049 0 0.01480854687676085 -0.45072328586224342 0 0.030366658319331299 -0.45781827645911538 0 0.0269046674527194 -0.47359432875914009 0 0.01480854687676085 -0.45072328586224342 0 0.0269046674527194 -0.47359432875914009 0 0.017367333130571299 -0.47960893281710049 0 0.017367333130571299 -0.47960893281710049 0 0.012735562036971701 -0.48508522326900949 0 0.035615270762982369 -0.48075404927866472 0 0.012735562036971701 -0.48508522326900949 0 0.035615270762982369 -0.48075404927866472 0 0.0269046674527194 -0.47359432875914009 0 0.017367333130571299 -0.47960893281710049 0 0.035615270762982369 -0.48075404927866472 0 0.017367333130571299 -0.47960893281710049 0 0.0084119176919832291 -0.471974008478943 0 0.012735562036971701 -0.48508522326900949 0 -0.00065605929082254884 -0.47874224407546379 0 0.0084119176919832291 -0.471974008478943 0 0.012735562036971701 -0.48508522326900949 0 -0.0021957942935651631 -0.46571035637089769 0 -0.00065605929082254884 -0.47874224407546379 0 0.0084119176919832291 -0.471974008478943 0 -0.010144146689038991 -0.48941639725935437 0 -0.00065605929082254884 -0.47874224407546379 0 0.012735562036971701 -0.48508522326900949 0 -0.010144146689038991 -0.48941639725935437 0 0.012735562036971701 -0.48508522326900949 0 -0.011489863113854141 -0.5 0 0.012735562036971701 -0.48508522326900949 0 0.01802246382714956 -0.5 0 0.01802246382714956 -0.5 0 0.025329369399590369 -0.48901546815995378 0 0.047534790768153173 -0.50000000000000044 0 0.012735562036971701 -0.48508522326900949 0 0.025329369399590369 -0.48901546815995378 0 0.035615270762982369 -0.48075404927866472 0 0.012735562036971701 -0.48508522326900949 0 0.01802246382714956 -0.5 0 0.025329369399590369 -0.48901546815995378 0 0.025329369399590369 -0.48901546815995378 0 0.035615270762982369 -0.48075404927866472 0 0.047534790768153173 -0.50000000000000044 0 0.030366658319331299 -0.45781827645911538 0 0.0269046674527194 -0.47359432875914009 0 0.037578644878161642 -0.47722784136646751 0 0.0269046674527194 -0.47359432875914009 0 0.037578644878161642 -0.47722784136646751 0 0.035615270762982369 -0.48075404927866472 0 0.048043393468649283 -0.46676160836513853 0 0.037578644878161642 -0.47722784136646751 0 0.046296380844488463 -0.47463440362945558 0 0.035615270762982369 -0.48075404927866472 0 0.046296380844488463 -0.47463440362945558 0 0.049693011087844949 -0.4756354888466594 0 0.037578644878161642 -0.47722784136646751 0 0.035615270762982369 -0.48075404927866472 0 0.046296380844488463 -0.47463440362945558 0 0.057068655694905858 -0.46015288389510001 0 0.052635520687858477 -0.47072247146996382 0 0.05849497948899289 -0.47642287528831911 0 0.035615270762982369 -0.48075404927866472 0 0.049693011087844949 -0.4756354888466594 0 0.05849497948899289 -0.47642287528831911 0 0.035615270762982369 -0.48075404927866472 0 0.05849497948899289 -0.47642287528831911 0 0.048043393468649283 -0.46676160836513853 0 0.046296380844488463 -0.47463440362945558 0 0.052635520687858477 -0.47072247146996382 0 0.049693011087844949 -0.4756354888466594 0 0.052635520687858477 -0.47072247146996382 0 0.05849497948899289 -0.47642287528831911 0 0.046296380844488463 -0.47463440362945558 0 0.049693011087844949 -0.4756354888466594 0 0.052635520687858477 -0.47072247146996382 0 0.05849497948899289 -0.47642287528831911 0 0.061758178687080389 -0.47580514524370598 0 0.062670741706174135 -0.48944359682069549 0 0.064881374578912687 -0.4815757870058418 0 0.05849497948899289 -0.47642287528831911 0 0.064881374578912687 -0.4815757870058418 0 0.05849497948899289 -0.47642287528831911 0 0.061758178687080389 -0.47580514524370598 0 0.069142552082564368 -0.5 0 0.062670741706174135 -0.48944359682069549 0 0.047534790768153173 -0.50000000000000044 0 0.05849497948899289 -0.47642287528831911 0 0.047534790768153173 -0.50000000000000044 0 0.035615270762982369 -0.48075404927866472 0 0.05849497948899289 -0.47642287528831911 0 0.047534790768153173 -0.50000000000000044 0 0.062670741706174135 -0.48944359682069549 0 0.05849497948899289 -0.47642287528831911 0 0.047534790768153173 -0.50000000000000044 0 0.089727975817252392 -0.29646224842349211 0 0.069967983226982527 -0.30495776272600778 0 0.075483032258224086 -0.28815868119130272 0 0.089727975817252392 -0.29646224842349211 0 0.088503230311337153 -0.27716835087377989 0 0.101883582619993 -0.28460947857741209 0 0.089727975817252392 -0.29646224842349211 0 0.075483032258224086 -0.28815868119130272 0 0.088503230311337153 -0.27716835087377989 0 0.089727975817252392 -0.29646224842349211 0 0.086214248119208581 -0.31193359067875348 0 0.069967983226982527 -0.30495776272600778 0 0.089727975817252392 -0.29646224842349211 0 0.086214248119208581 -0.31193359067875348 0 0.10049372866807189 -0.31082656242210721 0 0.069967983226982527 -0.30495776272600778 0 0.075483032258224086 -0.28815868119130272 0 0.059449054433483903 -0.28956707473318272 0 0.075483032258224086 -0.28815868119130272 0 0.0646939085167762 -0.2722383315448984 0 0.059449054433483903 -0.28956707473318272 0 0.0646939085167762 -0.2722383315448984 0 0.077350866508299074 -0.27549126298099152 0 0.080723294946858856 -0.26439968831398508 0 0.075483032258224086 -0.28815868119130272 0 0.0646939085167762 -0.2722383315448984 0 0.077350866508299074 -0.27549126298099152 0 0.0646939085167762 -0.2722383315448984 0 0.070005134957367529 -0.25889031236374099 0 0.080723294946858856 -0.26439968831398508 0 0.070005134957367529 -0.25889031236374099 0 0.061490933840310687 -0.25382890142296882 0 0.070069103552599196 -0.24823964670048029 0 0.0646939085167762 -0.2722383315448984 0 0.070005134957367529 -0.25889031236374099 0 0.060614126731859473 -0.2624009925450973 0 0.070005134957367529 -0.25889031236374099 0 0.061490933840310687 -0.25382890142296882 0 0.060614126731859473 -0.2624009925450973 0 0.070005134957367529 -0.25889031236374099 0 0.080071368274292315 -0.25145738896057979 0 0.080723294946858856 -0.26439968831398508 0 0.070005134957367529 -0.25889031236374099 0 0.080071368274292315 -0.25145738896057979 0 0.070069103552599196 -0.24823964670048029 0 0.080071368274292315 -0.25145738896057979 0 0.080723294946858856 -0.26439968831398508 0 0.090706365013478091 -0.25245448435890872 0 0.080723294946858856 -0.26439968831398508 0 0.090706365013478091 -0.25245448435890872 0 0.095060577752172304 -0.26241188567384149 0 0.075483032258224086 -0.28815868119130272 0 0.077350866508299074 -0.27549126298099152 0 0.088503230311337153 -0.27716835087377989 0 0.077350866508299074 -0.27549126298099152 0 0.080723294946858856 -0.26439968831398508 0 0.088503230311337153 -0.27716835087377989 0 0.080723294946858856 -0.26439968831398508 0 0.088503230311337153 -0.27716835087377989 0 0.095060577752172304 -0.26241188567384149 0 0.088503230311337153 -0.27716835087377989 0 0.1016952336099234 -0.27235330725820578 0 0.101883582619993 -0.28460947857741209 0 0.088503230311337153 -0.27716835087377989 0 0.1016952336099234 -0.27235330725820578 0 0.095060577752172304 -0.26241188567384149 0 0.1016952336099234 -0.27235330725820578 0 0.1104739380917857 -0.2612093749811526 0 0.1125548392743288 -0.27636744618484282 0 0.1016952336099234 -0.27235330725820578 0 0.1125548392743288 -0.27636744618484282 0 0.101883582619993 -0.28460947857741209 0 0.090706365013478091 -0.25245448435890872 0 0.099550463170151926 -0.25262580003909579 0 0.095060577752172304 -0.26241188567384149 0 0.1016952336099234 -0.27235330725820578 0 0.095060577752172304 -0.26241188567384149 0 0.1104739380917857 -0.2612093749811526 0 0.099550463170151926 -0.25262580003909579 0 0.095060577752172304 -0.26241188567384149 0 0.1104739380917857 -0.2612093749811526 0 0.099550463170151926 -0.25262580003909579 0 0.1104739380917857 -0.2612093749811526 0 0.1078238037173969 -0.24832262031645649 0 0.1311170075682456 -0.27142576198599933 0 0.1104739380917857 -0.2612093749811526 0 0.1212054647883809 -0.25073068226796852 0 0.1104739380917857 -0.2612093749811526 0 0.1212054647883809 -0.25073068226796852 0 0.1078238037173969 -0.24832262031645649 0 0.1311170075682456 -0.27142576198599933 0 0.1104739380917857 -0.2612093749811526 0 0.1311170075682456 -0.27142576198599933 0 0.1104739380917857 -0.2612093749811526 0 0.1193620271946058 -0.27249351692823448 0 0.1104739380917857 -0.2612093749811526 0 0.1125548392743288 -0.27636744618484282 0 0.1193620271946058 -0.27249351692823448 0 0.1125548392743288 -0.27636744618484282 0 0.1193620271946058 -0.27249351692823448 0 0.1233023238440631 -0.28097148456094378 0 0.1311170075682456 -0.27142576198599933 0 0.1193620271946058 -0.27249351692823448 0 0.1233023238440631 -0.28097148456094378 0 0.1233023238440631 -0.28097148456094378 0 0.1242383748246253 -0.29131174999725179 0 0.1141297936923768 -0.28878453930630188 0 0.1242383748246253 -0.29131174999725179 0 0.1141297936923768 -0.28878453930630188 0 0.1198701537204314 -0.30089140532399938 0 0.1141297936923768 -0.28878453930630188 0 0.10622170970645189 -0.29895353846799488 0 0.1198701537204314 -0.30089140532399938 0 0.1125548392743288 -0.27636744618484282 0 0.1233023238440631 -0.28097148456094378 0 0.1141297936923768 -0.28878453930630188 0 0.1125548392743288 -0.27636744618484282 0 0.1141297936923768 -0.28878453930630188 0 0.101883582619993 -0.28460947857741209 0 0.089727975817252392 -0.29646224842349211 0 0.101883582619993 -0.28460947857741209 0 0.10622170970645189 -0.29895353846799488 0 0.1141297936923768 -0.28878453930630188 0 0.101883582619993 -0.28460947857741209 0 0.10622170970645189 -0.29895353846799488 0 0.089727975817252392 -0.29646224842349211 0 0.10049372866807189 -0.31082656242210721 0 0.10622170970645189 -0.29895353846799488 0 0.10049372866807189 -0.31082656242210721 0 0.10622170970645189 -0.29895353846799488 0 0.1134387524627216 -0.31086840579325631 0 0.10622170970645189 -0.29895353846799488 0 0.1134387524627216 -0.31086840579325631 0 0.1198701537204314 -0.30089140532399938 0 0.1265219532001009 -0.3124330460259736 0 0.1134387524627216 -0.31086840579325631 0 0.1198701537204314 -0.30089140532399938 0 0.1265219532001009 -0.3124330460259736 0 0.1134387524627216 -0.31086840579325631 0 0.1192961391526948 -0.32261879728377291 0 0.1134387524627216 -0.31086840579325631 0 0.1192961391526948 -0.32261879728377291 0 0.1082288303285789 -0.31948708523568958 0 0.1192961391526948 -0.32261879728377291 0 0.1093748658769356 -0.32997486192450581 0 0.1082288303285789 -0.31948708523568958 0 0.1192961391526948 -0.32261879728377291 0 0.1168506625355451 -0.3296807312869221 0 0.1093748658769356 -0.32997486192450581 0 0.1192961391526948 -0.32261879728377291 0 0.12260601330919629 -0.33072698382653798 0 0.1168506625355451 -0.3296807312869221 0 0.13219802669416811 -0.32498852212276208 0 0.1192961391526948 -0.32261879728377291 0 0.12260601330919629 -0.33072698382653798 0 0.13051916655351839 -0.33696304048325831 0 0.12260601330919629 -0.33072698382653798 0 0.1159240811174677 -0.33775964177068091 0 0.12260601330919629 -0.33072698382653798 0 0.1159240811174677 -0.33775964177068091 0 0.1161256318033537 -0.33540228211287182 0 0.12260601330919629 -0.33072698382653798 0 0.1168506625355451 -0.3296807312869221 0 0.1161256318033537 -0.33540228211287182 0 0.13051916655351839 -0.33696304048325831 0 0.1159240811174677 -0.33775964177068091 0 0.13051916655351839 -0.33696304048325831 0 0.1159240811174677 -0.33775964177068091 0 0.123981461538115 -0.35128285539313481 0 0.1159240811174677 -0.33775964177068091 0 0.1161256318033537 -0.33540228211287182 0 0.1168506625355451 -0.3296807312869221 0 0.1161256318033537 -0.33540228211287182 0 0.1093748658769356 -0.32997486192450581 0 0.1159240811174677 -0.33775964177068091 0 0.1161256318033537 -0.33540228211287182 0 0.1093748658769356 -0.32997486192450581 0 0.1159240811174677 -0.33775964177068091 0 0.092335912071574502 -0.33904708650077298 0 0.1159240811174677 -0.33775964177068091 0 0.1093748658769356 -0.32997486192450581 0 0.092335912071574502 -0.33904708650077298 0 0.1093748658769356 -0.32997486192450581 0 0.096347407600029022 -0.32440529872184809 0 0.092335912071574502 -0.33904708650077298 0 0.1159240811174677 -0.33775964177068091 0 0.10211321446004019 -0.35101158716873732 0 0.092335912071574502 -0.33904708650077298 0 0.086214248119208581 -0.31193359067875348 0 0.10049372866807189 -0.31082656242210721 0 0.096347407600029022 -0.32440529872184809 0 0.10049372866807189 -0.31082656242210721 0 0.1134387524627216 -0.31086840579325631 0 0.1082288303285789 -0.31948708523568958 0 0.10049372866807189 -0.31082656242210721 0 0.096347407600029022 -0.32440529872184809 0 0.1082288303285789 -0.31948708523568958 0 0.1093748658769356 -0.32997486192450581 0 0.096347407600029022 -0.32440529872184809 0 0.1082288303285789 -0.31948708523568958 0 0.12784456261830821 -0.36308533366748658 0 0.12609635470998201 -0.38402791619100712 0 0.113745377556003 -0.36324200547299851 0 0.1159240811174677 -0.33775964177068091 0 0.113745377556003 -0.36324200547299851 0 0.123981461538115 -0.35128285539313481 0 0.1159240811174677 -0.33775964177068091 0 0.113745377556003 -0.36324200547299851 0 0.1159240811174677 -0.33775964177068091 0 0.113745377556003 -0.36324200547299851 0 0.10211321446004019 -0.35101158716873732 0 0.12784456261830821 -0.36308533366748658 0 0.113745377556003 -0.36324200547299851 0 0.123981461538115 -0.35128285539313481 0 0.1115666739945345 -0.38872436917531578 0 0.113745377556003 -0.36324200547299851 0 0.096372132326470572 -0.36542491223168638 0 0.113745377556003 -0.36324200547299851 0 0.10211321446004019 -0.35101158716873732 0 0.096372132326470572 -0.36542491223168638 0 0.089853218628298884 -0.38394717958202601 0 0.096372132326470572 -0.36542491223168638 0 0.07582030708563034 -0.37256671738353597 0 0.096372132326470572 -0.36542491223168638 0 0.082110249222110576 -0.35466523699539548 0 0.07582030708563034 -0.37256671738353597 0 0.10211321446004019 -0.35101158716873732 0 0.096372132326470572 -0.36542491223168638 0 0.082110249222110576 -0.35466523699539548 0 0.082110249222110576 -0.35466523699539548 0 0.092335912071574502 -0.33904708650077298 0 0.068747743025681235 -0.34033453123086538 0 0.10211321446004019 -0.35101158716873732 0 0.082110249222110576 -0.35466523699539548 0 0.092335912071574502 -0.33904708650077298 0 0.082110249222110576 -0.35466523699539548 0 0.068747743025681235 -0.34033453123086538 0 0.057272186363266697 -0.35960658745677498 0 0.082110249222110576 -0.35466523699539548 0 0.07582030708563034 -0.37256671738353597 0 0.057272186363266697 -0.35960658745677498 0 0.05933500968155693 -0.37671477575793533 0 0.07582030708563034 -0.37256671738353597 0 0.057272186363266697 -0.35960658745677498 0 0.086214248119208581 -0.31193359067875348 0 0.096347407600029022 -0.32440529872184809 0 0.078030795921920637 -0.32434601069550512 0 0.092335912071574502 -0.33904708650077298 0 0.068747743025681235 -0.34033453123086538 0 0.078030795921920637 -0.32434601069550512 0 0.092335912071574502 -0.33904708650077298 0 0.068747743025681235 -0.34033453123086538 0 0.096347407600029022 -0.32440529872184809 0 0.092335912071574502 -0.33904708650077298 0 0.078030795921920637 -0.32434601069550512 0 0.068747743025681235 -0.34033453123086538 0 0.078030795921920637 -0.32434601069550512 0 0.053863538987460123 -0.3232816795844588 0 0.069967983226982527 -0.30495776272600778 0 0.078030795921920637 -0.32434601069550512 0 0.053863538987460123 -0.3232816795844588 0 0.086214248119208581 -0.31193359067875348 0 0.069967983226982527 -0.30495776272600778 0 0.078030795921920637 -0.32434601069550512 0 0.068747743025681235 -0.34033453123086538 0 0.045159573979787898 -0.34162197596095778 0 0.068747743025681235 -0.34033453123086538 0 0.053863538987460123 -0.3232816795844588 0 0.045159573979787898 -0.34162197596095778 0 0.053863538987460123 -0.3232816795844588 0 0.034832013842728909 -0.33032259781876938 0 0.045159573979787898 -0.34162197596095778 0 0.034832013842728909 -0.33032259781876938 0 0.045159573979787898 -0.34162197596095778 0 0.02157140493389462 -0.34290942069105018 0 0.045159573979787898 -0.34162197596095778 0 0.02157140493389462 -0.34290942069105018 0 0.053863538987460123 -0.3232816795844588 0 0.034832013842728909 -0.33032259781876938 0 0.03621734991660093 -0.31670946998547028 0 0.053863538987460123 -0.3232816795844588 0 0.03621734991660093 -0.31670946998547028 0 0.048768037075517537 -0.30442990221103089 0 0.05933500968155693 -0.37671477575793533 0 0.057272186363266697 -0.35960658745677498 0 0.039079294002052851 -0.37065651216905859 0 0.068747743025681235 -0.34033453123086538 0 0.045159573979787898 -0.34162197596095778 0 0.057272186363266697 -0.35960658745677498 0 0.045159573979787898 -0.34162197596095778 0 0.034512899630155462 -0.3545258348651717 0 0.02157140493389462 -0.34290942069105018 0 0.045159573979787898 -0.34162197596095778 0 0.057272186363266697 -0.35960658745677498 0 0.034512899630155462 -0.3545258348651717 0 0.057272186363266697 -0.35960658745677498 0 0.034512899630155462 -0.3545258348651717 0 0.039079294002052851 -0.37065651216905859 0 0.025542853711361019 -0.38384675294920401 0 0.039079294002052851 -0.37065651216905859 0 0.016784443680880379 -0.36713146693108112 0 0.034512899630155462 -0.3545258348651717 0 0.039079294002052851 -0.37065651216905859 0 0.016784443680880379 -0.36713146693108112 0 0.034512899630155462 -0.3545258348651717 0 0.016784443680880379 -0.36713146693108112 0 0.02157140493389462 -0.34290942069105018 0 -0.0043130761299947744 -0.35643483176966217 0 0.016784443680880379 -0.36713146693108112 0 0.02157140493389462 -0.34290942069105018 0 -0.0038616663111063101 -0.33241552487502413 0 -0.0043130761299947744 -0.35643483176966217 0 0.02157140493389462 -0.34290942069105018 0 -0.0043130761299947744 -0.35643483176966217 0 -0.0064694903547723136 -0.38059021958606692 0 0.016784443680880379 -0.36713146693108112 0 0.03621734991660093 -0.31670946998547028 0 0.020048637459846991 -0.32439583124448262 0 0.029165048793799431 -0.30349547286963757 0 0.034832013842728909 -0.33032259781876938 0 0.03621734991660093 -0.31670946998547028 0 0.020048637459846991 -0.32439583124448262 0 0.020048637459846991 -0.32439583124448262 0 0.0094652366165251054 -0.31053241408104548 0 0.029165048793799431 -0.30349547286963757 0 0.034832013842728909 -0.33032259781876938 0 0.020048637459846991 -0.32439583124448262 0 0.02157140493389462 -0.34290942069105018 0 -0.0038616663111063101 -0.33241552487502413 0 0.020048637459846991 -0.32439583124448262 0 0.02157140493389462 -0.34290942069105018 0 -0.0038616663111063101 -0.33241552487502413 0 0.020048637459846991 -0.32439583124448262 0 0.0094652366165251054 -0.31053241408104548 0 -0.01007927323019326 -0.3103345258507364 0 0.0094652366165251054 -0.31053241408104548 0 0.0017563221397047381 -0.2997067901486577 0 0.0094652366165251054 -0.31053241408104548 0 0.0017563221397047381 -0.2997067901486577 0 0.017453688627786131 -0.29322190620108468 0 0.0017563221397047381 -0.2997067901486577 0 0.0066437179820165657 -0.2861171845936395 0 0.017453688627786131 -0.29322190620108468 0 -0.0080748459131490501 -0.2914060437848453 0 0.0017563221397047381 -0.2997067901486577 0 0.0066437179820165657 -0.2861171845936395 0 0.0066437179820165657 -0.2861171845936395 0 0.017453688627786131 -0.29322190620108468 0 0.01908241754038794 -0.28073467218482329 0 0.017453688627786131 -0.29322190620108468 0 0.029398966714908509 -0.28692964748338379 0 0.029165048793799431 -0.30349547286963757 0 0.017453688627786131 -0.29322190620108468 0 0.029398966714908509 -0.28692964748338379 0 0.01908241754038794 -0.28073467218482329 0 0.0094652366165251054 -0.31053241408104548 0 0.017453688627786131 -0.29322190620108468 0 0.029165048793799431 -0.30349547286963757 0 0.03621734991660093 -0.31670946998547028 0 0.029165048793799431 -0.30349547286963757 0 0.048768037075517537 -0.30442990221103089 0 0.029165048793799431 -0.30349547286963757 0 0.043029943860180789 -0.28970337243015992 0 0.048768037075517537 -0.30442990221103089 0 0.029398966714908509 -0.28692964748338379 0 0.029165048793799431 -0.30349547286963757 0 0.043029943860180789 -0.28970337243015992 0 0.029398966714908509 -0.28692964748338379 0 0.043029943860180789 -0.28970337243015992 0 0.038396769586432553 -0.27977596087564799 0 0.043029943860180789 -0.28970337243015992 0 0.051749435803858171 -0.27840569125857739 0 0.038396769586432553 -0.27977596087564799 0 0.043029943860180789 -0.28970337243015992 0 0.059449054433483903 -0.28956707473318272 0 0.051749435803858171 -0.27840569125857739 0 0.043029943860180789 -0.28970337243015992 0 0.059449054433483903 -0.28956707473318272 0 0.048768037075517537 -0.30442990221103089 0 0.069967983226982527 -0.30495776272600778 0 0.059449054433483903 -0.28956707473318272 0 0.048768037075517537 -0.30442990221103089 0 0.069967983226982527 -0.30495776272600778 0 0.053863538987460123 -0.3232816795844588 0 0.048768037075517537 -0.30442990221103089 0 0.053380735395516472 -0.25867595766617779 0 0.04428054005230446 -0.26275141268032309 0 0.045372505498807933 -0.25408090721008542 0 0.053380735395516472 -0.25867595766617779 0 0.053158010572478251 -0.26777612517812432 0 0.04428054005230446 -0.26275141268032309 0 0.053380735395516472 -0.25867595766617779 0 0.045372505498807933 -0.25408090721008542 0 0.05268811686830014 -0.24901610311096159 0 0.053380735395516472 -0.25867595766617779 0 0.061490933840310687 -0.25382890142296882 0 0.05268811686830014 -0.24901610311096159 0 0.053380735395516472 -0.25867595766617779 0 0.060614126731859473 -0.2624009925450973 0 0.053158010572478251 -0.26777612517812432 0 0.053380735395516472 -0.25867595766617779 0 0.061490933840310687 -0.25382890142296882 0 0.060614126731859473 -0.2624009925450973 0 0.0646939085167762 -0.2722383315448984 0 0.060614126731859473 -0.2624009925450973 0 0.053158010572478251 -0.26777612517812432 0 0.0646939085167762 -0.2722383315448984 0 0.059449054433483903 -0.28956707473318272 0 0.051749435803858171 -0.27840569125857739 0 0.0646939085167762 -0.2722383315448984 0 0.051749435803858171 -0.27840569125857739 0 0.053158010572478251 -0.26777612517812432 0 0.053158010572478251 -0.26777612517812432 0 0.044229316934554799 -0.27218436537367241 0 0.04428054005230446 -0.26275141268032309 0 0.051749435803858171 -0.27840569125857739 0 0.053158010572478251 -0.26777612517812432 0 0.044229316934554799 -0.27218436537367241 0 0.044229316934554799 -0.27218436537367241 0 0.031885251388666561 -0.26470215361104171 0 0.04428054005230446 -0.26275141268032309 0 0.051749435803858171 -0.27840569125857739 0 0.044229316934554799 -0.27218436537367241 0 0.038396769586432553 -0.27977596087564799 0 0.044229316934554799 -0.27218436537367241 0 0.038396769586432553 -0.27977596087564799 0 0.029696712261103771 -0.27487286106778819 0 0.029398966714908509 -0.28692964748338379 0 0.038396769586432553 -0.27977596087564799 0 0.029696712261103771 -0.27487286106778819 0 0.044229316934554799 -0.27218436537367241 0 0.031885251388666561 -0.26470215361104171 0 0.029696712261103771 -0.27487286106778819 0 0.037315510146954597 -0.25849363249326118 0 0.031885251388666561 -0.26470215361104171 0 0.04428054005230446 -0.26275141268032309 0 0.037315510146954597 -0.25849363249326118 0 0.031885251388666561 -0.26470215361104171 0 0.03069464768829987 -0.25176037071845259 0 0.037315510146954597 -0.25849363249326118 0 0.04428054005230446 -0.26275141268032309 0 0.045372505498807933 -0.25408090721008542 0 0.045372505498807933 -0.25408090721008542 0 0.03069464768829987 -0.25176037071845259 0 0.042588116356466379 -0.2448823624008481 0 0.037315510146954597 -0.25849363249326118 0 0.045372505498807933 -0.25408090721008542 0 0.03069464768829987 -0.25176037071845259 0 0.031885251388666561 -0.26470215361104171 0 0.021199614426200629 -0.26114166245967918 0 0.019908913466960752 -0.27058631964059482 0 0.031885251388666561 -0.26470215361104171 0 0.03069464768829987 -0.25176037071845259 0 0.021199614426200629 -0.26114166245967918 0 0.03069464768829987 -0.25176037071845259 0 0.021199614426200629 -0.26114166245967918 0 0.016145176335298529 -0.25210595968411048 0 0.029398966714908509 -0.28692964748338379 0 0.029696712261103771 -0.27487286106778819 0 0.01908241754038794 -0.28073467218482329 0 0.031885251388666561 -0.26470215361104171 0 0.029696712261103771 -0.27487286106778819 0 0.019908913466960752 -0.27058631964059482 0 0.019908913466960752 -0.27058631964059482 0 0.01908241754038794 -0.28073467218482329 0 0.01128192931255503 -0.27464126756021451 0 0.029696712261103771 -0.27487286106778819 0 0.019908913466960752 -0.27058631964059482 0 0.01908241754038794 -0.28073467218482329 0 -0.01145854626600548 -0.26602311564559261 0 0.01128192931255503 -0.27464126756021451 0 0.0057158633005241696 -0.26337829885565528 0 0.0066437179820165657 -0.2861171845936395 0 0.01908241754038794 -0.28073467218482329 0 0.01128192931255503 -0.27464126756021451 0 0.019908913466960752 -0.27058631964059482 0 0.01128192931255503 -0.27464126756021451 0 0.0057158633005241696 -0.26337829885565528 0 -0.002848760243290064 -0.27761611820401882 0 0.0066437179820165657 -0.2861171845936395 0 0.01128192931255503 -0.27464126756021451 0 0.016145176335298529 -0.25210595968411048 0 0.0057158633005241696 -0.26337829885565528 0 0.0054759062840018038 -0.25064707341720888 0 0.021199614426200629 -0.26114166245967918 0 0.019908913466960752 -0.27058631964059482 0 0.0057158633005241696 -0.26337829885565528 0 0.021199614426200629 -0.26114166245967918 0 0.016145176335298529 -0.25210595968411048 0 0.0057158633005241696 -0.26337829885565528 0 -0.0009620894167222515 -0.25496392916579452 0 0.0057158633005241696 -0.26337829885565528 0 0.0054759062840018038 -0.25064707341720888 0 -0.0009620894167222515 -0.25496392916579452 0 -0.0029313858115674811 -0.24854412401401971 0 0.0054759062840018038 -0.25064707341720888 0 0.0054759062840018038 -0.25064707341720888 0 0.0026199421412959989 -0.2430643023623929 0 0.011589873569895199 -0.24127835128668559 0 -0.0029313858115674811 -0.24854412401401971 0 0.0054759062840018038 -0.25064707341720888 0 0.0026199421412959989 -0.2430643023623929 0 0.016145176335298529 -0.25210595968411048 0 0.0054759062840018038 -0.25064707341720888 0 0.011589873569895199 -0.24127835128668559 0 0.011589873569895199 -0.24127835128668559 0 0.010668172172219499 -0.2272828987723072 0 0.020574075722817331 -0.2351284197632682 0 0.0026199421412959989 -0.2430643023623929 0 0.011589873569895199 -0.24127835128668559 0 0.0017465435191736189 -0.23378549097037141 0 -0.00080535468136348092 -0.21995366459000901 0 0.010668172172219499 -0.2272828987723072 0 0.01016515501406726 -0.20926501301563591 0 -0.00080535468136348092 -0.21995366459000901 0 0.0017465435191736189 -0.23378549097037141 0 0.010668172172219499 -0.2272828987723072 0 0.010668172172219499 -0.2272828987723072 0 0.02170661161633574 -0.22145314359659171 0 0.01016515501406726 -0.20926501301563591 0 0.011589873569895199 -0.24127835128668559 0 0.0017465435191736189 -0.23378549097037141 0 0.010668172172219499 -0.2272828987723072 0 0.010668172172219499 -0.2272828987723072 0 0.02170661161633574 -0.22145314359659171 0 0.020574075722817331 -0.2351284197632682 0 0.02170661161633574 -0.22145314359659171 0 0.02866695829179056 -0.22960637228307629 0 0.036392787169896093 -0.22322562645731159 0 0.02170661161633574 -0.22145314359659171 0 0.02866695829179056 -0.22960637228307629 0 0.020574075722817331 -0.2351284197632682 0 0.02866695829179056 -0.22960637228307629 0 0.020574075722817331 -0.2351284197632682 0 0.032071787069821417 -0.24054619649286721 0 0.022195152742869501 -0.2444300013669817 0 0.020574075722817331 -0.2351284197632682 0 0.032071787069821417 -0.24054619649286721 0 0.03069464768829987 -0.25176037071845259 0 0.022195152742869501 -0.2444300013669817 0 0.032071787069821417 -0.24054619649286721 0 0.03069464768829987 -0.25176037071845259 0 0.016145176335298529 -0.25210595968411048 0 0.022195152742869501 -0.2444300013669817 0 0.016145176335298529 -0.25210595968411048 0 0.011589873569895199 -0.24127835128668559 0 0.022195152742869501 -0.2444300013669817 0 0.011589873569895199 -0.24127835128668559 0 0.022195152742869501 -0.2444300013669817 0 0.020574075722817331 -0.2351284197632682 0 -0.003739977245034012 -0.19168309442994089 0 0.010514116253606281 -0.1925853606064957 0 0.01016515501406726 -0.20926501301563591 0 0.010514116253606281 -0.1925853606064957 0 0.01016515501406726 -0.20926501301563591 0 0.018596641755985681 -0.20049862993462389 0 0.02170661161633574 -0.22145314359659171 0 0.01016515501406726 -0.20926501301563591 0 0.028304225500431591 -0.20785134554231141 0 0.01016515501406726 -0.20926501301563591 0 0.028304225500431591 -0.20785134554231141 0 0.018596641755985681 -0.20049862993462389 0 0.02170661161633574 -0.22145314359659171 0 0.028304225500431591 -0.20785134554231141 0 0.036392787169896093 -0.22322562645731159 0 0.028304225500431591 -0.20785134554231141 0 0.018596641755985681 -0.20049862993462389 0 0.02540307025583758 -0.19229280057405279 0 0.010514116253606281 -0.1925853606064957 0 0.018596641755985681 -0.20049862993462389 0 0.02540307025583758 -0.19229280057405279 0 0.010514116253606281 -0.1925853606064957 0 0.02540307025583758 -0.19229280057405279 0 0.015764016274472759 -0.1812646672695073 0 0.02540307025583758 -0.19229280057405279 0 0.041440672425083092 -0.19607701236864419 0 0.030421272951226121 -0.1778391783376792 0 0.028304225500431591 -0.20785134554231141 0 0.02540307025583758 -0.19229280057405279 0 0.041440672425083092 -0.19607701236864419 0 0.041440672425083092 -0.19607701236864419 0 0.042310424588804782 -0.2140630995529598 0 0.055497750511994078 -0.2086068857692274 0 0.028304225500431591 -0.20785134554231141 0 0.041440672425083092 -0.19607701236864419 0 0.042310424588804782 -0.2140630995529598 0 0.028304225500431591 -0.20785134554231141 0 0.042310424588804782 -0.2140630995529598 0 0.036392787169896093 -0.22322562645731159 0 0.042310424588804782 -0.2140630995529598 0 0.055497750511994078 -0.2086068857692274 0 0.052955454276687589 -0.2198291654371925 0 0.062338921595789062 -0.21792006704763969 0 0.055497750511994078 -0.2086068857692274 0 0.052955454276687589 -0.2198291654371925 0 0.062338921595789062 -0.21792006704763969 0 0.055497750511994078 -0.2086068857692274 0 0.067863046951983474 -0.20503048868511209 0 0.055497750511994078 -0.2086068857692274 0 0.056257937900538298 -0.19577788601322099 0 0.067863046951983474 -0.20503048868511209 0 0.041440672425083092 -0.19607701236864419 0 0.056257937900538298 -0.19577788601322099 0 0.051449240160577621 -0.1762857105508405 0 0.041440672425083092 -0.19607701236864419 0 0.055497750511994078 -0.2086068857692274 0 0.056257937900538298 -0.19577788601322099 0 0.040491861427302538 -0.2355872617630255 0 0.042588116356466379 -0.2448823624008481 0 0.052307832003780613 -0.23884346229351339 0 0.040491861427302538 -0.2355872617630255 0 0.045866106706223042 -0.22907627795895011 0 0.052307832003780613 -0.23884346229351339 0 0.03069464768829987 -0.25176037071845259 0 0.042588116356466379 -0.2448823624008481 0 0.032071787069821417 -0.24054619649286721 0 0.040491861427302538 -0.2355872617630255 0 0.042588116356466379 -0.2448823624008481 0 0.032071787069821417 -0.24054619649286721 0 0.02866695829179056 -0.22960637228307629 0 0.040491861427302538 -0.2355872617630255 0 0.032071787069821417 -0.24054619649286721 0 0.02866695829179056 -0.22960637228307629 0 0.040491861427302538 -0.2355872617630255 0 0.036392787169896093 -0.22322562645731159 0 0.042310424588804782 -0.2140630995529598 0 0.036392787169896093 -0.22322562645731159 0 0.045866106706223042 -0.22907627795895011 0 0.040491861427302538 -0.2355872617630255 0 0.036392787169896093 -0.22322562645731159 0 0.045866106706223042 -0.22907627795895011 0 0.045866106706223042 -0.22907627795895011 0 0.058764067980626958 -0.22947949685718549 0 0.052307832003780613 -0.23884346229351339 0 0.045866106706223042 -0.22907627795895011 0 0.052955454276687589 -0.2198291654371925 0 0.058764067980626958 -0.22947949685718549 0 0.042310424588804782 -0.2140630995529598 0 0.045866106706223042 -0.22907627795895011 0 0.052955454276687589 -0.2198291654371925 0 0.062338921595789062 -0.21792006704763969 0 0.058764067980626958 -0.22947949685718549 0 0.065719467571416057 -0.22489822263154319 0 0.062338921595789062 -0.21792006704763969 0 0.052955454276687589 -0.2198291654371925 0 0.058764067980626958 -0.22947949685718549 0 0.058764067980626958 -0.22947949685718549 0 0.062159259289524899 -0.2368834247622158 0 0.052307832003780613 -0.23884346229351339 0 0.062159259289524899 -0.2368834247622158 0 0.052307832003780613 -0.23884346229351339 0 0.061229972926465738 -0.2445427902389527 0 0.045372505498807933 -0.25408090721008542 0 0.042588116356466379 -0.2448823624008481 0 0.05268811686830014 -0.24901610311096159 0 0.042588116356466379 -0.2448823624008481 0 0.052307832003780613 -0.23884346229351339 0 0.05268811686830014 -0.24901610311096159 0 0.061490933840310687 -0.25382890142296882 0 0.05268811686830014 -0.24901610311096159 0 0.061229972926465738 -0.2445427902389527 0 0.052307832003780613 -0.23884346229351339 0 0.05268811686830014 -0.24901610311096159 0 0.061229972926465738 -0.2445427902389527 0 0.061490933840310687 -0.25382890142296882 0 0.061229972926465738 -0.2445427902389527 0 0.070069103552599196 -0.24823964670048029 0 0.061229972926465738 -0.2445427902389527 0 0.070069103552599196 -0.24823964670048029 0 0.069856411684105391 -0.23913895996007839 0 0.062159259289524899 -0.2368834247622158 0 0.061229972926465738 -0.2445427902389527 0 0.069856411684105391 -0.23913895996007839 0 0.062159259289524899 -0.2368834247622158 0 0.069856411684105391 -0.23913895996007839 0 0.067142239376285745 -0.23139328163069281 0 0.069856411684105391 -0.23913895996007839 0 0.077788170153509889 -0.24196191377257101 0 0.076767606518392539 -0.23187249677345001 0 0.080071368274292315 -0.25145738896057979 0 0.070069103552599196 -0.24823964670048029 0 0.077788170153509889 -0.24196191377257101 0 0.070069103552599196 -0.24823964670048029 0 0.069856411684105391 -0.23913895996007839 0 0.077788170153509889 -0.24196191377257101 0 0.080071368274292315 -0.25145738896057979 0 0.090706365013478091 -0.25245448435890872 0 0.085906732882507178 -0.24385162082211831 0 0.080071368274292315 -0.25145738896057979 0 0.077788170153509889 -0.24196191377257101 0 0.085906732882507178 -0.24385162082211831 0 0.077788170153509889 -0.24196191377257101 0 0.085906732882507178 -0.24385162082211831 0 0.083256636250354649 -0.23616880796388259 0 0.077788170153509889 -0.24196191377257101 0 0.083256636250354649 -0.23616880796388259 0 0.076767606518392539 -0.23187249677345001 0 0.085906732882507178 -0.24385162082211831 0 0.089657973372422345 -0.23730775202069579 0 0.094006026236525903 -0.2441335510050745 0 0.085906732882507178 -0.24385162082211831 0 0.083256636250354649 -0.23616880796388259 0 0.089657973372422345 -0.23730775202069579 0 0.083256636250354649 -0.23616880796388259 0 0.089657973372422345 -0.23730775202069579 0 0.089763789457938253 -0.2306791647953326 0 0.089657973372422345 -0.23730775202069579 0 0.089763789457938253 -0.2306791647953326 0 0.096012267649498176 -0.23702186761809721 0 0.089657973372422345 -0.23730775202069579 0 0.094006026236525903 -0.2441335510050745 0 0.096012267649498176 -0.23702186761809721 0 0.090706365013478091 -0.25245448435890872 0 0.085906732882507178 -0.24385162082211831 0 0.094006026236525903 -0.2441335510050745 0 0.086446736705125371 -0.22420087797706609 0 0.091303359373345411 -0.22339335178318359 0 0.089763789457938253 -0.2306791647953326 0 0.086446736705125371 -0.22420087797706609 0 0.091303359373345411 -0.22339335178318359 0 0.086853981468707001 -0.2185547472363609 0 0.091303359373345411 -0.22339335178318359 0 0.086853981468707001 -0.2185547472363609 0 0.09077468002378962 -0.21857675351640271 0 0.091303359373345411 -0.22339335178318359 0 0.09077468002378962 -0.21857675351640271 0 0.094530837428433365 -0.22086489816084981 0 0.091303359373345411 -0.22339335178318359 0 0.089763789457938253 -0.2306791647953326 0 0.098670227838192195 -0.22970514568366851 0 0.086446736705125371 -0.22420087797706609 0 0.089763789457938253 -0.2306791647953326 0 0.083020570332336119 -0.22791650227557511 0 0.083256636250354649 -0.23616880796388259 0 0.083020570332336119 -0.22791650227557511 0 0.076767606518392539 -0.23187249677345001 0 0.083256636250354649 -0.23616880796388259 0 0.089763789457938253 -0.2306791647953326 0 0.083020570332336119 -0.22791650227557511 0 0.083020570332336119 -0.22791650227557511 0 0.077930889523722374 -0.22519622511208121 0 0.076767606518392539 -0.23187249677345001 0 0.083020570332336119 -0.22791650227557511 0 0.081291982893300085 -0.22046062379487821 0 0.077930889523722374 -0.22519622511208121 0 0.086446736705125371 -0.22420087797706609 0 0.083020570332336119 -0.22791650227557511 0 0.081291982893300085 -0.22046062379487821 0 0.086446736705125371 -0.22420087797706609 0 0.081291982893300085 -0.22046062379487821 0 0.086853981468707001 -0.2185547472363609 0 0.081291982893300085 -0.22046062379487821 0 0.077930889523722374 -0.22519622511208121 0 0.073706539318973169 -0.21796036257100029 0 0.072234091795087663 -0.22574485878751241 0 0.065719467571416057 -0.22489822263154319 0 0.073706539318973169 -0.21796036257100029 0 0.077930889523722374 -0.22519622511208121 0 0.072234091795087663 -0.22574485878751241 0 0.073706539318973169 -0.21796036257100029 0 0.069856411684105391 -0.23913895996007839 0 0.076767606518392539 -0.23187249677345001 0 0.067142239376285745 -0.23139328163069281 0 0.072234091795087663 -0.22574485878751241 0 0.076767606518392539 -0.23187249677345001 0 0.067142239376285745 -0.23139328163069281 0 0.077930889523722374 -0.22519622511208121 0 0.072234091795087663 -0.22574485878751241 0 0.076767606518392539 -0.23187249677345001 0 0.058764067980626958 -0.22947949685718549 0 0.062159259289524899 -0.2368834247622158 0 0.067142239376285745 -0.23139328163069281 0 0.058764067980626958 -0.22947949685718549 0 0.067142239376285745 -0.23139328163069281 0 0.065719467571416057 -0.22489822263154319 0 0.072234091795087663 -0.22574485878751241 0 0.067142239376285745 -0.23139328163069281 0 0.065719467571416057 -0.22489822263154319 0 0.062338921595789062 -0.21792006704763969 0 0.065719467571416057 -0.22489822263154319 0 0.073706539318973169 -0.21796036257100029 0 0.062338921595789062 -0.21792006704763969 0 0.067863046951983474 -0.20503048868511209 0 0.073706539318973169 -0.21796036257100029 0 0.067863046951983474 -0.20503048868511209 0 0.073706539318973169 -0.21796036257100029 0 0.079094442607528917 -0.20913243433380641 0 0.067863046951983474 -0.20503048868511209 0 0.081482512553192915 -0.1953056794767786 0 0.079094442607528917 -0.20913243433380641 0 0.056257937900538298 -0.19577788601322099 0 0.067863046951983474 -0.20503048868511209 0 0.066040058368007956 -0.18964665730407451 0 0.067863046951983474 -0.20503048868511209 0 0.066040058368007956 -0.18964665730407451 0 0.081482512553192915 -0.1953056794767786 0 0.081482512553192915 -0.1953056794767786 0 0.095454742848087734 -0.19451486061966669 0 0.093505174579280592 -0.1731787749771625 0 0.081482512553192915 -0.1953056794767786 0 0.08833530696517819 -0.21036332105093219 0 0.095454742848087734 -0.19451486061966669 0 0.08833530696517819 -0.21036332105093219 0 0.097404311116896569 -0.21585094626217091 0 0.095454742848087734 -0.19451486061966669 0 0.081291982893300085 -0.22046062379487821 0 0.073706539318973169 -0.21796036257100029 0 0.082946926161669862 -0.2149195339015407 0 0.082946926161669862 -0.2149195339015407 0 0.079094442607528917 -0.20913243433380641 0 0.08833530696517819 -0.21036332105093219 0 0.073706539318973169 -0.21796036257100029 0 0.082946926161669862 -0.2149195339015407 0 0.079094442607528917 -0.20913243433380641 0 0.081291982893300085 -0.22046062379487821 0 0.082946926161669862 -0.2149195339015407 0 0.086853981468707001 -0.2185547472363609 0 0.081482512553192915 -0.1953056794767786 0 0.079094442607528917 -0.20913243433380641 0 0.08833530696517819 -0.21036332105093219 0 0.082946926161669862 -0.2149195339015407 0 0.08833530696517819 -0.21036332105093219 0 0.086853981468707001 -0.2185547472363609 0 0.08833530696517819 -0.21036332105093219 0 0.086853981468707001 -0.2185547472363609 0 0.09077468002378962 -0.21857675351640271 0 0.08833530696517819 -0.21036332105093219 0 0.09077468002378962 -0.21857675351640271 0 0.092213447725184278 -0.21529843562297729 0 0.08833530696517819 -0.21036332105093219 0 0.092213447725184278 -0.21529843562297729 0 0.097404311116896569 -0.21585094626217091 0 0.09077468002378962 -0.21857675351640271 0 0.094501608789943028 -0.21679829355882299 0 0.094530837428433365 -0.22086489816084981 0 0.09077468002378962 -0.21857675351640271 0 0.092213447725184278 -0.21529843562297729 0 0.094501608789943028 -0.21679829355882299 0 0.094501608789943028 -0.21679829355882299 0 0.097404311116896569 -0.21585094626217091 0 0.094530837428433365 -0.22086489816084981 0 0.092213447725184278 -0.21529843562297729 0 0.094501608789943028 -0.21679829355882299 0 0.097404311116896569 -0.21585094626217091 0 0.097404311116896569 -0.21585094626217091 0 0.095454742848087734 -0.19451486061966669 0 0.097404311116896569 -0.21585094626217091 0 0.1059898830346106 -0.20430933332548051 0 0.095454742848087734 -0.19451486061966669 0 0.097404311116896569 -0.21585094626217091 0 0.1089347031997706 -0.21297733173581901 0 0.1146171121197104 -0.21980430615730401 0 0.097404311116896569 -0.21585094626217091 0 0.1059898830346106 -0.20430933332548051 0 0.1089347031997706 -0.21297733173581901 0 0.095454742848087734 -0.19451486061966669 0 0.1128143282819509 -0.19216489626002589 0 0.10772522460311169 -0.17968171223372481 0 0.1059898830346106 -0.20430933332548051 0 0.095454742848087734 -0.19451486061966669 0 0.1128143282819509 -0.19216489626002589 0 0.1128143282819509 -0.19216489626002589 0 0.1237689835273371 -0.19605207676116951 0 0.1178461100078927 -0.20838697738218431 0 0.1059898830346106 -0.20430933332548051 0 0.1128143282819509 -0.19216489626002589 0 0.1178461100078927 -0.20838697738218431 0 0.1128143282819509 -0.19216489626002589 0 0.1237689835273371 -0.19605207676116951 0 0.1232013989280239 -0.1819146573535104 0 0.1089347031997706 -0.21297733173581901 0 0.1178461100078927 -0.20838697738218431 0 0.1146171121197104 -0.21980430615730401 0 0.1059898830346106 -0.20430933332548051 0 0.1089347031997706 -0.21297733173581901 0 0.1178461100078927 -0.20838697738218431 0 0.1178461100078927 -0.20838697738218431 0 0.1146171121197104 -0.21980430615730401 0 0.12895394136930069 -0.22163642029703709 0 0.1146171121197104 -0.21980430615730401 0 0.12018370186474731 -0.23305432747703519 0 0.12895394136930069 -0.22163642029703709 0 0.097404311116896569 -0.21585094626217091 0 0.1146171121197104 -0.21980430615730401 0 0.12018370186474731 -0.23305432747703519 0 0.1212054647883809 -0.25073068226796852 0 0.12018370186474731 -0.23305432747703519 0 0.1059281586602189 -0.23527494890652931 0 0.13217397618885759 -0.25462043987800831 0 0.1212054647883809 -0.25073068226796852 0 0.12018370186474731 -0.23305432747703519 0 0.1212054647883809 -0.25073068226796852 0 0.1059281586602189 -0.23527494890652931 0 0.1078238037173969 -0.24832262031645649 0 0.1212054647883809 -0.25073068226796852 0 0.1059281586602189 -0.23527494890652931 0 0.099550463170151926 -0.25262580003909579 0 0.1078238037173969 -0.24832262031645649 0 0.10103467245524091 -0.24298905409433241 0 0.1059281586602189 -0.23527494890652931 0 0.1078238037173969 -0.24832262031645649 0 0.10103467245524091 -0.24298905409433241 0 0.099550463170151926 -0.25262580003909579 0 0.10103467245524091 -0.24298905409433241 0 0.094006026236525903 -0.2441335510050745 0 0.090706365013478091 -0.25245448435890872 0 0.099550463170151926 -0.25262580003909579 0 0.094006026236525903 -0.2441335510050745 0 0.1059281586602189 -0.23527494890652931 0 0.10103467245524091 -0.24298905409433241 0 0.096012267649498176 -0.23702186761809721 0 0.10103467245524091 -0.24298905409433241 0 0.094006026236525903 -0.2441335510050745 0 0.096012267649498176 -0.23702186761809721 0 0.1059281586602189 -0.23527494890652931 0 0.096012267649498176 -0.23702186761809721 0 0.098670227838192195 -0.22970514568366851 0 0.089763789457938253 -0.2306791647953326 0 0.096012267649498176 -0.23702186761809721 0 0.098670227838192195 -0.22970514568366851 0 0.097404311116896569 -0.21585094626217091 0 0.12018370186474731 -0.23305432747703519 0 0.097404311116896569 -0.21585094626217091 0 0.12018370186474731 -0.23305432747703519 0 0.1059281586602189 -0.23527494890652931 0 0.097404311116896569 -0.21585094626217091 0 0.1059281586602189 -0.23527494890652931 0 0.098670227838192195 -0.22970514568366851 0 0.091303359373345411 -0.22339335178318359 0 0.098670227838192195 -0.22970514568366851 0 0.094530837428433365 -0.22086489816084981 0 0.097404311116896569 -0.21585094626217091 0 0.098670227838192195 -0.22970514568366851 0 0.094530837428433365 -0.22086489816084981 0 0.097404311116896569 -0.21585094626217091 0 0.098670227838192195 -0.22970514568366851 0 0.1071373084330472 -0.14482826815459701 0 0.1035248479174861 -0.15311019857333261 0 0.098760878024456711 -0.14050656481393209 0 0.1071373084330472 -0.14482826815459701 0 0.1035248479174861 -0.15311019857333261 0 0.1121477659277255 -0.1503271840913511 0 0.1035248479174861 -0.15311019857333261 0 0.098760878024456711 -0.14050656481393209 0 0.091560400862706559 -0.15189516094014111 0 0.098760878024456711 -0.14050656481393209 0 0.099399694252258627 -0.1328638184600745 0 0.089615627146132512 -0.13061154690311971 0 0.099399694252258627 -0.1328638184600745 0 0.099525338641528904 -0.12611341339503321 0 0.089615627146132512 -0.13061154690311971 0 0.099525338641528904 -0.12611341339503321 0 0.1096969331969164 -0.13422374872821319 0 0.1121708616464093 -0.1216807098986791 0 0.099399694252258627 -0.1328638184600745 0 0.099525338641528904 -0.12611341339503321 0 0.1096969331969164 -0.13422374872821319 0 0.098760878024456711 -0.14050656481393209 0 0.099399694252258627 -0.1328638184600745 0 0.1096969331969164 -0.13422374872821319 0 0.1071373084330472 -0.14482826815459701 0 0.098760878024456711 -0.14050656481393209 0 0.1096969331969164 -0.13422374872821319 0 0.1096969331969164 -0.13422374872821319 0 0.1155243526086871 -0.14484298486410191 0 0.12532898621889721 -0.13663811256420449 0 0.1096969331969164 -0.13422374872821319 0 0.11997683785091839 -0.1276371159963853 0 0.12532898621889721 -0.13663811256420449 0 0.1096969331969164 -0.13422374872821319 0 0.11997683785091839 -0.1276371159963853 0 0.1121708616464093 -0.1216807098986791 0 0.1217036921304827 -0.1482443959076799 0 0.1155243526086871 -0.14484298486410191 0 0.12532898621889721 -0.13663811256420449 0 0.1217036921304827 -0.1482443959076799 0 0.1155243526086871 -0.14484298486410191 0 0.1179114041550178 -0.15136128022523329 0 0.1071373084330472 -0.14482826815459701 0 0.1155243526086871 -0.14484298486410191 0 0.1121477659277255 -0.1503271840913511 0 0.1071373084330472 -0.14482826815459701 0 0.1096969331969164 -0.13422374872821319 0 0.1155243526086871 -0.14484298486410191 0 0.1035248479174861 -0.15311019857333261 0 0.1121477659277255 -0.1503271840913511 0 0.1169082366172023 -0.15609331882735419 0 0.1155243526086871 -0.14484298486410191 0 0.1121477659277255 -0.1503271840913511 0 0.1179114041550178 -0.15136128022523329 0 0.1121477659277255 -0.1503271840913511 0 0.1169082366172023 -0.15609331882735419 0 0.1179114041550178 -0.15136128022523329 0 0.1169082366172023 -0.15609331882735419 0 0.1179114041550178 -0.15136128022523329 0 0.12324902196630889 -0.15465793599018671 0 0.1217036921304827 -0.1482443959076799 0 0.1179114041550178 -0.15136128022523329 0 0.12324902196630889 -0.15465793599018671 0 0.1217036921304827 -0.1482443959076799 0 0.12324902196630889 -0.15465793599018671 0 0.12831016946945831 -0.1492440347933528 0 0.1035248479174861 -0.15311019857333261 0 0.12443417021765769 -0.1709717485187108 0 0.1227471198665283 -0.15880086614903269 0 0.12098675462827781 -0.16200852072179159 0 0.1290045142054978 -0.1612372837293575 0 0.1035248479174861 -0.15311019857333261 0 0.12443417021765769 -0.1709717485187108 0 0.12083528946942131 -0.1711597280255607 0 0.1035248479174861 -0.15311019857333261 0 0.12098675462827781 -0.16200852072179159 0 0.12443417021765769 -0.1709717485187108 0 0.1035248479174861 -0.15311019857333261 0 0.1169082366172023 -0.15609331882735419 0 0.12098675462827781 -0.16200852072179159 0 0.1169082366172023 -0.15609331882735419 0 0.1227471198665283 -0.15880086614903269 0 0.12098675462827781 -0.16200852072179159 0 0.1169082366172023 -0.15609331882735419 0 0.12324902196630889 -0.15465793599018671 0 0.1227471198665283 -0.15880086614903269 0 0.12098675462827781 -0.16200852072179159 0 0.12443417021765769 -0.1709717485187108 0 0.12715697753007521 -0.16591248018761531 0 0.1128143282819509 -0.19216489626002589 0 0.1232013989280239 -0.1819146573535104 0 0.1157139550245927 -0.18029465614444529 0 0.12083528946942131 -0.1711597280255607 0 0.1232013989280239 -0.1819146573535104 0 0.1157139550245927 -0.18029465614444529 0 0.12443417021765769 -0.1709717485187108 0 0.12083528946942131 -0.1711597280255607 0 0.1232013989280239 -0.1819146573535104 0 0.12083528946942131 -0.1711597280255607 0 0.1157139550245927 -0.18029465614444529 0 0.10772522460311169 -0.17968171223372481 0 0.1128143282819509 -0.19216489626002589 0 0.1157139550245927 -0.18029465614444529 0 0.10772522460311169 -0.17968171223372481 0 0.095454742848087734 -0.19451486061966669 0 0.10772522460311169 -0.17968171223372481 0 0.093505174579280592 -0.1731787749771625 0 0.12083528946942131 -0.1711597280255607 0 0.093505174579280592 -0.1731787749771625 0 0.095454742848087734 -0.19451486061966669 0 0.093505174579280592 -0.1731787749771625 0 0.12083528946942131 -0.1711597280255607 0 0.10772522460311169 -0.17968171223372481 0 0.093505174579280592 -0.1731787749771625 0 0.1035248479174861 -0.15311019857333261 0 0.093505174579280592 -0.1731787749771625 0 0.091560400862706559 -0.15189516094014111 0 0.1035248479174861 -0.15311019857333261 0 0.12083528946942131 -0.1711597280255607 0 0.093505174579280592 -0.1731787749771625 0 0.078133883947979807 -0.15717501910519549 0 0.093505174579280592 -0.1731787749771625 0 0.091560400862706559 -0.15189516094014111 0 0.078133883947979807 -0.15717501910519549 0 0.093505174579280592 -0.1731787749771625 0 0.072477207369929117 -0.17473224276400179 0 0.093505174579280592 -0.1731787749771625 0 0.091560400862706559 -0.15189516094014111 0 0.081482512553192915 -0.1953056794767786 0 0.093505174579280592 -0.1731787749771625 0 0.072477207369929117 -0.17473224276400179 0 0.093505174579280592 -0.1731787749771625 0 0.072477207369929117 -0.17473224276400179 0 0.066040058368007956 -0.18964665730407451 0 0.072477207369929117 -0.17473224276400179 0 0.051449240160577621 -0.1762857105508405 0 0.066040058368007956 -0.18964665730407451 0 0.081482512553192915 -0.1953056794767786 0 0.072477207369929117 -0.17473224276400179 0 0.078133883947979807 -0.15717501910519549 0 0.072477207369929117 -0.17473224276400179 0 0.063878974636528515 -0.16401540189567099 0 0.072477207369929117 -0.17473224276400179 0 0.063878974636528515 -0.16401540189567099 0 0.051449240160577621 -0.1762857105508405 0 0.078133883947979807 -0.15717501910519549 0 0.063878974636528515 -0.16401540189567099 0 0.06522271263887458 -0.15305574504012881 0 0.06522271263887458 -0.15305574504012881 0 0.069316279952888193 -0.14186668388360371 0 0.075278834721760557 -0.14616760919767161 0 0.06522271263887458 -0.15305574504012881 0 0.069316279952888193 -0.14186668388360371 0 0.05757515479497001 -0.1486962131740798 0 0.069316279952888193 -0.14186668388360371 0 0.075278834721760557 -0.14616760919767161 0 0.079765110473415279 -0.13788087003968491 0 0.078133883947979807 -0.15717501910519549 0 0.06522271263887458 -0.15305574504012881 0 0.075278834721760557 -0.14616760919767161 0 0.098760878024456711 -0.14050656481393209 0 0.091560400862706559 -0.15189516094014111 0 0.089615627146132512 -0.13061154690311971 0 0.078133883947979807 -0.15717501910519549 0 0.083611330147541921 -0.14459745320402559 0 0.091560400862706559 -0.15189516094014111 0 0.091560400862706559 -0.15189516094014111 0 0.089615627146132512 -0.13061154690311971 0 0.078133883947979807 -0.15717501910519549 0 0.075278834721760557 -0.14616760919767161 0 0.083611330147541921 -0.14459745320402559 0 0.083611330147541921 -0.14459745320402559 0 0.091560400862706559 -0.15189516094014111 0 0.089615627146132512 -0.13061154690311971 0 0.075278834721760557 -0.14616760919767161 0 0.083611330147541921 -0.14459745320402559 0 0.079765110473415279 -0.13788087003968491 0 0.099525338641528904 -0.12611341339503321 0 0.089615627146132512 -0.13061154690311971 0 0.081894058627025895 -0.12584863130967919 0 0.083611330147541921 -0.14459745320402559 0 0.089615627146132512 -0.13061154690311971 0 0.079765110473415279 -0.13788087003968491 0 0.089615627146132512 -0.13061154690311971 0 0.079765110473415279 -0.13788087003968491 0 0.081894058627025895 -0.12584863130967919 0 0.081894058627025895 -0.12584863130967919 0 0.065576399090336079 -0.13067912082877309 0 0.057907204523981459 -0.13951585418161591 0 0.081894058627025895 -0.12584863130967919 0 0.057907204523981459 -0.13951585418161591 0 0.069316279952888193 -0.14186668388360371 0 0.081894058627025895 -0.12584863130967919 0 0.057907204523981459 -0.13951585418161591 0 0.081894058627025895 -0.12584863130967919 0 0.068207364780656948 -0.12563827965844471 0 0.065576399090336079 -0.13067912082877309 0 0.069316279952888193 -0.14186668388360371 0 0.079765110473415279 -0.13788087003968491 0 0.081894058627025895 -0.12584863130967919 0 0.068207364780656948 -0.12563827965844471 0 0.065576399090336079 -0.13067912082877309 0 0.054296968429680029 -0.13171371816535249 0 0.054296968429680029 -0.13171371816535249 0 0.057907204523981459 -0.13951585418161591 0 0.034849001543539322 -0.1503583031021323 0 0.054296968429680029 -0.13171371816535249 0 0.045553716665441668 -0.12681104972785159 0 0.052448498866582129 -0.1166826243517366 0 0.065576399090336079 -0.13067912082877309 0 0.054296968429680029 -0.13171371816535249 0 0.057907204523981459 -0.13951585418161591 0 0.069316279952888193 -0.14186668388360371 0 0.057907204523981459 -0.13951585418161591 0 0.05757515479497001 -0.1486962131740798 0 0.06522271263887458 -0.15305574504012881 0 0.05757515479497001 -0.1486962131740798 0 0.052111829065281459 -0.15882829201818821 0 0.046808539919221563 -0.15014413002933799 0 0.052111829065281459 -0.15882829201818821 0 0.043031393960321331 -0.1571354857308308 0 0.05757515479497001 -0.1486962131740798 0 0.046808539919221563 -0.15014413002933799 0 0.052111829065281459 -0.15882829201818821 0 0.057907204523981459 -0.13951585418161591 0 0.05757515479497001 -0.1486962131740798 0 0.046808539919221563 -0.15014413002933799 0 0.057907204523981459 -0.13951585418161591 0 0.046808539919221563 -0.15014413002933799 0 0.033920350420936912 -0.1531830770535528 0 0.057907204523981459 -0.13951585418161591 0 0.034849001543539322 -0.1503583031021323 0 0.033920350420936912 -0.1531830770535528 0 0.054296968429680029 -0.13171371816535249 0 0.034849001543539322 -0.1503583031021323 0 0.038558521200612962 -0.14006542407622449 0 0.054296968429680029 -0.13171371816535249 0 0.034849001543539322 -0.1503583031021323 0 0.057907204523981459 -0.13951585418161591 0 0.033920350420936912 -0.1531830770535528 0 0.046808539919221563 -0.15014413002933799 0 0.040219483271594643 -0.15466785876887121 0 0.033920350420936912 -0.1531830770535528 0 0.046808539919221563 -0.15014413002933799 0 0.040219483271594643 -0.15466785876887121 0 0.043031393960321331 -0.1571354857308308 0 0.040219483271594643 -0.15466785876887121 0 0.033920350420936912 -0.1531830770535528 0 0.037117648785898759 -0.15820874226176301 0 0.034849001543539322 -0.1503583031021323 0 0.031672068294339203 -0.14528428076340441 0 0.030051573782975471 -0.15027594372919439 0 0.034849001543539322 -0.1503583031021323 0 0.033920350420936912 -0.1531830770535528 0 0.030051573782975471 -0.15027594372919439 0 0.034849001543539322 -0.1503583031021323 0 0.031672068294339203 -0.14528428076340441 0 0.038558521200612962 -0.14006542407622449 0 0.031672068294339203 -0.14528428076340441 0 0.038558521200612962 -0.14006542407622449 0 0.030566093298411881 -0.13865773310914861 0 0.054296968429680029 -0.13171371816535249 0 0.038558521200612962 -0.14006542407622449 0 0.040644455285911409 -0.1338393175667463 0 0.038558521200612962 -0.14006542407622449 0 0.040644455285911409 -0.1338393175667463 0 0.030566093298411881 -0.13865773310914861 0 0.034824944079593127 -0.12500853882757099 0 0.040644455285911409 -0.1338393175667463 0 0.030566093298411881 -0.13865773310914861 0 0.034824944079593127 -0.12500853882757099 0 0.045553716665441668 -0.12681104972785159 0 0.040644455285911409 -0.1338393175667463 0 0.054296968429680029 -0.13171371816535249 0 0.045553716665441668 -0.12681104972785159 0 0.040644455285911409 -0.1338393175667463 0 0.072477207369929117 -0.17473224276400179 0 0.051449240160577621 -0.1762857105508405 0 0.056257937900538298 -0.19577788601322099 0 0.066040058368007956 -0.18964665730407451 0 0.051449240160577621 -0.1762857105508405 0 0.063878974636528515 -0.16401540189567099 0 0.051449240160577621 -0.1762857105508405 0 0.052111829065281459 -0.15882829201818821 0 0.051449240160577621 -0.1762857105508405 0 0.052111829065281459 -0.15882829201818821 0 0.040502396519655252 -0.1663673850483231 0 0.063878974636528515 -0.16401540189567099 0 0.06522271263887458 -0.15305574504012881 0 0.052111829065281459 -0.15882829201818821 0 0.043031393960321331 -0.1571354857308308 0 0.037117648785898759 -0.15820874226176301 0 0.040502396519655252 -0.1663673850483231 0 0.052111829065281459 -0.15882829201818821 0 0.043031393960321331 -0.1571354857308308 0 0.040502396519655252 -0.1663673850483231 0 0.040219483271594643 -0.15466785876887121 0 0.043031393960321331 -0.1571354857308308 0 0.037117648785898759 -0.15820874226176301 0 0.033920350420936912 -0.1531830770535528 0 0.033509818979212957 -0.15868168045615499 0 0.027465449436243041 -0.1628752445715565 0 0.037117648785898759 -0.15820874226176301 0 0.034071859908748191 -0.1623715567021686 0 0.040502396519655252 -0.1663673850483231 0 0.033920350420936912 -0.1531830770535528 0 0.037117648785898759 -0.15820874226176301 0 0.033509818979212957 -0.15868168045615499 0 0.037117648785898759 -0.15820874226176301 0 0.033509818979212957 -0.15868168045615499 0 0.034071859908748191 -0.1623715567021686 0 0.033509818979212957 -0.15868168045615499 0 0.034071859908748191 -0.1623715567021686 0 0.027465449436243041 -0.1628752445715565 0 0.031586668938662611 -0.1691709391612749 0 0.040502396519655252 -0.1663673850483231 0 0.030421272951226121 -0.1778391783376792 0 0.034071859908748191 -0.1623715567021686 0 0.031586668938662611 -0.1691709391612749 0 0.040502396519655252 -0.1663673850483231 0 0.051449240160577621 -0.1762857105508405 0 0.040502396519655252 -0.1663673850483231 0 0.030421272951226121 -0.1778391783376792 0 0.041440672425083092 -0.19607701236864419 0 0.051449240160577621 -0.1762857105508405 0 0.030421272951226121 -0.1778391783376792 0 0.051449240160577621 -0.1762857105508405 0 0.030421272951226121 -0.1778391783376792 0 0.02540307025583758 -0.19229280057405279 0 0.015764016274472759 -0.1812646672695073 0 0.030421272951226121 -0.1778391783376792 0 0.031586668938662611 -0.1691709391612749 0 0.030421272951226121 -0.1778391783376792 0 0.021575687727073561 -0.1734893605992324 0 0.015764016274472759 -0.1812646672695073 0 0.021575687727073561 -0.1734893605992324 0 0.012676990919703311 -0.16924925594887871 0 0.015764016274472759 -0.1812646672695073 0 0.030421272951226121 -0.1778391783376792 0 0.021575687727073561 -0.1734893605992324 0 0.033920350420936912 -0.1531830770535528 0 0.009933496317892726 -0.16685029992549011 0 0.02294500892830088 -0.1542832107784407 0 0.033920350420936912 -0.1531830770535528 0 0.027465449436243041 -0.1628752445715565 0 0.009933496317892726 -0.16685029992549011 0 0.019596439448784399 -0.16744493330375371 0 0.027465449436243041 -0.1628752445715565 0 0.009933496317892726 -0.16685029992549011 0 0.033920350420936912 -0.1531830770535528 0 0.009933496317892726 -0.16685029992549011 0 0.021575687727073561 -0.1734893605992324 0 0.019596439448784399 -0.16744493330375371 0 0.012676990919703311 -0.16924925594887871 0 0.021575687727073561 -0.1734893605992324 0 0.019596439448784399 -0.16744493330375371 0 0.025540403417393751 -0.1677775419388785 0 0.031586668938662611 -0.1691709391612749 0 0.021575687727073561 -0.1734893605992324 0 0.025540403417393751 -0.1677775419388785 0 0.019596439448784399 -0.16744493330375371 0 0.025540403417393751 -0.1677775419388785 0 0.027465449436243041 -0.1628752445715565 0 0.034071859908748191 -0.1623715567021686 0 0.031586668938662611 -0.1691709391612749 0 0.027465449436243041 -0.1628752445715565 0 0.031586668938662611 -0.1691709391612749 0 0.025540403417393751 -0.1677775419388785 0 0.027465449436243041 -0.1628752445715565 0 0.009933496317892726 -0.16685029992549011 0 0.01648447247354291 -0.15404273338364399 0 0.02294500892830088 -0.1542832107784407 0 0.009933496317892726 -0.16685029992549011 0 0.01648447247354291 -0.15404273338364399 0 0.0068311679390763679 -0.1533437069849535 0 0.019596439448784399 -0.16744493330375371 0 0.009933496317892726 -0.16685029992549011 0 0.012676990919703311 -0.16924925594887871 0 0.009933496317892726 -0.16685029992549011 0 0.012676990919703311 -0.16924925594887871 0 0.0034571977838801569 -0.17702496179755631 0 0.009933496317892726 -0.16685029992549011 0 0.012676990919703311 -0.16924925594887871 0 -0.0085976242789068957 -0.177408956520272 0 0.009933496317892726 -0.16685029992549011 0 -0.0085976242789068957 -0.177408956520272 0 0.009933496317892726 -0.16685029992549011 0 0.0034571977838801569 -0.17702496179755631 0 0.015764016274472759 -0.1812646672695073 0 0.012676990919703311 -0.16924925594887871 0 0.0034571977838801569 -0.17702496179755631 0 -0.003739977245034012 -0.19168309442994089 0 0.010514116253606281 -0.1925853606064957 0 0.0034571977838801569 -0.17702496179755631 0 0.010514116253606281 -0.1925853606064957 0 0.015764016274472759 -0.1812646672695073 0 0.0034571977838801569 -0.17702496179755631 0 0.02166725362828328 -0.1398342401410575 0 0.019282665512654749 -0.1297026577714144 0 0.01241268948209219 -0.14437852502616319 0 0.034824944079593127 -0.12500853882757099 0 0.019282665512654749 -0.1297026577714144 0 0.030566093298411881 -0.13865773310914861 0 0.02166725362828328 -0.1398342401410575 0 0.019282665512654749 -0.1297026577714144 0 0.030566093298411881 -0.13865773310914861 0 0.031672068294339203 -0.14528428076340441 0 0.030566093298411881 -0.13865773310914861 0 0.024335151646156381 -0.14706399980032239 0 0.02166725362828328 -0.1398342401410575 0 0.030566093298411881 -0.13865773310914861 0 0.024335151646156381 -0.14706399980032239 0 0.031672068294339203 -0.14528428076340441 0 0.024335151646156381 -0.14706399980032239 0 0.030051573782975471 -0.15027594372919439 0 0.033920350420936912 -0.1531830770535528 0 0.030051573782975471 -0.15027594372919439 0 0.02294500892830088 -0.1542832107784407 0 0.024335151646156381 -0.14706399980032239 0 0.030051573782975471 -0.15027594372919439 0 0.02294500892830088 -0.1542832107784407 0 0.024335151646156381 -0.14706399980032239 0 0.01648447247354291 -0.15404273338364399 0 0.01241268948209219 -0.14437852502616319 0 0.024335151646156381 -0.14706399980032239 0 0.01648447247354291 -0.15404273338364399 0 0.02294500892830088 -0.1542832107784407 0 0.02166725362828328 -0.1398342401410575 0 0.024335151646156381 -0.14706399980032239 0 0.01241268948209219 -0.14437852502616319 0 -0.011505986517222349 -0.14810326960451681 0 0.01241268948209219 -0.14437852502616319 0 0.0068311679390763679 -0.1533437069849535 0 -0.011505986517222349 -0.14810326960451681 0 0.009933496317892726 -0.16685029992549011 0 0.0068311679390763679 -0.1533437069849535 0 -0.011505986517222349 -0.14810326960451681 0 0.01241268948209219 -0.14437852502616319 0 0.0027021066240326768 -0.1317064378292063 0 0.01648447247354291 -0.15404273338364399 0 0.01241268948209219 -0.14437852502616319 0 0.0068311679390763679 -0.1533437069849535 0 0.019282665512654749 -0.1297026577714144 0 0.01241268948209219 -0.14437852502616319 0 0.0027021066240326768 -0.1317064378292063 0 0.019282665512654749 -0.1297026577714144 0 0.0027021066240326768 -0.1317064378292063 0 0.005085065621477718 -0.1151057880332567 0 0.019282665512654749 -0.1297026577714144 0 0.005085065621477718 -0.1151057880332567 0 0.024129304522527751 -0.1089818526354679 0 0.034824944079593127 -0.12500853882757099 0 0.019282665512654749 -0.1297026577714144 0 0.024129304522527751 -0.1089818526354679 0 0.024129304522527751 -0.1089818526354679 0 0.01380815825635252 -0.094132232187142617 0 0.031293966725895003 -0.08518965294817829 0 -0.00044729776891663488 -0.1011528385718463 0 0.005085065621477718 -0.1151057880332567 0 0.01380815825635252 -0.094132232187142617 0 0.005085065621477718 -0.1151057880332567 0 0.024129304522527751 -0.1089818526354679 0 0.01380815825635252 -0.094132232187142617 0 0.01380815825635252 -0.094132232187142617 0 0.0042106568376920582 -0.081118225430045127 0 0.020039989671696231 -0.071989185162356889 0 -0.00044729776891663488 -0.1011528385718463 0 0.01380815825635252 -0.094132232187142617 0 0.0042106568376920582 -0.081118225430045127 0 0.0042106568376920582 -0.081118225430045127 0 0.0052181775422467033 -0.064346337314722044 0 0.020039989671696231 -0.071989185162356889 0 -0.0043762627118289626 -0.071729097412358583 0 0.0042106568376920582 -0.081118225430045127 0 0.0052181775422467033 -0.064346337314722044 0 0.0052181775422467033 -0.064346337314722044 0 0.020039989671696231 -0.071989185162356889 0 0.0052181775422467033 -0.064346337314722044 0 0.020039989671696231 -0.071989185162356889 0 0.017880224012190679 -0.058506375123621113 0 0.020039989671696231 -0.071989185162356889 0 0.017880224012190679 -0.058506375123621113 0 0.035073137211611732 -0.060365082031122411 0 0.020039989671696231 -0.071989185162356889 0 0.031293966725895003 -0.08518965294817829 0 0.035073137211611732 -0.060365082031122411 0 0.01380815825635252 -0.094132232187142617 0 0.020039989671696231 -0.071989185162356889 0 0.031293966725895003 -0.08518965294817829 0 0.031293966725895003 -0.08518965294817829 0 0.050629459546369923 -0.074776417317023003 0 0.042727201812981508 -0.099892478072297022 0 0.050629459546369923 -0.074776417317023003 0 0.042727201812981508 -0.099892478072297022 0 0.031293966725895003 -0.08518965294817829 0 0.050629459546369923 -0.074776417317023003 0 0.035073137211611732 -0.060365082031122411 0 0.050629459546369923 -0.074776417317023003 0 0.058531717279758283 -0.049660356561749108 0 0.072219385832792832 -0.066659644627356851 0 0.050629459546369923 -0.074776417317023003 0 0.042727201812981508 -0.099892478072297022 0 0.069701838591585213 -0.089386546866783212 0 0.059655618646742382 -0.10475769562984739 0 0.052448498866582129 -0.1166826243517366 0 0.042727201812981508 -0.099892478072297022 0 0.059655618646742382 -0.10475769562984739 0 0.042727201812981508 -0.099892478072297022 0 0.069701838591585213 -0.089386546866783212 0 0.054296968429680029 -0.13171371816535249 0 0.052448498866582129 -0.1166826243517366 0 0.073744935315820714 -0.1130691332285727 0 0.059655618646742382 -0.10475769562984739 0 0.052448498866582129 -0.1166826243517366 0 0.073744935315820714 -0.1130691332285727 0 0.034824944079593127 -0.12500853882757099 0 0.045553716665441668 -0.12681104972785159 0 0.052448498866582129 -0.1166826243517366 0 0.034824944079593127 -0.12500853882757099 0 0.052448498866582129 -0.1166826243517366 0 0.042727201812981508 -0.099892478072297022 0 0.034824944079593127 -0.12500853882757099 0 0.024129304522527751 -0.1089818526354679 0 0.042727201812981508 -0.099892478072297022 0 0.034824944079593127 -0.12500853882757099 0 0.042727201812981508 -0.099892478072297022 0 0.024129304522527751 -0.1089818526354679 0 0.031293966725895003 -0.08518965294817829 0 0.042727201812981508 -0.099892478072297022 0 0.034885408484197772 0.0062912350017927032 0 0.01265631079038235 -0.01012693536007268 0 0.042517259973231587 -0.011683923625132649 0 -0.00118246574067416 -0.01324232368796026 0 0.0012074066645448821 -0.00065723147797176382 0 0.01265631079038235 -0.01012693536007268 0 0.01265631079038235 -0.01012693536007268 0 0.02406773205363014 -0.026959444655171291 0 0.0015263381015913891 -0.033415212413580753 0 0.01265631079038235 -0.01012693536007268 0 0.0015263381015913891 -0.033415212413580753 0 -0.00118246574067416 -0.01324232368796026 0 0.01265631079038235 -0.01012693536007268 0 0.0015263381015913891 -0.033415212413580753 0 0.01265631079038235 -0.01012693536007268 0 0.02406773205363014 -0.026959444655171291 0 0.042517259973231587 -0.011683923625132649 0 0.02406773205363014 -0.026959444655171291 0 0.021771409900077709 -0.044354063799483319 0 0.04186734150286768 -0.035217088077587062 0 0.02406773205363014 -0.026959444655171291 0 0.021771409900077709 -0.044354063799483319 0 0.0015263381015913891 -0.033415212413580753 0 0.021771409900077709 -0.044354063799483319 0 0.0015263381015913891 -0.033415212413580753 0 0.007298405735321048 -0.051477207310420908 0 -0.0096036345872028556 -0.056703489467087059 0 0.0052181775422467033 -0.064346337314722044 0 0.007298405735321048 -0.051477207310420908 0 0.0052181775422467033 -0.064346337314722044 0 0.007298405735321048 -0.051477207310420908 0 0.017880224012190679 -0.058506375123621113 0 0.021771409900077709 -0.044354063799483319 0 0.017880224012190679 -0.058506375123621113 0 0.035073137211611732 -0.060365082031122411 0 0.021771409900077709 -0.044354063799483319 0 0.007298405735321048 -0.051477207310420908 0 0.017880224012190679 -0.058506375123621113 0 0.035073137211611732 -0.060365082031122411 0 0.058531717279758283 -0.049660356561749108 0 0.04186734150286768 -0.035217088077587062 0 0.050629459546369923 -0.074776417317023003 0 0.058531717279758283 -0.049660356561749108 0 0.050629459546369923 -0.074776417317023003 0 0.035073137211611732 -0.060365082031122411 0 0.058531717279758283 -0.049660356561749108 0 0.058531717279758283 -0.049660356561749108 0 0.066433975013146629 -0.02454429580647528 0 0.058531717279758283 -0.049660356561749108 0 0.04186734150286768 -0.035217088077587062 0 0.066433975013146629 -0.02454429580647528 0 0.021771409900077709 -0.044354063799483319 0 0.035073137211611732 -0.060365082031122411 0 0.04186734150286768 -0.035217088077587062 0 0.02406773205363014 -0.026959444655171291 0 0.04186734150286768 -0.035217088077587062 0 0.042517259973231587 -0.011683923625132649 0 0.04186734150286768 -0.035217088077587062 0 0.042517259973231587 -0.011683923625132649 0 0.066433975013146629 -0.02454429580647528 0 0.052968053050369737 0.0090809173488315582 0 0.042517259973231587 -0.011683923625132649 0 0.067492943165135169 -0.0019794682467893379 0 0.042517259973231587 -0.011683923625132649 0 0.067492943165135169 -0.0019794682467893379 0 0.066433975013146629 -0.02454429580647528 0 0.087040675587819916 -0.0096101539263870796 0 0.066433975013146629 -0.02454429580647528 0 0.098032226742104309 -0.02831505409649597 0 0.083930998993742512 0.0059737405228527038 0 0.087040675587819916 -0.0096101539263870796 0 0.067492943165135169 -0.0019794682467893379 0 0.083930998993742512 0.0059737405228527038 0 0.098495163759696414 0.0029673617968291321 0 0.087040675587819916 -0.0096101539263870796 0 0.087040675587819916 -0.0096101539263870796 0 0.067492943165135169 -0.0019794682467893379 0 0.066433975013146629 -0.02454429580647528 0 0.066433975013146629 -0.02454429580647528 0 0.080663194565618018 -0.042742664855397232 0 0.098032226742104309 -0.02831505409649597 0 0.080663194565618018 -0.042742664855397232 0 0.099119978598511321 -0.045144617550746849 0 0.098032226742104309 -0.02831505409649597 0 0.058531717279758283 -0.049660356561749108 0 0.066433975013146629 -0.02454429580647528 0 0.080663194565618018 -0.042742664855397232 0 0.058531717279758283 -0.049660356561749108 0 0.080663194565618018 -0.042742664855397232 0 0.072219385832792832 -0.066659644627356851 0 0.080663194565618018 -0.042742664855397232 0 0.091985945990252393 -0.059557823171565508 0 0.072219385832792832 -0.066659644627356851 0 0.080663194565618018 -0.042742664855397232 0 0.091985945990252393 -0.059557823171565508 0 0.099119978598511321 -0.045144617550746849 0 0.091985945990252393 -0.059557823171565508 0 0.109385226414503 -0.056941989317685793 0 0.099119978598511321 -0.045144617550746849 0 0.109385226414503 -0.056941989317685793 0 0.1174221699598199 -0.069046986946925279 0 0.12664898879935529 -0.055605769639440771 0 0.109385226414503 -0.056941989317685793 0 0.1155332992800789 -0.038165556312589707 0 0.12664898879935529 -0.055605769639440771 0 0.1155332992800789 -0.038165556312589707 0 0.12954193793015309 -0.041748568408345607 0 0.12664898879935529 -0.055605769639440771 0 0.1155332992800789 -0.038165556312589707 0 0.1294320674019063 -0.023146095115484211 0 0.12954193793015309 -0.041748568408345607 0 0.109385226414503 -0.056941989317685793 0 0.1155332992800789 -0.038165556312589707 0 0.099119978598511321 -0.045144617550746849 0 0.1155332992800789 -0.038165556312589707 0 0.099119978598511321 -0.045144617550746849 0 0.098032226742104309 -0.02831505409649597 0 0.1155332992800789 -0.038165556312589707 0 0.098032226742104309 -0.02831505409649597 0 0.1112777463759113 -0.012222875866518469 0 0.087040675587819916 -0.0096101539263870796 0 0.098032226742104309 -0.02831505409649597 0 0.1112777463759113 -0.012222875866518469 0 0.1155332992800789 -0.038165556312589707 0 0.1112777463759113 -0.012222875866518469 0 0.1294320674019063 -0.023146095115484211 0 0.1158546052028349 0.0064685721448778594 0 0.13464870039648349 0.00080453217212592717 0 0.1112777463759113 -0.012222875866518469 0 0.098495163759696414 0.0029673617968291321 0 0.087040675587819916 -0.0096101539263870796 0 0.1112777463759113 -0.012222875866518469 0 0.1158546052028349 0.0064685721448778594 0 0.098495163759696414 0.0029673617968291321 0 0.1112777463759113 -0.012222875866518469 0 0.093192902201961414 -0.094424548291792879 0 0.088899626305776192 -0.1113374325741409 0 0.073744935315820714 -0.1130691332285727 0 0.093192902201961414 -0.094424548291792879 0 0.073744935315820714 -0.1130691332285727 0 0.069701838591585213 -0.089386546866783212 0 0.093192902201961414 -0.094424548291792879 0 0.073744935315820714 -0.1130691332285727 0 0.081894058627025895 -0.12584863130967919 0 0.088899626305776192 -0.1113374325741409 0 0.09397493983509804 -0.11322330148444169 0 0.081894058627025895 -0.12584863130967919 0 0.079920122843727764 -0.11786127252462281 0 0.075141871126288284 -0.1211898929860986 0 0.081894058627025895 -0.12584863130967919 0 0.088899626305776192 -0.1113374325741409 0 0.079920122843727764 -0.11786127252462281 0 0.088899626305776192 -0.1113374325741409 0 0.079920122843727764 -0.11786127252462281 0 0.073744935315820714 -0.1130691332285727 0 0.068207364780656948 -0.12563827965844471 0 0.054296968429680029 -0.13171371816535249 0 0.073744935315820714 -0.1130691332285727 0 0.054296968429680029 -0.13171371816535249 0 0.073744935315820714 -0.1130691332285727 0 0.068207364780656948 -0.12563827965844471 0 0.073744935315820714 -0.1130691332285727 0 0.075141871126288284 -0.1211898929860986 0 0.079920122843727764 -0.11786127252462281 0 0.073744935315820714 -0.1130691332285727 0 0.075141871126288284 -0.1211898929860986 0 0.081894058627025895 -0.12584863130967919 0 0.068207364780656948 -0.12563827965844471 0 0.075141871126288284 -0.1211898929860986 0 0.059655618646742382 -0.10475769562984739 0 0.073744935315820714 -0.1130691332285727 0 0.069701838591585213 -0.089386546866783212 0 0.050629459546369923 -0.074776417317023003 0 0.069701838591585213 -0.089386546866783212 0 0.072219385832792832 -0.066659644627356851 0 0.069701838591585213 -0.089386546866783212 0 0.072219385832792832 -0.066659644627356851 0 0.089711563165187497 -0.078251462936863553 0 0.091985945990252393 -0.059557823171565508 0 0.072219385832792832 -0.066659644627356851 0 0.089711563165187497 -0.078251462936863553 0 0.093192902201961414 -0.094424548291792879 0 0.069701838591585213 -0.089386546866783212 0 0.089711563165187497 -0.078251462936863553 0 0.093192902201961414 -0.094424548291792879 0 0.089711563165187497 -0.078251462936863553 0 0.1048667032735431 -0.089595599910983495 0 0.089711563165187497 -0.078251462936863553 0 0.1048667032735431 -0.089595599910983495 0 0.1056935618466131 -0.072691272791708894 0 0.1048667032735431 -0.089595599910983495 0 0.1056935618466131 -0.072691272791708894 0 0.11564058922802831 -0.08068930143821873 0 0.091985945990252393 -0.059557823171565508 0 0.089711563165187497 -0.078251462936863553 0 0.1056935618466131 -0.072691272791708894 0 0.091985945990252393 -0.059557823171565508 0 0.109385226414503 -0.056941989317685793 0 0.1056935618466131 -0.072691272791708894 0 0.1174221699598199 -0.069046986946925279 0 0.12840026197867099 -0.078951386265116219 0 0.12664898879935529 -0.055605769639440771 0 0.109385226414503 -0.056941989317685793 0 0.1056935618466131 -0.072691272791708894 0 0.1174221699598199 -0.069046986946925279 0 0.1056935618466131 -0.072691272791708894 0 0.1174221699598199 -0.069046986946925279 0 0.11564058922802831 -0.08068930143821873 0 0.1174221699598199 -0.069046986946925279 0 0.11564058922802831 -0.08068930143821873 0 0.12840026197867099 -0.078951386265116219 0 0.1048667032735431 -0.089595599910983495 0 0.11564058922802831 -0.08068930143821873 0 0.1191358060176364 -0.092450830711447801 0 0.1191358060176364 -0.092450830711447801 0 0.12840026197867099 -0.078951386265116219 0 0.11564058922802831 -0.08068930143821873 0 0.1191358060176364 -0.092450830711447801 0 0.12840026197867099 -0.078951386265116219 0 0.1058809127300703 -0.11218140843774239 0 0.12023297736745781 -0.1110263554770618 0 0.12986776683311119 -0.098514185565799078 0 0.1058809127300703 -0.11218140843774239 0 0.12986776683311119 -0.098514185565799078 0 0.1048667032735431 -0.089595599910983495 0 0.1191358060176364 -0.092450830711447801 0 0.10987135005660249 -0.1059502751577799 0 0.10987135005660249 -0.1059502751577799 0 0.1058809127300703 -0.11218140843774239 0 0.12986776683311119 -0.098514185565799078 0 0.1191358060176364 -0.092450830711447801 0 0.10987135005660249 -0.1059502751577799 0 0.12986776683311119 -0.098514185565799078 0 0.1191358060176364 -0.092450830711447801 0 0.10987135005660249 -0.1059502751577799 0 0.093192902201961414 -0.094424548291792879 0 0.088899626305776192 -0.1113374325741409 0 0.099225161677519755 -0.1035257336162041 0 0.1048667032735431 -0.089595599910983495 0 0.10987135005660249 -0.1059502751577799 0 0.099225161677519755 -0.1035257336162041 0 0.10987135005660249 -0.1059502751577799 0 0.099225161677519755 -0.1035257336162041 0 0.1058809127300703 -0.11218140843774239 0 0.088899626305776192 -0.1113374325741409 0 0.099225161677519755 -0.1035257336162041 0 0.09397493983509804 -0.11322330148444169 0 0.093192902201961414 -0.094424548291792879 0 0.1048667032735431 -0.089595599910983495 0 0.099225161677519755 -0.1035257336162041 0 0.081894058627025895 -0.12584863130967919 0 0.1058809127300703 -0.11218140843774239 0 0.099525338641528904 -0.12611341339503321 0 0.081894058627025895 -0.12584863130967919 0 0.1058809127300703 -0.11218140843774239 0 0.081894058627025895 -0.12584863130967919 0 0.09397493983509804 -0.11322330148444169 0 0.1058809127300703 -0.11218140843774239 0 0.099225161677519755 -0.1035257336162041 0 0.09397493983509804 -0.11322330148444169 0 0.1058809127300703 -0.11218140843774239 0 0.099525338641528904 -0.12611341339503321 0 0.1058809127300703 -0.11218140843774239 0 0.1121708616464093 -0.1216807098986791 0 0.1058809127300703 -0.11218140843774239 0 0.1121708616464093 -0.1216807098986791 0 0.12023297736745781 -0.1110263554770618 0 0.11997683785091839 -0.1276371159963853 0 0.121067612134044 -0.1214532534018402 0 0.13188977167139071 -0.12546883223523481 0 0.12023297736745781 -0.1110263554770618 0 0.121067612134044 -0.1214532534018402 0 0.13188977167139071 -0.12546883223523481 0 0.11997683785091839 -0.1276371159963853 0 0.1121708616464093 -0.1216807098986791 0 0.121067612134044 -0.1214532534018402 0 0.1121708616464093 -0.1216807098986791 0 0.12023297736745781 -0.1110263554770618 0 0.121067612134044 -0.1214532534018402 0 0.12023297736745781 -0.1110263554770618 0 0.12986776683311119 -0.098514185565799078 0 0.13188977167139071 -0.12546883223523481 0 0.12986776683311119 -0.098514185565799078 0 0.13188977167139071 -0.12546883223523481 0 0.14925441928633251 -0.10969288085116551 0 0.13995942417209239 -0.1034127274713456 0 0.13188977167139071 -0.12546883223523481 0 0.14724036225017881 -0.1245170930860646 0 0.14925441928633251 -0.10969288085116551 0 0.13188977167139071 -0.12546883223523481 0 0.14925441928633251 -0.10969288085116551 0 0.15485465026004211 -0.11932571079310079 0 0.15999890680388329 -0.1096406796162286 0 0.14724036225017881 -0.1245170930860646 0 0.15485465026004211 -0.11932571079310079 0 0.15557261582888751 -0.13003178131142151 0 0.14724036225017881 -0.1245170930860646 0 0.14925441928633251 -0.10969288085116551 0 0.15485465026004211 -0.11932571079310079 0 0.14925441928633251 -0.10969288085116551 0 0.14348993397904131 -0.092765062884646393 0 0.1620153957752187 -0.097165399419701551 0 0.14348993397904131 -0.092765062884646393 0 0.1620153957752187 -0.097165399419701551 0 0.14925441928633251 -0.10969288085116551 0 0.13995942417209239 -0.1034127274713456 0 0.14348993397904131 -0.092765062884646393 0 0.13995942417209239 -0.1034127274713456 0 0.12986776683311119 -0.098514185565799078 0 0.13188977167139071 -0.12546883223523481 0 0.13995942417209239 -0.1034127274713456 0 0.12986776683311119 -0.098514185565799078 0 0.14348993397904131 -0.092765062884646393 0 0.12986776683311119 -0.098514185565799078 0 0.12840026197867099 -0.078951386265116219 0 0.1428482005174804 -0.076716741777837147 0 0.1191358060176364 -0.092450830711447801 0 0.12986776683311119 -0.098514185565799078 0 0.12840026197867099 -0.078951386265116219 0 0.12986776683311119 -0.098514185565799078 0 0.12840026197867099 -0.078951386265116219 0 0.12840026197867099 -0.078951386265116219 0 0.12664898879935529 -0.055605769639440771 0 0.12840026197867099 -0.078951386265116219 0 0.12664898879935529 -0.055605769639440771 0 0.14464694777039611 -0.055277979731059648 0 0.12840026197867099 -0.078951386265116219 0 0.1428482005174804 -0.076716741777837147 0 0.14464694777039611 -0.055277979731059648 0 0.12840026197867099 -0.078951386265116219 0 0.14464694777039611 -0.055277979731059648 0 0.1428482005174804 -0.076716741777837147 0 0.15680899227989839 -0.06637062400294011 0 0.14464694777039611 -0.055277979731059648 0 0.1428482005174804 -0.076716741777837147 0 0.15451703372532541 -0.084469533324270707 0 0.15680899227989839 -0.06637062400294011 0 0.12986776683311119 -0.098514185565799078 0 0.15451703372532541 -0.084469533324270707 0 0.12986776683311119 -0.098514185565799078 0 0.14348993397904131 -0.092765062884646393 0 0.15451703372532541 -0.084469533324270707 0 0.14348993397904131 -0.092765062884646393 0 0.15451703372532541 -0.084469533324270707 0 0.1620153957752187 -0.097165399419701551 0 0.12986776683311119 -0.098514185565799078 0 0.1428482005174804 -0.076716741777837147 0 0.15451703372532541 -0.084469533324270707 0 0.15451703372532541 -0.084469533324270707 0 0.1674193516126988 -0.088794767656503876 0 0.1620153957752187 -0.097165399419701551 0 0.15451703372532541 -0.084469533324270707 0 0.1674193516126988 -0.088794767656503876 0 0.16389165652408541 -0.076485311925560115 0 0.1674193516126988 -0.088794767656503876 0 0.16389165652408541 -0.076485311925560115 0 0.17613181446746839 -0.084287857658230353 0 0.15451703372532541 -0.084469533324270707 0 0.15680899227989839 -0.06637062400294011 0 0.16389165652408541 -0.076485311925560115 0 0.16389165652408541 -0.076485311925560115 0 0.1717227713635387 -0.067009979361705274 0 0.17613181446746839 -0.084287857658230353 0 0.15680899227989839 -0.06637062400294011 0 0.16389165652408541 -0.076485311925560115 0 0.1717227713635387 -0.067009979361705274 0 0.15680899227989839 -0.06637062400294011 0 0.1717227713635387 -0.067009979361705274 0 0.1652446184022294 -0.054500080927008407 0 0.1717227713635387 -0.067009979361705274 0 0.17613181446746839 -0.084287857658230353 0 0.1717227713635387 -0.067009979361705274 0 0.18346211879182289 -0.064955309332027283 0 0.18137547142311691 -0.085525622921553163 0 0.18346211879182289 -0.064955309332027283 0 0.18137547142311691 -0.085525622921553163 0 0.1952329782378138 -0.068464889048657496 0 0.1717227713635387 -0.067009979361705274 0 0.18137547142311691 -0.085525622921553163 0 0.1717227713635387 -0.067009979361705274 0 0.18346211879182289 -0.064955309332027283 0 0.1746283364613696 -0.057560297553190053 0 0.18137547142311691 -0.085525622921553163 0 0.17613181446746839 -0.084287857658230353 0 0.18054085757139629 -0.1015657359547559 0 0.17613181446746839 -0.084287857658230353 0 0.18054085757139629 -0.1015657359547559 0 0.1674193516126988 -0.088794767656503876 0 0.17613181446746839 -0.084287857658230353 0 0.18054085757139629 -0.1015657359547559 0 0.1717227713635387 -0.067009979361705274 0 0.18137547142311691 -0.085525622921553163 0 0.17613181446746839 -0.084287857658230353 0 0.18137547142311691 -0.085525622921553163 0 0.19100769245097829 -0.1040519139747048 0 0.18137547142311691 -0.085525622921553163 0 0.18054085757139629 -0.1015657359547559 0 0.19100769245097829 -0.1040519139747048 0 0.18054085757139629 -0.1015657359547559 0 0.1749190978293893 -0.1165979942053425 0 0.16884250162088479 -0.1080310140379921 0 0.18054085757139629 -0.1015657359547559 0 0.19100769245097829 -0.1040519139747048 0 0.18054085757139629 -0.1015657359547559 0 0.1862357176231304 -0.1238823921021804 0 0.1749190978293893 -0.1165979942053425 0 0.18054085757139629 -0.1015657359547559 0 0.1862357176231304 -0.1238823921021804 0 0.19100769245097829 -0.1040519139747048 0 0.18054085757139629 -0.1015657359547559 0 0.1862357176231304 -0.1238823921021804 0 0.1862357176231304 -0.1238823921021804 0 0.1749190978293893 -0.1165979942053425 0 0.17324983187337631 -0.13165498831909611 0 0.1749190978293893 -0.1165979942053425 0 0.16471491079178111 -0.1205264202314431 0 0.16884250162088479 -0.1080310140379921 0 0.16471491079178111 -0.1205264202314431 0 0.15999890680388329 -0.1096406796162286 0 0.16884250162088479 -0.1080310140379921 0 0.1749190978293893 -0.1165979942053425 0 0.16471491079178111 -0.1205264202314431 0 0.17324983187337631 -0.13165498831909611 0 0.15485465026004211 -0.11932571079310079 0 0.16471491079178111 -0.1205264202314431 0 0.15557261582888751 -0.13003178131142151 0 0.15485465026004211 -0.11932571079310079 0 0.16471491079178111 -0.1205264202314431 0 0.15999890680388329 -0.1096406796162286 0 0.18054085757139629 -0.1015657359547559 0 0.1620153957752187 -0.097165399419701551 0 0.1674193516126988 -0.088794767656503876 0 0.18054085757139629 -0.1015657359547559 0 0.1620153957752187 -0.097165399419701551 0 0.14925441928633251 -0.10969288085116551 0 0.15999890680388329 -0.1096406796162286 0 0.1620153957752187 -0.097165399419701551 0 0.15999890680388329 -0.1096406796162286 0 0.1620153957752187 -0.097165399419701551 0 0.16884250162088479 -0.1080310140379921 0 0.18054085757139629 -0.1015657359547559 0 0.1620153957752187 -0.097165399419701551 0 0.16884250162088479 -0.1080310140379921 0 0.13464870039648349 0.00080453217212592717 0 0.15480995508657039 -0.001084596553268768 0 0.14892696920713289 -0.018041582065753459 0 0.13464870039648349 0.00080453217212592717 0 0.1294320674019063 -0.023146095115484211 0 0.14892696920713289 -0.018041582065753459 0 0.13464870039648349 0.00080453217212592717 0 0.1112777463759113 -0.012222875866518469 0 0.1294320674019063 -0.023146095115484211 0 0.1294320674019063 -0.023146095115484211 0 0.14892696920713289 -0.018041582065753459 0 0.14270131340979469 -0.036531096068384838 0 0.14892696920713289 -0.018041582065753459 0 0.14270131340979469 -0.036531096068384838 0 0.16089363356212191 -0.031604573197003549 0 0.14270131340979469 -0.036531096068384838 0 0.14464694777039611 -0.055277979731059648 0 0.16089363356212191 -0.031604573197003549 0 0.14464694777039611 -0.055277979731059648 0 0.15561449558007559 -0.051164132387281437 0 0.16089363356212191 -0.031604573197003549 0 0.14464694777039611 -0.055277979731059648 0 0.16089363356212191 -0.031604573197003549 0 0.14270131340979469 -0.036531096068384838 0 0.12954193793015309 -0.041748568408345607 0 0.14464694777039611 -0.055277979731059648 0 0.1294320674019063 -0.023146095115484211 0 0.14270131340979469 -0.036531096068384838 0 0.12954193793015309 -0.041748568408345607 0 0.12954193793015309 -0.041748568408345607 0 0.12664898879935529 -0.055605769639440771 0 0.14464694777039611 -0.055277979731059648 0 0.15680899227989839 -0.06637062400294011 0 0.14464694777039611 -0.055277979731059648 0 0.15561449558007559 -0.051164132387281437 0 0.15680899227989839 -0.06637062400294011 0 0.15561449558007559 -0.051164132387281437 0 0.1652446184022294 -0.054500080927008407 0 0.15561449558007559 -0.051164132387281437 0 0.1652446184022294 -0.054500080927008407 0 0.1617942405007988 -0.043199732881276223 0 0.1652446184022294 -0.054500080927008407 0 0.1746283364613696 -0.057560297553190053 0 0.1617942405007988 -0.043199732881276223 0 0.1717227713635387 -0.067009979361705274 0 0.1652446184022294 -0.054500080927008407 0 0.1717227713635387 -0.067009979361705274 0 0.1652446184022294 -0.054500080927008407 0 0.1746283364613696 -0.057560297553190053 0 0.1746283364613696 -0.057560297553190053 0 0.1828119860636557 -0.050363577362968731 0 0.1617942405007988 -0.043199732881276223 0 0.18346211879182289 -0.064955309332027283 0 0.1746283364613696 -0.057560297553190053 0 0.1828119860636557 -0.050363577362968731 0 0.18346211879182289 -0.064955309332027283 0 0.1828119860636557 -0.050363577362968731 0 0.19188844298534441 -0.056659859735039647 0 0.1617942405007988 -0.043199732881276223 0 0.18853740735089011 -0.033706188378118708 0 0.1828119860636557 -0.050363577362968731 0 0.1617942405007988 -0.043199732881276223 0 0.18853740735089011 -0.033706188378118708 0 0.15561449558007559 -0.051164132387281437 0 0.16089363356212191 -0.031604573197003549 0 0.1617942405007988 -0.043199732881276223 0 0.16089363356212191 -0.031604573197003549 0 0.1617942405007988 -0.043199732881276223 0 0.18853740735089011 -0.033706188378118708 0 0.16089363356212191 -0.031604573197003549 0 0.17714031935384769 -0.0079311666629475405 0 0.14892696920713289 -0.018041582065753459 0 0.16089363356212191 -0.031604573197003549 0 0.17714031935384769 -0.0079311666629475405 0 0.16089363356212191 -0.031604573197003549 0 0.17714031935384769 -0.0079311666629475405 0 0.18853740735089011 -0.033706188378118708 0 0.1657030786406338 0.0084270166623369204 0 0.15480995508657039 -0.001084596553268768 0 0.17714031935384769 -0.0079311666629475405 0 0.15480995508657039 -0.001084596553268768 0 0.14892696920713289 -0.018041582065753459 0 0.17714031935384769 -0.0079311666629475405 0 0.21351355446813719 -0.0021103410187178909 0 0.2110126965438916 -0.012672932103663791 0 0.2228246624943325 -0.0092295053444410857 0 0.2110126965438916 -0.012672932103663791 0 0.21911622703360889 -0.015650702578479541 0 0.2228246624943325 -0.0092295053444410857 0 0.21351355446813719 -0.0021103410187178909 0 0.2110126965438916 -0.012672932103663791 0 0.19836939172364151 -0.01016904411482358 0 0.1998105265397013 0.00335350757378736 0 0.21351355446813719 -0.0021103410187178909 0 0.19836939172364151 -0.01016904411482358 0 0.1998105265397013 0.00335350757378736 0 0.17714031935384769 -0.0079311666629475405 0 0.19836939172364151 -0.01016904411482358 0 0.17714031935384769 -0.0079311666629475405 0 0.19836939172364151 -0.01016904411482358 0 0.18853740735089011 -0.033706188378118708 0 0.2110126965438916 -0.012672932103663791 0 0.19836939172364151 -0.01016904411482358 0 0.18853740735089011 -0.033706188378118708 0 0.21528057420098159 -0.024212643874961401 0 0.18853740735089011 -0.033706188378118708 0 0.2110126965438916 -0.012672932103663791 0 0.21528057420098159 -0.024212643874961401 0 0.18853740735089011 -0.033706188378118708 0 0.21528057420098159 -0.024212643874961401 0 0.20886364623554921 -0.031523512657201581 0 0.18853740735089011 -0.033706188378118708 0 0.2110126965438916 -0.012672932103663791 0 0.21528057420098159 -0.024212643874961401 0 0.21911622703360889 -0.015650702578479541 0 0.21528057420098159 -0.024212643874961401 0 0.2158000993154765 -0.027276596113623111 0 0.21360323626451261 -0.02858374534336202 0 0.21528057420098159 -0.024212643874961401 0 0.2158000993154765 -0.027276596113623111 0 0.21995729679401421 -0.029331280632926501 0 0.2158000993154765 -0.027276596113623111 0 0.21503400689837671 -0.030930810510401429 0 0.21995729679401421 -0.029331280632926501 0 0.2158000993154765 -0.027276596113623111 0 0.21503400689837671 -0.030930810510401429 0 0.21360323626451261 -0.02858374534336202 0 0.21528057420098159 -0.024212643874961401 0 0.21360323626451261 -0.02858374534336202 0 0.20886364623554921 -0.031523512657201581 0 0.21503400689837671 -0.030930810510401429 0 0.21360323626451261 -0.02858374534336202 0 0.20886364623554921 -0.031523512657201581 0 0.2128060919330283 -0.035124071741943173 0 0.2180191377477218 -0.035203133534298187 0 0.2167024847658664 -0.043974661413588162 0 0.21503400689837671 -0.030930810510401429 0 0.2128060919330283 -0.035124071741943173 0 0.20886364623554921 -0.031523512657201581 0 0.21503400689837671 -0.030930810510401429 0 0.2128060919330283 -0.035124071741943173 0 0.2180191377477218 -0.035203133534298187 0 0.21503400689837671 -0.030930810510401429 0 0.2180191377477218 -0.035203133534298187 0 0.21995729679401421 -0.029331280632926501 0 0.2167024847658664 -0.043974661413588162 0 0.20890374551960481 -0.040729144831228678 0 0.20897987019450001 -0.050060865146210963 0 0.2128060919330283 -0.035124071741943173 0 0.2167024847658664 -0.043974661413588162 0 0.20890374551960481 -0.040729144831228678 0 0.20890374551960481 -0.040729144831228678 0 0.19655169947710091 -0.043788383486002072 0 0.20897987019450001 -0.050060865146210963 0 0.2128060919330283 -0.035124071741943173 0 0.20890374551960481 -0.040729144831228678 0 0.20886364623554921 -0.031523512657201581 0 0.20890374551960481 -0.040729144831228678 0 0.20886364623554921 -0.031523512657201581 0 0.19655169947710091 -0.043788383486002072 0 0.1828119860636557 -0.050363577362968731 0 0.18853740735089011 -0.033706188378118708 0 0.19655169947710091 -0.043788383486002072 0 0.20886364623554921 -0.031523512657201581 0 0.18853740735089011 -0.033706188378118708 0 0.19655169947710091 -0.043788383486002072 0 0.19655169947710091 -0.043788383486002072 0 0.20138343235632811 -0.055727139445542639 0 0.20897987019450001 -0.050060865146210963 0 0.19655169947710091 -0.043788383486002072 0 0.19188844298534441 -0.056659859735039647 0 0.20138343235632811 -0.055727139445542639 0 0.1828119860636557 -0.050363577362968731 0 0.19655169947710091 -0.043788383486002072 0 0.19188844298534441 -0.056659859735039647 0 0.19188844298534441 -0.056659859735039647 0 0.20138343235632811 -0.055727139445542639 0 0.1952329782378138 -0.068464889048657496 0 0.20138343235632811 -0.055727139445542639 0 0.22670270369963491 -0.067064047377793826 0 0.20138343235632811 -0.055727139445542639 0 0.21577564808412511 -0.056666161138016313 0 0.22670270369963491 -0.067064047377793826 0 0.20138343235632811 -0.055727139445542639 0 0.20897987019450001 -0.050060865146210963 0 0.21577564808412511 -0.056666161138016313 0 0.2167024847658664 -0.043974661413588162 0 0.20897987019450001 -0.050060865146210963 0 0.21577564808412511 -0.056666161138016313 0 0.21577564808412511 -0.056666161138016313 0 0.23694359709532001 -0.061394592404840097 0 0.22670270369963491 -0.067064047377793826 0 0.21577564808412511 -0.056666161138016313 0 0.22648325856373289 -0.049317463857355977 0 0.23694359709532001 -0.061394592404840097 0 0.21577564808412511 -0.056666161138016313 0 0.23694359709532001 -0.061394592404840097 0 0.2167024847658664 -0.043974661413588162 0 0.21577564808412511 -0.056666161138016313 0 0.22648325856373289 -0.049317463857355977 0 0.22648325856373289 -0.049317463857355977 0 0.23694359709532001 -0.061394592404840097 0 0.23716366819637241 -0.046229271507985323 0 0.25811154610651499 -0.066123023671663908 0 0.23694359709532001 -0.061394592404840097 0 0.24870160087168189 -0.052882304334001928 0 0.23694359709532001 -0.061394592404840097 0 0.24870160087168189 -0.052882304334001928 0 0.23716366819637241 -0.046229271507985323 0 0.24870160087168189 -0.052882304334001928 0 0.23716366819637241 -0.046229271507985323 0 0.24731406762381819 -0.035960341631652723 0 0.23716366819637241 -0.046229271507985323 0 0.24731406762381819 -0.035960341631652723 0 0.23342582712955959 -0.033308149953783547 0 0.23342582712955959 -0.033308149953783547 0 0.2258308946769807 -0.038322632822349968 0 0.22548915127375299 -0.027513718828695861 0 0.22648325856373289 -0.049317463857355977 0 0.23716366819637241 -0.046229271507985323 0 0.2258308946769807 -0.038322632822349968 0 0.23716366819637241 -0.046229271507985323 0 0.23342582712955959 -0.033308149953783547 0 0.2258308946769807 -0.038322632822349968 0 0.2180191377477218 -0.035203133534298187 0 0.2167024847658664 -0.043974661413588162 0 0.2258308946769807 -0.038322632822349968 0 0.2167024847658664 -0.043974661413588162 0 0.22648325856373289 -0.049317463857355977 0 0.2258308946769807 -0.038322632822349968 0 0.2180191377477218 -0.035203133534298187 0 0.2258308946769807 -0.038322632822349968 0 0.21995729679401421 -0.029331280632926501 0 0.2258308946769807 -0.038322632822349968 0 0.22548915127375299 -0.027513718828695861 0 0.21995729679401421 -0.029331280632926501 0 0.21528057420098159 -0.024212643874961401 0 0.2313313538768734 -0.018514784978234038 0 0.22829619310998309 -0.01520182636873813 0 0.21528057420098159 -0.024212643874961401 0 0.2313313538768734 -0.018514784978234038 0 0.21528057420098159 -0.024212643874961401 0 0.22548915127375299 -0.027513718828695861 0 0.2313313538768734 -0.018514784978234038 0 0.21528057420098159 -0.024212643874961401 0 0.22548915127375299 -0.027513718828695861 0 0.21995729679401421 -0.029331280632926501 0 0.21528057420098159 -0.024212643874961401 0 0.22829619310998309 -0.01520182636873813 0 0.21528057420098159 -0.024212643874961401 0 0.21911622703360889 -0.015650702578479541 0 0.22829619310998309 -0.01520182636873813 0 0.2313313538768734 -0.018514784978234038 0 0.22829619310998309 -0.01520182636873813 0 0.23342582712955959 -0.033308149953783547 0 0.22548915127375299 -0.027513718828695861 0 0.2313313538768734 -0.018514784978234038 0 0.25508119948702751 -0.010083838205662381 0 0.2313313538768734 -0.018514784978234038 0 0.2482857443068576 -0.021714794414400052 0 0.24731406762381819 -0.035960341631652723 0 0.2313313538768734 -0.018514784978234038 0 0.2482857443068576 -0.021714794414400052 0 0.24731406762381819 -0.035960341631652723 0 0.23342582712955959 -0.033308149953783547 0 0.2313313538768734 -0.018514784978234038 0 0.24731406762381819 -0.035960341631652723 0 0.2313313538768734 -0.018514784978234038 0 0.25508119948702751 -0.010083838205662381 0 0.2313313538768734 -0.018514784978234038 0 0.24138147174972829 -0.0061427828714447699 0 0.25508119948702751 -0.010083838205662381 0 0.2313313538768734 -0.018514784978234038 0 0.24138147174972829 -0.0061427828714447699 0 0.22829619310998309 -0.01520182636873813 0 0.25446675038947358 0.0029162606258486688 0 0.2541426920980116 -0.0036136263454906951 0 0.24138147174972829 -0.0061427828714447699 0 0.25446675038947358 0.0029162606258486688 0 0.24138147174972829 -0.0061427828714447699 0 0.22999165343287109 0.0038227322559807589 0 0.24138147174972829 -0.0061427828714447699 0 0.23189167676904729 -0.0064153040848911828 0 0.22999165343287109 0.0038227322559807589 0 0.23189167676904729 -0.0064153040848911828 0 0.2228246624943325 -0.0092295053444410857 0 0.22999165343287109 0.0038227322559807589 0 0.21351355446813719 -0.0021103410187178909 0 0.2228246624943325 -0.0092295053444410857 0 0.23189167676904729 -0.0064153040848911828 0 0.22829619310998309 -0.01520182636873813 0 0.2228246624943325 -0.0092295053444410857 0 0.2313313538768734 -0.018514784978234038 0 0.24138147174972829 -0.0061427828714447699 0 0.22829619310998309 -0.01520182636873813 0 0.24138147174972829 -0.0061427828714447699 0 0.23189167676904729 -0.0064153040848911828 0 0.22829619310998309 -0.01520182636873813 0 0.21911622703360889 -0.015650702578479541 0 0.22829619310998309 -0.01520182636873813 0 0.2228246624943325 -0.0092295053444410857 0 0.22829619310998309 -0.01520182636873813 0 0.2228246624943325 -0.0092295053444410857 0 0.2084634723971549 -0.097930235578601213 0 0.21737999015654699 -0.1103161024944793 0 0.2275791846540145 -0.10054182369239011 0 0.21737999015654699 -0.1103161024944793 0 0.19100769245097829 -0.1040519139747048 0 0.2084634723971549 -0.097930235578601213 0 0.21140608144591419 -0.084503356370523836 0 0.2275791846540145 -0.10054182369239011 0 0.2084634723971549 -0.097930235578601213 0 0.21737999015654699 -0.1103161024944793 0 0.19100769245097829 -0.1040519139747048 0 0.21737999015654699 -0.1103161024944793 0 0.21277072480774051 -0.1248863227998855 0 0.20025029595199689 -0.1218288277367077 0 0.21737999015654699 -0.1103161024944793 0 0.21277072480774051 -0.1248863227998855 0 0.2239597136694004 -0.1277946194696456 0 0.1862357176231304 -0.1238823921021804 0 0.20025029595199689 -0.1218288277367077 0 0.19100769245097829 -0.1040519139747048 0 0.21737999015654699 -0.1103161024944793 0 0.20025029595199689 -0.1218288277367077 0 0.19100769245097829 -0.1040519139747048 0 0.20025029595199689 -0.1218288277367077 0 0.19100769245097829 -0.1040519139747048 0 0.2084634723971549 -0.097930235578601213 0 0.19100769245097829 -0.1040519139747048 0 0.19624682445825681 -0.08914472739044943 0 0.18137547142311691 -0.085525622921553163 0 0.19100769245097829 -0.1040519139747048 0 0.19624682445825681 -0.08914472739044943 0 0.19624682445825681 -0.08914472739044943 0 0.1952329782378138 -0.068464889048657496 0 0.21140608144591419 -0.084503356370523836 0 0.18137547142311691 -0.085525622921553163 0 0.19624682445825681 -0.08914472739044943 0 0.1952329782378138 -0.068464889048657496 0 0.20138343235632811 -0.055727139445542639 0 0.1952329782378138 -0.068464889048657496 0 0.21149591893834541 -0.070957707586151192 0 0.18346211879182289 -0.064955309332027283 0 0.19188844298534441 -0.056659859735039647 0 0.1952329782378138 -0.068464889048657496 0 0.1952329782378138 -0.068464889048657496 0 0.21140608144591419 -0.084503356370523836 0 0.20138343235632811 -0.055727139445542639 0 0.21149591893834541 -0.070957707586151192 0 0.22670270369963491 -0.067064047377793826 0 0.1952329782378138 -0.068464889048657496 0 0.21149591893834541 -0.070957707586151192 0 0.21140608144591419 -0.084503356370523836 0 0.2084634723971549 -0.097930235578601213 0 0.19624682445825681 -0.08914472739044943 0 0.21140608144591419 -0.084503356370523836 0 0.21149591893834541 -0.070957707586151192 0 0.21140608144591419 -0.084503356370523836 0 0.2227543989520358 -0.079029105688238177 0 0.21140608144591419 -0.084503356370523836 0 0.2275791846540145 -0.10054182369239011 0 0.2227543989520358 -0.079029105688238177 0 0.23449163343577681 -0.083610487294907485 0 0.2275791846540145 -0.10054182369239011 0 0.21140608144591419 -0.084503356370523836 0 0.2227543989520358 -0.079029105688238177 0 0.2275791846540145 -0.10054182369239011 0 0.2227543989520358 -0.079029105688238177 0 0.22670270369963491 -0.067064047377793826 0 0.23449163343577681 -0.083610487294907485 0 0.21149591893834541 -0.070957707586151192 0 0.2227543989520358 -0.079029105688238177 0 0.22670270369963491 -0.067064047377793826 0 0.25202197504294188 -0.078400955310045109 0 0.25811154610651499 -0.066123023671663908 0 0.23694359709532001 -0.061394592404840097 0 0.25202197504294188 -0.078400955310045109 0 0.22670270369963491 -0.067064047377793826 0 0.25202197504294188 -0.078400955310045109 0 0.22670270369963491 -0.067064047377793826 0 0.23449163343577681 -0.083610487294907485 0 0.25202197504294188 -0.078400955310045109 0 0.23694359709532001 -0.061394592404840097 0 0.22670270369963491 -0.067064047377793826 0 0.25811154610651499 -0.066123023671663908 0 0.23694359709532001 -0.061394592404840097 0 0.25202197504294188 -0.078400955310045109 0 0.23449163343577681 -0.083610487294907485 0 0.24624903761231479 -0.086847438891893419 0 0.23449163343577681 -0.083610487294907485 0 0.24292322406264641 -0.096552741650977186 0 0.2275791846540145 -0.10054182369239011 0 0.23449163343577681 -0.083610487294907485 0 0.24624903761231479 -0.086847438891893419 0 0.24292322406264641 -0.096552741650977186 0 0.25304747237378489 -0.090741332181114118 0 0.24624903761231479 -0.086847438891893419 0 0.24292322406264641 -0.096552741650977186 0 0.2275791846540145 -0.10054182369239011 0 0.24375228786211539 -0.116580291014256 0 0.24292322406264641 -0.096552741650977186 0 0.2275791846540145 -0.10054182369239011 0 0.24375228786211539 -0.116580291014256 0 0.25771864553297669 -0.099620140202181948 0 0.24292322406264641 -0.096552741650977186 0 0.24375228786211539 -0.116580291014256 0 0.21737999015654699 -0.1103161024944793 0 0.2275791846540145 -0.10054182369239011 0 0.24375228786211539 -0.116580291014256 0 0.21737999015654699 -0.1103161024944793 0 0.24375228786211539 -0.116580291014256 0 0.2239597136694004 -0.1277946194696456 0 0.21737999015654699 -0.1103161024944793 0 0.24375228786211539 -0.116580291014256 0 0.24375228786211539 -0.116580291014256 0 0.235054631712311 -0.13955626642273861 0 0.24955680073527009 -0.143898101237383 0 0.235054631712311 -0.13955626642273861 0 0.24955680073527009 -0.143898101237383 0 0.23627457688356679 -0.15840319400941011 0 0.25449645062408999 -0.16331052089379791 0 0.24955680073527009 -0.143898101237383 0 0.23627457688356679 -0.15840319400941011 0 0.235054631712311 -0.13955626642273861 0 0.22199130801810529 -0.1478171468904442 0 0.23627457688356679 -0.15840319400941011 0 0.24375228786211539 -0.116580291014256 0 0.235054631712311 -0.13955626642273861 0 0.2239597136694004 -0.1277946194696456 0 0.235054631712311 -0.13955626642273861 0 0.22199130801810529 -0.1478171468904442 0 0.2239597136694004 -0.1277946194696456 0 0.20025029595199689 -0.1218288277367077 0 0.20949289945301761 -0.1396057414987095 0 0.22199130801810529 -0.1478171468904442 0 0.2239597136694004 -0.1277946194696456 0 0.20949289945301761 -0.1396057414987095 0 0.21277072480774051 -0.1248863227998855 0 0.20025029595199689 -0.1218288277367077 0 0.20949289945301761 -0.1396057414987095 0 0.21277072480774051 -0.1248863227998855 0 0.2239597136694004 -0.1277946194696456 0 0.20949289945301761 -0.1396057414987095 0 0.22199130801810529 -0.1478171468904442 0 0.20949289945301761 -0.1396057414987095 0 0.2069794531536403 -0.1537888919124783 0 0.20949289945301761 -0.1396057414987095 0 0.2069794531536403 -0.1537888919124783 0 0.1919305776748628 -0.1461990482496055 0 0.2069794531536403 -0.1537888919124783 0 0.1919305776748628 -0.1461990482496055 0 0.19225769977326759 -0.16432491474026781 0 0.1862357176231304 -0.1238823921021804 0 0.1919305776748628 -0.1461990482496055 0 0.19714487019074359 -0.1333469628700395 0 0.20025029595199689 -0.1218288277367077 0 0.20949289945301761 -0.1396057414987095 0 0.19714487019074359 -0.1333469628700395 0 0.20949289945301761 -0.1396057414987095 0 0.1919305776748628 -0.1461990482496055 0 0.19714487019074359 -0.1333469628700395 0 0.1862357176231304 -0.1238823921021804 0 0.1919305776748628 -0.1461990482496055 0 0.1862357176231304 -0.1238823921021804 0 0.20025029595199689 -0.1218288277367077 0 0.19714487019074359 -0.1333469628700395 0 0.19629081049063871 -0.1815365299480412 0 0.19225769977326759 -0.16432491474026781 0 0.17982600751226671 -0.1762593337595659 0 0.19629081049063871 -0.1815365299480412 0 0.19225769977326759 -0.16432491474026781 0 0.22018657323669569 -0.16775416802968299 0 0.2069794531536403 -0.1537888919124783 0 0.19225769977326759 -0.16432491474026781 0 0.22018657323669569 -0.16775416802968299 0 0.22199130801810529 -0.1478171468904442 0 0.2069794531536403 -0.1537888919124783 0 0.22018657323669569 -0.16775416802968299 0 0.19629081049063871 -0.1815365299480412 0 0.22018657323669569 -0.16775416802968299 0 0.21237941264848451 -0.18810475376770611 0 0.22018657323669569 -0.16775416802968299 0 0.23934418379307471 -0.18436482883247621 0 0.22018657323669569 -0.16775416802968299 0 0.23934418379307471 -0.18436482883247621 0 0.21237941264848451 -0.18810475376770611 0 0.22018657323669569 -0.16775416802968299 0 0.23627457688356679 -0.15840319400941011 0 0.23934418379307471 -0.18436482883247621 0 0.22199130801810529 -0.1478171468904442 0 0.22018657323669569 -0.16775416802968299 0 0.23627457688356679 -0.15840319400941011 0 0.25449645062408999 -0.16331052089379791 0 0.23627457688356679 -0.15840319400941011 0 0.23934418379307471 -0.18436482883247621 0 0.25850179434945381 -0.20097548963526929 0 0.23934418379307471 -0.18436482883247621 0 0.25850179434945381 -0.20097548963526929 0 0.23934418379307471 -0.18436482883247621 0 0.23907695871134879 -0.21289681242661959 0 0.23907695871134879 -0.21289681242661959 0 0.22308479462261119 -0.20217133576560289 0 0.21722062693650279 -0.2226466586169516 0 0.23934418379307471 -0.18436482883247621 0 0.22308479462261119 -0.20217133576560289 0 0.21237941264848451 -0.18810475376770611 0 0.23934418379307471 -0.18436482883247621 0 0.23907695871134879 -0.21289681242661959 0 0.22308479462261119 -0.20217133576560289 0 0.25037283077400019 -0.2416092145933311 0 0.23239962387573149 -0.2337287944253621 0 0.2339549802858914 -0.24933471903745599 0 0.25658827463044448 -0.2222138965281123 0 0.23907695871134879 -0.21289681242661959 0 0.2446094219978813 -0.2276121794933563 0 0.25037283077400019 -0.2416092145933311 0 0.2446094219978813 -0.2276121794933563 0 0.23239962387573149 -0.2337287944253621 0 0.23907695871134879 -0.21289681242661959 0 0.2446094219978813 -0.2276121794933563 0 0.23239962387573149 -0.2337287944253621 0 0.23907695871134879 -0.21289681242661959 0 0.23239962387573149 -0.2337287944253621 0 0.21722062693650279 -0.2226466586169516 0 0.23239962387573149 -0.2337287944253621 0 0.2194561222393229 -0.23682627783696539 0 0.21722062693650279 -0.2226466586169516 0 0.23239962387573149 -0.2337287944253621 0 0.22502312889380549 -0.2426362774769398 0 0.2339549802858914 -0.24933471903745599 0 0.2194561222393229 -0.23682627783696539 0 0.22502312889380549 -0.2426362774769398 0 0.21456577207223029 -0.24270171036535029 0 0.23239962387573149 -0.2337287944253621 0 0.2194561222393229 -0.23682627783696539 0 0.22502312889380549 -0.2426362774769398 0 0.22331750647786899 -0.25281133177650322 0 0.22502312889380549 -0.2426362774769398 0 0.21456577207223029 -0.24270171036535029 0 0.22331750647786899 -0.25281133177650322 0 0.22502312889380549 -0.2426362774769398 0 0.2339549802858914 -0.24933471903745599 0 0.2084475354763706 -0.25511513831035743 0 0.2080714594183444 -0.2424179483002232 0 0.21336353465090491 -0.24693864317134839 0 0.2080714594183444 -0.2424179483002232 0 0.21336353465090491 -0.24693864317134839 0 0.2080714594183444 -0.2424179483002232 0 0.21336353465090491 -0.24693864317134839 0 0.21456577207223029 -0.24270171036535029 0 0.2194561222393229 -0.23682627783696539 0 0.2080714594183444 -0.2424179483002232 0 0.21456577207223029 -0.24270171036535029 0 0.21722062693650279 -0.2226466586169516 0 0.20244123733496699 -0.2260211367091485 0 0.19848523837712481 -0.2136299623964425 0 0.2080714594183444 -0.2424179483002232 0 0.21722062693650279 -0.2226466586169516 0 0.2194561222393229 -0.23682627783696539 0 0.2080714594183444 -0.2424179483002232 0 0.21722062693650279 -0.2226466586169516 0 0.2080714594183444 -0.2424179483002232 0 0.21722062693650279 -0.2226466586169516 0 0.20244123733496699 -0.2260211367091485 0 0.2080714594183444 -0.2424179483002232 0 0.18716213711817259 -0.22455639835484539 0 0.2080714594183444 -0.2424179483002232 0 0.20244123733496699 -0.2260211367091485 0 0.18716213711817259 -0.22455639835484539 0 0.20244123733496699 -0.2260211367091485 0 0.19848523837712481 -0.2136299623964425 0 0.18716213711817259 -0.22455639835484539 0 0.2080714594183444 -0.2424179483002232 0 0.19254414318066221 -0.24961624770678509 0 0.1866817818972302 -0.23981118877977231 0 0.2080714594183444 -0.2424179483002232 0 0.1866817818972302 -0.23981118877977231 0 0.18716213711817259 -0.22455639835484539 0 0.19254414318066221 -0.24961624770678509 0 0.18399505531774341 -0.24981832115951039 0 0.1866817818972302 -0.23981118877977231 0 0.21237941264848451 -0.18810475376770611 0 0.20793523744788639 -0.20366419955677639 0 0.19447652973028121 -0.19759128756789451 0 0.22308479462261119 -0.20217133576560289 0 0.21237941264848451 -0.18810475376770611 0 0.20793523744788639 -0.20366419955677639 0 0.22308479462261119 -0.20217133576560289 0 0.21722062693650279 -0.2226466586169516 0 0.20793523744788639 -0.20366419955677639 0 0.21722062693650279 -0.2226466586169516 0 0.20793523744788639 -0.20366419955677639 0 0.19848523837712481 -0.2136299623964425 0 0.19848523837712481 -0.2136299623964425 0 0.19447652973028121 -0.19759128756789451 0 0.1831457957419608 -0.2071674304332729 0 0.20793523744788639 -0.20366419955677639 0 0.19848523837712481 -0.2136299623964425 0 0.19447652973028121 -0.19759128756789451 0 0.19848523837712481 -0.2136299623964425 0 0.1831457957419608 -0.2071674304332729 0 0.18716213711817259 -0.22455639835484539 0 0.19629081049063871 -0.1815365299480412 0 0.19447652973028121 -0.19759128756789451 0 0.1840061663436266 -0.1900566622106199 0 0.19629081049063871 -0.1815365299480412 0 0.21237941264848451 -0.18810475376770611 0 0.19447652973028121 -0.19759128756789451 0 0.19447652973028121 -0.19759128756789451 0 0.1840061663436266 -0.1900566622106199 0 0.1831457957419608 -0.2071674304332729 0 0.1840061663436266 -0.1900566622106199 0 0.1831457957419608 -0.2071674304332729 0 0.16486725365112659 -0.18785963188663279 0 0.1831457957419608 -0.2071674304332729 0 0.16486725365112659 -0.18785963188663279 0 0.1831457957419608 -0.2071674304332729 0 0.16625281481800089 -0.2066948484094672 0 0.18716213711817259 -0.22455639835484539 0 0.16625281481800089 -0.2066948484094672 0 0.18716213711817259 -0.22455639835484539 0 0.16625281481800089 -0.2066948484094672 0 0.18716213711817259 -0.22455639835484539 0 0.16937657335138201 -0.22198425569814831 0 0.16625281481800089 -0.2066948484094672 0 0.15661990237239229 -0.21733625041789439 0 0.14909823278687431 -0.20687378182447139 0 0.16625281481800089 -0.2066948484094672 0 0.15661990237239229 -0.21733625041789439 0 0.16937657335138201 -0.22198425569814831 0 0.1831457957419608 -0.2071674304332729 0 0.16625281481800089 -0.2066948484094672 0 0.16486725365112659 -0.18785963188663279 0 0.16625281481800089 -0.2066948484094672 0 0.16486725365112659 -0.18785963188663279 0 0.14534349251782941 -0.188833298464089 0 0.17619278994504239 -0.24587918172992959 0 0.18399505531774341 -0.24981832115951039 0 0.1866817818972302 -0.23981118877977231 0 0.17619278994504239 -0.24587918172992959 0 0.17450151464944069 -0.23276490516368609 0 0.16609645978724119 -0.24143951784646769 0 0.17619278994504239 -0.24587918172992959 0 0.1866817818972302 -0.23981118877977231 0 0.17450151464944069 -0.23276490516368609 0 0.17450151464944069 -0.23276490516368609 0 0.18716213711817259 -0.22455639835484539 0 0.16937657335138201 -0.22198425569814831 0 0.1866817818972302 -0.23981118877977231 0 0.17450151464944069 -0.23276490516368609 0 0.18716213711817259 -0.22455639835484539 0 0.15661990237239229 -0.21733625041789439 0 0.1623464977989032 -0.22856887614484861 0 0.15090654410468329 -0.22688320449844629 0 0.15661990237239229 -0.21733625041789439 0 0.16937657335138201 -0.22198425569814831 0 0.1623464977989032 -0.22856887614484861 0 0.17450151464944069 -0.23276490516368609 0 0.1623464977989032 -0.22856887614484861 0 0.16609645978724119 -0.24143951784646769 0 0.17450151464944069 -0.23276490516368609 0 0.16937657335138201 -0.22198425569814831 0 0.1623464977989032 -0.22856887614484861 0 0.1623464977989032 -0.22856887614484861 0 0.16609645978724119 -0.24143951784646769 0 0.1528270009437688 -0.23836283418195289 0 0.16001236861667459 -0.2513654190734112 0 0.16609645978724119 -0.24143951784646769 0 0.1528270009437688 -0.23836283418195289 0 0.16978669848249819 -0.25098739912941831 0 0.17619278994504239 -0.24587918172992959 0 0.16609645978724119 -0.24143951784646769 0 0.16001236861667459 -0.2513654190734112 0 0.16978669848249819 -0.25098739912941831 0 0.16609645978724119 -0.24143951784646769 0 0.1429630926125974 -0.2502577086919005 0 0.16001236861667459 -0.2513654190734112 0 0.1528270009437688 -0.23836283418195289 0 0.1429630926125974 -0.2502577086919005 0 0.1528270009437688 -0.23836283418195289 0 0.13988621804673579 -0.23152362256679451 0 0.1528270009437688 -0.23836283418195289 0 0.15090654410468329 -0.22688320449844629 0 0.13988621804673579 -0.23152362256679451 0 0.1623464977989032 -0.22856887614484861 0 0.1528270009437688 -0.23836283418195289 0 0.15090654410468329 -0.22688320449844629 0 0.15661990237239229 -0.21733625041789439 0 0.15090654410468329 -0.22688320449844629 0 0.1428531013616163 -0.21862443918074129 0 0.15090654410468329 -0.22688320449844629 0 0.13988621804673579 -0.23152362256679451 0 0.1428531013616163 -0.21862443918074129 0 0.12018370186474731 -0.23305432747703519 0 0.12895394136930069 -0.22163642029703709 0 0.13988621804673579 -0.23152362256679451 0 0.12895394136930069 -0.22163642029703709 0 0.13988621804673579 -0.23152362256679451 0 0.1428531013616163 -0.21862443918074129 0 0.1429630926125974 -0.2502577086919005 0 0.12018370186474731 -0.23305432747703519 0 0.1429630926125974 -0.2502577086919005 0 0.12018370186474731 -0.23305432747703519 0 0.13988621804673579 -0.23152362256679451 0 0.13217397618885759 -0.25462043987800831 0 0.1429630926125974 -0.2502577086919005 0 0.12018370186474731 -0.23305432747703519 0 0.16625281481800089 -0.2066948484094672 0 0.14534349251782941 -0.188833298464089 0 0.16625281481800089 -0.2066948484094672 0 0.14534349251782941 -0.188833298464089 0 0.14909823278687431 -0.20687378182447139 0 0.14534349251782941 -0.188833298464089 0 0.14909823278687431 -0.20687378182447139 0 0.1346280568372662 -0.20359450925845249 0 0.15661990237239229 -0.21733625041789439 0 0.14909823278687431 -0.20687378182447139 0 0.1428531013616163 -0.21862443918074129 0 0.14909823278687431 -0.20687378182447139 0 0.1428531013616163 -0.21862443918074129 0 0.1346280568372662 -0.20359450925845249 0 0.1178461100078927 -0.20838697738218431 0 0.12895394136930069 -0.22163642029703709 0 0.1346280568372662 -0.20359450925845249 0 0.12895394136930069 -0.22163642029703709 0 0.1428531013616163 -0.21862443918074129 0 0.1346280568372662 -0.20359450925845249 0 0.14534349251782941 -0.188833298464089 0 0.1346280568372662 -0.20359450925845249 0 0.13128332926409281 -0.18787359724935929 0 0.1237689835273371 -0.19605207676116951 0 0.1178461100078927 -0.20838697738218431 0 0.1346280568372662 -0.20359450925845249 0 0.1237689835273371 -0.19605207676116951 0 0.1346280568372662 -0.20359450925845249 0 0.13128332926409281 -0.18787359724935929 0 0.1237689835273371 -0.19605207676116951 0 0.1232013989280239 -0.1819146573535104 0 0.13128332926409281 -0.18787359724935929 0 0.12443417021765769 -0.1709717485187108 0 0.14534349251782941 -0.188833298464089 0 0.12443417021765769 -0.1709717485187108 0 0.1232013989280239 -0.1819146573535104 0 0.13128332926409281 -0.18787359724935929 0 0.12443417021765769 -0.1709717485187108 0 0.14534349251782941 -0.188833298464089 0 0.13128332926409281 -0.18787359724935929 0 0.12443417021765769 -0.1709717485187108 0 0.14534349251782941 -0.188833298464089 0 0.13540865390058859 -0.1688207667960602 0 0.14534349251782941 -0.188833298464089 0 0.14658871156029241 -0.16855183333999291 0 0.13540865390058859 -0.1688207667960602 0 0.16486725365112659 -0.18785963188663279 0 0.14658871156029241 -0.16855183333999291 0 0.16486725365112659 -0.18785963188663279 0 0.14534349251782941 -0.188833298464089 0 0.14658871156029241 -0.16855183333999291 0 0.14658871156029241 -0.16855183333999291 0 0.13391177650968769 -0.15242347890466901 0 0.14971917460686079 -0.1530450482394467 0 0.14658871156029241 -0.16855183333999291 0 0.14971917460686079 -0.1530450482394467 0 0.16192904395431579 -0.15800089119817939 0 0.14658871156029241 -0.16855183333999291 0 0.13391177650968769 -0.15242347890466901 0 0.12831016946945831 -0.1492440347933528 0 0.14658871156029241 -0.16855183333999291 0 0.12831016946945831 -0.1492440347933528 0 0.14658871156029241 -0.16855183333999291 0 0.13540865390058859 -0.1688207667960602 0 0.1290045142054978 -0.1612372837293575 0 0.14658871156029241 -0.16855183333999291 0 0.1290045142054978 -0.1612372837293575 0 0.12831016946945831 -0.1492440347933528 0 0.13540865390058859 -0.1688207667960602 0 0.12715697753007521 -0.16591248018761531 0 0.1290045142054978 -0.1612372837293575 0 0.12443417021765769 -0.1709717485187108 0 0.13540865390058859 -0.1688207667960602 0 0.12715697753007521 -0.16591248018761531 0 0.12098675462827781 -0.16200852072179159 0 0.12715697753007521 -0.16591248018761531 0 0.1290045142054978 -0.1612372837293575 0 0.12324902196630889 -0.15465793599018671 0 0.1227471198665283 -0.15880086614903269 0 0.1290045142054978 -0.1612372837293575 0 0.13391177650968769 -0.15242347890466901 0 0.12831016946945831 -0.1492440347933528 0 0.12532898621889721 -0.13663811256420449 0 0.12324902196630889 -0.15465793599018671 0 0.1290045142054978 -0.1612372837293575 0 0.12831016946945831 -0.1492440347933528 0 0.1217036921304827 -0.1482443959076799 0 0.12831016946945831 -0.1492440347933528 0 0.12532898621889721 -0.13663811256420449 0 0.13391177650968769 -0.15242347890466901 0 0.13188977167139071 -0.12546883223523481 0 0.13391177650968769 -0.15242347890466901 0 0.13188977167139071 -0.12546883223523481 0 0.1446303542042412 -0.1380662602394005 0 0.13391177650968769 -0.15242347890466901 0 0.13188977167139071 -0.12546883223523481 0 0.12532898621889721 -0.13663811256420449 0 0.11997683785091839 -0.1276371159963853 0 0.13188977167139071 -0.12546883223523481 0 0.12532898621889721 -0.13663811256420449 0 0.1446303542042412 -0.1380662602394005 0 0.15557261582888751 -0.13003178131142151 0 0.1621281360659286 -0.14191921566573409 0 0.14724036225017881 -0.1245170930860646 0 0.13188977167139071 -0.12546883223523481 0 0.1446303542042412 -0.1380662602394005 0 0.14724036225017881 -0.1245170930860646 0 0.1446303542042412 -0.1380662602394005 0 0.15557261582888751 -0.13003178131142151 0 0.13391177650968769 -0.15242347890466901 0 0.1446303542042412 -0.1380662602394005 0 0.14971917460686079 -0.1530450482394467 0 0.1446303542042412 -0.1380662602394005 0 0.14971917460686079 -0.1530450482394467 0 0.1621281360659286 -0.14191921566573409 0 0.1621281360659286 -0.14191921566573409 0 0.17324983187337631 -0.13165498831909611 0 0.17651024624945799 -0.1485415537171802 0 0.14971917460686079 -0.1530450482394467 0 0.1621281360659286 -0.14191921566573409 0 0.16192904395431579 -0.15800089119817939 0 0.1621281360659286 -0.14191921566573409 0 0.17651024624945799 -0.1485415537171802 0 0.16192904395431579 -0.15800089119817939 0 0.16471491079178111 -0.1205264202314431 0 0.15557261582888751 -0.13003178131142151 0 0.1639163736399934 -0.1310331013819237 0 0.15557261582888751 -0.13003178131142151 0 0.1621281360659286 -0.14191921566573409 0 0.1639163736399934 -0.1310331013819237 0 0.1621281360659286 -0.14191921566573409 0 0.1639163736399934 -0.1310331013819237 0 0.17324983187337631 -0.13165498831909611 0 0.16471491079178111 -0.1205264202314431 0 0.1639163736399934 -0.1310331013819237 0 0.17324983187337631 -0.13165498831909611 0 0.1862357176231304 -0.1238823921021804 0 0.1919305776748628 -0.1461990482496055 0 0.17324983187337631 -0.13165498831909611 0 0.1919305776748628 -0.1461990482496055 0 0.17324983187337631 -0.13165498831909611 0 0.17651024624945799 -0.1485415537171802 0 0.1919305776748628 -0.1461990482496055 0 0.19225769977326759 -0.16432491474026781 0 0.17651024624945799 -0.1485415537171802 0 0.19225769977326759 -0.16432491474026781 0 0.17526083145963689 -0.16308053239281189 0 0.17982600751226671 -0.1762593337595659 0 0.19225769977326759 -0.16432491474026781 0 0.17651024624945799 -0.1485415537171802 0 0.17526083145963689 -0.16308053239281189 0 0.17526083145963689 -0.16308053239281189 0 0.17982600751226671 -0.1762593337595659 0 0.16627328335530381 -0.17069773137902189 0 0.1840061663436266 -0.1900566622106199 0 0.16486725365112659 -0.18785963188663279 0 0.17982600751226671 -0.1762593337595659 0 0.19629081049063871 -0.1815365299480412 0 0.1840061663436266 -0.1900566622106199 0 0.17982600751226671 -0.1762593337595659 0 0.16486725365112659 -0.18785963188663279 0 0.14658871156029241 -0.16855183333999291 0 0.16627328335530381 -0.17069773137902189 0 0.16486725365112659 -0.18785963188663279 0 0.17982600751226671 -0.1762593337595659 0 0.16627328335530381 -0.17069773137902189 0 0.14658871156029241 -0.16855183333999291 0 0.16192904395431579 -0.15800089119817939 0 0.16627328335530381 -0.17069773137902189 0 0.17526083145963689 -0.16308053239281189 0 0.16192904395431579 -0.15800089119817939 0 0.16627328335530381 -0.17069773137902189 0 0.17651024624945799 -0.1485415537171802 0 0.17526083145963689 -0.16308053239281189 0 0.16192904395431579 -0.15800089119817939 0 
</DataArray>
</Points>
<Cells>
<DataArray type="UInt32" Name="connectivity" format="ascii">
0 1 2 3 4 5 6 7 8 9 10 11 12 13 14 15 16 17 18 19 20 21 22 23 24 25 26 27 28 29 30 31 32 33 34 35 36 37 38 39 40 41 42 43 44 45 46 47 48 49 50 51 52 53 54 55 56 57 58 59 60 61 62 63 64 65 66 67 68 69 70 71 72 73 74 75 76 77 78 79 80 81 82 83 84 85 86 87 88 89 90 91 92 93 94 95 96 97 98 99 100 101 102 103 104 105 106 107 108 109 110 111 112 113 114 115 116 117 118 119 120 121 122 123 124 125 126 127 128 129 130 131 132 133 134 135 136 137 138 139 140 141 142 143 144 145 146 147 148 149 150 151 152 153 154 155 156 157 158 159 160 161 162 163 164 165 166 167 168 169 170 171 172 173 174 175 176 177 178 179 180 181 182 183 184 185 186 187 188 189 190 191 192 193 194 195 196 197 198 199 200 201 202 203 204 205 206 207 208 209 210 211 212 213 214 215 216 217 218 219 220 221 222 223 224 225 226 227 228 229 230 231 232 233 234 235 236 237 238 239 240 241 242 243 244 245 246 247 248 249 250 251 252 253 254 255 256 257 258 259 260 261 262 263 264 265 266 267 268 269 270 271 272 273 274 275 276 277 278 279 280 281 282 283 284 285 286 287 288 289 290 291 292 293 294 295 296 297 298 299 300 301 302 303 304 305 306 307 308 309 310 311 312 313 314 315 316 317 318 319 320 321 322 323 324 325 326 327 328 329 330 331 332 333 334 335 336 337 338 339 340 341 342 343 344 345 346 347 348 349 350 351 352 353 354 355 356 357 358 359 360 361 362 363 364 365 366 367 368 369 370 371 372 373 374 375 376 377 378 379 380 381 382 383 384 385 386 387 388 389 390 391 392 393 394 395 396 397 398 399 400 401 402 403 404 405 406 407 408 409 410 411 412 413 414 415 416 417 418 419 420 421 422 423 424 425 426 427 428 429 430 431 432 433 434 435 436 437 438 439 440 441 442 443 444 445 446 447 448 449 450 451 452 453 454 455 456 457 458 459 460 461 462 463 464 465 466 467 468 469 470 471 472 473 474 475 476 477 478 479 480 481 482 483 484 485 486 487 488 489 490 491 492 493 494 495 496 497 498 499 500 501 502 503 504 505 506 507 508 509 510 511 512 513 514 515 516 517 518 519 520 521 522 523 524 525 526 527 528 529 530 531 532 533 534 535 536 537 538 539 540 541 542 543 544 545 546 547 548 549 550 551 552 553 554 555 556 557 558 559 560 561 562 563 564 565 566 567 568 569 570 571 572 573 574 575 576 577 578 579 580 581 582 583 584 585 586 587 588 589 590 591 592 593 594 595 596 597 598 599 600 601 602 603 604 605 606 607 608 609 610 611 612 613 614 615 616 617 618 619 620 621 622 623 624 625 626 627 628 629 630 631 632 633 634 635 636 637 638 639 640 641 642 643 644 645 646 647 648 649 650 651 652 653 654 655 656 657 658 659 660 661 662 663 664 665 666 667 668 669 670 671 672 673 674 675 676 677 678 679 680 681 682 683 684 685 686 687 688 689 690 691 692 693 694 695 696 697 698 699 700 701 702 703 704 705 706 707 708 709 710 711 712 713 714 715 716 717 718 719 720 721 722 723 724 725 726 727 728 729 730 731 732 733 734 735 736 737 738 739 740 741 742 743 744 745 746 747 748 749 750 751 752 753 754 755 756 757 758 759 760 761 762 763 764 765 766 767 768 769 770 771 772 773 774 775 776 777 778 779 780 781 782 783 784 785 786 787 788 789 790 791 792 793 794 795 796 797 798 799 800 801 802 803 804 805 806 807 808 809 810 811 812 813 814 815 816 817 818 819 820 821 822 823 824 825 826 827 828 829 830 831 832 833 834 835 836 837 838 839 840 841 842 843 844 845 846 847 848 849 850 851 852 853 854 855 856 857 858 859 860 861 862 863 864 865 866 867 868 869 870 871 872 873 874 875 876 877 878 879 880 881 882 883 884 885 886 887 888 889 890 891 892 893 894 895 896 897 898 899 900 901 902 903 904 905 906 907 908 909 910 911 912 913 914 915 916 917 918 919 920 921 922 923 924 925 926 927 928 929 930 931 932 933 934 935 936 937 938 939 940 941 942 943 944 945 946 947 948 949 950 951 952 953 954 955 956 957 958 959 960 961 962 963 964 965 966 967 968 969 970 971 972 973 974 975 976 977 978 979 980 981 982 983 984 985 986 987 988 989 990 991 992 993 994 995 996 997 998 999 1000 1001 1002 1003 1004 1005 1006 1007 1008 1009 1010 1011 1012 1013 1014 1015 1016 1017 1018 1019 1020 1021 1022 1023 1024 1025 1026 1027 1028 1029 1030 1031 1032 1033 1034 1035 1036 1037 1038 1039 1040 1041 1042 1043 1044 1045 1046 1047 1048 1049 1050 1051 1052 1053 1054 1055 1056 1057 1058 1059 1060 1061 1062 1063 1064 1065 1066 1067 1068 1069 1070 1071 1072 1073 1074 1075 1076 1077 1078 1079 1080 1081 1082 1083 1084 1085 1086 1087 1088 1089 1090 1091 1092 1093 1094 1095 1096 1097 1098 1099 1100 1101 1102 1103 1104 1105 1106 1107 1108 1109 1110 1111 1112 1113 1114 1115 1116 1117 1118 1119 1120 1121 1122 1123 1124 1125 1126 1127 1128 1129 1130 1131 1132 1133 1134 1135 1136 1137 1138 1139 1140 1141 1142 1143 1144 1145 1146 1147 1148 1149 1150 1151 1152 1153 1154 1155 1156 1157 1158 1159 1160 1161 1162 1163 1164 1165 1166 1167 1168 1169 1170 1171 1172 1173 1174 1175 1176 1177 1178 1179 1180 1181 1182 1183 1184 1185 1186 1187 1188 1189 1190 1191 1192 1193 1194 1195 1196 1197 1198 1199 1200 1201 1202 1203 1204 1205 1206 1207 1208 1209 1210 1211 1212 1213 1214 1215 1216 1217 1218 1219 1220 1221 1222 1223 1224 1225 1226 1227 1228 1229 1230 1231 1232 1233 1234 1235 1236 1237 1238 1239 1240 1241 1242 1243 1244 1245 1246 1247 1248 1249 1250 1251 1252 1253 1254 1255 1256 1257 1258 1259 1260 1261 1262 1263 1264 1265 1266 1267 1268 1269 1270 1271 1272 1273 1274 1275 1276 1277 1278 1279 1280 1281 1282 1283 1284 1285 1286 1287 1288 1289 1290 1291 1292 1293 1294 1295 1296 1297 1298 1299 1300 1301 1302 1303 1304 1305 1306 1307 1308 1309 1310 1311 1312 1313 1314 1315 1316 1317 1318 1319 1320 1321 1322 1323 1324 1325 1326 1327 1328 1329 1330 1331 1332 1333 1334 1335 1336 1337 1338 1339 1340 1341 1342 1343 1344 1345 1346 1347 1348 1349 1350 1351 1352 1353 1354 1355 1356 1357 1358 1359 1360 1361 1362 1363 1364 1365 1366 1367 1368 1369 1370 1371 1372 1373 1374 1375 1376 1377 1378 1379 1380 1381 1382 1383 1384 1385 1386 1387 1388 1389 1390 1391 1392 1393 1394 1395 1396 1397 1398 1399 1400 1401 1402 1403 1404 1405 1406 1407 1408 1409 1410 1411 1412 1413 1414 1415 1416 1417 1418 1419 1420 1421 1422 1423 1424 1425 1426 1427 1428 1429 1430 1431 1432 1433 1434 1435 1436 1437 1438 1439 1440 1441 1442 1443 1444 1445 1446 1447 1448 1449 1450 1451 1452 1453 1454 1455 1456 1457 1458 1459 1460 1461 1462 1463 1464 1465 1466 1467 1468 1469 1470 1471 1472 1473 1474 1475 1476 1477 1478 1479 1480 1481 1482 1483 1484 1485 1486 1487 1488 1489 1490 1491 1492 1493 1494 1495 1496 1497 1498 1499 1500 1501 1502 1503 1504 1505 1506 1507 1508 1509 1510 1511 1512 1513 1514 1515 1516 1517 1518 1519 1520 1521 1522 1523 1524 1525 1526 1527 1528 1529 1530 1531 1532 1533 1534 1535 1536 1537 1538 1539 1540 1541 1542 1543 1544 1545 1546 1547 1548 1549 1550 1551 1552 1553 1554 1555 1556 1557 1558 1559 1560 1561 1562 1563 1564 1565 1566 1567 1568 1569 1570 1571 1572 1573 1574 1575 1576 1577 1578 1579 1580 1581 1582 1583 1584 1585 1586 1587 1588 1589 1590 1591 1592 1593 1594 1595 1596 1597 1598 1599 1600 1601 1602 1603 1604 1605 1606 1607 1608 1609 1610 1611 1612 1613 1614 1615 1616 1617 1618 1619 1620 1621 1622 1623 1624 1625 1626 1627 1628 1629 1630 1631 1632 1633 1634 1635 1636 1637 1638 1639 1640 1641 1642 1643 1644 1645 1646 1647 1648 1649 1650 1651 1652 1653 1654 1655 1656 1657 1658 1659 1660 1661 1662 1663 1664 1665 1666 1667 1668 1669 1670 1671 1672 1673 1674 1675 1676 1677 1678 1679 1680 1681 1682 1683 1684 1685 1686 1687 1688 1689 1690 1691 1692 1693 1694 1695 1696 1697 1698 1699 1700 1701 1702 1703 1704 1705 1706 1707 1708 1709 1710 1711 1712 1713 1714 1715 1716 1717 1718 1719 1720 1721 1722 1723 1724 1725 1726 1727 1728 1729 1730 1731 1732 1733 1734 1735 1736 1737 1738 1739 1740 1741 1742 1743 1744 1745 1746 1747 1748 1749 1750 1751 1752 1753 1754 1755 1756 1757 1758 1759 1760 1761 1762 1763 1764 1765 1766 1767 1768 1769 1770 1771 1772 1773 1774 1775 1776 1777 1778 1779 1780 1781 1782 1783 1784 1785 1786 1787 1788 1789 1790 1791 1792 1793 1794 1795 1796 1797 1798 1799 1800 1801 1802 1803 1804 1805 1806 1807 1808 1809 1810 1811 1812 1813 1814 1815 1816 1817 1818 1819 1820 1821 1822 1823 1824 1825 1826 1827 1828 1829 1830 1831 1832 1833 1834 1835 1836 1837 1838 1839 1840 1841 1842 1843 1844 1845 1846 1847 1848 1849 1850 1851 1852 1853 1854 1855 1856 1857 1858 1859 1860 1861 1862 1863 1864 1865 1866 1867 1868 1869 1870 1871 1872 1873 1874 1875 1876 1877 1878 1879 1880 1881 1882 1883 1884 1885 1886 1887 1888 1889 1890 1891 1892 1893 1894 1895 1896 1897 1898 1899 1900 1901 1902 1903 1904 1905 1906 1907 1908 1909 1910 1911 1912 1913 1914 1915 1916 1917 1918 1919 1920 1921 1922 1923 1924 1925 1926 1927 1928 1929 1930 1931 1932 1933 1934 1935 1936 1937 1938 1939 1940 1941 1942 1943 1944 1945 1946 1947 1948 1949 1950 1951 1952 1953 1954 1955 1956 1957 1958 1959 1960 1961 1962 1963 1964 1965 1966 1967 1968 1969 1970 1971 1972 1973 1974 1975 1976 1977 1978 1979 1980 1981 1982 1983 1984 1985 1986 1987 1988 1989 1990 1991 1992 1993 1994 1995 1996 1997 1998 1999 2000 2001 2002 2003 2004 2005 2006 2007 2008 2009 2010 2011 2012 2013 2014 2015 2016 2017 2018 2019 2020 2021 2022 2023 2024 2025 2026 2027 2028 2029 2030 2031 2032 2033 2034 2035 2036 2037 2038 2039 2040 2041 2042 2043 2044 2045 2046 2047 2048 2049 2050 2051 2052 2053 2054 2055 2056 2057 2058 2059 2060 2061 2062 2063 2064 2065 2066 2067 2068 2069 2070 2071 2072 2073 2074 2075 2076 2077 2078 2079 2080 2081 2082 2083 2084 2085 2086 2087 2088 2089 2090 2091 2092 2093 2094 2095 2096 2097 2098 2099 2100 2101 2102 2103 2104 2105 2106 2107 2108 2109 2110 2111 2112 2113 2114 2115 2116 2117 2118 2119 2120 2121 2122 2123 2124 2125 2126 2127 2128 2129 2130 2131 2132 2133 2134 2135 2136 2137 2138 2139 2140 2141 2142 2143 2144 2145 2146 2147 2148 2149 2150 2151 2152 2153 2154 2155 2156 2157 2158 2159 2160 2161 2162 2163 2164 2165 2166 2167 2168 2169 2170 2171 2172 2173 2174 2175 2176 2177 2178 2179 2180 2181 2182 2183 2184 2185 2186 2187 2188 2189 2190 2191 2192 2193 2194 2195 2196 2197 2198 2199 2200 2201 2202 2203 2204 2205 2206 2207 2208 2209 2210 2211 2212 2213 2214 2215 2216 2217 2218 2219 2220 2221 2222 2223 2224 2225 2226 2227 2228 2229 2230 2231 2232 2233 2234 2235 2236 2237 2238 2239 2240 2241 2242 2243 2244 2245 2246 2247 2248 2249 2250 2251 2252 2253 2254 2255 2256 2257 2258 2259 2260 2261 2262 2263 2264 2265 2266 2267 2268 2269 2270 2271 2272 2273 2274 2275 2276 2277 2278 2279 2280 2281 2282 2283 2284 2285 2286 2287 2288 2289 2290 2291 2292 2293 2294 2295 2296 2297 2298 2299 2300 2301 2302 2303 2304 2305 2306 2307 2308 2309 2310 2311 2312 2313 2314 2315 2316 2317 2318 2319 2320 2321 2322 2323 2324 2325 2326 2327 2328 2329 2330 2331 2332 2333 2334 2335 2336 2337 2338 2339 2340 2341 2342 2343 2344 2345 2346 2347 2348 2349 2350 2351 2352 2353 2354 2355 2356 2357 2358 2359 2360 2361 2362 2363 2364 2365 2366 2367 2368 2369 2370 2371 2372 2373 2374 2375 2376 2377 2378 2379 2380 2381 2382 2383 2384 2385 2386 2387 2388 2389 2390 2391 2392 2393 2394 2395 2396 2397 2398 2399 2400 2401 2402 2403 2404 2405 2406 2407 2408 2409 2410 2411 2412 2413 2414 2415 2416 2417 2418 2419 2420 2421 2422 2423 2424 2425 2426 2427 2428 2429 2430 2431 2432 2433 2434 2435 2436 2437 2438 2439 2440 2441 2442 2443 2444 2445 2446 2447 2448 2449 2450 2451 2452 2453 2454 2455 2456 2457 2458 2459 2460 2461 2462 2463 2464 2465 2466 2467 2468 2469 2470 2471 2472 2473 2474 2475 2476 2477 2478 2479 2480 2481 2482 2483 2484 2485 2486 2487 2488 2489 2490 2491 2492 2493 2494 2495 2496 2497 2498 2499 2500 2501 2502 2503 2504 2505 2506 2507 2508 2509 2510 2511 2512 2513 2514 2515 2516 2517 2518 2519 2520 2521 2522 2523 2524 2525 2526 2527 2528 2529 2530 2531 2532 2533 2534 2535 2536 2537 2538 2539 2540 2541 2542 2543 2544 2545 2546 2547 2548 2549 2550 2551 2552 2553 2554 2555 2556 2557 2558 2559 2560 2561 2562 2563 2564 2565 2566 2567 2568 2569 2570 2571 2572 2573 2574 2575 2576 2577 2578 2579 2580 2581 2582 2583 2584 2585 2586 2587 2588 2589 2590 2591 2592 2593 2594 2595 2596 2597 2598 2599 2600 2601 2602 2603 2604 2605 2606 2607 2608 2609 2610 2611 2612 2613 2614 2615 2616 2617 2618 2619 2620 2621 2622 2623 2624 2625 2626 2627 2628 2629 2630 2631 2632 2633 2634 2635 2636 2637 2638 2639 2640 2641 2642 2643 2644 2645 2646 2647 2648 2649 2650 2651 2652 2653 2654 2655 2656 2657 2658 2659 2660 2661 2662 2663 2664 2665 2666 2667 2668 2669 2670 2671 2672 2673 2674 2675 2676 2677 2678 2679 2680 2681 2682 2683 2684 2685 2686 2687 2688 2689 2690 2691 2692 2693 2694 2695 2696 2697 2698 2699 2700 2701 2702 2703 2704 2705 2706 2707 2708 2709 2710 2711 2712 2713 2714 2715 2716 2717 2718 2719 2720 2721 2722 2723 2724 2725 2726 2727 2728 2729 2730 2731 2732 2733 2734 2735 2736 2737 2738 2739 2740 2741 2742 2743 2744 2745 2746 2747 2748 2749 2750 2751 2752 2753 2754 2755 2756 2757 2758 2759 2760 2761 2762 2763 2764 2765 2766 2767 2768 2769 2770 2771 2772 2773 2774 2775 2776 2777 2778 2779 2780 2781 2782 2783 2784 2785 2786 2787 2788 2789 2790 2791 2792 2793 2794 2795 2796 2797 2798 2799 2800 2801 2802 2803 2804 2805 2806 2807 2808 2809 2810 2811 2812 2813 2814 2815 2816 2817 2818 2819 2820 2821 2822 2823 2824 2825 2826 2827 2828 2829 2830 2831 2832 2833 2834 2835 2836 2837 2838 2839 2840 2841 2842 2843 2844 2845 2846 2847 2848 2849 2850 2851 2852 2853 2854 2855 2856 2857 2858 2859 2860 2861 2862 2863 2864 2865 2866 2867 2868 2869 2870 2871 2872 2873 2874 2875 2876 2877 2878 2879 2880 2881 2882 2883 2884 2885 2886 2887 2888 2889 2890 2891 2892 2893 2894 2895 2896 2897 2898 2899 2900 2901 2902 2903 2904 2905 2906 2907 2908 2909 2910 2911 2912 2913 2914 2915 2916 2917 2918 2919 2920 2921 2922 2923 2924 2925 2926 2927 2928 2929 2930 2931 2932 2933 2934 2935 2936 2937 2938 2939 2940 2941 2942 2943 2944 2945 2946 2947 2948 2949 2950 2951 2952 2953 2954 2955 2956 2957 2958 2959 2960 2961 2962 2963 2964 2965 2966 2967 2968 2969 2970 2971 2972 2973 2974 2975 2976 2977 2978 2979 2980 2981 2982 2983 2984 2985 2986 2987 2988 2989 2990 2991 2992 2993 2994 2995 2996 2997 2998 2999 3000 3001 3002 3003 3004 3005 3006 3007 3008 3009 3010 3011 3012 3013 3014 3015 3016 3017 3018 3019 3020 3021 3022 3023 3024 3025 3026 3027 3028 3029 3030 3031 3032 3033 3034 3035 3036 3037 3038 3039 3040 3041 3042 3043 3044 3045 3046 3047 3048 3049 3050 3051 3052 3053 3054 3055 3056 3057 3058 3059 3060 3061 3062 3063 3064 3065 3066 3067 3068 3069 3070 3071 3072 3073 3074 3075 3076 3077 3078 3079 3080 3081 3082 3083 3084 3085 3086 3087 3088 3089 3090 3091 3092 3093 3094 3095 3096 3097 3098 3099 3100 3101 3102 3103 3104 3105 3106 3107 3108 3109 3110 3111 3112 3113 3114 3115 3116 3117 3118 3119 3120 3121 3122 3123 3124 3125 3126 3127 3128 3129 3130 3131 3132 3133 3134 3135 3136 3137 3138 3139 3140 3141 3142 3143 3144 3145 3146 3147 3148 3149 3150 3151 3152 3153 3154 3155 3156 3157 3158 3159 3160 3161 3162 3163 3164 3165 3166 3167 3168 3169 3170 3171 3172 3173 3174 3175 3176 3177 3178 3179 3180 3181 3182 3183 3184 3185 3186 3187 3188 3189 3190 3191 3192 3193 3194 3195 3196 3197 3198 3199 3200 3201 3202 3203 3204 3205 3206 3207 3208 3209 3210 3211 3212 3213 3214 3215 3216 3217 3218 3219 3220 3221 3222 3223 3224 3225 3226 3227 3228 3229 3230 3231 3232 3233 3234 3235 3236 3237 3238 3239 3240 3241 3242 3243 3244 3245 3246 3247 3248 3249 3250 3251 3252 3253 3254 3255 3256 3257 3258 3259 3260 3261 3262 3263 3264 3265 3266 3267 3268 3269 3270 3271 3272 3273 3274 3275 3276 3277 3278 3279 3280 3281 3282 3283 3284 3285 3286 3287 3288 3289 3290 3291 3292 3293 3294 3295 3296 3297 3298 3299 3300 3301 3302 3303 3304 3305 3306 3307 3308 3309 3310 3311 3312 3313 3314 3315 3316 3317 3318 3319 3320 3321 3322 3323 3324 3325 3326 3327 3328 3329 3330 3331 3332 3333 3334 3335 3336 3337 3338 3339 3340 3341 3342 3343 3344 3345 3346 3347 3348 3349 3350 3351 3352 3353 3354 3355 3356 3357 3358 3359 3360 3361 3362 3363 3364 3365 3366 3367 3368 3369 3370 3371 3372 3373 3374 3375 3376 3377 3378 3379 3380 3381 3382 3383 3384 3385 3386 3387 3388 3389 3390 3391 3392 3393 3394 3395 3396 3397 3398 3399 3400 3401 3402 3403 3404 3405 3406 3407 3408 3409 3410 3411 3412 3413 3414 3415 3416 3417 3418 3419 3420 3421 3422 3423 3424 3425 3426 3427 3428 3429 3430 3431 3432 3433 3434 3435 3436 3437 3438 3439 3440 3441 3442 3443 3444 3445 3446 3447 3448 3449 3450 3451 3452 3453 3454 3455 3456 3457 3458 3459 3460 3461 3462 3463 3464 3465 3466 3467 3468 3469 3470 3471 3472 3473 3474 3475 3476 3477 3478 3479 3480 3481 3482 3483 3484 3485 3486 3487 3488 3489 3490 3491 3492 3493 3494 3495 3496 3497 3498 3499 3500 3501 3502 3503 3504 3505 3506 3507 3508 3509 3510 3511 3512 3513 3514 3515 3516 3517 3518 3519 3520 3521 3522 3523 3524 3525 3526 3527 3528 3529 3530 3531 3532 3533 3534 3535 3536 3537 3538 3539 3540 3541 3542 3543 3544 3545 3546 3547 3548 3549 3550 3551 3552 3553 3554 3555 3556 3557 3558 3559 3560 3561 3562 3563 3564 3565 3566 3567 3568 3569 3570 3571 3572 3573 3574 3575 3576 3577 3578 3579 3580 3581 3582 3583 3584 3585 3586 3587 3588 3589 3590 3591 3592 3593 3594 3595 3596 3597 3598 3599 3600 3601 3602 3603 3604 3605 3606 3607 3608 3609 3610 3611 3612 3613 3614 3615 3616 3617 3618 3619 3620 3621 3622 3623 3624 3625 3626 3627 3628 3629 3630 3631 3632 3633 3634 3635 3636 3637 3638 3639 3640 3641 3642 3643 3644 3645 3646 3647 3648 3649 3650 3651 3652 3653 3654 3655 3656 3657 3658 3659 3660 3661 3662 3663 3664 3665 3666 3667 3668 3669 3670 3671 3672 3673 3674 3675 3676 3677 3678 3679 3680 3681 3682 3683 3684 3685 3686 3687 3688 3689 3690 3691 3692 3693 3694 3695 3696 3697 3698 3699 3700 3701 3702 3703 3704 3705 3706 3707 3708 3709 3710 3711 3712 3713 3714 3715 3716 3717 3718 3719 3720 3721 3722 3723 3724 3725 3726 3727 3728 3729 3730 3731 3732 3733 3734 3735 3736 3737 3738 3739 3740 3741 3742 3743 3744 3745 3746 3747 3748 3749 3750 3751 3752 3753 3754 3755 3756 3757 3758 3759 3760 3761 3762 3763 3764 3765 3766 3767 3768 3769 3770 3771 3772 3773 3774 3775 3776 3777 3778 3779 3780 3781 3782 3783 3784 3785 3786 3787 3788 3789 3790 3791 3792 3793 3794 3795 3796 3797 3798 3799 3800 3801 3802 3803 3804 3805 3806 3807 3808 3809 3810 3811 3812 3813 3814 3815 3816 3817 3818 3819 3820 3821 3822 3823 3824 3825 3826 3827 3828 3829 3830 3831 3832 3833 3834 3835 3836 3837 3838 3839 3840 3841 3842 3843 3844 3845 3846 3847 3848 3849 3850 3851 3852 3853 3854 3855 3856 3857 3858 3859 3860 3861 3862 3863 3864 3865 3866 3867 3868 3869 3870 3871 3872 3873 3874 3875 3876 3877 3878 3879 3880 3881 3882 3883 3884 3885 3886 3887 3888 3889 3890 3891 3892 3893 3894 3895 3896 3897 3898 3899 3900 3901 3902 3903 3904 3905 3906 3907 3908 3909 3910 3911 3912 3913 3914 3915 3916 3917 3918 3919 3920 3921 3922 3923 3924 3925 3926 3927 3928 3929 3930 3931 3932 3933 3934 3935 3936 3937 3938 3939 3940 3941 3942 3943 3944 3945 3946 3947 3948 3949 3950 3951 3952 3953 3954 3955 3956 3957 3958 3959 3960 3961 3962 3963 3964 3965 3966 3967 3968 3969 3970 3971 3972 3973 3974 3975 3976 3977 3978 3979 3980 3981 3982 3983 3984 3985 3986 3987 3988 3989 3990 3991 3992 3993 3994 3995 3996 3997 3998 3999 4000 4001 4002 4003 4004 4005 4006 4007 4008 4009 4010 4011 4012 4013 4014 4015 4016 4017 4018 4019 4020 4021 4022 4023 4024 4025 4026 4027 4028 4029 4030 4031 4032 4033 4034 4035 4036 4037 4038 4039 4040 4041 4042 4043 4044 4045 4046 4047 4048 4049 4050 4051 4052 4053 4054 4055 4056 4057 4058 4059 4060 4061 4062 4063 4064 4065 4066 4067 4068 4069 4070 4071 4072 4073 4074 4075 4076 4077 4078 4079 4080 4081 4082 4083 4084 4085 4086 4087 4088 4089 4090 4091 4092 4093 4094 4095 4096 4097 4098 4099 4100 4101 4102 4103 4104 4105 4106 4107 4108 4109 4110 4111 4112 4113 4114 4115 4116 4117 4118 4119 4120 4121 4122 4123 4124 4125 4126 4127 4128 4129 4130 4131 4132 4133 4134 4135 4136 4137 4138 4139 4140 4141 4142 4143 4144 4145 4146 4147 4148 4149 4150 4151 4152 4153 4154 4155 4156 4157 4158 4159 4160 4161 4162 4163 4164 4165 4166 4167 4168 4169 4170 4171 4172 4173 4174 4175 4176 4177 4178 4179 4180 4181 4182 4183 4184 4185 4186 4187 4188 4189 4190 4191 4192 4193 4194 4195 4196 4197 4198 4199 4200 4201 4202 4203 4204 4205 4206 4207 4208 4209 4210 4211 4212 4213 4214 4215 4216 4217 4218 4219 4220 4221 4222 4223 4224 4225 4226 4227 4228 4229 4230 4231 4232 4233 4234 4235 4236 4237 4238 4239 4240 4241 4242 4243 4244 4245 4246 4247 4248 4249 4250 4251 4252 4253 4254 4255 4256 4257 4258 4259 4260 4261 4262 4263 4264 4265 4266 4267 4268 4269 4270 4271 4272 4273 4274 4275 4276 4277 4278 4279 4280 4281 4282 4283 4284 4285 4286 4287 4288 4289 4290 4291 4292 4293 4294 4295 4296 4297 4298 4299 4300 4301 4302 4303 4304 4305 4306 4307 4308 4309 4310 4311 4312 4313 4314 4315 4316 4317 4318 4319 4320 4321 4322 4323 4324 4325 4326 4327 4328 4329 4330 4331 4332 4333 4334 4335 4336 4337 4338 4339 4340 4341 4342 4343 4344 4345 4346 4347 4348 4349 4350 4351 4352 4353 4354 4355 4356 4357 4358 4359 4360 4361 4362 4363 4364 4365 4366 4367 4368 4369 4370 4371 4372 4373 4374 4375 4376 4377 4378 4379 4380 4381 4382 4383 4384 4385 4386 4387 4388 4389 4390 4391 4392 4393 4394 4395 4396 4397 4398 4399 4400 4401 4402 4403 4404 4405 4406 4407 4408 4409 4410 4411 4412 4413 4414 4415 4416 4417 4418 4419 4420 4421 4422 4423 4424 4425 4426 4427 4428 4429 4430 4431 4432 4433 4434 4435 4436 4437 4438 4439 4440 4441 4442 4443 4444 4445 4446 4447 4448 4449 4450 4451 4452 4453 4454 4455 4456 4457 4458 4459 4460 4461 4462 4463 4464 4465 4466 4467 4468 4469 4470 4471 4472 4473 4474 4475 4476 4477 4478 4479 4480 4481 4482 4483 4484 4485 4486 4487 4488 4489 4490 4491 4492 4493 4494 4495 4496 4497 4498 4499 4500 4501 4502 4503 4504 4505 4506 4507 4508 4509 4510 4511 4512 4513 4514 4515 4516 4517 4518 4519 4520 4521 4522 4523 4524 4525 4526 4527 4528 4529 4530 4531 4532 4533 4534 4535 4536 4537 4538 4539 4540 4541 4542 4543 4544 4545 4546 4547 4548 4549 4550 4551 4552 4553 4554 4555 4556 4557 4558 4559 4560 4561 4562 4563 4564 4565 4566 4567 4568 4569 4570 4571 4572 4573 4574 4575 4576 4577 4578 4579 4580 4581 4582 4583 4584 4585 4586 4587 4588 4589 4590 4591 4592 4593 4594 4595 4596 4597 4598 4599 4600 4601 4602 4603 4604 4605 4606 4607 4608 4609 4610 4611 4612 4613 4614 4615 4616 4617 4618 4619 4620 4621 4622 4623 4624 4625 4626 4627 4628 4629 4630 4631 4632 4633 4634 4635 4636 4637 4638 4639 4640 4641 4642 4643 4644 4645 4646 4647 4648 4649 4650 4651 4652 4653 4654 4655 4656 4657 4658 4659 4660 4661 4662 4663 4664 4665 4666 4667 4668 4669 4670 4671 4672 4673 4674 4675 4676 4677 4678 4679 4680 4681 4682 4683 4684 4685 4686 4687 4688 4689 4690 4691 4692 4693 4694 4695 4696 4697 4698 4699 4700 4701 4702 4703 4704 4705 4706 4707 4708 4709 4710 4711 4712 4713 4714 4715 4716 4717 4718 4719 4720 4721 4722 4723 4724 4725 4726 4727 4728 4729 4730 4731 4732 4733 4734 4735 4736 4737 4738 4739 4740 4741 4742 4743 4744 4745 4746 4747 4748 4749 4750 4751 4752 4753 4754 4755 4756 4757 4758 4759 4760 4761 4762 4763 4764 4765 4766 4767 4768 4769 4770 4771 4772 4773 4774 4775 4776 4777 4778 4779 4780 4781 4782 4783 4784 4785 4786 4787 4788 4789 4790 4791 4792 4793 4794 4795 4796 4797 4798 4799 4800 4801 4802 4803 4804 4805 4806 4807 4808 4809 4810 4811 4812 4813 4814 4815 4816 4817 4818 4819 4820 4821 4822 4823 4824 4825 4826 4827 4828 4829 4830 4831 4832 4833 4834 4835 4836 4837 4838 4839 4840 4841 4842 4843 4844 4845 4846 4847 4848 4849 4850 4851 4852 4853 4854 4855 4856 4857 4858 4859 4860 4861 4862 4863 4864 4865 4866 4867 4868 4869 4870 4871 4872 4873 4874 4875 4876 4877 4878 4879 4880 4881 4882 4883 4884 4885 4886 4887 4888 4889 4890 4891 4892 4893 4894 4895 4896 4897 4898 4899 4900 4901 4902 4903 4904 4905 4906 4907 4908 4909 4910 4911 4912 4913 4914 4915 4916 4917 4918 4919 4920 4921 4922 4923 4924 4925 4926 4927 4928 4929 4930 4931 4932 4933 4934 4935 4936 4937 4938 4939 4940 4941 4942 4943 4944 4945 4946 4947 4948 4949 4950 4951 4952 4953 4954 4955 4956 4957 4958 4959 4960 4961 4962 4963 4964 4965 4966 4967 4968 4969 4970 4971 4972 4973 4974 4975 4976 4977 4978 4979 4980 4981 4982 4983 4984 4985 4986 4987 4988 4989 4990 4991 4992 4993 4994 4995 4996 4997 4998 4999 5000 5001 5002 5003 5004 5005 5006 5007 5008 5009 5010 5011 5012 5013 5014 5015 5016 5017 5018 5019 5020 5021 5022 5023 5024 5025 5026 5027 5028 5029 5030 5031 5032 5033 5034 5035 5036 5037 5038 5039 5040 5041 5042 5043 5044 5045 5046 5047 5048 5049 5050 5051 5052 5053 5054 5055 5056 5057 5058 5059 5060 5061 5062 5063 5064 5065 5066 5067 5068 5069 5070 5071 5072 5073 5074 5075 5076 5077 5078 5079 5080 5081 5082 5083 5084 5085 5086 5087 5088 5089 5090 5091 5092 5093 5094 5095 5096 5097 5098 5099 5100 5101 5102 5103 5104 5105 5106 5107 5108 5109 5110 5111 5112 5113 5114 5115 5116 5117 5118 5119 5120 5121 5122 5123 5124 5125 5126 5127 5128 5129 5130 5131 5132 5133 5134 5135 5136 5137 5138 5139 5140 5141 5142 5143 5144 5145 5146 5147 5148 5149 5150 5151 5152 5153 5154 5155 5156 5157 5158 5159 5160 5161 5162 5163 5164 5165 5166 5167 5168 5169 5170 5171 5172 5173 5174 5175 5176 5177 5178 5179 5180 5181 5182 5183 5184 5185 5186 5187 5188 5189 5190 5191 5192 5193 5194 5195 5196 5197 5198 5199 5200 5201 5202 5203 5204 5205 5206 5207 5208 5209 5210 5211 5212 5213 5214 5215 5216 5217 5218 5219 5220 5221 5222 5223 5224 5225 5226 5227 5228 5229 5230 5231 5232 5233 5234 5235 5236 5237 5238 5239 5240 5241 5242 5243 5244 5245 5246 5247 5248 5249 5250 5251 5252 5253 5254 5255 5256 5257 5258 5259 5260 5261 5262 5263 5264 5265 5266 5267 5268 5269 5270 5271 5272 5273 5274 5275 5276 5277 5278 5279 5280 5281 5282 5283 5284 5285 5286 5287 5288 5289 5290 5291 5292 5293 5294 5295 5296 5297 5298 5299 5300 5301 5302 5303 5304 5305 5306 5307 5308 5309 5310 5311 5312 5313 5314 5315 5316 5317 5318 5319 5320 5321 5322 5323 5324 5325 5326 5327 5328 5329 5330 5331 5332 5333 5334 5335 5336 5337 5338 5339 5340 5341 5342 5343 5344 5345 5346 5347 5348 5349 5350 5351 5352 5353 5354 5355 5356 5357 5358 5359 5360 5361 5362 5363 5364 5365 5366 5367 5368 5369 5370 5371 5372 5373 5374 5375 5376 5377 5378 5379 5380 5381 5382 5383 5384 5385 5386 5387 5388 5389 5390 5391 5392 5393 5394 5395 5396 5397 5398 5399 5400 5401 5402 5403 5404 5405 5406 5407 5408 5409 5410 5411 5412 5413 5414 5415 5416 5417 5418 5419 5420 5421 5422 5423 5424 5425 5426 5427 5428 5429 5430 5431 5432 5433 5434 5435 5436 5437 5438 5439 5440 5441 5442 5443 5444 5445 5446 5447 5448 5449 5450 5451 5452 5453 5454 5455 5456 5457 5458 5459 5460 5461 5462 5463 5464 5465 5466 5467 5468 5469 5470 5471 5472 5473 5474 5475 5476 5477 5478 5479 5480 5481 5482 5483 5484 5485 5486 5487 5488 5489 5490 5491 5492 5493 5494 5495 5496 5497 5498 5499 5500 5501 5502 5503 5504 5505 5506 5507 5508 5509 5510 5511 5512 5513 5514 5515 5516 5517 5518 5519 5520 5521 5522 5523 5524 5525 5526 5527 5528 5529 5530 5531 5532 5533 5534 5535 5536 5537 5538 5539 5540 5541 5542 5543 5544 5545 5546 5547 5548 5549 5550 5551 5552 5553 5554 5555 5556 5557 5558 5559 5560 5561 5562 5563 5564 5565 5566 5567 5568 5569 5570 5571 5572 5573 5574 5575 5576 5577 5578 5579 5580 5581 5582 5583 5584 5585 5586 5587 5588 5589 5590 5591 5592 5593 5594 5595 5596 5597 5598 5599 5600 5601 5602 5603 5604 5605 5606 5607 5608 5609 5610 5611 5612 5613 5614 5615 5616 5617 5618 5619 5620 5621 5622 5623 5624 5625 5626 5627 5628 5629 5630 5631 5632 5633 5634 5635 5636 5637 5638 5639 5640 5641 5642 5643 5644 5645 5646 5647 5648 5649 5650 5651 5652 5653 5654 5655 5656 5657 5658 5659 5660 5661 5662 5663 5664 5665 5666 5667 5668 5669 5670 5671 5672 5673 5674 5675 5676 5677 5678 5679 5680 5681 5682 5683 5684 5685 5686 5687 5688 5689 5690 5691 5692 5693 5694 5695 5696 5697 5698 5699 5700 5701 5702 5703 5704 5705 5706 5707 5708 5709 5710 5711 5712 5713 5714 5715 5716 5717 5718 5719 5720 5721 5722 5723 5724 5725 5726 5727 5728 5729 5730 5731 5732 5733 5734 5735 5736 5737 5738 5739 5740 5741 5742 5743 5744 5745 5746 5747 5748 5749 5750 5751 5752 5753 5754 5755 5756 5757 5758 5759 5760 5761 5762 5763 5764 5765 5766 5767 5768 5769 5770 5771 5772 5773 5774 5775 5776 5777 5778 5779 5780 5781 5782 5783 5784 5785 5786 5787 5788 5789 5790 5791 5792 5793 5794 5795 5796 5797 5798 5799 5800 5801 5802 5803 5804 5805 5806 5807 5808 5809 5810 5811 5812 5813 5814 5815 5816 5817 5818 5819 5820 5821 5822 5823 5824 5825 5826 5827 5828 5829 5830 5831 5832 5833 5834 5835 5836 5837 5838 5839 5840 5841 5842 5843 5844 5845 5846 5847 5848 5849 5850 5851 5852 5853 5854 5855 5856 5857 5858 5859 5860 5861 5862 5863 5864 5865 5866 5867 5868 5869 5870 5871 5872 5873 5874 5875 5876 5877 5878 5879 5880 5881 5882 5883 5884 5885 5886 5887 5888 5889 5890 5891 5892 5893 5894 5895 5896 5897 5898 5899 5900 5901 5902 5903 5904 5905 5906 5907 5908 5909 5910 5911 5912 5913 5914 5915 5916 5917 5918 5919 5920 5921 5922 5923 5924 5925 5926 5927 5928 5929 5930 5931 5932 5933 5934 5935 5936 5937 5938 5939 5940 5941 5942 5943 5944 5945 5946 5947 5948 5949 5950 5951 5952 5953 5954 5955 5956 5957 5958 5959 5960 5961 5962 5963 5964 5965 5966 5967 5968 5969 5970 5971 5972 5973 5974 5975 5976 5977 5978 5979 5980 5981 5982 5983 5984 5985 5986 5987 5988 5989 5990 5991 5992 5993 5994 5995 5996 5997 5998 5999 6000 6001 6002 6003 6004 6005 6006 6007 6008 6009 6010 6011 6012 6013 6014 6015 6016 6017 6018 6019 6020 6021 6022 6023 6024 6025 6026 6027 6028 6029 6030 6031 6032 6033 6034 6035 6036 6037 6038 6039 6040 6041 6042 6043 6044 6045 6046 6047 6048 6049 6050 6051 6052 6053 6054 6055 6056 6057 6058 6059 6060 6061 6062 6063 6064 6065 6066 6067 6068 6069 6070 6071 6072 6073 6074 6075 6076 6077 6078 6079 6080 6081 6082 6083 6084 6085 6086 6087 6088 6089 6090 6091 6092 6093 6094 6095 6096 6097 6098 6099 6100 6101 6102 6103 6104 6105 6106 6107 6108 6109 6110 6111 6112 6113 6114 6115 6116 6117 6118 6119 6120 6121 6122 6123 6124 6125 6126 6127 6128 6129 6130 6131 6132 6133 6134 6135 6136 6137 6138 6139 6140 6141 6142 6143 6144 6145 6146 6147 6148 6149 6150 6151 6152 6153 6154 6155 6156 6157 6158 6159 6160 6161 6162 6163 6164 6165 6166 6167 6168 6169 6170 6171 6172 6173 6174 6175 6176 6177 6178 6179 6180 6181 6182 6183 6184 6185 6186 6187 6188 6189 6190 6191 6192 6193 6194 6195 6196 6197 6198 6199 6200 6201 6202 6203 6204 6205 6206 6207 6208 6209 6210 6211 6212 6213 6214 6215 6216 6217 6218 6219 6220 6221 6222 6223 6224 6225 6226 6227 6228 6229 6230 6231 6232 6233 6234 6235 6236 6237 6238 6239 6240 6241 6242 6243 6244 6245 6246 6247 6248 6249 6250 6251 6252 6253 6254 6255 6256 6257 6258 6259 6260 6261 6262 6263 6264 6265 6266 6267 6268 6269 6270 6271 6272 6273 6274 6275 6276 6277 6278 6279 6280 6281 6282 6283 6284 6285 6286 6287 6288 6289 6290 6291 6292 6293 6294 6295 6296 6297 6298 6299 6300 6301 6302 6303 6304 6305 6306 6307 6308 6309 6310 6311 6312 6313 6314 6315 6316 6317 6318 6319 6320 6321 6322 6323 6324 6325 6326 6327 6328 6329 6330 6331 6332 6333 6334 6335 6336 6337 6338 6339 6340 6341 6342 6343 6344 6345 6346 6347 6348 6349 6350 6351 6352 6353 6354 6355 6356 6357 6358 6359 6360 6361 6362 6363 6364 6365 6366 6367 6368 6369 6370 6371 6372 6373 6374 6375 6376 6377 6378 6379 6380 6381 6382 6383 6384 6385 6386 6387 6388 6389 6390 6391 6392 6393 6394 6395 6396 6397 6398 6399 6400 6401 6402 6403 6404 6405 6406 6407 6408 6409 6410 6411 6412 6413 6414 6415 6416 6417 6418 6419 6420 6421 6422 6423 6424 6425 6426 6427 6428 6429 6430 6431 6432 6433 6434 6435 6436 6437 6438 6439 6440 6441 6442 6443 6444 6445 6446 6447 6448 6449 6450 6451 6452 6453 6454 6455 6456 6457 6458 6459 6460 6461 6462 6463 6464 6465 6466 6467 6468 6469 6470 6471 6472 6473 6474 6475 6476 6477 6478 6479 6480 6481 6482 6483 6484 6485 6486 6487 6488 6489 6490 6491 6492 6493 6494 6495 6496 6497 6498 6499 6500 6501 6502 6503 6504 6505 6506 6507 6508 6509 6510 6511 6512 6513 6514 6515 6516 6517 6518 6519 6520 6521 6522 6523 6524 6525 6526 6527 6528 6529 6530 6531 6532 6533 6534 6535 6536 6537 6538 6539 6540 6541 6542 6543 6544 6545 6546 6547 6548 6549 6550 6551 6552 6553 6554 6555 6556 6557 6558 6559 6560 6561 6562 6563 6564 6565 6566 6567 6568 6569 6570 6571 6572 6573 6574 6575 6576 6577 6578 6579 6580 6581 6582 6583 6584 6585 6586 6587 6588 6589 6590 6591 6592 6593 6594 6595 6596 6597 6598 6599 6600 6601 6602 6603 6604 6605 6606 6607 6608 6609 6610 6611 6612 6613 6614 6615 6616 6617 6618 6619 6620 6621 6622 6623 6624 6625 6626 6627 6628 6629 6630 6631 6632 6633 6634 6635 6636 6637 6638 6639 6640 6641 6642 6643 6644 6645 6646 6647 6648 6649 6650 6651 6652 6653 6654 6655 6656 6657 6658 6659 6660 6661 6662 6663 6664 6665 6666 6667 6668 6669 6670 6671 6672 6673 6674 6675 6676 6677 6678 6679 6680 6681 6682 6683 6684 6685 6686 6687 6688 6689 6690 6691 6692 6693 6694 6695 6696 6697 6698 6699 6700 6701 6702 6703 6704 6705 6706 6707 6708 6709 6710 6711 6712 6713 6714 6715 6716 6717 6718 6719 6720 6721 6722 6723 6724 6725 6726 6727 6728 6729 6730 6731 6732 6733 6734 6735 6736 6737 6738 6739 6740 6741 6742 6743 6744 6745 6746 6747 6748 6749 6750 6751 6752 6753 6754 6755 6756 6757 6758 6759 6760 6761 6762 6763 6764 6765 6766 6767 6768 6769 6770 6771 6772 6773 6774 6775 6776 6777 6778 6779 6780 6781 6782 6783 6784 6785 6786 6787 6788 6789 6790 6791 6792 6793 6794 6795 6796 6797 6798 6799 6800 6801 6802 6803 6804 6805 6806 6807 6808 6809 6810 6811 6812 6813 6814 6815 6816 6817 6818 6819 6820 6821 6822 6823 6824 6825 6826 6827 6828 6829 6830 6831 6832 6833 6834 6835 6836 6837 6838 6839 6840 6841 6842 6843 6844 6845 6846 6847 6848 6849 6850 6851 6852 6853 6854 6855 6856 6857 6858 6859 6860 6861 6862 6863 6864 6865 6866 6867 6868 6869 6870 6871 6872 6873 6874 6875 6876 6877 6878 6879 6880 6881 6882 6883 6884 6885 6886 6887 6888 6889 6890 6891 6892 6893 6894 6895 6896 6897 6898 6899 6900 6901 6902 6903 6904 6905 6906 6907 6908 6909 6910 6911 6912 6913 6914 6915 6916 6917 6918 6919 6920 6921 6922 6923 6924 6925 6926 6927 6928 6929 6930 6931 6932 6933 6934 6935 6936 6937 6938 6939 6940 6941 6942 6943 6944 6945 6946 6947 6948 6949 6950 6951 6952 6953 6954 6955 6956 6957 6958 6959 6960 6961 6962 6963 6964 6965 6966 6967 6968 6969 6970 6971 6972 6973 6974 6975 6976 6977 6978 6979 6980 6981 6982 6983 6984 6985 6986 6987 6988 6989 6990 6991 6992 6993 6994 6995 6996 6997 6998 6999 7000 7001 7002 7003 7004 7005 7006 7007 7008 7009 7010 7011 7012 7013 7014 7015 7016 7017 7018 7019 7020 7021 7022 7023 7024 7025 7026 7027 7028 7029 7030 7031 7032 7033 7034 7035 7036 7037 7038 7039 7040 7041 7042 7043 7044 7045 7046 7047 7048 7049 7050 7051 7052 7053 7054 7055 7056 7057 7058 7059 7060 7061 7062 7063 7064 7065 7066 7067 7068 7069 7070 7071 7072 7073 7074 7075 7076 7077 7078 7079 7080 7081 7082 7083 7084 7085 7086 7087 7088 7089 7090 7091 7092 7093 7094 7095 7096 7097 7098 7099 7100 7101 7102 7103 7104 7105 7106 7107 7108 7109 7110 7111 7112 7113 7114 7115 7116 7117 7118 7119 7120 7121 7122 7123 7124 7125 7126 7127 7128 7129 7130 7131 7132 7133 7134 7135 7136 7137 7138 7139 7140 7141 7142 7143 7144 7145 7146 7147 7148 7149 7150 7151 7152 7153 7154 7155 7156 7157 7158 7159 7160 7161 7162 7163 7164 7165 7166 7167 7168 7169 7170 7171 7172 7173 7174 7175 7176 7177 7178 7179 7180 7181 7182 7183 7184 7185 7186 7187 7188 7189 7190 7191 7192 7193 7194 7195 7196 7197 7198 7199 7200 7201 7202 7203 7204 7205 7206 7207 7208 7209 7210 7211 7212 7213 7214 7215 7216 7217 7218 7219 7220 7221 7222 7223 7224 7225 7226 7227 7228 7229 7230 7231 7232 7233 7234 7235 7236 7237 7238 7239 7240 7241 7242 7243 7244 7245 7246 7247 7248 7249 7250 7251 7252 7253 7254 7255 7256 7257 7258 7259 7260 7261 7262 7263 7264 7265 7266 7267 7268 7269 7270 7271 7272 7273 7274 7275 7276 7277 7278 7279 7280 7281 7282 7283 7284 7285 7286 7287 7288 7289 7290 7291 7292 7293 7294 7295 7296 7297 7298 7299 7300 7301 7302 7303 7304 7305 7306 7307 7308 7309 7310 7311 7312 7313 7314 7315 7316 7317 7318 7319 7320 7321 7322 7323 7324 7325 7326 7327 7328 7329 7330 7331 7332 7333 7334 7335 7336 7337 7338 7339 7340 7341 7342 7343 7344 7345 7346 7347 7348 7349 7350 7351 7352 7353 7354 7355 7356 7357 7358 7359 7360 7361 7362 7363 7364 7365 7366 7367 7368 7369 7370 7371 7372 7373 7374 7375 7376 7377 7378 7379 7380 7381 7382 7383 7384 7385 7386 7387 7388 7389 7390 7391 7392 7393 7394 7395 7396 7397 7398 7399 7400 7401 7402 7403 7404 7405 7406 7407 7408 7409 7410 7411 7412 7413 7414 7415 7416 7417 7418 7419 7420 7421 7422 7423 7424 7425 7426 7427 7428 7429 7430 7431 7432 7433 7434 7435 7436 7437 7438 7439 7440 7441 7442 7443 7444 7445 7446 7447 7448 7449 7450 7451 7452 7453 7454 7455 7456 7457 7458 7459 7460 7461 7462 7463 7464 7465 7466 7467 7468 7469 7470 7471 7472 7473 7474 7475 7476 7477 7478 7479 7480 7481 7482 7483 7484 7485 7486 7487 7488 7489 7490 7491 7492 7493 7494 7495 7496 7497 7498 7499 7500 7501 7502 7503 7504 7505 7506 7507 7508 7509 7510 7511 7512 7513 7514 7515 7516 7517 7518 7519 7520 7521 7522 7523 7524 7525 7526 7527 7528 7529 7530 7531 7532 7533 7534 7535 7536 7537 7538 7539 7540 7541 7542 7543 7544 7545 7546 7547 7548 7549 7550 7551 7552 7553 7554 7555 7556 7557 7558 7559 7560 7561 7562 7563 7564 7565 7566 7567 7568 7569 7570 7571 7572 7573 7574 7575 7576 7577 7578 7579 7580 7581 7582 7583 7584 7585 7586 7587 7588 7589 7590 7591 7592 7593 7594 7595 7596 7597 7598 7599 7600 7601 7602 7603 7604 7605 7606 7607 7608 7609 7610 7611 7612 7613 7614 7615 7616 7617 7618 7619 7620 7621 7622 7623 7624 7625 7626 7627 7628 7629 7630 7631 7632 7633 7634 7635 7636 7637 7638 7639 7640 7641 7642 7643 7644 7645 7646 7647 7648 7649 7650 7651 7652 7653 7654 7655 7656 7657 7658 7659 7660 7661 7662 7663 7664 7665 7666 7667 7668 7669 7670 7671 7672 7673 7674 7675 7676 7677 7678 7679 7680 7681 7682 7683 7684 7685 7686 7687 7688 7689 7690 7691 7692 7693 7694 7695 7696 7697 7698 7699 7700 7701 7702 7703 7704 7705 7706 7707 7708 7709 7710 7711 7712 7713 7714 7715 7716 7717 7718 7719 7720 7721 7722 7723 7724 7725 7726 7727 7728 7729 7730 7731 7732 7733 7734 7735 7736 7737 7738 7739 7740 7741 7742 7743 7744 7745 7746 7747 7748 7749 7750 7751 7752 7753 7754 7755 7756 7757 7758 7759 7760 7761 7762 7763 7764 7765 7766 7767 7768 7769 7770 7771 7772 7773 7774 7775 7776 7777 7778 7779 7780 7781 7782 7783 7784 7785 7786 7787 7788 7789 7790 7791 7792 7793 7794 7795 7796 7797 7798 7799 7800 7801 7802 7803 7804 7805 7806 7807 7808 7809 7810 7811 7812 7813 7814 7815 7816 7817 7818 7819 7820 7821 7822 7823 7824 7825 7826 7827 7828 7829 7830 7831 7832 7833 7834 7835 7836 7837 7838 7839 7840 7841 7842 7843 7844 7845 7846 7847 7848 7849 7850 7851 7852 7853 7854 7855 7856 7857 7858 7859 7860 7861 7862 7863 7864 7865 7866 7867 7868 7869 7870 7871 7872 7873 7874 7875 7876 7877 7878 7879 7880 7881 7882 7883 7884 7885 7886 7887 7888 7889 7890 7891 7892 7893 7894 7895 7896 7897 7898 7899 7900 7901 7902 7903 7904 7905 7906 7907 7908 7909 7910 7911 7912 7913 7914 7915 7916 7917 7918 7919 7920 7921 7922 7923 7924 7925 7926 7927 7928 7929 7930 7931 7932 7933 7934 7935 7936 7937 7938 7939 7940 7941 7942 7943 7944 7945 7946 7947 7948 7949 7950 7951 7952 7953 7954 7955 7956 7957 7958 7959 7960 7961 7962 7963 7964 7965 7966 7967 7968 7969 7970 7971 7972 7973 7974 7975 7976 7977 7978 7979 7980 7981 7982 7983 7984 7985 7986 7987 7988 7989 7990 7991 7992 7993 7994 7995 7996 7997 7998 7999 8000 8001 8002 8003 8004 8005 8006 8007 8008 8009 8010 8011 8012 8013 8014 8015 8016 8017 8018 8019 8020 8021 8022 8023 8024 8025 8026 8027 8028 8029 8030 8031 8032 8033 8034 8035 8036 8037 8038 8039 8040 8041 8042 8043 8044 8045 8046 8047 8048 8049 8050 8051 8052 8053 8054 8055 8056 8057 8058 8059 8060 8061 8062 8063 8064 8065 8066 8067 8068 8069 8070 8071 8072 8073 8074 8075 8076 8077 8078 8079 8080 8081 8082 8083 8084 8085 8086 8087 8088 8089 8090 8091 8092 8093 8094 8095 8096 8097 8098 8099 8100 8101 8102 8103 8104 8105 8106 8107 8108 8109 8110 8111 8112 8113 8114 8115 8116 8117 8118 8119 8120 8121 8122 8123 8124 8125 8126 8127 8128 8129 8130 8131 8132 8133 8134 8135 8136 8137 8138 8139 8140 8141 8142 8143 8144 8145 8146 8147 8148 8149 8150 8151 8152 8153 8154 8155 8156 8157 8158 8159 8160 8161 8162 8163 8164 8165 8166 8167 8168 8169 8170 8171 8172 8173 8174 8175 8176 8177 8178 8179 8180 8181 8182 8183 8184 8185 8186 8187 8188 8189 8190 8191 8192 8193 8194 8195 8196 8197 8198 8199 8200 8201 8202 8203 8204 8205 8206 8207 8208 8209 8210 8211 8212 8213 8214 8215 8216 8217 8218 8219 8220 8221 8222 8223 8224 8225 8226 8227 8228 8229 8230 8231 8232 8233 8234 8235 8236 8237 8238 8239 8240 8241 8242 8243 8244 8245 8246 8247 8248 8249 8250 8251 8252 8253 8254 8255 8256 8257 8258 8259 8260 8261 8262 8263 8264 8265 8266 8267 8268 8269 8270 8271 8272 8273 8274 8275 8276 8277 8278 8279 8280 8281 8282 8283 8284 8285 8286 8287 8288 8289 8290 8291 8292 8293 8294 8295 8296 8297 8298 8299 8300 8301 8302 8303 8304 8305 8306 8307 8308 8309 8310 8311 8312 8313 8314 8315 8316 8317 8318 8319 8320 8321 8322 8323 8324 8325 8326 8327 8328 8329 8330 8331 8332 8333 8334 8335 8336 8337 8338 8339 8340 8341 8342 8343 8344 8345 8346 8347 8348 8349 8350 8351 8352 8353 8354 8355 8356 8357 8358 8359 8360 8361 8362 8363 8364 8365 8366 8367 8368 8369 8370 8371 8372 8373 8374 8375 8376 8377 8378 8379 8380 8381 8382 8383 8384 8385 8386 8387 8388 8389 8390 8391 8392 8393 8394 8395 8396 8397 8398 8399 8400 8401 8402 8403 8404 8405 8406 8407 8408 8409 8410 8411 8412 8413 8414 8415 8416 8417 8418 8419 8420 8421 8422 8423 8424 8425 8426 8427 8428 8429 8430 8431 8432 8433 8434 8435 8436 8437 8438 8439 8440 8441 8442 8443 8444 8445 8446 8447 8448 8449 8450 8451 8452 8453 8454 8455 8456 8457 8458 8459 8460 8461 8462 8463 8464 8465 8466 8467 8468 8469 8470 8471 8472 8473 8474 8475 8476 8477 8478 8479 8480 8481 8482 8483 8484 8485 8486 8487 8488 8489 8490 8491 8492 8493 8494 8495 8496 8497 8498 8499 8500 8501 8502 8503 8504 8505 8506 8507 8508 8509 8510 8511 8512 8513 8514 8515 8516 8517 8518 8519 8520 8521 8522 8523 8524 8525 8526 8527 8528 8529 8530 8531 8532 8533 8534 8535 8536 8537 8538 8539 8540 8541 8542 8543 8544 8545 8546 8547 8548 8549 8550 8551 8552 8553 8554 8555 8556 8557 8558 8559 8560 8561 8562 8563 8564 8565 8566 8567 8568 8569 8570 8571 8572 8573 8574 8575 8576 8577 8578 8579 8580 8581 8582 8583 8584 8585 8586 8587 8588 8589 8590 8591 8592 8593 8594 8595 8596 8597 8598 8599 8600 8601 8602 8603 8604 8605 8606 8607 8608 8609 8610 8611 8612 8613 8614 8615 8616 8617 8618 8619 8620 8621 8622 8623 8624 8625 8626 8627 8628 8629 8630 8631 8632 8633 8634 8635 8636 8637 8638 8639 8640 8641 8642 8643 8644 8645 8646 8647 8648 8649 8650 8651 8652 8653 8654 8655 8656 8657 8658 8659 8660 8661 8662 8663 8664 8665 8666 8667 8668 8669 8670 8671 8672 8673 8674 8675 8676 8677 8678 8679 8680 8681 8682 8683 8684 8685 8686 8687 8688 8689 8690 8691 8692 8693 8694 8695 8696 8697 8698 8699 8700 8701 8702 8703 8704 8705 8706 8707 8708 8709 8710 8711 8712 8713 8714 8715 8716 8717 8718 8719 8720 8721 8722 8723 8724 8725 8726 8727 8728 8729 8730 8731 8732 8733 8734 8735 8736 8737 8738 8739 8740 8741 8742 8743 8744 8745 8746 8747 8748 8749 8750 8751 8752 8753 8754 8755 8756 8757 8758 8759 8760 8761 8762 8763 8764 8765 8766 8767 8768 8769 8770 8771 8772 8773 8774 8775 8776 8777 8778 8779 8780 8781 8782 8783 8784 8785 8786 8787 8788 8789 8790 8791 8792 8793 8794 8795 8796 8797 8798 8799 8800 8801 8802 8803 8804 8805 8806 8807 8808 8809 8810 8811 8812 8813 8814 8815 8816 8817 8818 8819 8820 8821 8822 8823 8824 8825 8826 8827 8828 8829 8830 8831 8832 8833 8834 8835 8836 8837 8838 8839 8840 8841 8842 8843 8844 8845 8846 8847 8848 8849 8850 8851 8852 8853 8854 8855 8856 8857 8858 8859 8860 8861 8862 8863 8864 8865 8866 8867 8868 8869 8870 8871 8872 8873 8874 8875 8876 8877 8878 8879 8880 8881 8882 8883 8884 8885 8886 8887 8888 8889 8890 8891 8892 8893 8894 8895 8896 8897 8898 8899 8900 8901 8902 8903 8904 8905 8906 8907 8908 8909 8910 8911 8912 8913 8914 8915 8916 8917 8918 8919 8920 8921 8922 8923 8924 8925 8926 8927 8928 8929 8930 8931 8932 8933 8934 8935 8936 8937 8938 8939 8940 8941 8942 8943 8944 8945 8946 8947 8948 8949 8950 8951 8952 8953 8954 8955 8956 8957 8958 8959 8960 8961 8962 8963 8964 8965 8966 8967 8968 8969 8970 8971 8972 8973 8974 8975 8976 8977 8978 8979 8980 8981 8982 8983 8984 8985 8986 8987 8988 8989 8990 8991 8992 8993 8994 8995 8996 8997 8998 8999 9000 9001 9002 9003 9004 9005 9006 9007 9008 9009 9010 9011 9012 9013 9014 9015 9016 9017 9018 9019 9020 9021 9022 9023 9024 9025 9026 9027 9028 9029 9030 9031 9032 9033 9034 9035 9036 9037 9038 9039 9040 9041 9042 9043 9044 9045 9046 9047 9048 9049 9050 9051 9052 9053 9054 9055 9056 9057 9058 9059 9060 9061 9062 9063 9064 9065 9066 9067 9068 9069 9070 9071 9072 9073 9074 9075 9076 9077 9078 9079 9080 9081 9082 9083 9084 9085 9086 9087 9088 9089 9090 9091 9092 9093 9094 9095 9096 9097 9098 9099 9100 9101 9102 9103 9104 9105 9106 9107 9108 9109 9110 9111 9112 9113 9114 9115 9116 9117 9118 9119 9120 9121 9122 9123 9124 9125 9126 9127 9128 9129 9130 9131 9132 9133 9134 9135 9136 9137 9138 9139 9140 9141 9142 9143 9144 9145 9146 9147 9148 9149 9150 9151 9152 9153 9154 9155 9156 9157 9158 9159 9160 9161 9162 9163 9164 9165 9166 9167 9168 9169 9170 9171 9172 9173 9174 9175 9176 9177 9178 9179 9180 9181 9182 9183 9184 9185 9186 9187 9188 9189 9190 9191 9192 9193 9194 9195 9196 9197 9198 9199 9200 9201 9202 9203 9204 9205 9206 9207 9208 9209 9210 9211 9212 9213 9214 9215 9216 9217 9218 9219 9220 9221 9222 9223 9224 9225 9226 9227 9228 9229 9230 9231 9232 9233 9234 9235 9236 9237 9238 9239 9240 9241 9242 9243 9244 9245 9246 9247 9248 9249 9250 9251 9252 9253 9254 9255 9256 9257 9258 9259 9260 9261 9262 9263 9264 9265 9266 9267 9268 9269 9270 9271 9272 9273 9274 9275 9276 9277 9278 9279 9280 9281 9282 9283 9284 9285 9286 9287 9288 9289 9290 9291 9292 9293 9294 9295 9296 9297 9298 9299 9300 9301 9302 9303 9304 9305 9306 9307 9308 9309 9310 9311 9312 9313 9314 9315 9316 9317 9318 9319 9320 9321 9322 9323 9324 9325 9326 9327 9328 9329 9330 9331 9332 9333 9334 9335 9336 9337 9338 9339 9340 9341 9342 9343 9344 9345 9346 9347 9348 9349 9350 9351 9352 9353 9354 9355 9356 9357 9358 9359 9360 9361 9362 9363 9364 9365 9366 9367 9368 9369 9370 9371 9372 9373 9374 9375 9376 9377 9378 9379 9380 9381 9382 9383 9384 9385 9386 9387 9388 9389 9390 9391 9392 9393 9394 9395 9396 9397 9398 9399 9400 9401 9402 9403 9404 9405 9406 9407 9408 9409 9410 9411 9412 9413 9414 9415 9416 9417 9418 9419 9420 9421 9422 9423 9424 9425 9426 9427 9428 9429 9430 9431 9432 9433 9434 9435 9436 9437 9438 9439 9440 9441 9442 9443 9444 9445 9446 9447 9448 9449 9450 9451 9452 9453 9454 9455 9456 9457 9458 9459 9460 9461 9462 9463 9464 9465 9466 9467 9468 9469 9470 9471 9472 9473 9474 9475 9476 9477 9478 9479 9480 9481 9482 9483 9484 9485 9486 9487 9488 9489 9490 9491 9492 9493 9494 9495 9496 9497 9498 9499 9500 9501 9502 9503 9504 9505 9506 9507 9508 9509 9510 9511 9512 9513 9514 9515 9516 9517 9518 9519 9520 9521 9522 9523 9524 9525 9526 9527 9528 9529 9530 9531 9532 9533 9534 9535 9536 9537 9538 9539 9540 9541 9542 9543 9544 9545 9546 9547 9548 9549 9550 9551 9552 9553 9554 9555 9556 9557 9558 9559 9560 9561 9562 9563 9564 9565 9566 9567 9568 9569 9570 9571 9572 9573 9574 9575 9576 9577 9578 9579 9580 9581 9582 9583 9584 9585 9586 9587 9588 9589 9590 9591 9592 9593 9594 9595 9596 9597 9598 9599 9600 9601 9602 9603 9604 9605 9606 9607 9608 9609 9610 9611 9612 9613 9614 9615 9616 9617 9618 9619 9620 9621 9622 9623 9624 9625 9626 9627 9628 9629 9630 9631 9632 9633 9634 9635 9636 9637 9638 9639 9640 9641 9642 9643 9644 9645 9646 9647 9648 9649 9650 9651 9652 9653 9654 9655 9656 9657 9658 9659 9660 9661 9662 9663 9664 9665 9666 9667 9668 9669 9670 9671 9672 9673 9674 9675 9676 9677 9678 9679 9680 9681 9682 9683 9684 9685 9686 9687 9688 9689 9690 9691 9692 9693 9694 9695 9696 9697 9698 9699 9700 9701 9702 9703 9704 9705 9706 9707 9708 9709 9710 9711 9712 9713 9714 9715 9716 9717 9718 9719 9720 9721 9722 9723 9724 9725 9726 9727 9728 9729 9730 9731 9732 9733 9734 9735 9736 9737 9738 9739 9740 9741 9742 9743 9744 9745 9746 9747 9748 9749 9750 9751 9752 9753 9754 9755 9756 9757 9758 9759 9760 9761 9762 9763 9764 9765 9766 9767 9768 9769 9770 9771 9772 9773 9774 9775 9776 9777 9778 9779 9780 9781 9782 9783 9784 9785 9786 9787 9788 9789 9790 9791 9792 9793 9794 9795 9796 9797 9798 9799 9800 9801 9802 9803 9804 9805 9806 9807 9808 9809 9810 9811 9812 9813 9814 9815 9816 9817 9818 9819 9820 9821 9822 9823 9824 9825 9826 9827 9828 9829 9830 9831 9832 9833 9834 9835 9836 9837 9838 9839 9840 9841 9842 9843 9844 9845 9846 9847 9848 9849 9850 9851 9852 9853 9854 9855 9856 9857 9858 9859 9860 9861 9862 9863 9864 9865 9866 9867 9868 9869 9870 9871 9872 9873 9874 9875 9876 9877 9878 9879 9880 9881 9882 9883 9884 9885 9886 9887 9888 9889 9890 9891 9892 9893 9894 9895 9896 9897 9898 9899 9900 9901 9902 9903 9904 9905 9906 9907 9908 9909 9910 9911 9912 9913 9914 9915 9916 9917 9918 9919 9920 9921 9922 9923 9924 9925 9926 9927 9928 9929 9930 9931 9932 9933 9934 9935 9936 9937 9938 9939 9940 9941 9942 9943 9944 9945 9946 9947 9948 9949 9950 9951 9952 9953 9954 9955 9956 9957 9958 9959 9960 9961 9962 9963 9964 9965 9966 9967 9968 9969 9970 9971 9972 9973 9974 9975 9976 9977 9978 9979 9980 9981 9982 9983 9984 9985 9986 9987 9988 9989 9990 9991 9992 9993 9994 9995 9996 9997 9998 9999 10000 10001 10002 10003 10004 10005 10006 10007 10008 10009 10010 10011 10012 10013 10014 10015 10016 10017 10018 10019 10020 10021 10022 10023 10024 10025 10026 10027 10028 10029 10030 10031 10032 10033 10034 10035 10036 10037 10038 10039 10040 10041 10042 10043 10044 10045 10046 10047 10048 10049 10050 10051 10052 10053 10054 10055 10056 10057 10058 10059 10060 10061 10062 10063 10064 10065 10066 10067 10068 10069 10070 10071 10072 10073 10074 10075 10076 10077 10078 10079 10080 10081 10082 10083 10084 10085 10086 10087 10088 10089 10090 10091 10092 10093 10094 10095 10096 10097 10098 10099 10100 10101 10102 10103 10104 10105 10106 10107 10108 10109 10110 10111 10112 10113 10114 10115 10116 10117 10118 10119 10120 10121 10122 10123 10124 10125 10126 10127 10128 10129 10130 10131 10132 10133 10134 10135 10136 10137 10138 10139 10140 10141 10142 10143 10144 10145 10146 10147 10148 10149 10150 10151 10152 10153 10154 10155 10156 10157 10158 10159 10160 10161 10162 10163 10164 10165 10166 10167 10168 10169 10170 10171 10172 10173 10174 10175 10176 10177 10178 10179 10180 10181 10182 10183 10184 10185 10186 10187 10188 10189 10190 10191 10192 10193 10194 10195 10196 10197 10198 10199 10200 10201 10202 10203 10204 10205 10206 10207 10208 10209 10210 10211 10212 10213 10214 10215 10216 10217 10218 10219 10220 10221 10222 10223 10224 10225 10226 10227 10228 10229 10230 10231 10232 10233 10234 10235 10236 10237 10238 10239 10240 10241 10242 10243 10244 10245 10246 10247 10248 10249 10250 10251 10252 10253 10254 10255 10256 10257 10258 10259 10260 10261 10262 10263 10264 10265 10266 10267 10268 10269 10270 10271 10272 10273 10274 10275 10276 10277 10278 10279 10280 10281 10282 10283 10284 10285 10286 10287 10288 10289 10290 10291 10292 10293 10294 10295 10296 10297 10298 10299 10300 10301 10302 10303 10304 10305 10306 10307 10308 10309 10310 10311 10312 10313 10314 10315 10316 10317 10318 10319 10320 10321 10322 10323 10324 10325 10326 10327 10328 10329 10330 10331 10332 10333 10334 10335 10336 10337 10338 10339 10340 10341 10342 10343 10344 10345 10346 10347 10348 10349 10350 10351 10352 10353 10354 10355 10356 10357 10358 10359 10360 10361 10362 10363 10364 10365 10366 10367 10368 10369 10370 10371 10372 10373 10374 10375 10376 10377 10378 10379 10380 10381 10382 10383 10384 10385 10386 10387 10388 10389 10390 10391 10392 10393 10394 10395 10396 10397 10398 10399 10400 10401 10402 10403 10404 10405 10406 10407 10408 10409 10410 10411 10412 10413 10414 10415 10416 10417 10418 10419 10420 10421 10422 10423 10424 10425 10426 10427 10428 10429 10430 10431 10432 10433 10434 10435 10436 10437 10438 10439 10440 10441 10442 10443 10444 10445 10446 10447 10448 10449 10450 10451 10452 10453 10454 10455 10456 10457 10458 10459 10460 10461 10462 10463 10464 10465 10466 10467 10468 10469 10470 10471 10472 10473 10474 10475 10476 10477 10478 10479 10480 10481 10482 10483 10484 10485 10486 10487 10488 10489 10490 10491 10492 10493 10494 10495 10496 10497 10498 10499 10500 10501 10502 10503 10504 10505 10506 10507 10508 10509 10510 10511 10512 10513 10514 10515 10516 10517 10518 10519 10520 10521 10522 10523 10524 10525 10526 10527 10528 10529 10530 10531 10532 10533 10534 10535 10536 10537 10538 10539 10540 10541 10542 10543 10544 10545 10546 10547 10548 10549 10550 10551 10552 10553 10554 10555 10556 10557 10558 10559 10560 10561 10562 10563 10564 10565 10566 10567 10568 10569 10570 10571 10572 10573 10574 10575 10576 10577 10578 10579 10580 10581 10582 10583 10584 10585 10586 10587 10588 10589 10590 10591 10592 10593 10594 10595 10596 10597 10598 10599 10600 10601 10602 10603 10604 10605 10606 10607 10608 10609 10610 10611 10612 10613 10614 10615 10616 10617 10618 10619 10620 10621 10622 10623 10624 10625 10626 10627 10628 10629 10630 10631 10632 10633 10634 10635 10636 10637 10638 10639 10640 10641 10642 10643 10644 10645 10646 10647 10648 10649 10650 10651 10652 10653 10654 10655 10656 10657 10658 10659 10660 10661 10662 10663 10664 10665 10666 10667 10668 10669 10670 10671 10672 10673 10674 10675 10676 10677 10678 10679 10680 10681 10682 10683 10684 10685 10686 10687 10688 10689 10690 10691 10692 10693 10694 10695 10696 10697 10698 10699 10700 10701 10702 10703 10704 10705 10706 10707 10708 10709 10710 10711 10712 10713 10714 10715 10716 10717 10718 10719 10720 10721 10722 10723 10724 10725 10726 10727 10728 10729 10730 10731 10732 10733 10734 10735 10736 10737 10738 10739 10740 10741 10742 10743 10744 10745 10746 10747 10748 10749 10750 10751 10752 10753 10754 10755 10756 10757 10758 10759 10760 10761 10762 10763 10764 10765 10766 10767 10768 10769 10770 10771 10772 10773 10774 10775 10776 10777 10778 10779 10780 10781 10782 10783 10784 10785 10786 10787 10788 10789 10790 10791 10792 10793 10794 10795 10796 10797 10798 10799 10800 10801 10802 10803 10804 10805 10806 10807 10808 10809 10810 10811 10812 10813 10814 10815 10816 10817 10818 10819 10820 10821 10822 10823 10824 10825 10826 10827 10828 10829 10830 10831 10832 10833 10834 10835 10836 10837 10838 10839 10840 10841 10842 10843 10844 10845 10846 10847 10848 10849 10850 10851 10852 10853 10854 10855 10856 10857 10858 10859 10860 10861 10862 10863 10864 10865 10866 10867 10868 10869 10870 10871 10872 10873 10874 10875 10876 10877 10878 10879 10880 10881 10882 10883 10884 10885 10886 10887 10888 10889 10890 10891 10892 10893 10894 10895 10896 10897 10898 10899 10900 10901 10902 10903 10904 10905 10906 10907 10908 10909 10910 10911 10912 10913 10914 10915 10916 10917 10918 10919 10920 10921 10922 10923 10924 10925 10926 10927 10928 10929 10930 10931 10932 10933 10934 10935 10936 10937 10938 10939 10940 10941 10942 10943 10944 10945 10946 10947 10948 10949 10950 10951 10952 10953 10954 10955 10956 10957 10958 10959 10960 10961 10962 10963 10964 10965 10966 10967 10968 10969 10970 10971 10972 10973 10974 10975 10976 10977 10978 10979 10980 10981 10982 10983 10984 10985 10986 10987 10988 10989 10990 10991 10992 10993 10994 10995 10996 10997 10998 10999 11000 11001 11002 11003 11004 11005 11006 11007 11008 11009 11010 11011 11012 11013 11014 11015 11016 11017 11018 11019 11020 11021 11022 11023 11024 11025 11026 11027 11028 11029 11030 11031 11032 11033 11034 11035 11036 11037 11038 11039 11040 11041 11042 11043 11044 11045 11046 11047 11048 11049 11050 11051 11052 11053 11054 11055 11056 11057 11058 11059 11060 11061 11062 11063 11064 11065 11066 11067 11068 11069 11070 11071 11072 11073 11074 11075 11076 11077 11078 11079 11080 11081 11082 11083 11084 11085 11086 11087 11088 11089 11090 11091 11092 11093 11094 11095 11096 11097 11098 11099 11100 11101 11102 11103 11104 11105 11106 11107 11108 11109 11110 11111 11112 11113 11114 11115 11116 11117 11118 11119 11120 11121 11122 11123 11124 11125 11126 11127 11128 11129 11130 11131 11132 11133 11134 11135 11136 11137 11138 11139 11140 11141 11142 11143 11144 11145 11146 11147 11148 11149 11150 11151 11152 11153 11154 11155 11156 11157 11158 11159 11160 11161 11162 11163 11164 11165 11166 11167 11168 11169 11170 11171 11172 11173 11174 11175 11176 11177 11178 11179 11180 11181 11182 11183 11184 11185 11186 11187 11188 11189 11190 11191 11192 11193 11194 11195 11196 11197 11198 11199 11200 11201 11202 11203 11204 11205 11206 11207 11208 11209 11210 11211 11212 11213 11214 11215 11216 11217 11218 11219 11220 11221 11222 11223 11224 11225 11226 11227 11228 11229 11230 11231 11232 11233 11234 11235 11236 11237 11238 11239 11240 11241 11242 11243 11244 11245 11246 11247 11248 11249 11250 11251 11252 11253 11254 11255 11256 11257 11258 11259 11260 11261 11262 11263 11264 11265 11266 11267 11268 11269 11270 11271 11272 11273 11274 11275 11276 11277 11278 11279 11280 11281 11282 11283 11284 11285 11286 11287 11288 11289 11290 11291 11292 11293 11294 11295 11296 11297 11298 11299 11300 11301 11302 11303 11304 11305 11306 11307 11308 11309 11310 11311 11312 11313 11314 11315 11316 11317 11318 11319 11320 11321 11322 11323 11324 11325 11326 11327 11328 11329 11330 11331 11332 11333 11334 11335 11336 11337 11338 11339 11340 11341 11342 11343 11344 11345 11346 11347 11348 11349 11350 11351 11352 11353 11354 11355 11356 11357 11358 11359 11360 11361 11362 11363 11364 11365 11366 11367 11368 11369 11370 11371 11372 11373 11374 11375 11376 11377 11378 11379 11380 11381 11382 11383 11384 11385 11386 11387 11388 11389 11390 11391 11392 11393 11394 11395 11396 11397 11398 11399 11400 11401 11402 11403 11404 11405 11406 11407 11408 11409 11410 11411 11412 11413 11414 11415 11416 11417 11418 11419 11420 11421 11422 11423 11424 11425 11426 11427 11428 11429 11430 11431 11432 11433 11434 11435 11436 11437 11438 11439 11440 11441 11442 11443 11444 11445 11446 11447 11448 11449 11450 11451 11452 11453 11454 11455 11456 11457 11458 11459 11460 11461 11462 11463 11464 11465 11466 11467 11468 11469 11470 11471 11472 11473 11474 11475 11476 11477 11478 11479 11480 11481 11482 11483 11484 11485 11486 11487 11488 11489 11490 11491 11492 11493 11494 11495 11496 11497 11498 11499 11500 11501 11502 11503 11504 11505 11506 11507 11508 11509 11510 11511 11512 11513 11514 11515 11516 11517 11518 11519 11520 11521 11522 11523 11524 11525 11526 11527 11528 11529 11530 11531 11532 11533 11534 11535 11536 11537 11538 11539 11540 11541 11542 11543 11544 11545 11546 11547 11548 11549 11550 11551 11552 11553 11554 11555 11556 11557 11558 11559 11560 11561 11562 11563 11564 11565 11566 11567 11568 11569 11570 11571 11572 11573 11574 11575 11576 11577 11578 11579 11580 11581 11582 11583 11584 11585 11586 11587 11588 11589 11590 11591 11592 11593 11594 11595 11596 11597 11598 11599 11600 11601 11602 11603 11604 11605 11606 11607 11608 11609 11610 11611 11612 11613 11614 11615 11616 11617 11618 11619 11620 11621 11622 11623 11624 11625 11626 11627 11628 11629 11630 11631 11632 11633 11634 11635 11636 11637 11638 11639 11640 11641 11642 11643 11644 11645 11646 11647 11648 11649 11650 11651 11652 11653 11654 11655 11656 11657 11658 11659 11660 11661 11662 11663 11664 11665 11666 11667 11668 11669 11670 11671 11672 11673 11674 11675 11676 11677 11678 11679 11680 11681 11682 11683 11684 11685 11686 11687 11688 11689 11690 11691 11692 11693 11694 11695 11696 11697 11698 11699 11700 11701 11702 11703 11704 11705 11706 11707 11708 11709 11710 11711 11712 11713 11714 11715 11716 11717 11718 11719 11720 11721 11722 11723 11724 11725 11726 11727 11728 11729 11730 11731 11732 11733 11734 11735 11736 11737 11738 11739 11740 11741 11742 11743 11744 11745 11746 11747 11748 11749 11750 11751 11752 11753 11754 11755 11756 11757 11758 11759 11760 11761 11762 11763 11764 11765 11766 11767 11768 11769 11770 11771 11772 11773 11774 11775 11776 11777 11778 11779 11780 11781 11782 11783 11784 11785 11786 11787 11788 11789 11790 11791 11792 11793 11794 11795 11796 11797 11798 11799 11800 11801 11802 11803 11804 11805 11806 11807 11808 11809 11810 11811 11812 11813 11814 11815 11816 11817 11818 11819 11820 11821 11822 11823 11824 11825 11826 11827 11828 11829 11830 11831 11832 11833 11834 11835 11836 11837 11838 11839 11840 11841 11842 11843 11844 11845 11846 11847 11848 11849 11850 11851 11852 11853 11854 11855 11856 11857 11858 11859 11860 11861 11862 11863 11864 11865 11866 11867 11868 11869 11870 11871 11872 11873 11874 11875 11876 11877 11878 11879 11880 11881 11882 11883 11884 11885 11886 11887 11888 11889 11890 11891 11892 11893 11894 11895 11896 11897 11898 11899 11900 11901 11902 11903 11904 11905 11906 11907 11908 11909 11910 11911 11912 11913 11914 11915 11916 11917 11918 11919 11920 11921 11922 11923 11924 11925 11926 11927 11928 11929 11930 11931 11932 11933 11934 11935 11936 11937 11938 11939 11940 11941 11942 11943 11944 11945 11946 11947 11948 11949 11950 11951 11952 11953 11954 11955 11956 11957 11958 11959 11960 11961 11962 11963 11964 11965 11966 11967 11968 11969 11970 11971 11972 11973 11974 11975 11976 11977 11978 11979 11980 11981 11982 11983 11984 11985 11986 11987 11988 11989 11990 11991 11992 11993 11994 11995 11996 11997 11998 11999 12000 12001 12002 12003 12004 12005 12006 12007 12008 12009 12010 12011 12012 12013 12014 12015 12016 12017 12018 12019 12020 12021 12022 12023 12024 12025 12026 12027 12028 12029 12030 12031 12032 12033 12034 12035 12036 12037 12038 12039 12040 12041 12042 12043 12044 12045 12046 12047 12048 12049 12050 12051 12052 12053 12054 12055 12056 12057 12058 12059 12060 12061 12062 12063 12064 12065 12066 12067 12068 12069 12070 12071 12072 12073 12074 12075 12076 12077 12078 12079 12080 12081 12082 12083 12084 12085 12086 12087 12088 12089 12090 12091 12092 12093 12094 12095 12096 12097 12098 12099 12100 12101 12102 12103 12104 12105 12106 12107 12108 12109 12110 12111 12112 12113 12114 12115 12116 12117 12118 12119 12120 12121 12122 12123 12124 12125 12126 12127 12128 12129 12130 12131 12132 12133 12134 12135 12136 12137 12138 12139 12140 12141 12142 12143 12144 12145 12146 12147 12148 12149 12150 12151 12152 12153 12154 12155 12156 12157 12158 12159 12160 12161 12162 12163 12164 12165 12166 12167 12168 12169 12170 12171 12172 12173 12174 12175 12176 12177 12178 12179 12180 12181 12182 12183 12184 12185 12186 12187 12188 12189 12190 12191 12192 12193 12194 12195 12196 12197 12198 12199 12200 12201 12202 12203 12204 12205 12206 12207 12208 12209 12210 12211 12212 12213 12214 12215 12216 12217 12218 12219 12220 12221 12222 12223 12224 12225 12226 12227 12228 12229 12230 12231 12232 12233 12234 12235 12236 12237 12238 12239 12240 12241 12242 12243 12244 12245 12246 12247 12248 12249 12250 12251 12252 12253 12254 12255 12256 12257 12258 12259 12260 12261 12262 12263 12264 12265 12266 12267 12268 12269 12270 12271 12272 12273 12274 12275 12276 12277 12278 12279 12280 12281 12282 12283 12284 12285 12286 12287 12288 12289 12290 12291 12292 12293 12294 12295 12296 12297 12298 12299 12300 12301 12302 12303 12304 12305 12306 12307 12308 12309 12310 12311 12312 12313 12314 12315 12316 12317 12318 12319 12320 12321 12322 12323 12324 12325 12326 12327 12328 12329 12330 12331 12332 12333 12334 12335 12336 12337 12338 12339 12340 12341 12342 12343 12344 12345 12346 12347 12348 12349 12350 12351 12352 12353 12354 12355 12356 12357 12358 12359 12360 12361 12362 12363 12364 12365 12366 12367 12368 12369 12370 12371 12372 12373 12374 12375 12376 12377 12378 12379 12380 12381 12382 12383 12384 12385 12386 12387 12388 12389 12390 12391 12392 12393 12394 12395 12396 12397 12398 12399 12400 12401 12402 12403 12404 12405 12406 12407 12408 12409 12410 12411 12412 12413 12414 12415 12416 12417 12418 12419 12420 12421 12422 12423 12424 12425 12426 12427 12428 12429 12430 12431 12432 12433 12434 12435 12436 12437 12438 12439 12440 12441 12442 12443 12444 12445 12446 12447 12448 12449 12450 12451 12452 12453 12454 12455 12456 12457 12458 12459 12460 12461 12462 12463 12464 12465 12466 12467 12468 12469 12470 12471 12472 12473 12474 12475 12476 12477 12478 12479 12480 12481 12482 12483 12484 12485 12486 12487 12488 12489 12490 12491 12492 12493 12494 12495 12496 12497 12498 12499 12500 12501 12502 12503 12504 12505 12506 12507 12508 12509 12510 12511 12512 12513 12514 12515 12516 12517 12518 12519 12520 12521 12522 12523 12524 12525 12526 12527 12528 12529 12530 12531 12532 12533 12534 12535 12536 12537 12538 12539 12540 12541 12542 12543 12544 12545 12546 12547 12548 12549 12550 12551 12552 12553 12554 12555 12556 12557 12558 12559 12560 12561 12562 12563 12564 12565 12566 12567 12568 12569 12570 12571 12572 12573 12574 12575 12576 12577 12578 12579 12580 12581 12582 12583 12584 12585 12586 12587 12588 12589 12590 12591 12592 12593 12594 12595 12596 12597 12598 12599 12600 12601 12602 12603 12604 12605 12606 12607 12608 12609 12610 12611 12612 12613 12614 12615 12616 12617 12618 12619 12620 12621 12622 12623 12624 12625 12626 12627 12628 12629 12630 12631 12632 12633 12634 12635 12636 12637 12638 12639 12640 12641 12642 12643 12644 12645 12646 12647 12648 12649 12650 12651 12652 12653 12654 12655 12656 12657 12658 12659 12660 12661 12662 12663 12664 12665 12666 12667 12668 12669 12670 12671 12672 12673 12674 12675 12676 12677 12678 12679 12680 12681 12682 12683 12684 12685 12686 12687 12688 12689 12690 12691 12692 12693 12694 12695 12696 12697 12698 12699 12700 12701 12702 12703 12704 12705 12706 12707 12708 12709 12710 12711 12712 12713 12714 12715 12716 12717 12718 12719 12720 12721 12722 12723 12724 12725 12726 12727 12728 12729 12730 12731 12732 12733 12734 12735 12736 12737 12738 12739 12740 12741 12742 12743 12744 12745 12746 12747 12748 12749 12750 12751 12752 12753 12754 12755 12756 12757 12758 12759 12760 12761 12762 12763 12764 12765 12766 12767 12768 12769 12770 12771 12772 12773 12774 12775 12776 12777 12778 12779 12780 12781 12782 12783 12784 12785 12786 12787 12788 12789 12790 12791 12792 12793 12794 12795 12796 12797 12798 12799 12800 12801 12802 12803 12804 12805 12806 12807 12808 12809 12810 12811 12812 12813 12814 12815 12816 12817 12818 12819 12820 12821 12822 12823 12824 12825 12826 12827 12828 12829 12830 12831 12832 12833 12834 12835 12836 12837 12838 12839 12840 12841 12842 12843 12844 12845 12846 12847 12848 12849 12850 12851 12852 12853 12854 12855 12856 12857 12858 12859 12860 12861 12862 12863 12864 12865 12866 12867 12868 12869 12870 12871 12872 12873 12874 12875 12876 12877 12878 12879 12880 12881 12882 12883 12884 12885 12886 12887 12888 12889 12890 12891 12892 12893 12894 12895 12896 12897 12898 12899 12900 12901 12902 12903 12904 12905 12906 12907 12908 12909 12910 12911 12912 12913 12914 12915 12916 12917 12918 12919 12920 12921 12922 12923 12924 12925 12926 12927 12928 12929 12930 12931 12932 12933 12934 12935 12936 12937 12938 12939 12940 12941 12942 12943 12944 12945 12946 12947 12948 12949 12950 12951 12952 12953 12954 12955 12956 12957 12958 12959 12960 12961 12962 12963 12964 12965 12966 12967 12968 12969 12970 12971 12972 12973 12974 12975 12976 12977 12978 12979 12980 12981 12982 12983 12984 12985 12986 12987 12988 12989 12990 12991 12992 12993 12994 12995 12996 12997 12998 12999 13000 13001 13002 13003 13004 13005 13006 13007 13008 13009 13010 13011 13012 13013 13014 13015 13016 13017 13018 13019 13020 13021 13022 13023 13024 13025 13026 13027 13028 13029 13030 13031 13032 13033 13034 13035 13036 13037 13038 13039 13040 13041 13042 13043 13044 13045 13046 13047 13048 13049 13050 13051 13052 13053 13054 13055 13056 13057 13058 13059 13060 13061 13062 13063 13064 13065 13066 13067 13068 13069 13070 13071 13072 13073 13074 13075 13076 13077 13078 13079 13080 13081 13082 13083 13084 13085 13086 13087 13088 13089 13090 13091 13092 13093 13094 13095 13096 13097 13098 13099 13100 13101 13102 13103 13104 13105 13106 13107 13108 13109 13110 13111 13112 13113 13114 13115 13116 13117 13118 13119 13120 13121 13122 13123 13124 13125 13126 13127 13128 13129 13130 13131 13132 13133 13134 13135 13136 13137 13138 13139 13140 13141 13142 13143 13144 13145 13146 13147 13148 13149 13150 13151 13152 13153 13154 13155 13156 13157 13158 13159 13160 13161 13162 13163 13164 13165 13166 13167 13168 13169 13170 13171 13172 13173 13174 13175 13176 13177 13178 13179 13180 13181 13182 13183 13184 13185 13186 13187 13188 13189 13190 13191 13192 13193 13194 13195 13196 13197 13198 13199 13200 13201 13202 13203 13204 13205 13206 13207 13208 13209 13210 13211 13212 13213 13214 13215 13216 13217 13218 13219 13220 13221 13222 13223 13224 13225 13226 13227 13228 13229 13230 13231 13232 13233 13234 13235 13236 13237 13238 13239 13240 13241 13242 13243 13244 13245 13246 13247 13248 13249 13250 13251 13252 13253 13254 13255 13256 13257 13258 13259 13260 13261 13262 13263 13264 13265 13266 13267 13268 13269 13270 13271 13272 13273 13274 13275 13276 13277 13278 13279 13280 13281 13282 13283 13284 13285 13286 13287 13288 13289 13290 13291 13292 13293 13294 13295 13296 13297 13298 13299 13300 13301 13302 13303 13304 13305 13306 13307 13308 13309 13310 13311 13312 13313 13314 13315 13316 13317 13318 13319 13320 13321 13322 13323 13324 13325 13326 13327 13328 13329 13330 13331 13332 13333 13334 13335 13336 13337 13338 13339 13340 13341 13342 13343 13344 13345 13346 13347 13348 13349 13350 13351 13352 13353 13354 13355 13356 13357 13358 13359 13360 13361 13362 13363 13364 13365 13366 13367 13368 13369 13370 13371 13372 13373 13374 13375 13376 13377 13378 13379 13380 13381 13382 13383 13384 13385 13386 13387 13388 13389 13390 13391 13392 13393 13394 13395 13396 13397 13398 13399 13400 13401 13402 13403 13404 13405 13406 13407 13408 13409 13410 13411 13412 13413 13414 13415 13416 13417 13418 13419 13420 13421 13422 13423 13424 13425 13426 13427 13428 13429 13430 13431 13432 13433 13434 13435 13436 13437 13438 13439 13440 13441 13442 13443 13444 13445 13446 13447 13448 13449 13450 13451 13452 13453 13454 13455 13456 13457 13458 13459 13460 13461 13462 13463 13464 13465 13466 13467 13468 13469 13470 13471 13472 13473 13474 13475 13476 13477 13478 13479 13480 13481 13482 13483 13484 13485 13486 13487 13488 13489 13490 13491 13492 13493 13494 13495 13496 13497 13498 13499 13500 13501 13502 13503 13504 13505 13506 13507 13508 13509 13510 13511 13512 13513 13514 13515 13516 13517 13518 13519 13520 13521 13522 13523 13524 13525 13526 13527 13528 13529 13530 13531 13532 13533 13534 13535 13536 13537 13538 13539 13540 13541 13542 13543 13544 13545 13546 13547 13548 13549 13550 13551 13552 13553 13554 13555 13556 13557 13558 13559 13560 13561 13562 13563 13564 13565 13566 13567 13568 13569 13570 13571 13572 13573 13574 13575 13576 13577 13578 13579 13580 13581 13582 13583 13584 13585 13586 13587 13588 13589 13590 13591 13592 13593 13594 13595 13596 13597 13598 13599 13600 13601 13602 13603 13604 13605 13606 13607 13608 13609 13610 13611 13612 13613 13614 13615 13616 13617 13618 13619 13620 13621 13622 13623 13624 13625 13626 13627 13628 13629 13630 13631 13632 13633 13634 13635 13636 13637 13638 13639 13640 13641 13642 13643 13644 13645 13646 13647 13648 13649 13650 13651 13652 13653 13654 13655 13656 13657 13658 13659 13660 13661 13662 13663 13664 13665 13666 13667 13668 13669 13670 13671 13672 13673 13674 13675 13676 13677 13678 13679 13680 13681 13682 13683 13684 13685 13686 13687 13688 13689 13690 13691 13692 13693 13694 13695 13696 13697 13698 13699 13700 13701 13702 13703 13704 13705 13706 13707 13708 13709 13710 13711 13712 13713 13714 13715 13716 13717 13718 13719 13720 13721 13722 13723 13724 13725 13726 13727 13728 13729 13730 13731 13732 13733 13734 13735 13736 13737 13738 13739 13740 13741 13742 13743 13744 13745 13746 13747 13748 13749 13750 13751 13752 13753 13754 13755 13756 13757 13758 13759 13760 13761 13762 13763 13764 13765 13766 13767 13768 13769 13770 13771 13772 13773 13774 13775 13776 13777 13778 13779 13780 13781 13782 13783 13784 13785 13786 13787 13788 13789 13790 13791 13792 13793 13794 13795 13796 13797 13798 13799 13800 13801 13802 13803 13804 13805 13806 13807 13808 13809 13810 13811 13812 13813 13814 13815 13816 13817 13818 13819 13820 13821 13822 13823 13824 13825 13826 13827 13828 13829 13830 13831 13832 13833 13834 13835 13836 13837 13838 13839 13840 13841 13842 13843 13844 13845 13846 13847 13848 13849 13850 13851 13852 13853 13854 13855 13856 13857 13858 13859 13860 13861 13862 13863 13864 13865 13866 13867 13868 13869 13870 13871 13872 13873 13874 13875 13876 13877 13878 13879 13880 13881 13882 13883 13884 13885 13886 13887 13888 13889 13890 13891 13892 13893 13894 13895 13896 13897 13898 13899 13900 13901 13902 13903 13904 13905 13906 13907 13908 13909 13910 13911 13912 13913 13914 13915 13916 13917 13918 13919 13920 13921 13922 13923 13924 13925 13926 13927 13928 13929 13930 13931 13932 13933 13934 13935 13936 13937 13938 13939 13940 13941 13942 13943 13944 13945 13946 13947 13948 13949 13950 13951 13952 13953 13954 13955 13956 13957 13958 13959 13960 13961 13962 13963 13964 13965 13966 13967 13968 13969 13970 13971 13972 13973 13974 13975 13976 13977 13978 13979 13980 13981 13982 13983 13984 13985 13986 13987 13988 13989 13990 13991 13992 13993 13994 13995 13996 13997 13998 13999 14000 14001 14002 14003 14004 14005 14006 14007 14008 14009 14010 14011 14012 14013 14014 14015 14016 14017 14018 14019 14020 14021 14022 14023 14024 14025 14026 14027 14028 14029 14030 14031 14032 14033 14034 14035 14036 14037 14038 14039 14040 14041 14042 14043 14044 14045 14046 14047 14048 14049 14050 14051 14052 14053 14054 14055 14056 14057 14058 14059 14060 14061 14062 14063 14064 14065 14066 14067 14068 14069 14070 14071 14072 14073 14074 14075 14076 14077 14078 14079 14080 14081 14082 14083 14084 14085 14086 14087 14088 14089 14090 14091 14092 14093 14094 14095 14096 14097 14098 14099 14100 14101 14102 14103 14104 14105 14106 14107 14108 14109 14110 14111 14112 14113 14114 14115 14116 14117 14118 14119 14120 14121 14122 14123 14124 14125 14126 14127 14128 14129 14130 14131 14132 14133 14134 14135 14136 14137 14138 14139 14140 14141 14142 14143 14144 14145 14146 14147 14148 14149 14150 14151 14152 14153 14154 14155 14156 14157 14158 14159 14160 14161 14162 14163 14164 14165 14166 14167 14168 14169 14170 14171 14172 14173 14174 14175 14176 14177 14178 14179 14180 14181 14182 14183 14184 14185 14186 14187 14188 14189 14190 14191 14192 14193 14194 14195 14196 14197 14198 14199 14200 14201 14202 14203 14204 14205 14206 14207 14208 14209 14210 14211 14212 14213 14214 14215 14216 14217 14218 14219 14220 14221 14222 14223 14224 14225 14226 14227 14228 14229 14230 14231 14232 14233 14234 14235 14236 14237 14238 14239 14240 14241 14242 14243 14244 14245 14246 14247 14248 14249 14250 14251 14252 14253 14254 14255 14256 14257 14258 14259 14260 14261 14262 14263 14264 14265 14266 14267 14268 14269 14270 14271 14272 14273 14274 14275 14276 14277 14278 14279 14280 14281 14282 14283 14284 14285 14286 14287 14288 14289 14290 14291 14292 14293 14294 14295 14296 14297 14298 14299 14300 14301 14302 14303 14304 14305 14306 14307 14308 14309 14310 14311 14312 14313 14314 14315 14316 14317 14318 14319 14320 14321 14322 14323 14324 14325 14326 14327 14328 14329 14330 14331 14332 14333 14334 14335 14336 14337 14338 14339 14340 14341 14342 14343 14344 14345 14346 14347 14348 14349 14350 14351 14352 14353 14354 14355 14356 14357 14358 14359 14360 14361 14362 14363 14364 14365 14366 14367 14368 14369 14370 14371 14372 14373 14374 14375 14376 14377 14378 14379 14380 14381 14382 14383 14384 14385 14386 14387 14388 14389 14390 14391 14392 14393 14394 14395 14396 14397 14398 14399 14400 14401 14402 14403 14404 14405 14406 14407 14408 14409 14410 14411 14412 14413 14414 14415 14416 14417 14418 14419 14420 14421 14422 14423 14424 14425 14426 14427 14428 14429 14430 14431 14432 14433 14434 14435 14436 14437 14438 14439 14440 14441 14442 14443 14444 14445 14446 14447 14448 14449 14450 14451 14452 14453 14454 14455 14456 14457 14458 14459 14460 14461 14462 14463 14464 14465 14466 14467 14468 14469 14470 14471 14472 14473 14474 14475 14476 14477 14478 14479 14480 14481 14482 14483 14484 14485 14486 14487 14488 14489 14490 14491 14492 14493 14494 14495 14496 14497 14498 14499 14500 14501 14502 14503 14504 14505 14506 14507 14508 14509 14510 14511 14512 14513 14514 14515 14516 14517 14518 14519 14520 14521 14522 14523 14524 14525 14526 14527 14528 14529 14530 14531 14532 14533 14534 14535 14536 14537 14538 14539 14540 14541 14542 14543 14544 14545 14546 14547 14548 14549 14550 14551 14552 14553 14554 14555 14556 14557 14558 14559 14560 14561 14562 14563 14564 14565 14566 14567 14568 14569 14570 14571 14572 14573 14574 14575 14576 14577 14578 14579 14580 14581 14582 14583 14584 14585 14586 14587 14588 14589 14590 14591 14592 14593 14594 14595 14596 14597 14598 14599 14600 14601 14602 14603 14604 14605 14606 14607 14608 14609 14610 14611 14612 14613 14614 14615 14616 14617 14618 14619 14620 14621 14622 14623 14624 14625 14626 14627 14628 14629 14630 14631 14632 14633 14634 14635 14636 14637 14638 14639 14640 14641 14642 14643 14644 14645 14646 14647 14648 14649 14650 14651 14652 14653 14654 14655 14656 14657 14658 14659 14660 14661 14662 14663 14664 14665 14666 14667 14668 14669 14670 14671 14672 14673 14674 14675 14676 14677 14678 14679 14680 14681 14682 14683 14684 14685 14686 14687 14688 14689 14690 14691 14692 14693 14694 14695 14696 14697 14698 14699 14700 14701 14702 14703 14704 14705 14706 14707 14708 14709 14710 14711 14712 14713 14714 14715 14716 14717 14718 14719 14720 14721 14722 14723 14724 14725 14726 14727 14728 14729 14730 14731 14732 14733 14734 14735 14736 14737 14738 14739 14740 14741 14742 14743 14744 14745 14746 14747 14748 14749 14750 14751 14752 14753 14754 14755 14756 14757 14758 14759 14760 14761 14762 14763 14764 14765 14766 14767 14768 14769 14770 14771 14772 14773 14774 14775 14776 14777 14778 14779 14780 14781 14782 14783 14784 14785 14786 14787 14788 14789 14790 14791 14792 14793 14794 14795 14796 14797 14798 14799 14800 14801 14802 14803 14804 14805 14806 14807 14808 14809 14810 14811 14812 14813 14814 14815 14816 14817 14818 14819 14820 14821 14822 14823 14824 14825 14826 14827 14828 14829 14830 14831 14832 14833 14834 14835 14836 14837 14838 14839 14840 14841 14842 14843 14844 14845 14846 14847 14848 14849 14850 14851 14852 14853 14854 14855 14856 14857 14858 14859 14860 14861 14862 14863 14864 14865 14866 14867 14868 14869 14870 14871 14872 14873 14874 14875 14876 14877 14878 14879 14880 14881 14882 14883 14884 14885 14886 14887 14888 14889 14890 14891 14892 14893 14894 14895 14896 14897 14898 14899 14900 14901 14902 14903 14904 14905 14906 14907 14908 14909 14910 14911 14912 14913 14914 14915 14916 14917 14918 14919 14920 14921 14922 14923 14924 14925 14926 14927 14928 14929 14930 14931 14932 14933 14934 14935 14936 14937 14938 14939 14940 14941 14942 14943 14944 14945 14946 14947 14948 14949 14950 14951 14952 14953 14954 14955 14956 14957 14958 14959 14960 14961 14962 14963 14964 14965 14966 14967 14968 14969 14970 14971 14972 14973 14974 14975 14976 14977 14978 14979 14980 14981 14982 14983 14984 14985 14986 14987 14988 14989 14990 14991 14992 14993 14994 14995 14996 14997 14998 14999 15000 15001 15002 15003 15004 15005 15006 15007 15008 15009 15010 15011 15012 15013 15014 15015 15016 15017 15018 15019 15020 15021 15022 15023 15024 15025 15026 15027 15028 15029 15030 15031 15032 15033 15034 15035 15036 15037 15038 15039 15040 15041 15042 15043 15044 15045 15046 15047 15048 15049 15050 15051 15052 15053 15054 15055 15056 15057 15058 15059 15060 15061 15062 15063 15064 15065 15066 15067 15068 15069 15070 15071 15072 15073 15074 15075 15076 15077 15078 15079 15080 15081 15082 15083 15084 15085 15086 15087 15088 15089 15090 15091 15092 15093 15094 15095 15096 15097 15098 15099 15100 15101 15102 15103 15104 15105 15106 15107 15108 15109 15110 15111 15112 15113 15114 15115 15116 15117 15118 15119 15120 15121 15122 15123 15124 15125 15126 15127 15128 15129 15130 15131 15132 15133 15134 15135 15136 15137 15138 15139 15140 15141 15142 15143 15144 15145 15146 15147 15148 15149 15150 15151 15152 15153 15154 15155 15156 15157 15158 15159 15160 15161 15162 15163 15164 15165 15166 15167 15168 15169 15170 15171 15172 15173 15174 15175 15176 15177 15178 15179 15180 15181 15182 15183 15184 15185 15186 15187 15188 15189 15190 15191 15192 15193 15194 15195 15196 15197 15198 15199 15200 15201 15202 15203 15204 15205 15206 15207 15208 15209 15210 15211 15212 15213 15214 15215 15216 15217 15218 15219 15220 15221 15222 15223 15224 15225 15226 15227 15228 15229 15230 15231 15232 15233 15234 15235 15236 15237 15238 15239 15240 15241 15242 15243 15244 15245 15246 15247 15248 15249 15250 15251 15252 15253 15254 15255 15256 15257 15258 15259 15260 15261 15262 15263 15264 15265 15266 15267 15268 15269 15270 15271 15272 15273 15274 15275 15276 15277 15278 15279 15280 15281 15282 15283 15284 15285 15286 15287 15288 15289 15290 15291 15292 15293 15294 15295 15296 15297 15298 15299 15300 15301 15302 15303 15304 15305 15306 15307 15308 15309 15310 15311 15312 15313 15314 15315 15316 15317 15318 15319 15320 15321 15322 15323 15324 15325 15326 15327 15328 15329 15330 15331 15332 15333 15334 15335 15336 15337 15338 15339 15340 15341 15342 15343 15344 15345 15346 15347 15348 15349 15350 15351 15352 15353 15354 15355 15356 15357 15358 15359 15360 15361 15362 15363 15364 15365 15366 15367 15368 15369 15370 15371 15372 15373 15374 15375 15376 15377 15378 15379 15380 15381 15382 15383 15384 15385 15386 15387 15388 15389 15390 15391 15392 15393 15394 15395 15396 15397 15398 15399 15400 15401 15402 15403 15404 15405 15406 15407 15408 15409 15410 15411 15412 15413 15414 15415 15416 15417 15418 15419 15420 15421 15422 15423 15424 15425 15426 15427 15428 15429 15430 15431 15432 15433 15434 15435 15436 15437 15438 15439 15440 15441 15442 15443 15444 15445 15446 15447 15448 15449 15450 15451 15452 15453 15454 15455 15456 15457 15458 15459 15460 15461 15462 15463 15464 15465 15466 15467 15468 15469 15470 15471 15472 15473 15474 15475 15476 15477 15478 15479 15480 15481 15482 15483 15484 15485 15486 15487 15488 15489 15490 15491 15492 15493 15494 15495 15496 15497 15498 15499 15500 15501 15502 15503 15504 15505 15506 15507 15508 15509 15510 15511 15512 15513 15514 15515 15516 15517 15518 15519 15520 15521 15522 15523 15524 15525 15526 15527 15528 15529 15530 15531 15532 15533 15534 15535 15536 15537 15538 15539 15540 15541 15542 15543 15544 15545 15546 15547 15548 15549 15550 15551 15552 15553 15554 15555 15556 15557 15558 15559 15560 15561 15562 15563 15564 15565 15566 15567 15568 15569 15570 15571 15572 15573 15574 15575 15576 15577 15578 15579 15580 15581 15582 15583 15584 15585 15586 15587 15588 15589 15590 15591 15592 15593 15594 15595 15596 15597 15598 15599 15600 15601 15602 15603 15604 15605 15606 15607 15608 15609 15610 15611 15612 15613 15614 15615 15616 15617 15618 15619 15620 15621 15622 15623 15624 15625 15626 15627 15628 15629 15630 15631 15632 15633 15634 15635 15636 15637 15638 15639 15640 15641 15642 15643 15644 15645 15646 15647 15648 15649 15650 15651 15652 15653 15654 15655 15656 15657 15658 15659 15660 15661 15662 15663 15664 15665 15666 15667 15668 15669 15670 15671 15672 15673 15674 15675 15676 15677 15678 15679 15680 15681 15682 15683 15684 15685 15686 15687 15688 15689 15690 15691 15692 15693 15694 15695 15696 15697 15698 15699 15700 15701 15702 15703 15704 15705 15706 15707 15708 15709 15710 15711 15712 15713 15714 15715 15716 15717 15718 15719 15720 15721 15722 15723 15724 15725 15726 15727 15728 15729 15730 15731 15732 15733 15734 15735 15736 15737 15738 15739 15740 15741 15742 15743 15744 15745 15746 15747 15748 15749 15750 15751 15752 15753 15754 15755 15756 15757 15758 15759 15760 15761 15762 15763 15764 15765 15766 15767 15768 15769 15770 15771 15772 15773 15774 15775 15776 15777 15778 15779 15780 15781 15782 15783 15784 15785 15786 15787 15788 15789 15790 15791 15792 15793 15794 15795 15796 15797 15798 15799 15800 15801 15802 15803 15804 15805 15806 15807 15808 15809 15810 15811 15812 15813 15814 15815 15816 15817 15818 15819 15820 15821 15822 15823 15824 15825 15826 15827 15828 15829 15830 15831 15832 15833 15834 15835 15836 15837 15838 15839 15840 15841 15842 15843 15844 15845 15846 15847 15848 15849 15850 15851 15852 15853 15854 15855 15856 15857 15858 15859 15860 15861 15862 15863 15864 15865 15866 15867 15868 15869 15870 15871 15872 15873 15874 15875 15876 15877 15878 15879 15880 15881 15882 15883 15884 15885 15886 15887 15888 15889 15890 15891 15892 15893 15894 15895 15896 15897 15898 15899 15900 15901 15902 15903 15904 15905 15906 15907 15908 15909 15910 15911 15912 15913 15914 15915 15916 15917 15918 15919 15920 15921 15922 15923 15924 15925 15926 15927 15928 15929 15930 15931 15932 15933 15934 15935 15936 15937 15938 15939 15940 15941 15942 15943 15944 15945 15946 15947 15948 15949 15950 15951 15952 15953 15954 15955 15956 15957 15958 15959 15960 15961 15962 15963 15964 15965 15966 15967 15968 15969 15970 15971 15972 15973 15974 15975 15976 15977 15978 15979 15980 15981 15982 15983 15984 15985 15986 15987 15988 15989 15990 15991 15992 15993 15994 15995 15996 15997 15998 15999 16000 16001 16002 16003 16004 16005 16006 16007 16008 16009 16010 16011 16012 16013 16014 16015 16016 16017 16018 16019 16020 16021 16022 16023 16024 16025 16026 16027 16028 16029 16030 16031 16032 16033 16034 16035 16036 16037 16038 16039 16040 16041 16042 16043 16044 16045 16046 16047 16048 16049 16050 16051 16052 16053 16054 16055 16056 16057 16058 16059 16060 16061 16062 16063 16064 16065 16066 16067 16068 16069 16070 16071 16072 16073 16074 16075 16076 16077 16078 16079 16080 16081 16082 16083 16084 16085 16086 16087 16088 16089 16090 16091 16092 16093 16094 16095 16096 16097 16098 16099 16100 16101 16102 16103 16104 16105 16106 16107 16108 16109 16110 16111 16112 16113 16114 16115 16116 16117 16118 16119 16120 16121 16122 16123 16124 16125 16126 16127 16128 16129 16130 16131 16132 16133 16134 16135 16136 16137 16138 16139 16140 16141 16142 16143 16144 16145 16146 16147 16148 16149 16150 16151 16152 16153 16154 16155 16156 16157 16158 16159 16160 16161 16162 16163 16164 16165 16166 16167 16168 16169 16170 16171 16172 16173 16174 16175 16176 16177 16178 16179 16180 16181 16182 16183 16184 16185 16186 16187 16188 16189 16190 16191 16192 16193 16194 16195 16196 16197 16198 16199 16200 16201 16202 16203 16204 16205 16206 16207 16208 16209 16210 16211 16212 16213 16214 16215 16216 16217 16218 16219 16220 16221 16222 16223 16224 16225 16226 16227 16228 16229 16230 16231 16232 16233 16234 16235 16236 16237 16238 16239 16240 16241 16242 16243 16244 16245 16246 16247 16248 16249 16250 16251 16252 16253 16254 16255 16256 16257 16258 16259 16260 16261 16262 16263 16264 16265 16266 16267 16268 16269 16270 16271 16272 16273 16274 16275 16276 16277 16278 16279 16280 16281 16282 16283 16284 16285 16286 16287 16288 16289 16290 16291 16292 16293 16294 16295 16296 16297 16298 16299 16300 16301 16302 16303 16304 16305 16306 16307 16308 16309 16310 16311 16312 16313 16314 16315 16316 16317 16318 16319 16320 16321 16322 16323 16324 16325 16326 16327 16328 16329 16330 16331 16332 16333 16334 16335 16336 16337 16338 16339 16340 16341 16342 16343 16344 16345 16346 16347 16348 16349 16350 16351 16352 16353 16354 16355 16356 16357 16358 16359 16360 16361 16362 16363 16364 16365 16366 16367 16368 16369 16370 16371 16372 16373 16374 16375 16376 16377 16378 16379 16380 16381 16382 16383 16384 16385 16386 16387 16388 16389 16390 16391 16392 16393 16394 16395 16396 16397 16398 16399 16400 16401 16402 16403 16404 16405 16406 16407 16408 16409 16410 16411 16412 16413 16414 16415 16416 16417 16418 16419 16420 16421 16422 16423 16424 16425 16426 16427 16428 16429 16430 16431 16432 16433 16434 16435 16436 16437 16438 16439 16440 16441 16442 16443 16444 16445 16446 16447 16448 16449 16450 16451 16452 16453 16454 16455 16456 16457 16458 16459 16460 16461 16462 16463 16464 16465 16466 16467 16468 16469 16470 16471 16472 16473 16474 16475 16476 16477 16478 16479 16480 16481 16482 16483 16484 16485 16486 16487 16488 16489 16490 16491 16492 16493 16494 16495 16496 16497 16498 16499 16500 16501 16502 16503 16504 16505 16506 16507 16508 16509 16510 16511 16512 16513 16514 16515 16516 16517 16518 16519 16520 16521 16522 16523 16524 16525 16526 16527 16528 16529 16530 16531 16532 16533 16534 16535 16536 16537 16538 16539 16540 16541 16542 16543 16544 16545 16546 16547 16548 16549 16550 16551 16552 16553 16554 16555 16556 16557 16558 16559 16560 16561 16562 16563 16564 16565 16566 16567 16568 16569 16570 16571 16572 16573 16574 16575 16576 16577 16578 16579 16580 16581 16582 16583 16584 16585 16586 16587 16588 16589 16590 16591 16592 16593 16594 16595 16596 16597 16598 16599 16600 16601 16602 16603 16604 16605 16606 16607 16608 16609 16610 16611 16612 16613 16614 16615 16616 16617 16618 16619 16620 16621 16622 16623 16624 16625 16626 16627 16628 16629 16630 16631 16632 16633 16634 16635 16636 16637 16638 16639 16640 16641 16642 16643 16644 16645 16646 16647 16648 16649 16650 16651 16652 16653 16654 16655 16656 16657 16658 16659 16660 16661 16662 16663 16664 16665 16666 16667 16668 16669 16670 16671 16672 16673 16674 16675 16676 16677 16678 16679 16680 16681 16682 16683 16684 16685 16686 16687 16688 16689 16690 16691 16692 16693 16694 16695 16696 16697 16698 16699 16700 16701 16702 16703 16704 16705 16706 16707 16708 16709 16710 16711 16712 16713 16714 16715 16716 16717 16718 16719 16720 16721 16722 16723 16724 16725 16726 16727 16728 16729 16730 16731 16732 16733 16734 16735 16736 16737 16738 16739 16740 16741 16742 16743 16744 16745 16746 16747 16748 16749 16750 16751 16752 16753 16754 16755 16756 16757 16758 16759 16760 16761 16762 16763 16764 16765 16766 16767 16768 16769 16770 16771 16772 16773 16774 16775 16776 16777 16778 16779 16780 16781 16782 16783 16784 16785 16786 16787 16788 16789 16790 16791 16792 16793 16794 16795 16796 16797 16798 16799 16800 16801 16802 16803 16804 16805 16806 16807 16808 16809 16810 16811 16812 16813 16814 16815 16816 16817 16818 16819 16820 16821 16822 16823 16824 16825 16826 16827 16828 16829 16830 16831 16832 16833 16834 16835 16836 16837 16838 16839 16840 16841 16842 16843 16844 16845 16846 16847 16848 16849 16850 16851 16852 16853 16854 16855 16856 16857 16858 16859 16860 16861 16862 16863 16864 16865 16866 16867 16868 16869 16870 16871 16872 16873 16874 16875 16876 16877 16878 16879 16880 16881 16882 16883 16884 16885 16886 16887 16888 16889 16890 16891 16892 16893 16894 16895 16896 16897 16898 16899 16900 16901 16902 16903 16904 16905 16906 16907 16908 16909 16910 16911 16912 16913 16914 16915 16916 16917 16918 16919 16920 16921 16922 16923 16924 16925 16926 16927 16928 16929 16930 16931 16932 16933 16934 16935 16936 16937 16938 16939 16940 16941 16942 16943 16944 16945 16946 16947 16948 16949 16950 16951 16952 16953 16954 16955 16956 16957 16958 16959 16960 16961 16962 16963 16964 16965 16966 16967 16968 16969 16970 16971 16972 16973 16974 16975 16976 16977 16978 16979 16980 16981 16982 16983 16984 16985 16986 16987 16988 16989 16990 16991 16992 16993 16994 16995 16996 16997 16998 16999 17000 17001 17002 17003 17004 17005 17006 17007 17008 17009 17010 17011 17012 17013 17014 17015 17016 17017 17018 17019 17020 17021 17022 17023 17024 17025 17026 17027 17028 17029 17030 17031 17032 17033 17034 17035 17036 17037 17038 17039 17040 17041 17042 17043 17044 17045 17046 17047 17048 17049 17050 17051 17052 17053 17054 17055 17056 17057 17058 17059 17060 17061 17062 17063 17064 17065 17066 17067 17068 17069 17070 17071 17072 17073 17074 17075 17076 17077 17078 17079 17080 17081 17082 17083 17084 17085 17086 17087 17088 17089 17090 17091 17092 17093 17094 17095 17096 17097 17098 17099 17100 17101 17102 17103 17104 17105 17106 17107 17108 17109 17110 17111 17112 17113 17114 17115 17116 17117 17118 17119 17120 17121 17122 17123 17124 17125 17126 17127 17128 17129 17130 17131 17132 17133 17134 17135 17136 17137 17138 17139 17140 17141 17142 17143 17144 17145 17146 17147 17148 17149 17150 17151 17152 17153 17154 17155 17156 17157 17158 17159 17160 17161 17162 17163 17164 17165 17166 17167 17168 17169 17170 17171 17172 17173 17174 17175 17176 17177 17178 17179 17180 17181 17182 17183 17184 17185 17186 17187 17188 17189 17190 17191 17192 17193 17194 17195 17196 17197 17198 17199 17200 17201 17202 17203 17204 17205 17206 17207 17208 17209 17210 17211 17212 17213 17214 17215 17216 17217 17218 17219 17220 17221 17222 17223 17224 17225 17226 17227 17228 17229 17230 17231 17232 17233 17234 17235 17236 17237 17238 17239 17240 17241 17242 17243 17244 17245 17246 17247 17248 17249 17250 17251 17252 17253 17254 17255 17256 17257 17258 17259 17260 17261 17262 17263 17264 17265 17266 17267 17268 17269 17270 17271 17272 17273 17274 17275 17276 17277 17278 17279 17280 17281 17282 17283 17284 17285 17286 17287 17288 17289 17290 17291 17292 17293 17294 17295 17296 17297 17298 17299 17300 17301 17302 17303 17304 17305 17306 17307 17308 17309 17310 17311 17312 17313 17314 17315 17316 17317 17318 17319 17320 17321 17322 17323 17324 17325 17326 17327 17328 17329 17330 17331 17332 17333 17334 17335 17336 17337 17338 17339 17340 17341 17342 17343 17344 17345 17346 17347 17348 17349 17350 17351 17352 17353 17354 17355 17356 17357 17358 17359 17360 17361 17362 17363 17364 17365 17366 17367 17368 17369 17370 17371 17372 17373 17374 17375 17376 17377 17378 17379 17380 17381 17382 17383 17384 17385 17386 17387 17388 17389 17390 17391 17392 17393 17394 17395 17396 17397 17398 17399 17400 17401 17402 17403 17404 17405 17406 17407 17408 17409 17410 17411 17412 17413 17414 17415 17416 17417 17418 17419 17420 17421 17422 17423 17424 17425 17426 17427 17428 17429 17430 17431 17432 17433 17434 17435 17436 17437 17438 17439 17440 17441 17442 17443 17444 17445 17446 17447 17448 17449 17450 17451 17452 17453 17454 17455 17456 17457 17458 17459 17460 17461 17462 17463 17464 17465 17466 17467 17468 17469 17470 17471 17472 17473 17474 17475 17476 17477 17478 17479 17480 17481 17482 17483 17484 17485 17486 17487 17488 17489 17490 17491 17492 17493 17494 17495 17496 17497 17498 17499 17500 17501 17502 17503 17504 17505 17506 17507 17508 17509 17510 17511 17512 17513 17514 17515 17516 17517 17518 17519 17520 17521 17522 17523 17524 17525 17526 17527 17528 17529 17530 17531 17532 17533 17534 17535 17536 17537 17538 17539 17540 17541 17542 17543 17544 17545 17546 17547 17548 17549 17550 17551 17552 17553 17554 17555 17556 17557 17558 17559 17560 17561 17562 17563 17564 17565 17566 17567 17568 17569 17570 17571 17572 17573 17574 17575 17576 17577 17578 17579 17580 17581 17582 17583 17584 17585 17586 17587 17588 17589 17590 17591 17592 17593 17594 17595 17596 17597 17598 17599 17600 17601 17602 17603 17604 17605 17606 17607 17608 17609 17610 17611 17612 17613 17614 17615 17616 17617 17618 17619 17620 17621 17622 17623 17624 17625 17626 17627 17628 17629 17630 17631 17632 17633 17634 17635 17636 17637 17638 17639 17640 17641 17642 17643 17644 17645 17646 17647 17648 17649 17650 17651 17652 17653 17654 17655 17656 17657 17658 17659 17660 17661 17662 17663 17664 17665 17666 17667 17668 17669 17670 17671 17672 17673 17674 17675 17676 17677 17678 17679 17680 17681 17682 17683 17684 17685 17686 17687 17688 17689 17690 17691 17692 17693 17694 17695 17696 17697 17698 17699 17700 17701 17702 17703 17704 17705 17706 17707 17708 17709 17710 17711 17712 17713 17714 17715 17716 17717 17718 17719 17720 17721 17722 17723 17724 17725 17726 17727 17728 17729 17730 17731 17732 17733 17734 17735 17736 17737 17738 17739 17740 17741 17742 17743 17744 17745 17746 17747 17748 17749 17750 17751 17752 17753 17754 17755 17756 17757 17758 17759 17760 17761 17762 17763 17764 17765 17766 17767 17768 17769 17770 17771 17772 17773 17774 17775 17776 17777 17778 17779 17780 17781 17782 17783 17784 17785 17786 17787 17788 17789 17790 17791 17792 17793 17794 17795 17796 17797 17798 17799 17800 17801 17802 17803 17804 17805 17806 17807 17808 17809 17810 17811 17812 17813 17814 17815 17816 17817 17818 17819 17820 17821 17822 17823 17824 17825 17826 17827 17828 17829 17830 17831 17832 17833 17834 17835 17836 17837 17838 17839 17840 17841 17842 17843 17844 17845 17846 17847 17848 17849 17850 17851 17852 17853 17854 17855 17856 17857 17858 17859 17860 17861 17862 17863 17864 17865 17866 17867 17868 17869 17870 17871 17872 17873 17874 17875 17876 17877 17878 17879 17880 17881 17882 17883 17884 17885 17886 17887 17888 17889 17890 17891 17892 17893 17894 17895 17896 17897 17898 17899 17900 17901 17902 17903 17904 17905 17906 17907 17908 17909 17910 17911 17912 17913 17914 17915 17916 17917 17918 17919 17920 17921 17922 17923 17924 17925 17926 17927 17928 17929 17930 17931 17932 17933 17934 17935 17936 17937 17938 17939 17940 17941 17942 17943 17944 17945 17946 17947 17948 17949 17950 17951 17952 17953 17954 17955 17956 17957 17958 17959 17960 17961 17962 17963 17964 17965 17966 17967 17968 17969 17970 17971 17972 17973 17974 17975 17976 17977 17978 17979 17980 17981 17982 17983 17984 17985 17986 17987 17988 17989 17990 17991 17992 17993 17994 17995 17996 17997 17998 17999 18000 18001 18002 18003 18004 18005 18006 18007 18008 18009 18010 18011 18012 18013 18014 18015 18016 18017 18018 18019 18020 18021 18022 18023 18024 18025 18026 18027 18028 18029 18030 18031 18032 18033 18034 18035 18036 18037 18038 18039 18040 18041 18042 18043 18044 18045 18046 18047 18048 18049 18050 18051 18052 18053 18054 18055 18056 18057 18058 18059 18060 18061 18062 18063 18064 18065 18066 18067 18068 18069 18070 18071 18072 18073 18074 18075 18076 18077 18078 18079 18080 18081 18082 18083 18084 18085 18086 18087 18088 18089 18090 18091 18092 18093 18094 18095 18096 18097 18098 18099 18100 18101 18102 18103 18104 18105 18106 18107 18108 18109 18110 18111 18112 18113 18114 18115 18116 18117 18118 18119 18120 18121 18122 18123 18124 18125 18126 18127 18128 18129 18130 18131 18132 18133 18134 18135 18136 18137 18138 18139 18140 18141 18142 18143 18144 18145 18146 18147 18148 18149 18150 18151 18152 18153 18154 18155 18156 18157 18158 18159 18160 18161 18162 18163 18164 18165 18166 18167 18168 18169 18170 18171 18172 18173 18174 18175 18176 18177 18178 18179 18180 18181 18182 18183 18184 18185 18186 18187 18188 18189 18190 18191 18192 18193 18194 18195 18196 18197 18198 18199 18200 18201 18202 18203 18204 18205 18206 18207 18208 18209 18210 18211 18212 18213 18214 18215 18216 18217 18218 18219 18220 18221 18222 18223 18224 18225 18226 18227 18228 18229 18230 18231 18232 18233 18234 18235 18236 18237 18238 18239 18240 18241 18242 18243 18244 18245 18246 18247 18248 18249 18250 18251 18252 18253 18254 18255 18256 18257 18258 18259 18260 18261 18262 18263 18264 18265 18266 18267 18268 18269 18270 18271 18272 18273 18274 18275 18276 18277 18278 18279 18280 18281 18282 18283 18284 18285 18286 18287 18288 18289 18290 18291 18292 18293 18294 18295 18296 18297 18298 18299 18300 18301 18302 18303 18304 18305 18306 18307 18308 18309 18310 18311 18312 18313 18314 18315 18316 18317 18318 18319 18320 18321 18322 18323 18324 18325 18326 18327 18328 18329 18330 18331 18332 18333 18334 18335 18336 18337 18338 18339 18340 18341 18342 18343 18344 18345 18346 18347 18348 18349 18350 18351 18352 18353 18354 18355 18356 18357 18358 18359 18360 18361 18362 18363 18364 18365 18366 18367 18368 18369 18370 18371 18372 18373 18374 18375 18376 18377 18378 18379 18380 18381 18382 18383 18384 18385 18386 18387 18388 18389 18390 18391 18392 18393 18394 18395 18396 18397 18398 18399 18400 18401 18402 18403 18404 18405 18406 18407 18408 18409 18410 18411 18412 18413 18414 18415 18416 18417 18418 18419 18420 18421 18422 18423 18424 18425 18426 18427 18428 18429 18430 18431 18432 18433 18434 18435 18436 18437 18438 18439 18440 18441 18442 18443 18444 18445 18446 18447 18448 18449 18450 18451 18452 18453 18454 18455 18456 18457 18458 18459 18460 18461 18462 18463 18464 18465 18466 18467 18468 18469 18470 18471 18472 18473 18474 18475 18476 18477 18478 18479 18480 18481 18482 18483 18484 18485 18486 18487 18488 18489 18490 18491 18492 18493 18494 18495 18496 18497 18498 18499 18500 18501 18502 18503 18504 18505 18506 18507 18508 18509 18510 18511 18512 18513 18514 18515 18516 18517 18518 18519 18520 18521 18522 18523 18524 18525 18526 18527 18528 18529 18530 18531 18532 18533 18534 18535 18536 18537 18538 18539 18540 18541 18542 18543 18544 18545 18546 18547 18548 18549 18550 18551 18552 18553 18554 18555 18556 18557 18558 18559 18560 18561 18562 18563 18564 18565 18566 18567 18568 18569 18570 18571 18572 18573 18574 18575 18576 18577 18578 18579 18580 18581 18582 18583 18584 18585 18586 18587 18588 18589 18590 18591 18592 18593 18594 18595 18596 18597 18598 18599 18600 18601 18602 18603 18604 18605 18606 18607 18608 18609 18610 18611 18612 18613 18614 18615 18616 18617 18618 18619 18620 18621 18622 18623 18624 18625 18626 18627 18628 18629 18630 18631 18632 18633 18634 18635 18636 18637 18638 18639 18640 18641 18642 18643 18644 18645 18646 18647 18648 18649 18650 18651 18652 18653 18654 18655 18656 18657 18658 18659 18660 18661 18662 18663 18664 18665 18666 18667 18668 18669 18670 18671 18672 18673 18674 18675 18676 18677 18678 18679 18680 18681 18682 18683 18684 18685 18686 18687 18688 18689 18690 18691 18692 18693 18694 18695 18696 18697 18698 18699 18700 18701 18702 18703 18704 18705 18706 18707 18708 18709 18710 18711 18712 18713 18714 18715 18716 18717 18718 18719 18720 18721 18722 18723 18724 18725 18726 18727 18728 18729 18730 18731 18732 18733 18734 18735 18736 18737 18738 18739 18740 18741 18742 18743 18744 18745 18746 18747 18748 18749 18750 18751 18752 18753 18754 18755 18756 18757 18758 18759 18760 18761 18762 18763 18764 18765 18766 18767 18768 18769 18770 18771 18772 18773 18774 18775 18776 18777 18778 18779 18780 18781 18782 18783 18784 18785 18786 18787 18788 18789 18790 18791 18792 18793 18794 18795 18796 18797 18798 18799 18800 18801 18802 18803 18804 18805 18806 18807 18808 18809 18810 18811 18812 18813 18814 18815 18816 18817 18818 18819 18820 18821 18822 18823 18824 18825 18826 18827 18828 18829 18830 18831 18832 18833 18834 18835 18836 18837 18838 18839 18840 18841 18842 18843 18844 18845 18846 18847 18848 18849 18850 18851 18852 18853 18854 18855 18856 18857 18858 18859 18860 18861 18862 18863 18864 18865 18866 18867 18868 18869 18870 18871 18872 18873 18874 18875 18876 18877 18878 18879 18880 18881 18882 18883 18884 18885 18886 18887 18888 18889 18890 18891 18892 18893 18894 18895 18896 18897 18898 18899 18900 18901 18902 18903 18904 18905 18906 18907 18908 18909 18910 18911 18912 18913 18914 18915 18916 18917 18918 18919 18920 18921 18922 18923 18924 18925 18926 18927 18928 18929 18930 18931 18932 18933 18934 18935 18936 18937 18938 18939 18940 18941 18942 18943 18944 18945 18946 18947 18948 18949 18950 18951 18952 18953 18954 18955 18956 18957 18958 18959 18960 18961 18962 18963 18964 18965 18966 18967 18968 18969 18970 18971 18972 18973 18974 18975 18976 18977 18978 18979 18980 18981 18982 18983 18984 18985 18986 18987 18988 18989 18990 18991 18992 18993 18994 18995 18996 18997 18998 18999 19000 19001 19002 19003 19004 19005 19006 19007 19008 19009 19010 19011 19012 19013 19014 19015 19016 19017 19018 19019 19020 19021 19022 19023 19024 19025 19026 19027 19028 19029 19030 19031 19032 19033 19034 19035 19036 19037 19038 19039 19040 19041 19042 19043 19044 19045 19046 19047 19048 19049 19050 19051 19052 19053 19054 19055 19056 19057 19058 19059 19060 19061 19062 19063 19064 19065 19066 19067 19068 19069 19070 19071 19072 19073 19074 19075 19076 19077 19078 19079 19080 19081 19082 19083 19084 19085 19086 19087 19088 19089 19090 19091 19092 19093 19094 19095 19096 19097 19098 19099 19100 19101 19102 19103 19104 19105 19106 19107 19108 19109 19110 19111 19112 19113 19114 19115 19116 19117 19118 19119 19120 19121 19122 19123 19124 19125 19126 19127 19128 19129 19130 19131 19132 19133 19134 19135 19136 19137 19138 19139 19140 19141 19142 19143 19144 19145 19146 19147 19148 19149 19150 19151 19152 19153 19154 19155 19156 19157 19158 19159 19160 19161 19162 19163 19164 19165 19166 19167 19168 19169 19170 19171 19172 19173 19174 19175 19176 19177 19178 19179 19180 19181 19182 19183 19184 19185 19186 19187 19188 19189 19190 19191 19192 19193 19194 19195 19196 19197 19198 19199 19200 19201 19202 19203 19204 19205 19206 19207 19208 19209 19210 19211 19212 19213 19214 19215 19216 19217 19218 19219 19220 19221 19222 19223 19224 19225 19226 19227 19228 19229 19230 19231 19232 19233 19234 19235 19236 19237 19238 19239 19240 19241 19242 19243 19244 19245 19246 19247 19248 19249 19250 19251 19252 19253 19254 19255 19256 19257 19258 19259 19260 19261 19262 19263 19264 19265 19266 19267 19268 19269 19270 19271 19272 19273 19274 19275 19276 19277 19278 19279 19280 19281 19282 19283 19284 19285 19286 19287 19288 19289 19290 19291 19292 19293 19294 19295 19296 19297 19298 19299 19300 19301 19302 19303 19304 19305 19306 19307 19308 19309 19310 19311 19312 19313 19314 19315 19316 19317 19318 19319 19320 19321 19322 19323 19324 19325 19326 19327 19328 19329 19330 19331 19332 19333 19334 19335 19336 19337 19338 19339 19340 19341 19342 19343 19344 19345 19346 19347 19348 19349 19350 19351 19352 19353 19354 19355 19356 19357 19358 19359 19360 19361 19362 19363 19364 19365 19366 19367 19368 19369 19370 19371 19372 19373 19374 19375 19376 19377 19378 19379 19380 19381 19382 19383 19384 19385 19386 19387 19388 19389 19390 19391 19392 19393 19394 19395 19396 19397 19398 19399 19400 19401 19402 19403 19404 19405 19406 19407 19408 19409 19410 19411 19412 19413 19414 19415 19416 19417 19418 19419 19420 19421 19422 19423 19424 19425 19426 19427 19428 19429 19430 19431 19432 19433 19434 19435 19436 19437 19438 19439 19440 19441 19442 19443 19444 19445 19446 19447 19448 19449 19450 19451 19452 19453 19454 19455 19456 19457 19458 19459 19460 19461 19462 19463 19464 19465 19466 19467 19468 19469 19470 19471 19472 19473 19474 19475 19476 19477 19478 19479 19480 19481 19482 19483 19484 19485 19486 19487 19488 19489 19490 19491 19492 19493 19494 19495 19496 19497 19498 19499 19500 19501 19502 19503 19504 19505 19506 19507 19508 19509 19510 19511 19512 19513 19514 19515 19516 19517 19518 19519 19520 19521 19522 19523 19524 19525 19526 19527 19528 19529 19530 19531 19532 19533 19534 19535 19536 19537 19538 19539 19540 19541 19542 19543 19544 19545 19546 19547 19548 19549 19550 19551 19552 19553 19554 19555 19556 19557 19558 19559 19560 19561 19562 19563 19564 19565 19566 19567 19568 19569 19570 19571 19572 19573 19574 19575 19576 19577 19578 19579 19580 19581 19582 19583 19584 19585 19586 19587 19588 19589 19590 19591 19592 19593 19594 19595 19596 19597 19598 19599 19600 19601 19602 19603 19604 19605 19606 19607 19608 19609 19610 19611 19612 19613 19614 19615 19616 19617 19618 19619 19620 19621 19622 19623 19624 19625 19626 19627 19628 19629 19630 19631 19632 19633 19634 19635 19636 19637 19638 19639 19640 19641 19642 19643 19644 19645 19646 19647 19648 19649 19650 19651 19652 19653 19654 19655 19656 19657 19658 19659 19660 19661 19662 19663 19664 19665 19666 19667 19668 19669 19670 19671 19672 19673 19674 19675 19676 19677 19678 19679 19680 19681 19682 19683 19684 19685 19686 19687 19688 19689 19690 19691 19692 19693 19694 19695 19696 19697 19698 19699 19700 19701 19702 19703 19704 19705 19706 19707 19708 19709 19710 19711 19712 19713 19714 19715 19716 19717 19718 19719 19720 19721 19722 19723 19724 19725 19726 19727 19728 19729 19730 19731 19732 19733 19734 19735 19736 19737 19738 19739 19740 19741 19742 19743 19744 19745 19746 19747 19748 19749 19750 19751 19752 19753 19754 19755 19756 19757 19758 19759 19760 19761 19762 19763 19764 19765 19766 19767 19768 19769 19770 19771 19772 19773 19774 19775 19776 19777 19778 19779 19780 19781 19782 19783 19784 19785 19786 19787 19788 19789 19790 19791 19792 19793 19794 19795 19796 19797 19798 19799 19800 19801 19802 19803 19804 19805 19806 19807 19808 19809 19810 19811 19812 19813 19814 19815 19816 19817 19818 19819 19820 19821 19822 19823 19824 19825 19826 19827 19828 19829 19830 19831 19832 19833 19834 19835 19836 19837 19838 19839 19840 19841 19842 19843 19844 19845 19846 19847 19848 19849 19850 19851 19852 19853 19854 19855 19856 19857 19858 19859 19860 19861 19862 19863 19864 19865 19866 19867 19868 19869 19870 19871 19872 19873 19874 19875 19876 19877 19878 19879 19880 19881 19882 19883 19884 19885 19886 19887 19888 19889 19890 19891 19892 19893 19894 19895 19896 19897 19898 19899 19900 19901 19902 19903 19904 19905 19906 19907 19908 19909 19910 19911 19912 19913 19914 19915 19916 19917 19918 19919 19920 19921 19922 19923 19924 19925 19926 19927 19928 19929 19930 19931 19932 19933 19934 19935 19936 19937 19938 19939 19940 19941 19942 19943 19944 19945 19946 19947 19948 19949 19950 19951 19952 19953 19954 19955 19956 19957 19958 19959 19960 19961 19962 19963 19964 19965 19966 19967 19968 19969 19970 19971 19972 19973 19974 19975 19976 19977 19978 19979 19980 19981 19982 19983 19984 19985 19986 19987 19988 19989 19990 19991 19992 19993 19994 19995 19996 19997 19998 19999 20000 20001 20002 20003 20004 20005 20006 20007 20008 20009 20010 20011 20012 20013 20014 20015 20016 20017 20018 20019 20020 20021 20022 20023 20024 20025 20026 20027 20028 20029 20030 20031 20032 20033 20034 20035 20036 20037 20038 20039 20040 20041 20042 20043 20044 20045 20046 20047 20048 20049 20050 20051 20052 20053 20054 20055 20056 20057 20058 20059 20060 20061 20062 20063 20064 20065 20066 20067 20068 20069 20070 20071 20072 20073 20074 20075 20076 20077 20078 20079 20080 20081 20082 20083 20084 20085 20086 20087 20088 20089 20090 20091 20092 20093 20094 20095 20096 20097 20098 20099 20100 20101 20102 20103 20104 20105 20106 20107 20108 20109 20110 20111 20112 20113 20114 20115 20116 20117 20118 20119 20120 20121 20122 20123 20124 20125 20126 20127 20128 20129 20130 20131 20132 20133 20134 20135 20136 20137 20138 20139 20140 20141 20142 20143 20144 20145 20146 20147 20148 20149 20150 20151 20152 20153 20154 20155 20156 20157 20158 20159 20160 20161 20162 20163 20164 20165 20166 20167 20168 20169 20170 20171 20172 20173 20174 20175 20176 20177 20178 20179 20180 20181 20182 20183 20184 20185 20186 20187 20188 20189 20190 20191 20192 20193 20194 20195 20196 20197 20198 20199 20200 20201 20202 20203 20204 20205 20206 20207 20208 20209 20210 20211 20212 20213 20214 20215 20216 20217 20218 20219 20220 20221 20222 20223 20224 20225 20226 20227 20228 20229 20230 20231 20232 20233 20234 20235 20236 20237 20238 20239 20240 20241 20242 20243 20244 20245 20246 20247 20248 20249 20250 20251 20252 20253 20254 20255 20256 20257 20258 20259 20260 20261 20262 20263 20264 20265 20266 20267 20268 20269 20270 20271 20272 20273 20274 20275 20276 20277 20278 20279 20280 20281 20282 20283 20284 20285 20286 20287 20288 20289 20290 20291 20292 20293 20294 20295 20296 20297 20298 20299 20300 20301 20302 20303 20304 20305 20306 20307 20308 20309 20310 20311 20312 20313 20314 20315 20316 20317 20318 20319 20320 20321 20322 20323 20324 20325 20326 20327 20328 20329 20330 20331 20332 20333 20334 20335 20336 20337 20338 20339 20340 20341 20342 20343 20344 20345 20346 20347 20348 20349 20350 20351 20352 20353 20354 20355 20356 20357 20358 20359 20360 20361 20362 20363 20364 20365 20366 20367 20368 20369 20370 20371 20372 20373 20374 20375 20376 20377 20378 20379 20380 20381 20382 20383 20384 20385 20386 20387 20388 20389 20390 20391 20392 20393 20394 20395 20396 20397 20398 20399 20400 20401 20402 20403 20404 20405 20406 20407 20408 20409 20410 20411 20412 20413 20414 20415 20416 20417 20418 20419 20420 20421 20422 20423 20424 20425 20426 20427 20428 20429 20430 20431 20432 20433 20434 20435 20436 20437 20438 20439 20440 20441 20442 20443 20444 20445 20446 20447 20448 20449 20450 20451 20452 20453 20454 20455 20456 20457 20458 20459 20460 20461 20462 20463 20464 20465 20466 20467 20468 20469 20470 20471 20472 20473 20474 20475 20476 20477 20478 20479 20480 20481 20482 20483 20484 20485 20486 20487 20488 20489 20490 20491 20492 20493 20494 20495 20496 20497 20498 20499 20500 20501 20502 20503 20504 20505 20506 20507 20508 20509 20510 20511 20512 20513 20514 20515 20516 20517 20518 20519 20520 20521 20522 20523 20524 20525 20526 20527 20528 20529 20530 20531 20532 20533 20534 20535 20536 20537 20538 20539 20540 20541 20542 20543 20544 20545 20546 20547 20548 20549 20550 20551 20552 20553 20554 20555 20556 20557 20558 20559 20560 20561 20562 20563 20564 20565 20566 20567 20568 20569 20570 20571 20572 20573 20574 20575 20576 20577 20578 20579 20580 20581 20582 20583 20584 20585 20586 20587 20588 20589 20590 20591 20592 20593 20594 20595 20596 20597 20598 20599 20600 20601 20602 20603 20604 20605 20606 20607 20608 20609 20610 20611 20612 20613 20614 20615 20616 20617 20618 20619 20620 20621 20622 20623 20624 20625 20626 20627 20628 20629 20630 20631 20632 20633 20634 20635 20636 20637 20638 20639 20640 20641 20642 20643 20644 20645 20646 20647 20648 20649 20650 20651 20652 20653 20654 20655 20656 20657 20658 20659 20660 20661 20662 20663 20664 20665 20666 20667 20668 20669 20670 20671 20672 20673 20674 20675 20676 20677 20678 20679 20680 20681 20682 20683 20684 20685 20686 20687 20688 20689 20690 20691 20692 20693 20694 20695 20696 20697 20698 20699 20700 20701 20702 20703 20704 20705 20706 20707 20708 20709 20710 20711 20712 20713 20714 20715 20716 20717 20718 20719 20720 20721 20722 20723 20724 20725 20726 20727 20728 20729 20730 20731 20732 20733 20734 20735 20736 20737 20738 20739 20740 20741 20742 20743 20744 20745 20746 20747 20748 20749 20750 20751 20752 20753 20754 20755 20756 20757 20758 20759 20760 20761 20762 20763 20764 20765 20766 20767 20768 20769 20770 20771 20772 20773 20774 20775 20776 20777 20778 20779 20780 20781 20782 20783 20784 20785 20786 20787 20788 20789 20790 20791 20792 20793 20794 20795 20796 20797 20798 20799 20800 20801 20802 20803 20804 20805 20806 20807 20808 20809 20810 20811 20812 20813 20814 20815 20816 20817 20818 20819 20820 20821 20822 20823 20824 20825 20826 20827 20828 20829 20830 20831 20832 20833 20834 20835 20836 20837 20838 20839 20840 20841 20842 20843 20844 20845 20846 20847 20848 20849 20850 20851 20852 20853 20854 20855 20856 20857 20858 20859 20860 20861 20862 20863 20864 20865 20866 20867 20868 20869 20870 20871 20872 20873 20874 20875 20876 20877 20878 20879 20880 20881 20882 20883 20884 20885 20886 20887 20888 20889 20890 20891 20892 20893 20894 20895 20896 20897 20898 20899 20900 20901 20902 20903 20904 20905 20906 20907 20908 20909 20910 20911 20912 20913 20914 20915 20916 20917 20918 20919 20920 20921 20922 20923 20924 20925 20926 20927 20928 20929 20930 20931 20932 20933 20934 20935 20936 20937 20938 20939 20940 20941 20942 20943 20944 20945 20946 20947 20948 20949 20950 20951 20952 20953 20954 20955 20956 20957 20958 20959 20960 20961 20962 20963 20964 20965 20966 20967 20968 20969 20970 20971 20972 20973 20974 20975 20976 20977 20978 20979 20980 20981 20982 20983 20984 20985 20986 20987 20988 20989 20990 20991 20992 20993 20994 20995 20996 20997 20998 20999 21000 21001 21002 21003 21004 21005 21006 21007 21008 21009 21010 21011 21012 21013 21014 21015 21016 21017 21018 21019 21020 21021 21022 21023 21024 21025 21026 21027 21028 21029 21030 21031 21032 21033 21034 21035 21036 21037 21038 21039 21040 21041 21042 21043 21044 21045 21046 21047 21048 21049 21050 21051 21052 21053 21054 21055 21056 21057 21058 21059 21060 21061 21062 21063 21064 21065 21066 21067 21068 21069 21070 21071 21072 21073 21074 21075 21076 21077 21078 21079 21080 21081 21082 21083 21084 21085 21086 21087 21088 21089 21090 21091 21092 21093 21094 21095 21096 21097 21098 21099 21100 21101 21102 21103 21104 21105 21106 21107 21108 21109 21110 21111 21112 21113 21114 21115 21116 21117 21118 21119 21120 21121 21122 21123 21124 21125 21126 21127 21128 21129 21130 21131 21132 21133 21134 21135 21136 21137 21138 21139 21140 21141 21142 21143 21144 21145 21146 21147 21148 21149 21150 21151 21152 21153 21154 21155 21156 21157 21158 21159 21160 21161 21162 21163 21164 21165 21166 21167 21168 21169 21170 21171 21172 21173 21174 21175 21176 21177 21178 21179 21180 21181 21182 21183 21184 21185 21186 21187 21188 21189 21190 21191 21192 21193 21194 21195 21196 21197 21198 21199 21200 21201 21202 21203 21204 21205 21206 21207 21208 21209 21210 21211 21212 21213 21214 21215 21216 21217 21218 21219 21220 21221 21222 21223 21224 21225 21226 21227 21228 21229 21230 21231 21232 21233 21234 21235 21236 21237 21238 21239 21240 21241 21242 21243 21244 21245 21246 21247 21248 21249 21250 21251 21252 21253 21254 21255 21256 21257 21258 21259 21260 21261 21262 21263 21264 21265 21266 21267 21268 21269 21270 21271 21272 21273 21274 21275 21276 21277 21278 21279 21280 21281 21282 21283 21284 21285 21286 21287 21288 21289 21290 21291 21292 21293 21294 21295 21296 21297 21298 21299 21300 21301 21302 21303 21304 21305 21306 21307 21308 21309 21310 21311 21312 21313 21314 21315 21316 21317 21318 21319 21320 21321 21322 21323 21324 21325 21326 21327 21328 21329 21330 21331 21332 21333 21334 21335 21336 21337 21338 21339 21340 21341 21342 21343 21344 21345 21346 21347 21348 21349 21350 21351 21352 21353 21354 21355 21356 21357 21358 21359 21360 21361 21362 21363 21364 21365 21366 21367 21368 21369 21370 21371 21372 21373 21374 21375 21376 21377 21378 21379 21380 21381 21382 21383 21384 21385 21386 21387 21388 21389 21390 21391 21392 21393 21394 21395 21396 21397 21398 21399 21400 21401 21402 21403 21404 21405 21406 21407 21408 21409 21410 21411 21412 21413 21414 21415 21416 21417 21418 21419 21420 21421 21422 21423 21424 21425 21426 21427 21428 21429 21430 21431 21432 21433 21434 21435 21436 21437 21438 21439 21440 21441 21442 21443 21444 21445 21446 21447 21448 21449 21450 21451 21452 21453 21454 21455 21456 21457 21458 21459 21460 21461 21462 21463 21464 21465 21466 21467 21468 21469 21470 21471 21472 21473 21474 21475 21476 21477 21478 21479 21480 21481 21482 21483 21484 21485 21486 21487 21488 21489 21490 21491 21492 21493 21494 21495 21496 21497 21498 21499 21500 21501 21502 21503 21504 21505 21506 21507 21508 21509 21510 21511 21512 21513 21514 21515 21516 21517 21518 21519 21520 21521 21522 21523 21524 21525 21526 21527 21528 21529 21530 21531 21532 21533 21534 21535 21536 21537 21538 21539 21540 21541 21542 21543 21544 21545 21546 21547 21548 21549 21550 21551 21552 21553 21554 21555 21556 21557 21558 21559 21560 21561 21562 21563 21564 21565 21566 21567 21568 21569 21570 21571 21572 21573 21574 21575 21576 21577 21578 21579 21580 21581 21582 21583 21584 21585 21586 21587 21588 21589 21590 21591 21592 21593 21594 21595 21596 21597 21598 21599 21600 21601 21602 21603 21604 21605 21606 21607 21608 21609 21610 21611 21612 21613 21614 21615 21616 21617 21618 21619 21620 21621 21622 21623 21624 21625 21626 21627 21628 21629 21630 21631 21632 21633 21634 21635 21636 21637 21638 21639 21640 21641 21642 21643 21644 21645 21646 21647 21648 21649 21650 21651 21652 21653 21654 21655 21656 21657 21658 21659 21660 21661 21662 21663 21664 21665 21666 21667 21668 21669 21670 21671 21672 21673 21674 21675 21676 21677 21678 21679 21680 21681 21682 21683 21684 21685 21686 21687 21688 21689 21690 21691 21692 21693 21694 21695 21696 21697 21698 21699 21700 21701 21702 21703 21704 21705 21706 21707 21708 21709 21710 21711 21712 21713 21714 21715 21716 21717 21718 21719 21720 21721 21722 21723 21724 21725 21726 21727 21728 21729 21730 21731 21732 21733 21734 21735 21736 21737 21738 21739 21740 21741 21742 21743 21744 21745 21746 21747 21748 21749 21750 21751 21752 21753 21754 21755 21756 21757 21758 21759 21760 21761 21762 21763 21764 21765 21766 21767 21768 21769 21770 21771 21772 21773 21774 21775 21776 21777 21778 21779 21780 21781 21782 21783 21784 21785 21786 21787 21788 21789 21790 21791 21792 21793 21794 21795 21796 21797 21798 21799 21800 21801 21802 21803 21804 21805 21806 21807 21808 21809 21810 21811 21812 21813 21814 21815 21816 21817 21818 21819 21820 21821 21822 21823 21824 21825 21826 21827 21828 21829 21830 21831 21832 21833 21834 21835 21836 21837 21838 21839 21840 21841 21842 21843 21844 21845 21846 21847 21848 21849 21850 21851 21852 21853 21854 21855 21856 21857 21858 21859 21860 21861 21862 21863 21864 21865 21866 21867 21868 21869 21870 21871 21872 21873 21874 21875 21876 21877 21878 21879 21880 21881 21882 21883 21884 21885 21886 21887 21888 21889 21890 21891 21892 21893 21894 21895 21896 21897 21898 21899 21900 21901 21902 21903 21904 21905 21906 21907 21908 21909 21910 21911 21912 21913 21914 21915 21916 21917 21918 21919 21920 21921 21922 21923 21924 21925 21926 21927 21928 21929 21930 21931 21932 21933 21934 21935 21936 21937 21938 21939 21940 21941 21942 21943 21944 21945 21946 21947 21948 21949 21950 21951 21952 21953 21954 21955 21956 21957 21958 21959 21960 21961 21962 21963 21964 21965 21966 21967 21968 21969 21970 21971 21972 21973 21974 21975 21976 21977 21978 21979 21980 21981 21982 21983 21984 21985 21986 21987 21988 21989 21990 21991 21992 21993 21994 21995 21996 21997 21998 21999 22000 22001 22002 22003 22004 22005 22006 22007 22008 22009 22010 22011 22012 22013 22014 22015 22016 22017 22018 22019 22020 22021 22022 22023 22024 22025 22026 22027 22028 22029 22030 22031 22032 22033 22034 22035 22036 22037 22038 22039 22040 22041 22042 22043 22044 22045 22046 22047 22048 22049 22050 22051 22052 22053 22054 22055 22056 22057 22058 22059 22060 22061 22062 22063 22064 22065 22066 22067 22068 22069 22070 22071 22072 22073 22074 22075 22076 22077 22078 22079 22080 22081 22082 22083 22084 22085 22086 22087 22088 22089 22090 22091 22092 22093 22094 22095 22096 22097 22098 22099 22100 22101 22102 22103 22104 22105 22106 22107 22108 22109 22110 22111 22112 22113 22114 22115 22116 22117 22118 22119 22120 22121 22122 22123 22124 22125 22126 22127 22128 22129 22130 22131 22132 22133 22134 22135 22136 22137 22138 22139 22140 22141 22142 22143 22144 22145 22146 22147 22148 22149 22150 22151 22152 22153 22154 22155 22156 22157 22158 22159 22160 22161 22162 22163 22164 22165 22166 22167 22168 22169 22170 22171 22172 22173 22174 22175 22176 22177 22178 22179 22180 22181 22182 22183 22184 22185 22186 22187 22188 22189 22190 22191 22192 22193 22194 22195 22196 22197 22198 22199 22200 22201 22202 22203 22204 22205 22206 22207 22208 22209 22210 22211 22212 22213 22214 22215 22216 22217 22218 22219 22220 22221 22222 22223 22224 22225 22226 22227 22228 22229 22230 22231 22232 22233 22234 22235 22236 22237 22238 22239 22240 22241 22242 22243 22244 22245 22246 22247 22248 22249 22250 22251 22252 22253 22254 22255 22256 22257 22258 22259 22260 22261 22262 22263 22264 22265 22266 22267 22268 22269 22270 22271 22272 22273 22274 22275 22276 22277 22278 22279 22280 22281 22282 22283 22284 22285 22286 22287 22288 22289 22290 22291 22292 22293 22294 22295 22296 22297 22298 22299 22300 22301 22302 22303 22304 22305 22306 22307 22308 22309 22310 22311 22312 22313 22314 22315 22316 22317 22318 22319 22320 22321 22322 22323 22324 22325 22326 22327 22328 22329 22330 22331 22332 22333 22334 22335 22336 22337 22338 22339 22340 22341 22342 22343 22344 22345 22346 22347 22348 22349 22350 22351 22352 22353 22354 22355 22356 22357 22358 22359 22360 22361 22362 22363 22364 22365 22366 22367 22368 22369 22370 22371 22372 22373 22374 22375 22376 22377 22378 22379 22380 22381 22382 22383 22384 22385 22386 22387 22388 22389 22390 22391 22392 22393 22394 22395 22396 22397 22398 22399 22400 22401 22402 22403 22404 22405 22406 22407 22408 22409 22410 22411 22412 22413 22414 22415 22416 22417 22418 22419 22420 22421 22422 22423 22424 22425 22426 22427 22428 22429 22430 22431 22432 22433 22434 22435 22436 22437 22438 22439 22440 22441 22442 22443 22444 22445 22446 22447 22448 22449 22450 22451 22452 22453 22454 22455 22456 22457 22458 22459 22460 22461 22462 22463 22464 22465 22466 22467 22468 22469 22470 22471 22472 22473 22474 22475 22476 22477 22478 22479 22480 22481 22482 22483 22484 22485 22486 22487 22488 22489 22490 22491 22492 22493 22494 22495 22496 22497 22498 22499 22500 22501 22502 22503 22504 22505 22506 22507 22508 22509 22510 22511 22512 22513 22514 22515 22516 22517 22518 22519 22520 22521 22522 22523 22524 22525 22526 22527 22528 22529 22530 22531 22532 22533 22534 22535 22536 22537 22538 22539 22540 22541 22542 22543 22544 22545 22546 22547 22548 22549 22550 22551 22552 22553 22554 22555 22556 22557 22558 22559 22560 22561 22562 22563 22564 22565 22566 22567 22568 22569 22570 22571 22572 22573 22574 22575 22576 22577 22578 22579 22580 22581 22582 22583 22584 22585 22586 22587 22588 22589 22590 22591 22592 22593 22594 22595 22596 22597 22598 22599 22600 22601 22602 22603 22604 22605 22606 22607 22608 22609 22610 22611 22612 22613 22614 22615 22616 22617 22618 22619 22620 22621 22622 22623 22624 22625 22626 22627 22628 22629 22630 22631 22632 22633 22634 22635 22636 22637 22638 22639 22640 22641 22642 22643 22644 22645 22646 22647 22648 22649 22650 22651 22652 22653 22654 22655 22656 22657 22658 22659 22660 22661 22662 22663 22664 22665 22666 22667 22668 22669 22670 22671 22672 22673 22674 22675 22676 22677 22678 22679 22680 22681 22682 22683 22684 22685 22686 22687 22688 22689 22690 22691 22692 22693 22694 22695 22696 22697 22698 22699 22700 22701 22702 22703 22704 22705 22706 22707 22708 22709 22710 22711 22712 22713 22714 22715 22716 22717 22718 22719 22720 22721 22722 22723 22724 22725 22726 22727 22728 22729 22730 22731 22732 22733 22734 22735 22736 22737 22738 22739 22740 22741 22742 22743 22744 22745 22746 22747 22748 22749 22750 22751 22752 22753 22754 22755 22756 22757 22758 22759 22760 22761 22762 22763 22764 22765 22766 22767 22768 22769 22770 22771 22772 22773 22774 22775 22776 22777 22778 22779 22780 22781 22782 22783 22784 22785 22786 22787 22788 22789 22790 22791 22792 22793 22794 22795 22796 22797 22798 22799 22800 22801 22802 22803 22804 22805 22806 22807 22808 22809 22810 22811 22812 22813 22814 22815 22816 22817 22818 22819 22820 22821 22822 22823 22824 22825 22826 22827 22828 22829 22830 22831 22832 22833 22834 22835 22836 22837 22838 22839 22840 22841 22842 22843 22844 22845 22846 22847 22848 22849 22850 22851 22852 22853 22854 22855 22856 22857 22858 22859 22860 22861 22862 22863 22864 22865 22866 22867 22868 22869 22870 22871 22872 22873 22874 22875 22876 22877 22878 22879 22880 22881 22882 22883 22884 22885 22886 22887 22888 22889 22890 22891 22892 22893 22894 22895 22896 22897 22898 22899 22900 22901 22902 22903 22904 22905 22906 22907 22908 22909 22910 22911 22912 22913 22914 22915 22916 22917 22918 22919 22920 22921 22922 22923 22924 22925 22926 22927 22928 22929 22930 22931 22932 22933 22934 22935 22936 22937 22938 22939 22940 22941 22942 22943 22944 22945 22946 22947 22948 22949 22950 22951 22952 22953 22954 22955 22956 22957 22958 22959 22960 22961 22962 22963 22964 22965 22966 22967 22968 22969 22970 22971 22972 22973 22974 22975 22976 22977 22978 22979 22980 22981 22982 22983 22984 22985 22986 22987 22988 22989 22990 22991 22992 22993 22994 22995 22996 22997 22998 22999 23000 23001 23002 23003 23004 23005 23006 23007 23008 23009 23010 23011 23012 23013 23014 23015 23016 23017 23018 23019 23020 23021 23022 23023 23024 23025 23026 23027 23028 23029 23030 23031 23032 23033 23034 23035 23036 23037 23038 23039 23040 23041 23042 23043 23044 23045 23046 23047 23048 23049 23050 23051 23052 23053 23054 23055 23056 23057 23058 23059 23060 23061 23062 23063 23064 23065 23066 23067 23068 23069 23070 23071 23072 23073 23074 23075 23076 23077 23078 23079 23080 23081 23082 23083 23084 23085 23086 23087 23088 23089 23090 23091 23092 23093 23094 23095 23096 23097 23098 23099 23100 23101 23102 23103 23104 23105 23106 23107 23108 23109 23110 23111 23112 23113 23114 23115 23116 23117 23118 23119 23120 23121 23122 23123 23124 23125 23126 23127 23128 23129 23130 23131 23132 23133 23134 23135 23136 23137 23138 23139 23140 23141 23142 23143 23144 23145 23146 23147 23148 23149 23150 23151 23152 23153 23154 23155 23156 23157 23158 23159 23160 23161 23162 23163 23164 23165 23166 23167 23168 23169 23170 23171 23172 23173 23174 23175 23176 23177 23178 23179 23180 23181 23182 23183 23184 23185 23186 23187 23188 23189 23190 23191 23192 23193 23194 23195 23196 23197 23198 23199 23200 23201 23202 23203 23204 23205 23206 23207 23208 23209 23210 23211 23212 23213 23214 23215 23216 23217 23218 23219 23220 23221 23222 23223 23224 23225 23226 23227 23228 23229 23230 23231 23232 23233 23234 23235 23236 23237 23238 23239 23240 23241 23242 23243 23244 23245 23246 23247 23248 23249 23250 23251 23252 23253 23254 23255 23256 23257 23258 23259 23260 23261 23262 23263 23264 23265 23266 23267 23268 23269 23270 23271 23272 23273 23274 23275 23276 23277 23278 23279 23280 23281 23282 23283 23284 23285 23286 23287 23288 23289 23290 23291 23292 23293 23294 23295 23296 23297 23298 23299 23300 23301 23302 23303 23304 23305 23306 23307 23308 23309 23310 23311 23312 23313 23314 23315 23316 23317 23318 23319 23320 23321 23322 23323 23324 23325 23326 23327 23328 23329 23330 23331 23332 23333 23334 23335 23336 23337 23338 23339 23340 23341 23342 23343 23344 23345 23346 23347 23348 23349 23350 23351 23352 23353 23354 23355 23356 23357 23358 23359 23360 23361 23362 23363 23364 23365 23366 23367 23368 23369 23370 23371 23372 23373 23374 23375 23376 23377 23378 23379 23380 23381 23382 23383 23384 23385 23386 23387 23388 23389 23390 23391 23392 23393 23394 23395 23396 23397 23398 23399 23400 23401 23402 23403 23404 23405 23406 23407 23408 23409 23410 23411 23412 23413 23414 23415 23416 23417 23418 23419 23420 23421 23422 23423 23424 23425 23426 23427 23428 23429 23430 23431 23432 23433 23434 23435 23436 23437 23438 23439 23440 23441 23442 23443 23444 23445 23446 23447 23448 23449 23450 23451 23452 23453 23454 23455 23456 23457 23458 23459 23460 23461 23462 23463 23464 23465 23466 23467 23468 23469 23470 23471 23472 23473 23474 23475 23476 23477 23478 23479 23480 23481 23482 23483 23484 23485 23486 23487 23488 23489 23490 23491 23492 23493 23494 23495 23496 23497 23498 23499 23500 23501 23502 23503 23504 23505 23506 23507 23508 23509 23510 23511 23512 23513 23514 23515 23516 23517 23518 23519 23520 23521 23522 23523 23524 23525 23526 23527 23528 23529 23530 23531 23532 23533 23534 23535 23536 23537 23538 23539 23540 23541 23542 23543 23544 23545 23546 23547 23548 23549 23550 23551 23552 23553 23554 23555 23556 23557 23558 23559 23560 23561 23562 23563 23564 23565 23566 23567 23568 23569 23570 23571 23572 23573 23574 23575 23576 23577 23578 23579 23580 23581 23582 23583 23584 23585 23586 23587 23588 23589 23590 23591 23592 23593 23594 23595 23596 23597 23598 23599 23600 23601 23602 23603 23604 23605 23606 23607 23608 23609 23610 23611 23612 23613 23614 23615 23616 23617 23618 23619 23620 23621 23622 23623 23624 23625 23626 23627 23628 23629 23630 23631 23632 23633 23634 23635 23636 23637 23638 23639 23640 23641 23642 23643 23644 23645 23646 23647 23648 23649 23650 23651 23652 23653 23654 23655 23656 23657 23658 23659 23660 23661 23662 23663 23664 23665 23666 23667 23668 23669 23670 23671 23672 23673 23674 23675 23676 23677 23678 23679 23680 23681 23682 23683 23684 23685 23686 23687 23688 23689 23690 23691 23692 23693 23694 23695 23696 23697 23698 23699 23700 23701 23702 23703 23704 23705 23706 23707 23708 23709 23710 23711 23712 23713 23714 23715 23716 23717 23718 23719 23720 23721 23722 23723 23724 23725 23726 23727 23728 23729 23730 23731 23732 23733 23734 23735 23736 23737 23738 23739 23740 23741 23742 23743 23744 23745 23746 23747 23748 23749 23750 23751 23752 23753 23754 23755 23756 23757 23758 23759 23760 23761 23762 23763 23764 23765 23766 23767 23768 23769 23770 23771 23772 23773 23774 23775 23776 23777 23778 23779 23780 23781 23782 23783 23784 23785 23786 23787 23788 23789 23790 23791 23792 23793 23794 23795 23796 23797 23798 23799 23800 23801 23802 23803 23804 23805 23806 23807 23808 23809 23810 23811 23812 23813 23814 23815 23816 23817 23818 23819 23820 23821 23822 23823 23824 23825 23826 23827 23828 23829 23830 23831 23832 23833 23834 23835 23836 23837 23838 23839 23840 23841 23842 23843 23844 23845 23846 23847 23848 23849 23850 23851 23852 23853 23854 23855 23856 23857 23858 23859 23860 23861 23862 23863 23864 23865 23866 23867 23868 23869 23870 23871 23872 23873 23874 23875 23876 23877 23878 23879 23880 23881 23882 23883 23884 23885 23886 23887 23888 23889 23890 23891 23892 23893 23894 23895 23896 23897 23898 23899 23900 23901 23902 23903 23904 23905 23906 23907 23908 23909 23910 23911 23912 23913 23914 23915 23916 23917 23918 23919 23920 23921 23922 23923 23924 23925 23926 23927 23928 23929 23930 23931 23932 23933 23934 23935 23936 23937 23938 23939 23940 23941 23942 23943 23944 23945 23946 23947 23948 23949 23950 23951 23952 23953 23954 23955 23956 23957 23958 23959 23960 23961 23962 23963 23964 23965 23966 23967 23968 23969 23970 23971 23972 23973 23974 23975 23976 23977 23978 23979 23980 23981 23982 23983 23984 23985 23986 23987 23988 23989 23990 23991 23992 23993 23994 23995 23996 23997 23998 23999 24000 24001 24002 24003 24004 24005 24006 24007 24008 24009 24010 24011 24012 24013 24014 24015 24016 24017 24018 24019 24020 24021 24022 24023 24024 24025 24026 24027 24028 24029 24030 24031 24032 24033 24034 24035 24036 24037 24038 24039 24040 24041 24042 24043 24044 24045 24046 24047 24048 24049 24050 24051 24052 24053 24054 24055 24056 24057 24058 24059 24060 24061 24062 24063 24064 24065 24066 24067 24068 24069 24070 24071 24072 24073 24074 24075 24076 24077 24078 24079 24080 24081 24082 24083 24084 24085 24086 24087 24088 24089 24090 24091 24092 24093 24094 24095 24096 24097 24098 24099 24100 24101 24102 24103 24104 24105 24106 24107 24108 24109 24110 24111 24112 24113 24114 24115 24116 24117 24118 24119 24120 24121 24122 24123 24124 24125 24126 24127 24128 24129 24130 24131 24132 24133 24134 24135 24136 24137 24138 24139 24140 24141 24142 24143 24144 24145 24146 24147 24148 24149 24150 24151 24152 24153 24154 24155 24156 24157 24158 24159 24160 24161 24162 24163 24164 24165 24166 24167 24168 24169 24170 24171 24172 24173 24174 24175 24176 24177 24178 24179 24180 24181 24182 24183 24184 24185 24186 24187 24188 24189 24190 24191 24192 24193 24194 24195 24196 24197 24198 24199 24200 24201 24202 24203 24204 24205 24206 24207 24208 24209 24210 24211 24212 24213 24214 24215 24216 24217 24218 24219 24220 24221 24222 24223 24224 24225 24226 24227 24228 24229 24230 24231 24232 24233 24234 24235 24236 24237 24238 24239 24240 24241 24242 24243 24244 24245 24246 24247 24248 24249 24250 24251 24252 24253 24254 24255 24256 24257 24258 24259 24260 24261 24262 24263 24264 24265 24266 24267 24268 24269 24270 24271 24272 24273 24274 24275 24276 24277 24278 24279 24280 24281 24282 24283 24284 24285 24286 24287 24288 24289 24290 24291 24292 24293 24294 24295 24296 24297 24298 24299 24300 24301 24302 24303 24304 24305 24306 24307 24308 24309 24310 24311 24312 24313 24314 24315 24316 24317 24318 24319 24320 24321 24322 24323 24324 24325 24326 24327 24328 24329 24330 24331 24332 24333 24334 24335 24336 24337 24338 24339 24340 24341 24342 24343 24344 24345 24346 24347 24348 24349 24350 24351 24352 24353 24354 24355 24356 24357 24358 24359 24360 24361 24362 24363 24364 24365 24366 24367 24368 24369 24370 24371 24372 24373 24374 24375 24376 24377 24378 24379 24380 24381 24382 24383 24384 24385 24386 24387 24388 24389 24390 24391 24392 24393 24394 24395 24396 24397 24398 24399 24400 24401 24402 24403 24404 24405 24406 24407 24408 24409 24410 24411 24412 24413 24414 24415 24416 24417 24418 24419 24420 24421 24422 24423 24424 24425 24426 24427 24428 24429 24430 24431 24432 24433 24434 24435 24436 24437 24438 24439 24440 24441 24442 24443 24444 24445 24446 24447 24448 24449 24450 24451 24452 24453 24454 24455 24456 24457 24458 24459 24460 24461 24462 24463 24464 24465 24466 24467 24468 24469 24470 24471 24472 24473 24474 24475 24476 24477 24478 24479 24480 24481 24482 24483 24484 24485 24486 24487 24488 24489 24490 24491 24492 24493 24494 24495 24496 24497 24498 24499 24500 24501 24502 24503 24504 24505 24506 24507 24508 24509 24510 24511 24512 24513 24514 24515 24516 24517 24518 24519 24520 24521 24522 24523 24524 24525 24526 24527 24528 24529 24530 24531 24532 24533 24534 24535 24536 24537 24538 24539 24540 24541 24542 24543 24544 24545 24546 24547 24548 24549 24550 24551 24552 24553 24554 24555 24556 24557 24558 24559 24560 24561 24562 24563 24564 24565 24566 24567 24568 24569 24570 24571 24572 24573 24574 24575 24576 24577 24578 24579 24580 24581 24582 24583 24584 24585 24586 24587 24588 24589 24590 24591 24592 24593 24594 24595 24596 24597 24598 24599 24600 24601 24602 24603 24604 24605 24606 24607 24608 24609 24610 24611 24612 24613 24614 24615 24616 24617 24618 24619 24620 24621 24622 24623 24624 24625 24626 24627 24628 24629 24630 24631 24632 24633 24634 24635 24636 24637 24638 24639 24640 24641 24642 24643 24644 24645 24646 24647 24648 24649 24650 24651 24652 24653 24654 24655 24656 24657 24658 24659 24660 24661 24662 24663 24664 24665 24666 24667 24668 24669 24670 24671 24672 24673 24674 24675 24676 24677 24678 24679 24680 24681 24682 24683 24684 24685 24686 24687 24688 24689 24690 24691 24692 24693 24694 24695 24696 24697 24698 24699 24700 24701 24702 24703 24704 24705 24706 24707 24708 24709 24710 24711 24712 24713 24714 24715 24716 24717 24718 24719 24720 24721 24722 24723 24724 24725 24726 24727 24728 24729 24730 24731 24732 24733 24734 24735 24736 24737 24738 24739 24740 24741 24742 24743 24744 24745 24746 24747 24748 24749 24750 24751 24752 24753 24754 24755 24756 24757 24758 24759 24760 24761 24762 24763 24764 24765 24766 24767 24768 24769 24770 24771 24772 24773 24774 24775 24776 24777 24778 24779 24780 24781 24782 24783 24784 24785 24786 24787 24788 24789 24790 24791 24792 24793 24794 24795 24796 24797 24798 24799 24800 24801 24802 24803 24804 24805 24806 24807 24808 24809 24810 24811 24812 24813 24814 24815 24816 24817 24818 24819 24820 24821 24822 24823 24824 24825 24826 24827 24828 24829 24830 24831 24832 24833 24834 24835 24836 24837 24838 24839 24840 24841 24842 24843 24844 24845 24846 24847 24848 24849 24850 24851 24852 24853 24854 24855 24856 24857 24858 24859 24860 24861 24862 24863 24864 24865 24866 24867 24868 24869 24870 24871 24872 24873 24874 24875 24876 24877 24878 24879 24880 24881 24882 24883 24884 24885 24886 24887 24888 24889 24890 24891 24892 24893 24894 24895 24896 24897 24898 24899 24900 24901 24902 24903 24904 24905 24906 24907 24908 24909 24910 24911 24912 24913 24914 24915 24916 24917 24918 24919 24920 24921 24922 24923 24924 24925 24926 24927 24928 24929 24930 24931 24932 24933 24934 24935 24936 24937 24938 24939 24940 24941 24942 24943 24944 24945 24946 24947 24948 24949 24950 24951 24952 24953 24954 24955 24956 24957 24958 24959 24960 24961 24962 24963 24964 24965 24966 24967 24968 24969 24970 24971 24972 24973 24974 24975 24976 24977 24978 24979 24980 24981 24982 24983 24984 24985 24986 24987 24988 24989 24990 24991 24992 24993 24994 24995 24996 24997 24998 24999 25000 25001 25002 25003 25004 25005 25006 25007 25008 25009 25010 25011 25012 25013 25014 25015 25016 25017 25018 25019 25020 25021 25022 25023 25024 25025 25026 25027 25028 25029 25030 25031 25032 25033 25034 25035 25036 25037 25038 25039 25040 25041 25042 25043 25044 25045 25046 25047 25048 25049 25050 25051 25052 25053 25054 25055 25056 25057 25058 25059 25060 25061 25062 25063 25064 25065 25066 25067 25068 25069 25070 25071 25072 25073 25074 25075 25076 25077 25078 25079 25080 25081 25082 25083 25084 25085 25086 25087 25088 25089 25090 25091 25092 25093 25094 25095 25096 25097 25098 25099 25100 25101 25102 25103 25104 25105 25106 25107 25108 25109 25110 25111 25112 25113 25114 25115 25116 25117 25118 25119 25120 25121 25122 25123 25124 25125 25126 25127 25128 25129 25130 25131 25132 25133 25134 25135 25136 25137 25138 25139 25140 25141 25142 25143 25144 25145 25146 25147 25148 25149 25150 25151 25152 25153 25154 25155 25156 25157 25158 25159 25160 25161 25162 25163 25164 25165 25166 25167 25168 25169 25170 25171 25172 25173 25174 25175 25176 25177 25178 25179 25180 25181 25182 25183 25184 25185 25186 25187 25188 25189 25190 25191 25192 25193 25194 25195 25196 25197 25198 25199 25200 25201 25202 25203 25204 25205 25206 25207 25208 25209 25210 25211 25212 25213 25214 25215 25216 25217 25218 25219 25220 25221 25222 25223 25224 25225 25226 25227 25228 25229 25230 25231 25232 25233 25234 25235 25236 25237 25238 25239 25240 25241 25242 25243 25244 25245 25246 25247 25248 25249 25250 25251 25252 25253 25254 25255 25256 25257 25258 25259 25260 25261 25262 25263 25264 25265 25266 25267 25268 25269 25270 25271 25272 25273 25274 25275 25276 25277 25278 25279 25280 25281 25282 25283 25284 25285 25286 25287 25288 25289 25290 25291 25292 25293 25294 25295 25296 25297 25298 25299 25300 25301 25302 25303 25304 25305 25306 25307 25308 25309 25310 25311 25312 25313 25314 25315 25316 25317 25318 25319 25320 25321 25322 25323 25324 25325 25326 25327 25328 25329 25330 25331 25332 25333 25334 25335 25336 25337 25338 25339 25340 25341 25342 25343 25344 25345 25346 25347 25348 25349 25350 25351 25352 25353 25354 25355 25356 25357 25358 25359 25360 25361 25362 25363 25364 25365 25366 25367 25368 25369 25370 25371 25372 25373 25374 25375 25376 25377 25378 25379 25380 25381 25382 25383 25384 25385 25386 25387 25388 25389 25390 25391 25392 25393 25394 25395 25396 25397 25398 25399 25400 25401 25402 25403 25404 25405 25406 25407 25408 25409 25410 25411 25412 25413 25414 25415 25416 25417 25418 25419 25420 25421 25422 25423 25424 25425 25426 25427 25428 25429 25430 25431 25432 25433 25434 25435 25436 25437 25438 25439 25440 25441 25442 25443 25444 25445 25446 25447 25448 25449 25450 25451 25452 25453 25454 25455 25456 25457 25458 25459 25460 25461 25462 25463 25464 25465 25466 25467 25468 25469 25470 25471 25472 25473 25474 25475 25476 25477 25478 25479 25480 25481 25482 25483 25484 25485 25486 25487 25488 25489 25490 25491 25492 25493 25494 25495 25496 25497 25498 25499 25500 25501 25502 25503 25504 25505 25506 25507 25508 25509 25510 25511 25512 25513 25514 25515 25516 25517 25518 25519 25520 25521 25522 25523 25524 25525 25526 25527 25528 25529 25530 25531 25532 25533 25534 25535 25536 25537 25538 25539 25540 25541 25542 25543 25544 25545 25546 25547 25548 25549 25550 25551 25552 25553 25554 25555 25556 25557 25558 25559 25560 25561 25562 25563 25564 25565 25566 25567 25568 25569 25570 25571 25572 25573 25574 25575 25576 25577 25578 25579 25580 25581 25582 25583 25584 25585 25586 25587 25588 25589 25590 25591 25592 25593 25594 25595 25596 25597 25598 25599 25600 25601 25602 25603 25604 25605 25606 25607 25608 25609 25610 25611 25612 25613 25614 25615 25616 25617 25618 25619 25620 25621 25622 25623 25624 25625 25626 25627 25628 25629 25630 25631 25632 25633 25634 25635 25636 25637 25638 25639 25640 25641 25642 25643 25644 25645 25646 25647 25648 25649 25650 25651 25652 25653 25654 25655 25656 25657 25658 25659 25660 25661 25662 25663 25664 25665 25666 25667 25668 25669 25670 25671 25672 25673 25674 25675 25676 25677 25678 25679 25680 25681 25682 25683 25684 25685 25686 25687 25688 25689 25690 25691 25692 25693 25694 25695 25696 25697 25698 25699 25700 25701 25702 25703 25704 25705 25706 25707 25708 25709 25710 25711 25712 25713 25714 25715 25716 25717 25718 25719 25720 25721 25722 25723 25724 25725 25726 25727 25728 25729 25730 25731 25732 25733 25734 25735 25736 25737 25738 25739 25740 25741 25742 25743 25744 25745 25746 25747 25748 25749 25750 25751 25752 25753 25754 25755 25756 25757 25758 25759 25760 25761 25762 25763 25764 25765 25766 25767 25768 25769 25770 25771 25772 25773 25774 25775 25776 25777 25778 25779 25780 25781 25782 25783 25784 25785 25786 25787 25788 25789 25790 25791 25792 25793 25794 25795 25796 25797 25798 25799 25800 25801 25802 25803 25804 25805 25806 25807 25808 25809 25810 25811 25812 25813 25814 25815 25816 25817 25818 25819 25820 25821 25822 25823 25824 25825 25826 25827 25828 25829 25830 25831 25832 25833 25834 25835 25836 25837 25838 25839 25840 25841 25842 25843 25844 25845 25846 25847 25848 25849 25850 25851 25852 25853 25854 25855 25856 25857 25858 25859 25860 25861 25862 25863 25864 25865 25866 25867 25868 25869 25870 25871 25872 25873 25874 25875 25876 25877 25878 25879 25880 25881 25882 25883 25884 25885 25886 25887 25888 25889 25890 25891 25892 25893 25894 25895 25896 25897 25898 25899 25900 25901 25902 25903 25904 25905 25906 25907 25908 25909 25910 25911 25912 25913 25914 25915 25916 25917 25918 25919 25920 25921 25922 25923 25924 25925 25926 25927 25928 25929 25930 25931 25932 25933 25934 25935 25936 25937 25938 25939 25940 25941 25942 25943 25944 25945 25946 25947 25948 25949 25950 25951 25952 25953 25954 25955 25956 25957 25958 25959 25960 25961 25962 25963 25964 25965 25966 25967 25968 25969 25970 25971 25972 25973 25974 25975 25976 25977 25978 25979 25980 25981 25982 25983 25984 25985 25986 25987 25988 25989 25990 25991 25992 25993 25994 25995 25996 25997 25998 25999 26000 26001 26002 26003 26004 26005 26006 26007 26008 26009 26010 26011 26012 26013 26014 26015 26016 26017 26018 26019 26020 26021 26022 26023 26024 26025 26026 26027 26028 26029 26030 26031 26032 26033 26034 26035 26036 26037 26038 26039 26040 26041 26042 26043 26044 26045 26046 26047 26048 26049 26050 26051 26052 26053 26054 26055 26056 26057 26058 26059 26060 26061 26062 26063 26064 26065 26066 26067 26068 26069 26070 26071 26072 26073 26074 26075 26076 26077 26078 26079 26080 26081 26082 26083 26084 26085 26086 26087 26088 26089 26090 26091 26092 26093 26094 26095 26096 26097 26098 26099 26100 26101 26102 26103 26104 26105 26106 26107 26108 26109 26110 26111 26112 26113 26114 26115 26116 26117 26118 26119 26120 26121 26122 26123 26124 26125 26126 26127 26128 26129 26130 26131 26132 26133 26134 26135 26136 26137 26138 26139 26140 26141 26142 26143 26144 26145 26146 26147 26148 26149 26150 26151 26152 26153 26154 26155 26156 26157 26158 26159 26160 26161 26162 26163 26164 26165 26166 26167 26168 26169 26170 26171 26172 26173 26174 26175 26176 26177 26178 26179 26180 26181 26182 26183 26184 26185 26186 26187 26188 26189 26190 26191 26192 26193 26194 26195 26196 26197 26198 26199 26200 26201 26202 26203 26204 26205 26206 26207 26208 26209 26210 26211 26212 26213 26214 26215 26216 26217 26218 26219 26220 26221 26222 26223 26224 26225 26226 26227 26228 26229 26230 26231 26232 26233 26234 26235 26236 26237 26238 26239 26240 26241 26242 26243 26244 26245 26246 26247 26248 26249 26250 26251 26252 26253 26254 26255 26256 26257 26258 26259 26260 26261 26262 26263 26264 26265 26266 26267 26268 26269 26270 26271 26272 26273 26274 26275 26276 26277 26278 26279 26280 26281 26282 26283 26284 26285 26286 26287 26288 26289 26290 26291 26292 26293 26294 26295 26296 26297 26298 26299 26300 26301 26302 26303 26304 26305 26306 26307 26308 26309 26310 26311 26312 26313 26314 26315 26316 26317 26318 26319 26320 26321 26322 26323 26324 26325 26326 26327 26328 26329 26330 26331 26332 26333 26334 26335 26336 26337 26338 26339 26340 26341 26342 26343 26344 26345 26346 26347 26348 26349 26350 26351 26352 26353 26354 26355 26356 26357 26358 26359 26360 26361 26362 26363 26364 26365 26366 26367 26368 26369 26370 26371 26372 26373 26374 26375 26376 26377 26378 26379 26380 26381 26382 26383 26384 26385 26386 26387 26388 26389 26390 26391 26392 26393 26394 26395 26396 26397 26398 26399 26400 26401 26402 26403 26404 26405 26406 26407 26408 26409 26410 26411 26412 26413 26414 26415 26416 26417 26418 26419 26420 26421 26422 26423 26424 26425 26426 26427 26428 26429 26430 26431 26432 26433 26434 26435 26436 26437 26438 26439 26440 26441 26442 26443 26444 26445 26446 26447 26448 26449 26450 26451 26452 26453 26454 26455 26456 26457 26458 26459 26460 26461 26462 26463 26464 26465 26466 26467 26468 26469 26470 26471 26472 26473 26474 26475 26476 26477 26478 26479 26480 26481 26482 26483 26484 26485 26486 26487 26488 26489 26490 26491 26492 26493 26494 26495 26496 26497 26498 26499 26500 26501 26502 26503 26504 26505 26506 26507 26508 26509 26510 26511 26512 26513 26514 26515 26516 26517 26518 26519 26520 26521 26522 26523 26524 26525 26526 26527 26528 26529 26530 26531 26532 26533 26534 26535 26536 26537 26538 26539 26540 26541 26542 26543 26544 26545 26546 26547 26548 26549 26550 26551 26552 26553 26554 26555 26556 26557 26558 26559 26560 26561 26562 26563 26564 26565 26566 26567 26568 26569 26570 26571 26572 26573 26574 26575 26576 26577 26578 26579 26580 26581 26582 26583 26584 26585 26586 26587 26588 26589 26590 26591 26592 26593 26594 26595 26596 26597 26598 26599 26600 26601 26602 26603 26604 26605 26606 26607 26608 26609 26610 26611 26612 26613 26614 26615 26616 26617 26618 26619 26620 26621 26622 26623 26624 26625 26626 26627 26628 26629 26630 26631 26632 26633 26634 26635 26636 26637 26638 26639 26640 26641 26642 26643 26644 26645 26646 26647 26648 26649 26650 26651 26652 26653 26654 26655 26656 26657 26658 26659 26660 26661 26662 26663 26664 26665 26666 26667 26668 26669 26670 26671 26672 26673 26674 26675 26676 26677 26678 26679 26680 26681 26682 26683 26684 26685 26686 26687 26688 26689 26690 26691 26692 26693 26694 26695 26696 26697 26698 26699 26700 26701 26702 26703 26704 26705 26706 26707 26708 26709 26710 26711 26712 26713 26714 26715 26716 26717 26718 26719 26720 26721 26722 26723 26724 26725 26726 26727 26728 26729 26730 26731 26732 26733 26734 26735 26736 26737 26738 26739 26740 26741 26742 26743 26744 26745 26746 26747 26748 26749 26750 26751 26752 26753 26754 26755 26756 26757 26758 26759 26760 26761 26762 26763 26764 26765 26766 26767 26768 26769 26770 26771 26772 26773 26774 26775 26776 26777 26778 26779 26780 26781 26782 26783 26784 26785 26786 26787 26788 26789 26790 26791 26792 26793 26794 26795 26796 26797 26798 26799 26800 26801 26802 26803 26804 26805 26806 26807 26808 26809 26810 26811 26812 26813 26814 26815 26816 26817 26818 26819 26820 26821 26822 26823 26824 26825 26826 26827 26828 26829 26830 26831 26832 26833 26834 26835 26836 26837 26838 26839 26840 26841 26842 26843 26844 26845 26846 26847 26848 26849 26850 26851 26852 26853 26854 26855 26856 26857 26858 26859 26860 26861 26862 26863 26864 26865 26866 26867 26868 26869 26870 26871 26872 26873 26874 26875 26876 26877 26878 26879 26880 26881 26882 26883 26884 26885 26886 26887 26888 26889 26890 26891 26892 26893 26894 26895 26896 26897 26898 26899 26900 26901 26902 26903 26904 26905 26906 26907 26908 26909 26910 26911 26912 26913 26914 26915 26916 26917 26918 26919 26920 26921 26922 26923 26924 26925 26926 26927 26928 26929 26930 26931 26932 26933 26934 26935 26936 26937 26938 26939 26940 26941 26942 26943 26944 26945 26946 26947 26948 26949 26950 26951 26952 26953 26954 26955 26956 26957 26958 26959 26960 26961 26962 26963 26964 26965 26966 26967 26968 26969 26970 26971 26972 26973 26974 26975 26976 26977 26978 26979 26980 26981 26982 26983 26984 26985 26986 26987 26988 26989 26990 26991 26992 26993 26994 26995 26996 26997 26998 26999 27000 27001 27002 27003 27004 27005 27006 27007 27008 27009 27010 27011 27012 27013 27014 27015 27016 27017 27018 27019 27020 27021 27022 27023 27024 27025 27026 27027 27028 27029 27030 27031 27032 27033 27034 27035 27036 27037 27038 27039 27040 27041 27042 27043 27044 27045 27046 27047 27048 27049 27050 27051 27052 27053 27054 27055 27056 27057 27058 27059 27060 27061 27062 27063 27064 27065 27066 27067 27068 27069 27070 27071 27072 27073 27074 27075 27076 27077 27078 27079 27080 27081 27082 27083 27084 27085 27086 27087 27088 27089 27090 27091 27092 27093 27094 27095 27096 27097 27098 27099 27100 27101 27102 27103 27104 27105 27106 27107 27108 27109 27110 27111 27112 27113 27114 27115 27116 27117 27118 27119 27120 27121 27122 27123 27124 27125 27126 27127 27128 27129 27130 27131 27132 27133 27134 27135 27136 27137 27138 27139 27140 27141 27142 27143 27144 27145 27146 27147 27148 27149 27150 27151 27152 27153 27154 27155 27156 27157 27158 27159 27160 27161 27162 27163 27164 27165 27166 27167 27168 27169 27170 27171 27172 27173 27174 27175 27176 27177 27178 27179 27180 27181 27182 27183 27184 27185 27186 27187 27188 27189 27190 27191 27192 27193 27194 27195 27196 27197 27198 27199 27200 27201 27202 27203 27204 27205 27206 27207 27208 27209 27210 27211 27212 27213 27214 27215 27216 27217 27218 27219 27220 27221 27222 27223 27224 27225 27226 27227 27228 27229 27230 27231 27232 27233 27234 27235 27236 27237 27238 27239 27240 27241 27242 27243 27244 27245 27246 27247 27248 27249 27250 27251 27252 27253 27254 27255 27256 27257 27258 27259 27260 27261 27262 27263 27264 27265 27266 27267 27268 27269 27270 27271 27272 27273 27274 27275 27276 27277 27278 27279 27280 27281 27282 27283 27284 27285 27286 27287 27288 27289 27290 27291 27292 27293 27294 27295 27296 27297 27298 27299 27300 27301 27302 27303 27304 27305 27306 27307 27308 27309 27310 27311 27312 27313 27314 27315 27316 27317 27318 27319 27320 27321 27322 27323 27324 27325 27326 27327 27328 27329 27330 27331 27332 27333 27334 27335 27336 27337 27338 27339 27340 27341 27342 27343 27344 27345 27346 27347 27348 27349 27350 27351 27352 27353 27354 27355 27356 27357 27358 27359 27360 27361 27362 27363 27364 27365 27366 27367 27368 27369 27370 27371 27372 27373 27374 27375 27376 27377 27378 27379 27380 27381 27382 27383 27384 27385 27386 27387 27388 27389 27390 27391 27392 27393 27394 27395 27396 27397 27398 27399 27400 27401 27402 27403 27404 27405 27406 27407 27408 27409 27410 27411 27412 27413 27414 27415 27416 27417 27418 27419 27420 27421 27422 27423 27424 27425 27426 27427 27428 27429 27430 27431 27432 27433 27434 27435 27436 27437 27438 27439 27440 27441 27442 27443 27444 27445 27446 27447 27448 27449 27450 27451 27452 27453 27454 27455 27456 27457 27458 27459 27460 27461 27462 27463 27464 27465 27466 27467 27468 27469 27470 27471 27472 27473 27474 27475 27476 27477 27478 27479 27480 27481 27482 27483 27484 27485 27486 27487 27488 27489 27490 27491 27492 27493 27494 27495 27496 27497 27498 27499 27500 27501 27502 27503 27504 27505 27506 27507 27508 27509 27510 27511 27512 27513 27514 27515 27516 27517 27518 27519 27520 27521 27522 27523 27524 27525 27526 27527 27528 27529 27530 27531 27532 27533 27534 27535 27536 27537 27538 27539 27540 27541 27542 27543 27544 27545 27546 27547 27548 27549 27550 27551 27552 27553 27554 27555 27556 27557 27558 27559 27560 27561 27562 27563 27564 27565 27566 27567 27568 27569 27570 27571 27572 27573 27574 27575 27576 27577 27578 27579 27580 27581 27582 27583 27584 27585 27586 27587 27588 27589 27590 27591 27592 27593 27594 27595 27596 27597 27598 27599 27600 27601 27602 27603 27604 27605 27606 27607 27608 27609 27610 27611 27612 27613 27614 27615 27616 27617 27618 27619 27620 27621 27622 27623 27624 27625 27626 27627 27628 27629 27630 27631 27632 27633 27634 27635 27636 27637 27638 27639 27640 27641 27642 27643 27644 27645 27646 27647 27648 27649 27650 27651 27652 27653 27654 27655 27656 27657 27658 27659 27660 27661 27662 27663 27664 27665 27666 27667 27668 27669 27670 27671 27672 27673 27674 27675 27676 27677 27678 27679 27680 27681 27682 27683 27684 27685 27686 27687 27688 27689 27690 27691 27692 27693 27694 27695 27696 27697 27698 27699 27700 27701 27702 27703 27704 27705 27706 27707 27708 27709 27710 27711 27712 27713 27714 27715 27716 27717 27718 27719 27720 27721 27722 27723 27724 27725 27726 27727 27728 27729 27730 27731 27732 27733 27734 27735 27736 27737 27738 27739 27740 27741 27742 27743 27744 27745 27746 27747 27748 27749 27750 27751 27752 27753 27754 27755 27756 27757 27758 27759 27760 27761 27762 27763 27764 27765 27766 27767 27768 27769 27770 27771 27772 27773 27774 27775 27776 27777 27778 27779 27780 27781 27782 27783 27784 27785 27786 27787 27788 27789 27790 27791 27792 27793 27794 27795 27796 27797 27798 27799 27800 27801 27802 27803 27804 27805 27806 27807 27808 27809 27810 27811 27812 27813 27814 27815 27816 27817 27818 27819 27820 27821 27822 27823 27824 27825 27826 27827 27828 27829 27830 27831 27832 27833 27834 27835 27836 27837 27838 27839 27840 27841 27842 27843 27844 27845 27846 27847 27848 27849 27850 27851 27852 27853 27854 27855 27856 27857 27858 27859 27860 27861 27862 27863 27864 27865 27866 27867 27868 27869 27870 27871 27872 27873 27874 27875 27876 27877 27878 27879 27880 27881 27882 27883 27884 27885 27886 27887 27888 27889 27890 27891 27892 27893 27894 27895 27896 27897 27898 27899 27900 27901 27902 27903 27904 27905 27906 27907 27908 27909 27910 27911 27912 27913 27914 27915 27916 27917 27918 27919 27920 27921 27922 27923 27924 27925 27926 27927 27928 27929 27930 27931 27932 27933 27934 27935 27936 27937 27938 27939 27940 27941 27942 27943 27944 27945 27946 27947 27948 27949 27950 27951 27952 27953 27954 27955 27956 27957 27958 27959 27960 27961 27962 27963 27964 27965 27966 27967 27968 27969 27970 27971 27972 27973 27974 27975 27976 27977 27978 27979 27980 27981 27982 27983 27984 27985 27986 27987 27988 27989 27990 27991 27992 27993 27994 27995 27996 27997 27998 27999 28000 28001 28002 28003 28004 28005 28006 28007 28008 28009 28010 28011 28012 28013 28014 28015 28016 28017 28018 28019 28020 28021 28022 28023 28024 28025 28026 28027 28028 28029 28030 28031 28032 28033 28034 28035 28036 28037 28038 28039 28040 28041 28042 28043 28044 28045 28046 28047 28048 28049 28050 28051 28052 28053 28054 28055 28056 28057 28058 28059 28060 28061 28062 28063 28064 28065 28066 28067 28068 28069 28070 28071 28072 28073 28074 28075 28076 28077 28078 28079 28080 28081 28082 28083 28084 28085 28086 28087 28088 28089 28090 28091 28092 28093 28094 28095 28096 28097 28098 28099 28100 28101 28102 28103 28104 28105 28106 28107 28108 28109 28110 28111 28112 28113 28114 28115 28116 28117 28118 28119 28120 28121 28122 28123 28124 28125 28126 28127 28128 28129 28130 28131 28132 28133 28134 28135 28136 28137 28138 28139 28140 28141 28142 28143 28144 28145 28146 28147 28148 28149 28150 28151 28152 28153 28154 28155 28156 28157 28158 28159 28160 28161 28162 28163 28164 28165 28166 28167 28168 28169 28170 28171 28172 28173 28174 28175 28176 28177 28178 28179 28180 28181 28182 28183 28184 28185 28186 28187 28188 28189 28190 28191 28192 28193 28194 28195 28196 28197 28198 28199 28200 28201 28202 28203 28204 28205 28206 28207 28208 28209 28210 28211 28212 28213 28214 28215 28216 28217 28218 28219 28220 28221 28222 28223 28224 28225 28226 28227 28228 28229 28230 28231 28232 28233 28234 28235 28236 28237 28238 28239 28240 28241 28242 28243 28244 28245 28246 28247 28248 28249 28250 28251 28252 28253 28254 28255 28256 28257 28258 28259 28260 28261 28262 28263 28264 28265 28266 28267 28268 28269 28270 28271 28272 28273 28274 28275 28276 28277 28278 28279 28280 28281 28282 28283 28284 28285 28286 28287 28288 28289 28290 28291 28292 28293 28294 28295 28296 28297 28298 28299 28300 28301 28302 28303 28304 28305 28306 28307 28308 28309 28310 28311 28312 28313 28314 28315 28316 28317 28318 28319 28320 28321 28322 28323 28324 28325 28326 28327 28328 28329 28330 28331 28332 28333 28334 28335 28336 28337 28338 28339 28340 28341 28342 28343 28344 28345 28346 28347 28348 28349 28350 28351 28352 28353 28354 28355 28356 28357 28358 28359 28360 28361 28362 28363 28364 28365 28366 28367 28368 28369 28370 28371 28372 28373 28374 28375 28376 28377 28378 28379 28380 28381 28382 28383 28384 28385 28386 28387 28388 28389 28390 28391 28392 28393 28394 28395 28396 28397 28398 28399 28400 28401 28402 28403 28404 28405 28406 28407 28408 28409 28410 28411 28412 28413 28414 28415 28416 28417 28418 28419 28420 28421 28422 28423 28424 28425 28426 28427 28428 28429 28430 28431 28432 28433 28434 28435 28436 28437 28438 28439 28440 28441 28442 28443 28444 28445 28446 28447 28448 28449 28450 28451 28452 28453 28454 28455 28456 28457 28458 28459 28460 28461 28462 28463 28464 28465 28466 28467 28468 28469 28470 28471 28472 28473 28474 28475 28476 28477 28478 28479 28480 28481 28482 28483 28484 28485 28486 28487 28488 28489 28490 28491 28492 28493 28494 28495 28496 28497 28498 28499 28500 28501 28502 28503 28504 28505 28506 28507 28508 28509 28510 28511 28512 28513 28514 28515 28516 28517 28518 28519 28520 28521 28522 28523 28524 28525 28526 28527 28528 28529 28530 28531 28532 28533 28534 28535 28536 28537 28538 28539 28540 28541 28542 28543 28544 28545 28546 28547 28548 28549 28550 28551 28552 28553 28554 28555 28556 28557 28558 28559 28560 28561 28562 28563 28564 28565 28566 28567 28568 28569 28570 28571 28572 28573 28574 28575 28576 28577 28578 28579 28580 28581 28582 28583 28584 28585 28586 28587 28588 28589 28590 28591 28592 28593 28594 28595 28596 28597 28598 28599 28600 28601 28602 28603 28604 28605 28606 28607 28608 28609 28610 28611 28612 28613 28614 28615 28616 28617 28618 28619 28620 28621 28622 28623 28624 28625 28626 28627 28628 28629 28630 28631 28632 28633 28634 28635 28636 28637 28638 28639 28640 28641 28642 28643 28644 28645 28646 28647 28648 28649 28650 28651 28652 28653 28654 28655 28656 28657 28658 28659 28660 28661 28662 28663 28664 28665 28666 28667 28668 28669 28670 28671 28672 28673 28674 28675 28676 28677 28678 28679 28680 28681 28682 28683 28684 28685 28686 28687 28688 28689 28690 28691 28692 28693 28694 28695 28696 28697 28698 28699 28700 28701 28702 28703 28704 28705 28706 28707 28708 28709 28710 28711 28712 28713 28714 28715 28716 28717 28718 28719 28720 28721 28722 28723 28724 28725 28726 28727 28728 28729 28730 28731 28732 28733 28734 28735 28736 28737 28738 28739 28740 28741 28742 28743 28744 28745 28746 28747 28748 28749 28750 28751 28752 28753 28754 28755 28756 28757 28758 28759 28760 28761 28762 28763 28764 28765 28766 28767 28768 28769 28770 28771 28772 28773 28774 28775 28776 28777 28778 28779 28780 28781 28782 28783 28784 28785 28786 28787 28788 28789 28790 28791 28792 28793 28794 28795 28796 28797 28798 28799 28800 28801 28802 28803 28804 28805 28806 28807 28808 28809 28810 28811 28812 28813 28814 28815 28816 28817 28818 28819 28820 28821 28822 28823 28824 28825 28826 28827 28828 28829 28830 28831 28832 28833 28834 28835 28836 28837 28838 28839 28840 28841 28842 28843 28844 28845 28846 28847 28848 28849 28850 28851 28852 28853 28854 28855 28856 28857 28858 28859 28860 28861 28862 28863 28864 28865 28866 28867 28868 28869 28870 28871 28872 28873 28874 28875 28876 28877 28878 28879 28880 28881 28882 28883 28884 28885 28886 28887 28888 28889 28890 28891 28892 28893 28894 28895 28896 28897 28898 28899 28900 28901 28902 28903 28904 28905 28906 28907 28908 28909 28910 28911 28912 28913 28914 28915 28916 28917 28918 28919 28920 28921 28922 28923 28924 28925 28926 28927 28928 28929 28930 28931 28932 28933 28934 28935 28936 28937 28938 28939 28940 28941 28942 28943 28944 28945 28946 28947 28948 28949 28950 28951 28952 28953 28954 28955 28956 28957 28958 28959 28960 28961 28962 28963 28964 28965 28966 28967 28968 28969 28970 28971 28972 28973 28974 28975 28976 28977 28978 28979 28980 28981 28982 28983 28984 28985 28986 28987 28988 28989 28990 28991 28992 28993 28994 28995 28996 28997 28998 28999 29000 29001 29002 29003 29004 29005 29006 29007 29008 29009 29010 29011 29012 29013 29014 29015 29016 29017 29018 29019 29020 29021 29022 29023 29024 29025 29026 29027 29028 29029 29030 29031 29032 29033 29034 29035 29036 29037 29038 29039 29040 29041 29042 29043 29044 29045 29046 29047 29048 29049 29050 29051 29052 29053 29054 29055 29056 29057 29058 29059 29060 29061 29062 29063 29064 29065 29066 29067 29068 29069 29070 29071 29072 29073 29074 29075 29076 29077 29078 29079 29080 29081 29082 29083 29084 29085 29086 29087 29088 29089 29090 29091 29092 29093 29094 29095 29096 29097 29098 29099 29100 29101 29102 29103 29104 29105 29106 29107 29108 29109 29110 29111 29112 29113 29114 29115 29116 29117 29118 29119 29120 29121 29122 29123 29124 29125 29126 29127 29128 29129 29130 29131 29132 29133 29134 29135 29136 29137 29138 29139 29140 29141 29142 29143 29144 29145 29146 29147 29148 29149 29150 29151 29152 29153 29154 29155 29156 29157 29158 29159 29160 29161 29162 29163 29164 29165 29166 29167 29168 29169 29170 29171 29172 29173 29174 29175 29176 29177 29178 29179 29180 29181 29182 29183 29184 29185 29186 29187 29188 29189 29190 29191 29192 29193 29194 29195 29196 29197 29198 29199 29200 29201 29202 29203 29204 29205 29206 29207 29208 29209 29210 29211 29212 29213 29214 29215 29216 29217 29218 29219 29220 29221 29222 29223 29224 29225 29226 29227 29228 29229 29230 29231 29232 29233 29234 29235 29236 29237 29238 29239 29240 29241 29242 29243 29244 29245 29246 29247 29248 29249 29250 29251 29252 29253 29254 29255 29256 29257 29258 29259 29260 29261 29262 29263 29264 29265 29266 29267 29268 29269 29270 29271 29272 29273 29274 29275 29276 29277 29278 29279 29280 29281 29282 29283 29284 29285 29286 29287 29288 29289 29290 29291 29292 29293 29294 29295 29296 29297 29298 29299 29300 29301 29302 29303 29304 29305 29306 29307 29308 29309 29310 29311 29312 29313 29314 29315 29316 29317 29318 29319 29320 29321 29322 29323 29324 29325 29326 29327 29328 29329 29330 29331 29332 29333 29334 29335 29336 29337 29338 29339 29340 29341 29342 29343 29344 29345 29346 29347 29348 29349 29350 29351 29352 29353 29354 29355 29356 29357 29358 29359 29360 29361 29362 29363 29364 29365 29366 29367 29368 29369 29370 29371 29372 29373 29374 29375 29376 29377 29378 29379 29380 29381 29382 29383 29384 29385 29386 29387 29388 29389 29390 29391 29392 29393 29394 29395 29396 29397 29398 29399 29400 29401 29402 29403 29404 29405 29406 29407 29408 29409 29410 29411 29412 29413 29414 29415 29416 29417 29418 29419 29420 29421 29422 29423 29424 29425 29426 29427 29428 29429 29430 29431 29432 29433 29434 29435 29436 29437 29438 29439 29440 29441 29442 29443 29444 29445 29446 29447 29448 29449 29450 29451 29452 29453 29454 29455 29456 29457 29458 29459 29460 29461 29462 29463 29464 29465 29466 29467 29468 29469 29470 29471 29472 29473 29474 29475 29476 29477 29478 29479 29480 29481 29482 29483 29484 29485 29486 29487 29488 29489 29490 29491 29492 29493 29494 29495 29496 29497 29498 29499 29500 29501 29502 29503 29504 29505 29506 29507 29508 29509 29510 29511 29512 29513 29514 29515 29516 29517 29518 29519 29520 29521 29522 29523 29524 29525 29526 29527 29528 29529 29530 29531 29532 29533 29534 29535 29536 29537 29538 29539 29540 29541 29542 29543 29544 29545 29546 29547 29548 29549 29550 29551 29552 29553 29554 29555 29556 29557 29558 29559 29560 29561 29562 29563 29564 29565 29566 29567 29568 29569 29570 29571 29572 29573 29574 29575 29576 29577 29578 29579 29580 29581 29582 29583 29584 29585 29586 29587 29588 29589 29590 29591 29592 29593 29594 29595 29596 29597 29598 29599 29600 29601 29602 29603 29604 29605 29606 29607 29608 29609 29610 29611 29612 29613 29614 29615 29616 29617 29618 29619 29620 29621 29622 29623 29624 29625 29626 29627 29628 29629 29630 29631 29632 29633 29634 29635 29636 29637 29638 29639 29640 29641 29642 29643 29644 29645 29646 29647 29648 29649 29650 29651 29652 29653 29654 29655 29656 29657 29658 29659 29660 29661 29662 29663 29664 29665 29666 29667 29668 29669 29670 29671 29672 29673 29674 29675 29676 29677 29678 29679 29680 29681 29682 29683 29684 29685 29686 29687 29688 29689 29690 29691 29692 29693 29694 29695 29696 29697 29698 29699 29700 29701 29702 29703 29704 29705 29706 29707 29708 29709 29710 29711 29712 29713 29714 29715 29716 29717 29718 29719 29720 29721 29722 29723 29724 29725 29726 29727 29728 29729 29730 29731 29732 29733 29734 29735 29736 29737 29738 29739 29740 29741 29742 29743 29744 29745 29746 29747 29748 29749 29750 29751 29752 29753 29754 29755 29756 29757 29758 29759 29760 29761 29762 29763 29764 29765 29766 29767 29768 29769 29770 29771 29772 29773 29774 29775 29776 29777 29778 29779 29780 29781 29782 29783 29784 29785 29786 29787 29788 29789 29790 29791 29792 29793 29794 29795 29796 29797 29798 29799 29800 29801 29802 29803 29804 29805 29806 29807 29808 29809 29810 29811 29812 29813 29814 29815 29816 29817 29818 29819 29820 29821 29822 29823 29824 29825 29826 29827 29828 29829 29830 29831 29832 29833 29834 29835 29836 29837 29838 29839 29840 29841 29842 29843 29844 29845 29846 29847 29848 29849 29850 29851 29852 29853 29854 29855 29856 29857 29858 29859 29860 29861 29862 29863 29864 29865 29866 29867 29868 29869 29870 29871 29872 29873 29874 29875 29876 29877 29878 29879 29880 29881 29882 29883 29884 29885 29886 29887 29888 29889 29890 29891 29892 29893 29894 29895 29896 29897 29898 29899 29900 29901 29902 29903 29904 29905 29906 29907 29908 29909 29910 29911 29912 29913 29914 29915 29916 29917 29918 29919 29920 29921 29922 29923 29924 29925 29926 29927 29928 29929 29930 29931 29932 29933 29934 29935 29936 29937 29938 29939 29940 29941 29942 29943 29944 29945 29946 29947 29948 29949 29950 29951 29952 29953 29954 29955 29956 29957 29958 29959 29960 29961 29962 29963 29964 29965 29966 29967 29968 29969 29970 29971 29972 29973 29974 29975 29976 29977 29978 29979 29980 29981 29982 29983 29984 29985 29986 29987 29988 29989 29990 29991 29992 29993 29994 29995 29996 29997 29998 29999 30000 30001 30002 30003 30004 30005 30006 30007 30008 30009 30010 30011 30012 30013 30014 30015 30016 30017 30018 30019 30020 30021 30022 30023 30024 30025 30026 30027 30028 30029 30030 30031 30032 30033 30034 30035 30036 30037 30038 30039 30040 30041 30042 30043 30044 30045 30046 30047 30048 30049 30050 30051 30052 30053 30054 30055 30056 30057 30058 30059 30060 30061 30062 30063 30064 30065 30066 30067 30068 30069 30070 30071 30072 30073 30074 30075 30076 30077 30078 30079 30080 30081 30082 30083 30084 30085 30086 30087 30088 30089 30090 30091 30092 30093 30094 30095 30096 30097 30098 30099 30100 30101 30102 30103 30104 30105 30106 30107 30108 30109 30110 30111 30112 30113 30114 30115 30116 30117 30118 30119 30120 30121 30122 30123 30124 30125 30126 30127 30128 30129 30130 30131 30132 30133 30134 30135 30136 30137 30138 30139 30140 30141 30142 30143 30144 30145 30146 30147 30148 30149 30150 30151 30152 30153 30154 30155 30156 30157 30158 30159 30160 30161 30162 30163 30164 30165 30166 30167 30168 30169 30170 30171 30172 30173 30174 30175 30176 30177 30178 30179 30180 30181 30182 30183 30184 30185 30186 30187 30188 30189 30190 30191 30192 30193 30194 30195 30196 30197 30198 30199 30200 30201 30202 30203 30204 30205 30206 30207 30208 30209 30210 30211 30212 30213 30214 30215 30216 30217 30218 30219 30220 30221 30222 30223 30224 30225 30226 30227 30228 30229 30230 30231 30232 30233 30234 30235 30236 30237 30238 30239 30240 30241 30242 30243 30244 30245 30246 30247 30248 30249 30250 30251 30252 30253 30254 30255 30256 30257 30258 30259 30260 30261 30262 30263 30264 30265 30266 30267 30268 30269 30270 30271 30272 30273 30274 30275 30276 30277 30278 30279 30280 30281 30282 30283 30284 30285 30286 30287 30288 30289 30290 30291 30292 30293 30294 30295 30296 30297 30298 30299 30300 30301 30302 30303 30304 30305 30306 30307 30308 30309 30310 30311 30312 30313 30314 30315 30316 30317 30318 30319 30320 30321 30322 30323 30324 30325 30326 30327 30328 30329 30330 30331 30332 30333 30334 30335 30336 30337 30338 30339 30340 30341 30342 30343 30344 30345 30346 30347 30348 30349 30350 30351 30352 30353 30354 30355 30356 30357 30358 30359 30360 30361 30362 30363 30364 30365 30366 30367 30368 30369 30370 30371 30372 30373 30374 30375 30376 30377 30378 30379 30380 30381 30382 30383 30384 30385 30386 30387 30388 30389 30390 30391 30392 30393 30394 30395 30396 30397 30398 30399 30400 30401 30402 30403 30404 30405 30406 30407 30408 30409 30410 30411 30412 30413 30414 30415 30416 30417 30418 30419 30420 30421 30422 30423 30424 30425 30426 30427 30428 30429 30430 30431 30432 30433 30434 30435 30436 30437 30438 30439 30440 30441 30442 30443 30444 30445 30446 30447 30448 30449 30450 30451 30452 30453 30454 30455 30456 30457 30458 30459 30460 30461 30462 30463 30464 30465 30466 30467 30468 30469 30470 30471 30472 30473 30474 30475 30476 30477 30478 30479 30480 30481 30482 30483 30484 30485 30486 30487 30488 30489 30490 30491 30492 30493 30494 30495 30496 30497 30498 30499 30500 30501 30502 30503 30504 30505 30506 30507 30508 30509 30510 30511 30512 30513 30514 30515 30516 30517 30518 30519 30520 30521 30522 30523 30524 30525 30526 30527 30528 30529 30530 30531 30532 30533 30534 30535 30536 30537 30538 30539 30540 30541 30542 30543 30544 30545 30546 30547 30548 30549 30550 30551 30552 30553 30554 30555 30556 30557 30558 30559 30560 30561 30562 30563 30564 30565 30566 30567 30568 30569 30570 30571 30572 30573 30574 30575 30576 30577 30578 30579 30580 30581 30582 30583 30584 30585 30586 30587 30588 30589 30590 30591 30592 30593 30594 30595 30596 30597 30598 30599 30600 30601 30602 30603 30604 30605 30606 30607 30608 30609 30610 30611 30612 30613 30614 30615 30616 30617 30618 30619 30620 30621 30622 30623 30624 30625 30626 30627 30628 30629 30630 30631 30632 30633 30634 30635 30636 30637 30638 30639 30640 30641 30642 30643 30644 30645 30646 30647 30648 30649 30650 30651 30652 30653 30654 30655 30656 30657 30658 30659 30660 30661 30662 30663 30664 30665 30666 30667 30668 30669 30670 30671 30672 30673 30674 30675 30676 30677 30678 30679 30680 30681 30682 30683 30684 30685 30686 30687 30688 30689 30690 30691 30692 30693 30694 30695 30696 30697 30698 30699 30700 30701 30702 30703 30704 30705 30706 30707 30708 30709 30710 30711 30712 30713 30714 30715 30716 30717 30718 30719 30720 30721 30722 30723 30724 30725 30726 30727 30728 30729 30730 30731 30732 30733 30734 30735 30736 30737 30738 30739 30740 30741 30742 30743 30744 30745 30746 30747 30748 30749 30750 30751 30752 30753 30754 30755 30756 30757 30758 30759 30760 30761 30762 30763 30764 30765 30766 30767 30768 30769 30770 30771 30772 30773 30774 30775 30776 30777 30778 30779 30780 30781 30782 30783 30784 30785 30786 30787 30788 30789 30790 30791 30792 30793 30794 30795 30796 30797 30798 30799 30800 30801 30802 30803 30804 30805 30806 30807 30808 30809 30810 30811 30812 30813 30814 30815 30816 30817 30818 30819 30820 30821 30822 30823 30824 30825 30826 30827 30828 30829 30830 30831 30832 30833 30834 30835 30836 30837 30838 30839 30840 30841 30842 30843 30844 30845 30846 30847 30848 30849 30850 30851 30852 30853 30854 30855 30856 30857 30858 30859 30860 30861 30862 30863 30864 30865 30866 30867 30868 30869 30870 30871 30872 30873 30874 30875 30876 30877 30878 30879 30880 30881 30882 30883 30884 30885 30886 30887 30888 30889 30890 30891 30892 30893 30894 30895 30896 30897 30898 30899 30900 30901 30902 30903 30904 30905 30906 30907 30908 30909 30910 30911 30912 30913 30914 30915 30916 30917 30918 30919 30920 30921 30922 30923 30924 30925 30926 30927 30928 30929 30930 30931 30932 30933 30934 30935 30936 30937 30938 30939 30940 30941 30942 30943 30944 30945 30946 30947 30948 30949 30950 30951 30952 30953 30954 30955 30956 30957 30958 30959 30960 30961 30962 30963 30964 30965 30966 30967 30968 30969 30970 30971 30972 30973 30974 30975 30976 30977 30978 30979 30980 30981 30982 30983 30984 30985 30986 30987 30988 30989 30990 30991 30992 30993 30994 30995 30996 30997 30998 30999 31000 31001 31002 31003 31004 31005 31006 31007 31008 31009 31010 31011 31012 31013 31014 31015 31016 31017 31018 31019 31020 31021 31022 31023 31024 31025 31026 31027 31028 31029 31030 31031 31032 31033 31034 31035 31036 31037 31038 31039 31040 31041 31042 31043 31044 31045 31046 31047 31048 31049 31050 31051 31052 31053 31054 31055 31056 31057 31058 31059 31060 31061 31062 31063 31064 31065 31066 31067 31068 31069 31070 31071 31072 31073 31074 31075 31076 31077 31078 31079 31080 31081 31082 31083 31084 31085 31086 31087 31088 31089 31090 31091 31092 31093 31094 31095 31096 31097 31098 31099 31100 31101 31102 31103 31104 31105 31106 31107 31108 31109 31110 31111 31112 31113 31114 31115 31116 31117 31118 31119 31120 31121 31122 31123 31124 31125 31126 31127 31128 31129 31130 31131 31132 31133 31134 31135 31136 31137 31138 31139 31140 31141 31142 31143 31144 31145 31146 31147 31148 31149 31150 31151 31152 31153 31154 31155 31156 31157 31158 31159 31160 31161 31162 31163 31164 31165 31166 31167 31168 31169 31170 31171 31172 31173 31174 31175 31176 31177 31178 31179 31180 31181 31182 31183 31184 31185 31186 31187 31188 31189 31190 31191 31192 31193 31194 31195 31196 31197 31198 31199 31200 31201 31202 31203 31204 31205 31206 31207 31208 31209 31210 31211 31212 31213 31214 31215 31216 31217 31218 31219 31220 31221 31222 31223 31224 31225 31226 31227 31228 31229 31230 31231 31232 31233 31234 31235 31236 31237 31238 31239 31240 31241 31242 31243 31244 31245 31246 31247 31248 31249 31250 31251 31252 31253 31254 31255 31256 31257 31258 31259 31260 31261 31262 31263 31264 31265 31266 31267 31268 31269 31270 31271 31272 31273 31274 31275 31276 31277 31278 31279 31280 31281 31282 31283 31284 31285 31286 31287 31288 31289 31290 31291 31292 31293 31294 31295 31296 31297 31298 31299 31300 31301 31302 31303 31304 31305 31306 31307 31308 31309 31310 31311 31312 31313 31314 31315 31316 31317 31318 31319 31320 31321 31322 31323 31324 31325 31326 31327 31328 31329 31330 31331 31332 31333 31334 31335 31336 31337 31338 31339 31340 31341 31342 31343 31344 31345 31346 31347 31348 31349 31350 31351 31352 31353 31354 31355 31356 31357 31358 31359 31360 31361 31362 31363 31364 31365 31366 31367 31368 31369 31370 31371 31372 31373 31374 31375 31376 31377 31378 31379 31380 31381 31382 31383 31384 31385 31386 31387 31388 31389 31390 31391 31392 31393 31394 31395 31396 31397 31398 31399 31400 31401 31402 31403 31404 31405 31406 31407 31408 31409 31410 31411 31412 31413 31414 31415 31416 31417 31418 31419 31420 31421 31422 31423 31424 31425 31426 31427 31428 31429 31430 31431 31432 31433 31434 31435 31436 31437 31438 31439 31440 31441 31442 31443 31444 31445 31446 31447 31448 31449 31450 31451 31452 31453 31454 31455 31456 31457 31458 31459 31460 31461 31462 31463 31464 31465 31466 31467 31468 31469 31470 31471 31472 31473 31474 31475 31476 31477 31478 31479 31480 31481 31482 31483 31484 31485 31486 31487 31488 31489 31490 31491 31492 31493 31494 31495 31496 31497 31498 31499 31500 31501 31502 31503 31504 31505 31506 31507 31508 31509 31510 31511 31512 31513 31514 31515 31516 31517 31518 31519 31520 31521 31522 31523 31524 31525 31526 31527 31528 31529 31530 31531 31532 31533 31534 31535 31536 31537 31538 31539 31540 31541 31542 31543 31544 31545 31546 31547 31548 31549 31550 31551 31552 31553 31554 31555 31556 31557 31558 31559 31560 31561 31562 31563 31564 31565 31566 31567 31568 31569 31570 31571 31572 31573 31574 31575 31576 31577 31578 31579 31580 31581 31582 31583 31584 31585 31586 31587 31588 31589 31590 31591 31592 31593 31594 31595 31596 31597 31598 31599 31600 31601 31602 31603 31604 31605 31606 31607 31608 31609 31610 31611 31612 31613 31614 31615 31616 31617 31618 31619 31620 31621 31622 31623 31624 31625 31626 31627 31628 31629 31630 31631 31632 31633 31634 31635 31636 31637 31638 31639 31640 31641 31642 31643 31644 31645 31646 31647 31648 31649 31650 31651 31652 31653 31654 31655 31656 31657 31658 31659 31660 31661 31662 31663 31664 31665 31666 31667 31668 31669 31670 31671 31672 31673 31674 31675 31676 31677 31678 31679 31680 31681 31682 31683 31684 31685 31686 31687 31688 31689 31690 31691 31692 31693 31694 31695 31696 31697 31698 31699 31700 31701 31702 31703 31704 31705 31706 31707 31708 31709 31710 31711 31712 31713 31714 31715 31716 31717 31718 31719 31720 31721 31722 31723 31724 31725 31726 31727 31728 31729 31730 31731 31732 31733 31734 31735 31736 31737 31738 31739 31740 31741 31742 31743 31744 31745 31746 31747 31748 31749 31750 31751 31752 31753 31754 31755 31756 31757 31758 31759 31760 31761 31762 31763 31764 31765 31766 31767 31768 31769 31770 31771 31772 31773 31774 31775 31776 31777 31778 31779 31780 31781 31782 31783 31784 31785 31786 31787 31788 31789 31790 31791 31792 31793 31794 31795 31796 31797 31798 31799 31800 31801 31802 31803 31804 31805 31806 31807 31808 31809 31810 31811 31812 31813 31814 31815 31816 31817 31818 31819 31820 31821 31822 31823 31824 31825 31826 31827 31828 31829 31830 31831 31832 31833 31834 31835 31836 31837 31838 31839 31840 31841 31842 31843 31844 31845 31846 31847 31848 31849 31850 31851 31852 31853 31854 31855 31856 31857 31858 31859 31860 31861 31862 31863 31864 31865 31866 31867 31868 31869 31870 31871 31872 31873 31874 31875 31876 31877 31878 31879 31880 31881 31882 31883 31884 31885 31886 31887 31888 31889 31890 31891 31892 31893 31894 31895 31896 31897 
</DataArray>
<DataArray type="UInt32" Name="offsets" format="ascii">
3 6 9 12 15 17 20 23 26 29 32 35 38 40 43 46 49 52 54 57 60 62 65 68 71 74 76 79 82 85 88 90 93 96 99 102 105 108 111 114 117 120 123 126 129 131 134 137 139 142 145 148 151 154 156 159 162 165 168 171 174 177 179 182 185 188 191 193 196 199 202 205 208 211 214 217 220 222 225 228 230 233 236 238 241 244 247 250 252 255 258 261 264 267 270 273 275 277 279 282 285 287 290 293 296 299 302 304 307 310 313 316 319 322 325 328 331 334 337 340 343 345 348 351 354 356 359 362 365 368 371 374 376 379 382 385 388 391 394 397 400 403 406 409 412 415 418 421 424 427 430 433 436 439 442 445 448 451 453 456 459 462 464 467 470 472 475 478 481 484 487 490 493 496 499 502 505 507 510 513 516 519 522 525 528 531 533 536 539 542 545 548 551 554 557 559 562 565 568 571 574 577 580 583 586 588 591 594 597 600 603 606 609 612 615 618 621 624 627 630 633 636 639 642 645 648 651 654 657 659 662 665 668 670 673 675 678 680 683 686 688 691 694 697 699 702 704 707 709 712 714 716 719 721 724 727 729 732 734 737 740 743 745 748 750 752 755 758 760 763 766 769 771 774 776 778 780 783 785 788 791 794 796 799 801 803 805 808 811 813 815 818 821 824 827 829 832 834 837 840 842 845 848 851 853 856 858 860 862 865 868 871 873 876 878 880 882 884 887 890 893 895 897 900 903 905 907 909 912 914 917 920 923 926 928 931 934 937 940 943 946 949 951 954 957 960 963 966 969 971 973 976 979 982 984 987 990 993 995 998 1000 1003 1005 1007 1010 1013 1016 1019 1021 1024 1027 1029 1032 1035 1038 1041 1043 1046 1048 1051 1054 1057 1060 1063 1065 1067 1070 1073 1076 1079 1082 1085 1088 1091 1093 1096 1099 1102 1104 1107 1110 1112 1115 1117 1120 1123 1126 1129 1132 1135 1138 1141 1144 1147 1150 1152 1155 1157 1160 1162 1165 1168 1171 1173 1176 1178 1181 1183 1186 1189 1192 1195 1198 1201 1203 1206 1208 1211 1214 1217 1219 1222 1225 1228 1230 1233 1235 1237 1240 1243 1246 1249 1251 1254 1257 1260 1263 1265 1267 1270 1273 1275 1278 1280 1283 1285 1287 1290 1293 1296 1298 1301 1304 1307 1310 1312 1315 1318 1321 1324 1327 1330 1333 1336 1339 1342 1345 1347 1350 1353 1356 1359 1361 1364 1367 1370 1372 1375 1377 1379 1381 1384 1387 1390 1392 1394 1397 1399 1402 1405 1407 1410 1413 1416 1419 1421 1424 1427 1430 1433 1436 1439 1442 1445 1448 1451 1454 1456 1458 1461 1464 1466 1469 1472 1475 1477 1480 1483 1486 1489 1492 1495 1497 1500 1503 1506 1508 1511 1514 1517 1519 1522 1525 1528 1531 1534 1537 1540 1543 1546 1549 1552 1554 1557 1560 1563 1565 1568 1571 1574 1577 1580 1583 1586 1588 1591 1594 1597 1600 1603 1605 1608 1611 1614 1617 1620 1623 1626 1629 1632 1635 1638 1641 1644 1647 1650 1653 1656 1659 1662 1664 1667 1670 1673 1676 1678 1681 1684 1686 1689 1692 1695 1698 1701 1704 1707 1709 1712 1715 1718 1721 1724 1727 1730 1733 1735 1738 1740 1743 1746 1748 1751 1754 1757 1759 1762 1765 1767 1770 1773 1776 1778 1781 1783 1786 1789 1791 1794 1796 1799 1802 1805 1808 1811 1814 1817 1820 1823 1826 1829 1832 1835 1838 1841 1844 1847 1850 1853 1856 1859 1862 1864 1867 1869 1872 1874 1877 1880 1883 1886 1889 1892 1895 1898 1901 1904 1907 1910 1913 1916 1919 1921 1924 1927 1930 1933 1936 1939 1942 1945 1948 1950 1953 1956 1959 1962 1965 1968 1971 1974 1977 1980 1983 1986 1989 1992 1995 1998 2001 2004 2007 2010 2013 2016 2019 2022 2025 2028 2031 2034 2037 2039 2042 2045 2047 2050 2053 2056 2058 2060 2063 2065 2068 2071 2074 2077 2080 2082 2085 2088 2091 2094 2097 2099 2102 2105 2108 2111 2114 2117 2120 2123 2126 2129 2132 2135 2138 2141 2144 2147 2150 2153 2156 2159 2162 2165 2168 2171 2174 2177 2180 2183 2186 2189 2192 2195 2198 2201 2204 2207 2210 2213 2216 2219 2222 2225 2228 2231 2234 2237 2240 2243 2246 2248 2251 2254 2257 2260 2263 2266 2269 2272 2275 2278 2281 2284 2287 2290 2293 2295 2298 2301 2304 2307 2309 2312 2315 2318 2321 2324 2327 2330 2333 2336 2339 2342 2345 2348 2351 2354 2357 2360 2363 2366 2369 2372 2375 2378 2381 2384 2387 2390 2392 2395 2398 2400 2403 2405 2407 2409 2411 2414 2417 2419 2422 2425 2428 2431 2434 2437 2440 2443 2446 2449 2452 2455 2458 2461 2464 2467 2470 2472 2475 2478 2480 2483 2485 2488 2491 2494 2497 2499 2502 2504 2507 2510 2513 2516 2518 2521 2524 2527 2529 2532 2535 2538 2541 2544 2546 2549 2551 2554 2557 2559 2561 2564 2566 2569 2572 2575 2578 2581 2584 2587 2590 2593 2596 2599 2601 2604 2607 2610 2612 2615 2618 2621 2623 2626 2629 2631 2633 2635 2638 2641 2644 2647 2650 2653 2656 2659 2662 2665 2668 2670 2673 2676 2679 2682 2685 2688 2691 2694 2696 2698 2700 2703 2706 2709 2712 2715 2718 2721 2724 2726 2728 2731 2734 2737 2739 2742 2745 2747 2750 2753 2756 2759 2762 2765 2768 2771 2774 2777 2780 2782 2785 2788 2791 2794 2797 2800 2803 2806 2808 2811 2814 2817 2820 2823 2826 2829 2832 2835 2838 2840 2843 2845 2847 2849 2852 2855 2858 2861 2864 2867 2870 2872 2874 2877 2879 2882 2885 2888 2891 2894 2896 2899 2901 2903 2906 2909 2912 2914 2917 2919 2922 2925 2928 2931 2933 2936 2939 2942 2945 2948 2951 2954 2957 2960 2963 2966 2969 2972 2975 2978 2981 2984 2986 2989 2992 2995 2997 3000 3003 3006 3009 3012 3014 3017 3020 3023 3026 3029 3032 3034 3037 3039 3042 3045 3048 3051 3054 3057 3060 3063 3065 3068 3071 3074 3076 3079 3082 3085 3088 3091 3094 3097 3100 3103 3106 3109 3112 3115 3118 3121 3124 3127 3130 3133 3136 3139 3142 3145 3148 3151 3153 3155 3157 3160 3163 3166 3169 3171 3174 3177 3180 3183 3185 3188 3191 3194 3197 3200 3203 3206 3208 3211 3214 3217 3220 3223 3226 3229 3232 3234 3237 3240 3243 3246 3249 3252 3255 3258 3261 3264 3267 3270 3272 3275 3278 3281 3284 3287 3290 3292 3295 3298 3301 3304 3307 3310 3313 3316 3318 3321 3324 3327 3329 3332 3335 3338 3341 3344 3347 3350 3353 3356 3359 3362 3365 3367 3370 3373 3376 3379 3382 3385 3388 3391 3394 3397 3400 3403 3406 3409 3412 3415 3418 3421 3424 3427 3430 3433 3436 3439 3442 3445 3448 3451 3454 3457 3460 3463 3466 3469 3472 3475 3478 3481 3484 3487 3490 3493 3496 3499 3502 3505 3508 3510 3513 3516 3519 3522 3525 3528 3531 3534 3537 3540 3543 3546 3549 3552 3555 3558 3561 3564 3567 3570 3573 3576 3579 3582 3584 3587 3590 3593 3596 3599 3602 3605 3608 3611 3614 3616 3619 3622 3624 3627 3630 3633 3636 3639 3642 3645 3648 3651 3653 3656 3658 3661 3664 3667 3670 3672 3675 3678 3680 3683 3685 3688 3691 3694 3697 3700 3702 3705 3708 3711 3714 3717 3720 3723 3726 3728 3731 3734 3737 3740 3743 3746 3749 3752 3755 3758 3761 3764 3767 3770 3772 3775 3777 3779 3782 3785 3788 3791 3794 3796 3799 3802 3805 3808 3811 3814 3817 3820 3823 3826 3829 3832 3835 3838 3841 3843 3846 3849 3852 3855 3858 3861 3864 3867 3870 3873 3876 3879 3882 3885 3888 3891 3893 3896 3899 3902 3905 3908 3910 3912 3915 3918 3920 3923 3926 3929 3932 3935 3938 3941 3944 3947 3950 3952 3955 3958 3961 3964 3967 3970 3973 3976 3979 3981 3984 3986 3989 3992 3995 3998 4001 4003 4006 4009 4012 4015 4017 4020 4023 4026 4028 4031 4034 4037 4039 4042 4045 4047 4050 4053 4056 4059 4062 4065 4068 4071 4074 4077 4080 4083 4086 4089 4092 4095 4097 4100 4103 4106 4109 4112 4115 4118 4120 4123 4126 4129 4132 4135 4138 4141 4144 4147 4150 4153 4156 4159 4162 4165 4168 4171 4174 4177 4180 4183 4186 4189 4192 4195 4198 4201 4203 4206 4209 4212 4215 4217 4220 4223 4226 4228 4231 4234 4237 4240 4243 4246 4249 4252 4255 4257 4260 4262 4265 4268 4271 4274 4277 4280 4283 4286 4289 4292 4295 4298 4301 4304 4307 4310 4313 4316 4318 4320 4323 4326 4329 4331 4334 4337 4339 4342 4345 4347 4350 4353 4356 4358 4361 4364 4366 4369 4372 4375 4378 4381 4384 4387 4390 4393 4396 4399 4402 4405 4408 4411 4414 4417 4420 4423 4426 4428 4431 4433 4436 4439 4442 4445 4448 4451 4454 4457 4460 4463 4466 4468 4471 4473 4476 4479 4482 4484 4487 4490 4493 4496 4499 4501 4504 4507 4510 4513 4516 4519 4521 4524 4527 4530 4533 4536 4539 4542 4545 4548 4551 4554 4556 4559 4562 4565 4568 4571 4574 4577 4580 4582 4585 4588 4591 4593 4596 4599 4601 4604 4607 4610 4613 4616 4618 4621 4624 4627 4630 4633 4636 4639 4642 4645 4647 4650 4653 4655 4658 4660 4663 4665 4667 4669 4672 4674 4677 4680 4683 4686 4689 4692 4694 4697 4700 4703 4706 4709 4712 4714 4717 4720 4723 4726 4729 4732 4735 4737 4740 4743 4746 4749 4751 4754 4757 4760 4763 4766 4768 4771 4773 4776 4779 4782 4785 4788 4791 4794 4797 4800 4803 4805 4808 4811 4814 4817 4820 4823 4826 4828 4831 4834 4837 4840 4843 4846 4849 4851 4854 4856 4859 4862 4865 4868 4871 4874 4877 4880 4882 4885 4888 4891 4893 4895 4898 4901 4904 4907 4910 4912 4914 4917 4919 4922 4925 4927 4930 4933 4935 4938 4941 4944 4947 4950 4953 4956 4959 4961 4964 4967 4970 4973 4976 4978 4981 4984 4987 4990 4992 4995 4998 5000 5003 5006 5009 5012 5015 5018 5021 5024 5027 5030 5033 5036 5039 5042 5045 5048 5051 5054 5057 5060 5063 5066 5069 5072 5075 5078 5081 5084 5087 5090 5093 5096 5099 5102 5105 5108 5111 5114 5117 5120 5123 5125 5128 5131 5133 5136 5139 5142 5145 5148 5150 5153 5156 5159 5162 5164 5167 5170 5173 5176 5179 5182 5185 5188 5191 5194 5197 5200 5203 5206 5209 5212 5215 5218 5221 5224 5227 5230 5233 5236 5238 5241 5244 5247 5249 5252 5255 5258 5261 5264 5267 5269 5272 5275 5278 5281 5284 5287 5290 5293 5296 5299 5302 5304 5307 5309 5311 5314 5317 5319 5322 5325 5328 5331 5334 5337 5340 5343 5346 5349 5352 5354 5357 5360 5362 5365 5368 5371 5374 5377 5380 5383 5386 5389 5392 5395 5398 5401 5404 5407 5409 5412 5415 5418 5421 5424 5427 5430 5432 5435 5437 5440 5443 5446 5449 5451 5454 5456 5459 5462 5465 5468 5471 5474 5477 5480 5483 5485 5488 5491 5494 5497 5500 5503 5506 5509 5512 5515 5518 5521 5524 5527 5530 5533 5536 5538 5541 5544 5547 5550 5553 5556 5559 5562 5565 5568 5571 5574 5577 5580 5583 5586 5589 5592 5595 5598 5601 5604 5607 5610 5613 5615 5617 5620 5623 5626 5629 5632 5635 5638 5641 5644 5647 5650 5652 5655 5658 5661 5664 5666 5669 5672 5675 5678 5680 5683 5686 5689 5692 5695 5698 5701 5704 5706 5709 5712 5715 5718 5721 5724 5727 5730 5733 5735 5738 5741 5744 5747 5750 5753 5756 5759 5762 5765 5768 5771 5774 5777 5780 5783 5786 5789 5792 5795 5797 5800 5803 5806 5809 5812 5815 5818 5821 5824 5827 5830 5833 5836 5839 5841 5844 5846 5849 5852 5855 5858 5861 5864 5867 5870 5872 5875 5878 5880 5883 5886 5889 5892 5895 5898 5901 5904 5907 5910 5913 5916 5919 5922 5925 5928 5931 5934 5937 5940 5943 5946 5949 5952 5955 5958 5961 5964 5967 5970 5973 5976 5979 5982 5985 5988 5990 5993 5996 5998 6001 6004 6007 6010 6012 6015 6017 6020 6023 6025 6028 6030 6033 6036 6039 6042 6045 6047 6050 6053 6056 6059 6062 6065 6068 6071 6074 6077 6080 6083 6085 6088 6091 6094 6096 6099 6102 6105 6108 6111 6114 6117 6120 6123 6125 6128 6131 6134 6137 6139 6141 6144 6147 6150 6153 6156 6159 6162 6165 6167 6170 6173 6176 6179 6182 6184 6187 6190 6193 6195 6198 6201 6204 6206 6209 6212 6215 6218 6220 6223 6226 6229 6232 6235 6238 6241 6244 6247 6250 6253 6256 6259 6262 6264 6267 6270 6273 6276 6279 6282 6284 6287 6289 6291 6294 6296 6299 6301 6304 6307 6310 6313 6315 6318 6321 6324 6327 6329 6332 6335 6338 6341 6344 6347 6350 6353 6356 6358 6361 6364 6367 6370 6373 6376 6379 6382 6385 6388 6391 6394 6397 6400 6402 6405 6408 6411 6413 6416 6419 6422 6424 6427 6429 6432 6435 6438 6441 6444 6447 6450 6453 6456 6459 6462 6465 6468 6471 6474 6477 6479 6482 6485 6488 6491 6494 6497 6499 6502 6505 6508 6511 6514 6517 6520 6523 6526 6529 6532 6535 6538 6541 6544 6547 6550 6553 6555 6558 6561 6564 6567 6570 6573 6576 6579 6582 6585 6588 6591 6594 6597 6600 6603 6606 6609 6612 6615 6618 6621 6624 6627 6630 6633 6636 6639 6642 6645 6648 6651 6654 6657 6659 6662 6665 6668 6671 6673 6676 6679 6682 6685 6688 6691 6694 6696 6699 6702 6705 6708 6711 6714 6717 6720 6723 6725 6728 6731 6733 6736 6739 6742 6745 6748 6750 6753 6756 6759 6761 6764 6767 6769 6772 6775 6778 6781 6784 6787 6790 6793 6796 6799 6802 6805 6808 6811 6814 6817 6820 6823 6826 6829 6831 6834 6837 6840 6843 6846 6849 6852 6855 6858 6861 6863 6865 6868 6870 6873 6876 6879 6882 6885 6887 6890 6893 6896 6899 6901 6904 6907 6910 6913 6916 6918 6921 6923 6926 6929 6931 6934 6937 6940 6943 6946 6949 6952 6955 6957 6960 6963 6966 6969 6972 6975 6977 6980 6983 6986 6989 6992 6995 6997 7000 7003 7006 7009 7011 7014 7017 7019 7022 7024 7027 7030 7032 7035 7038 7041 7044 7047 7050 7052 7055 7058 7061 7064 7066 7069 7072 7075 7078 7081 7084 7087 7090 7092 7094 7097 7100 7103 7106 7109 7112 7115 7118 7120 7123 7126 7129 7132 7135 7138 7140 7143 7146 7149 7152 7155 7158 7161 7163 7166 7169 7172 7174 7177 7180 7183 7186 7189 7192 7195 7198 7201 7204 7207 7210 7212 7215 7218 7221 7224 7226 7229 7232 7234 7237 7240 7243 7246 7248 7251 7254 7257 7259 7261 7264 7267 7270 7272 7275 7278 7281 7283 7286 7289 7292 7295 7298 7301 7304 7307 7310 7312 7315 7318 7321 7323 7326 7329 7332 7335 7338 7341 7344 7347 7350 7353 7356 7359 7361 7364 7366 7369 7372 7374 7377 7380 7382 7385 7388 7391 7394 7397 7400 7403 7405 7408 7411 7414 7417 7420 7422 7425 7427 7430 7433 7436 7438 7440 7443 7445 7447 7450 7452 7455 7458 7461 7464 7467 7470 7472 7475 7477 7480 7483 7486 7489 7492 7495 7498 7501 7504 7507 7510 7513 7516 7518 7521 7524 7526 7529 7531 7534 7537 7539 7542 7545 7548 7550 7552 7555 7558 7560 7563 7566 7569 7572 7575 7578 7581 7584 7587 7590 7593 7596 7599 7602 7605 7608 7611 7614 7617 7620 7623 7626 7629 7631 7633 7636 7638 7641 7643 7646 7649 7651 7653 7656 7659 7661 7664 7667 7669 7672 7675 7677 7680 7682 7685 7688 7691 7694 7696 7699 7702 7705 7708 7710 7713 7715 7717 7720 7722 7725 7728 7730 7732 7735 7738 7741 7743 7746 7749 7752 7755 7757 7759 7762 7765 7768 7771 7774 7776 7779 7782 7785 7788 7791 7794 7797 7800 7803 7806 7809 7811 7814 7816 7819 7821 7824 7827 7829 7832 7834 7837 7840 7843 7846 7849 7852 7855 7858 7860 7863 7866 7868 7871 7874 7877 7880 7882 7885 7888 7891 7894 7897 7900 7903 7906 7909 7912 7915 7918 7920 7923 7926 7929 7932 7935 7938 7941 7944 7947 7950 7953 7955 7958 7961 7964 7967 7970 7973 7975 7978 7980 7983 7986 7988 7991 7994 7997 8000 8003 8006 8009 8012 8015 8018 8021 8024 8027 8030 8033 8036 8039 8041 8043 8046 8049 8052 8054 8057 8060 8062 8065 8068 8071 8074 8077 8080 8083 8086 8089 8092 8095 8098 8101 8104 8107 8110 8113 8116 8119 8122 8125 8128 8131 8134 8137 8139 8141 8144 8147 8150 8153 8156 8159 8162 8165 8168 8171 8174 8176 8179 8182 8185 8188 8191 8194 8197 8200 8203 8206 8209 8212 8215 8218 8221 8224 8227 8230 8233 8236 8239 8242 8245 8248 8251 8254 8257 8260 8263 8266 8269 8272 8275 8277 8280 8283 8286 8289 8292 8294 8297 8300 8302 8305 8308 8310 8312 8315 8318 8321 8324 8327 8330 8333 8336 8339 8342 8345 8348 8351 8353 8356 8359 8361 8364 8367 8370 8373 8376 8379 8381 8384 8387 8389 8392 8395 8398 8401 8404 8407 8410 8413 8416 8419 8422 8425 8428 8430 8433 8436 8439 8442 8445 8448 8451 8453 8456 8459 8462 8465 8468 8471 8474 8477 8480 8483 8486 8489 8491 8494 8497 8499 8502 8505 8508 8511 8514 8517 8520 8523 8526 8529 8532 8535 8538 8541 8544 8547 8550 8553 8556 8559 8561 8564 8567 8569 8572 8574 8577 8580 8583 8585 8588 8591 8593 8596 8598 8601 8604 8607 8609 8612 8615 8618 8621 8623 8626 8629 8632 8635 8638 8641 8644 8646 8649 8652 8655 8657 8660 8663 8666 8669 8672 8675 8678 8681 8684 8687 8690 8693 8695 8698 8701 8704 8707 8710 8713 8716 8719 8721 8724 8727 8730 8733 8736 8739 8742 8745 8748 8751 8754 8756 8759 8762 8765 8768 8771 8774 8777 8780 8783 8786 8789 8792 8795 8798 8801 8804 8807 8810 8813 8815 8817 8820 8823 8826 8828 8831 8834 8837 8840 8843 8846 8849 8852 8855 8858 8861 8864 8866 8869 8872 8875 8878 8881 8884 8887 8890 8893 8895 8898 8901 8904 8907 8910 8913 8916 8919 8922 8925 8928 8931 8934 8937 8940 8943 8945 8948 8950 8953 8956 8959 8962 8965 8967 8970 8973 8976 8979 8981 8984 8987 8990 8992 8995 8998 9001 9003 9006 9009 9012 9015 9018 9021 9024 9027 9030 9032 9035 9038 9041 9043 9046 9049 9051 9054 9057 9060 9063 9066 9069 9071 9074 9077 9080 9083 9086 9089 9092 9095 9097 9100 9103 9106 9108 9111 9114 9117 9120 9123 9126 9129 9132 9135 9138 9141 9144 9147 9150 9153 9156 9159 9162 9165 9168 9171 9174 9177 9180 9183 9186 9189 9191 9194 9197 9200 9203 9206 9209 9212 9214 9217 9220 9223 9226 9229 9232 9235 9238 9241 9244 9247 9250 9253 9256 9259 9262 9265 9268 9271 9274 9277 9280 9283 9286 9289 9291 9294 9296 9299 9302 9305 9308 9311 9314 9316 9319 9322 9325 9327 9330 9333 9335 9338 9341 9344 9347 9350 9353 9356 9359 9362 9365 9368 9371 9373 9376 9379 9382 9385 9388 9390 9393 9396 9399 9402 9405 9408 9411 9414 9417 9420 9423 9426 9429 9431 9434 9437 9440 9442 9445 9448 9451 9454 9457 9460 9463 9466 9469 9472 9475 9478 9480 9482 9485 9488 9491 9494 9496 9499 9502 9505 9508 9511 9514 9517 9520 9523 9525 9527 9530 9533 9536 9539 9542 9544 9547 9550 9553 9556 9559 9561 9564 9567 9570 9573 9576 9578 9581 9583 9586 9589 9592 9595 9597 9600 9602 9605 9607 9609 9612 9615 9618 9621 9624 9627 9630 9632 9634 9637 9640 9643 9646 9649 9652 9654 9656 9658 9661 9663 9665 9668 9671 9674 9676 9679 9682 9685 9688 9691 9693 9695 9697 9700 9702 9705 9708 9711 9713 9716 9718 9720 9723 9726 9729 9732 9735 9738 9741 9743 9745 9748 9751 9753 9755 9757 9760 9763 9766 9769 9772 9775 9778 9781 9784 9787 9790 9793 9796 9799 9802 9805 9808 9811 9814 9817 9820 9823 9826 9829 9832 9835 9838 9841 9844 9847 9850 9853 9856 9859 9862 9865 9868 9871 9874 9877 9879 9882 9885 9888 9891 9894 9897 9900 9903 9906 9909 9911 9914 9917 9920 9923 9926 9929 9931 9934 9937 9939 9942 9945 9948 9951 9954 9957 9960 9963 9966 9969 9972 9975 9978 9980 9983 9985 9988 9991 9994 9997 9999 10002 10005 10008 10010 10013 10016 10018 10021 10024 10027 10029 10032 10035 10037 10040 10043 10046 10049 10052 10054 10057 10060 10063 10066 10069 10072 10075 10077 10080 10083 10086 10089 10092 10095 10098 10100 10103 10106 10108 10111 10114 10117 10120 10122 10125 10127 10130 10133 10136 10139 10142 10144 10147 10150 10153 10156 10158 10161 10164 10167 10170 10173 10176 10178 10180 10183 10186 10189 10192 10195 10197 10200 10203 10205 10208 10211 10214 10217 10220 10223 10226 10229 10232 10235 10237 10240 10243 10246 10249 10252 10255 10258 10261 10264 10267 10270 10273 10276 10279 10282 10285 10288 10291 10293 10296 10299 10302 10305 10308 10311 10313 10316 10319 10322 10325 10328 10331 10334 10336 10338 10341 10344 10347 10350 10352 10355 10358 10361 10364 10367 10370 10373 10375 10378 10381 10383 10386 10388 10390 10392 10395 10398 10401 10404 10407 10410 10412 10415 10418 10421 10424 10427 10429 10432 10435 10438 10441 10443 10446 10449 10452 10454 10457 10460 10463 10465 10468 10471 10474 10477 10480 10483 10486 10489 10492 10495 10498 10501 10504 10507 10510 10513 10516 10519 10522 10525 10528 10531 10534 10537 10540 10542 10545 10548 10551 10554 10557 10560 10563 10565 10568 10570 10573 10576 10579 10582 10585 10588 10590 10593 10596 10598 10601 10604 10607 10609 10612 10615 10617 10620 10623 10626 10629 10632 10634 10637 10640 10643 10645 10647 10650 10653 10656 10659 10662 10665 10668 10671 10674 10677 10680 10683 10685 10688 10691 10694 10697 10700 10703 10706 10709 10712 10714 10717 10720 10723 10726 10729 10731 10733 10736 10739 10742 10745 10748 10751 10754 10757 10760 10762 10765 10768 10771 10774 10777 10780 10783 10786 10788 10791 10794 10797 10800 10803 10806 10809 10812 10815 10818 10821 10824 10827 10830 10833 10836 10839 10842 10844 10847 10850 10853 10856 10858 10861 10863 10866 10868 10871 10874 10877 10880 10883 10886 10889 10892 10895 10898 10901 10904 10907 10910 10913 10916 10919 10921 10924 10927 10930 10933 10936 10938 10941 10944 10947 10949 10951 10954 10957 10960 10963 10966 10968 10971 10974 10977 10980 10982 10985 10988 10991 10994 10997 11000 11003 11006 11008 11011 11014 11017 11020 11023 11026 11029 11031 11034 11037 11040 11043 11046 11049 11052 11055 11058 11060 11063 11066 11069 11072 11075 11078 11081 11084 11087 11090 11093 11096 11099 11102 11105 11108 11111 11114 11116 11119 11122 11125 11128 11131 11134 11137 11140 11143 11146 11149 11152 11155 11157 11160 11163 11166 11169 11172 11175 11177 11180 11183 11185 11188 11191 11193 11196 11199 11202 11205 11208 11211 11214 11217 11220 11223 11226 11229 11232 11235 11238 11241 11244 11247 11250 11253 11256 11259 11262 11265 11268 11271 11273 11276 11278 11281 11283 11285 11288 11291 11294 11296 11299 11302 11305 11308 11311 11314 11317 11320 11323 11325 11327 11330 11332 11335 11338 11341 11344 11347 11350 11353 11356 11359 11362 11365 11368 11371 11374 11376 11379 11381 11383 11386 11388 11391 11394 11397 11400 11403 11406 11409 11412 11415 11417 11419 11422 11425 11428 11431 11434 11437 11440 11443 11446 11449 11452 11455 11458 11461 11464 11467 11470 11473 11476 11479 11482 11485 11487 11490 11493 11496 11499 11502 11504 11507 11510 11513 11516 11519 11521 11524 11527 11530 11532 11535 11538 11541 11544 11547 11550 11553 11556 11559 11561 11564 11567 11570 11573 11575 11578 11581 11584 11587 11590 11593 11595 11598 11601 11604 11607 11610 11613 11616 11618 11621 11624 11627 11630 11632 11635 11638 11641 11644 11647 11650 11653 11656 11659 11662 11664 11667 11670 11673 11676 11678 11681 11684 11687 11689 11692 11695 11698 11701 11704 11706 11709 11712 11715 11718 11721 11724 11727 11730 11733 11736 11739 11742 11745 11748 11750 11752 11755 11758 11760 11763 11766 11769 11772 11775 11778 11781 11783 11786 11789 11792 11795 11798 11801 11803 11806 11809 11812 11815 11818 11821 11824 11827 11830 11833 11836 11839 11842 11845 11848 11851 11854 11857 11860 11863 11866 11869 11872 11874 11877 11880 11883 11886 11889 11892 11895 11898 11900 11903 11906 11909 11912 11914 11917 11920 11923 11926 11929 11931 11934 11936 11939 11941 11944 11947 11950 11953 11956 11959 11962 11964 11967 11970 11973 11975 11978 11981 11984 11987 11990 11992 11995 11998 12001 12004 12007 12009 12012 12014 12017 12020 12022 12025 12027 12030 12033 12036 12039 12042 12044 12047 12050 12053 12055 12058 12061 12064 12067 12070 12073 12076 12079 12082 12085 12087 12090 12093 12096 12099 12102 12105 12108 12111 12114 12117 12120 12123 12126 12129 12132 12135 12138 12141 12144 12147 12150 12153 12155 12158 12161 12164 12167 12170 12173 12176 12179 12182 12185 12188 12191 12194 12197 12200 12203 12206 12209 12211 12214 12217 12220 12222 12225 12228 12231 12234 12237 12240 12242 12245 12248 12251 12253 12255 12258 12260 12263 12265 12267 12270 12272 12275 12278 12280 12283 12286 12288 12290 12293 12296 12299 12302 12305 12308 12311 12314 12316 12319 12321 12324 12327 12330 12333 12336 12339 12342 12345 12348 12351 12354 12357 12360 12363 12366 12369 12372 12375 12378 12381 12384 12387 12389 12392 12395 12398 12401 12404 12407 12410 12413 12415 12418 12421 12423 12426 12429 12431 12433 12436 12439 12441 12444 12447 12450 12453 12456 12459 12462 12465 12468 12471 12474 12477 12480 12483 12486 12489 12492 12495 12498 12501 12504 12507 12510 12513 12516 12519 12522 12525 12528 12531 12534 12537 12540 12543 12546 12549 12552 12555 12558 12560 12563 12565 12568 12571 12574 12577 12580 12583 12586 12589 12592 12595 12598 12601 12604 12607 12610 12613 12616 12619 12622 12625 12628 12631 12634 12637 12640 12643 12646 12649 12652 12655 12658 12661 12664 12667 12670 12673 12676 12679 12682 12685 12687 12690 12693 12695 12698 12701 12704 12707 12710 12712 12715 12717 12720 12723 12725 12728 12731 12734 12737 12740 12743 12745 12748 12751 12754 12757 12760 12763 12766 12769 12772 12775 12778 12780 12783 12786 12788 12790 12793 12795 12798 12801 12803 12806 12809 12812 12815 12817 12820 12823 12826 12829 12832 12835 12838 12841 12844 12846 12849 12851 12854 12857 12860 12863 12866 12869 12872 12874 12877 12879 12882 12885 12888 12891 12894 12897 12900 12903 12906 12908 12911 12913 12916 12919 12922 12925 12928 12931 12934 12937 12940 12943 12945 12948 12951 12954 12956 12959 12962 12964 12967 12970 12972 12975 12978 12981 12984 12986 12989 12992 12995 12997 13000 13003 13006 13009 13012 13015 13018 13021 13024 13027 13030 13033 13036 13039 13041 13044 13047 13050 13053 13056 13059 13061 13064 13066 13069 13071 13074 13077 13080 13082 13085 13088 13091 13094 13097 13100 13103 13106 13108 13111 13114 13117 13120 13123 13125 13128 13131 13133 13136 13139 13142 13145 13148 13151 13154 13157 13160 13162 13165 13168 13171 13173 13176 13179 13182 13185 13188 13191 13193 13196 13199 13202 13205 13208 13211 13214 13217 13220 13223 13226 13229 13232 13235 13238 13241 13244 13247 13250 13253 13256 13259 13262 13265 13268 13271 13274 13277 13280 13283 13286 13288 13291 13294 13297 13300 13303 13305 13308 13311 13313 13315 13318 13321 13324 13327 13329 13332 13335 13338 13341 13344 13346 13349 13352 13355 13358 13361 13364 13367 13370 13373 13376 13379 13382 13385 13388 13391 13394 13396 13399 13402 13405 13408 13411 13414 13417 13420 13422 13424 13427 13430 13433 13436 13439 13442 13444 13447 13450 13453 13456 13458 13461 13464 13467 13470 13473 13476 13479 13482 13485 13488 13491 13494 13497 13500 13503 13506 13509 13512 13515 13518 13521 13524 13527 13530 13532 13535 13538 13540 13543 13546 13549 13552 13555 13558 13561 13564 13567 13570 13573 13576 13579 13582 13585 13588 13591 13594 13597 13600 13603 13606 13609 13612 13615 13618 13621 13623 13626 13628 13631 13634 13637 13640 13643 13645 13648 13651 13654 13657 13660 13663 13666 13669 13672 13675 13678 13681 13684 13687 13690 13693 13696 13699 13702 13705 13707 13709 13712 13714 13717 13720 13723 13726 13729 13732 13735 13738 13741 13744 13747 13750 13753 13756 13759 13762 13764 13767 13770 13773 13775 13778 13781 13784 13787 13790 13793 13796 13799 13802 13805 13808 13811 13814 13816 13819 13822 13825 13828 13831 13834 13837 13840 13843 13846 13849 13852 13855 13858 13861 13864 13867 13870 13873 13876 13879 13882 13884 13887 13890 13893 13896 13899 13902 13905 13908 13911 13914 13917 13920 13923 13925 13928 13930 13933 13936 13938 13940 13943 13946 13949 13952 13955 13958 13961 13964 13967 13970 13973 13976 13979 13982 13985 13988 13991 13994 13997 14000 14002 14005 14008 14010 14013 14016 14019 14021 14024 14027 14030 14033 14036 14039 14041 14044 14047 14050 14052 14055 14058 14061 14064 14067 14070 14073 14076 14078 14081 14084 14086 14089 14092 14094 14097 14099 14102 14105 14108 14111 14113 14115 14118 14121 14123 14125 14128 14131 14133 14136 14139 14142 14145 14147 14150 14153 14155 14157 14160 14162 14165 14168 14171 14174 14177 14180 14183 14186 14189 14192 14195 14198 14201 14204 14207 14210 14213 14216 14219 14222 14224 14227 14230 14233 14236 14238 14241 14244 14247 14250 14252 14254 14257 14260 14263 14266 14269 14272 14275 14278 14281 14284 14287 14290 14292 14295 14298 14301 14303 14306 14309 14312 14315 14318 14321 14324 14326 14329 14332 14335 14337 14340 14343 14345 14347 14350 14353 14356 14358 14361 14364 14367 14369 14372 14375 14378 14381 14384 14387 14390 14393 14396 14399 14402 14405 14408 14411 14414 14417 14420 14423 14425 14428 14431 14434 14437 14440 14443 14446 14449 14452 14455 14458 14461 14464 14467 14470 14473 14476 14479 14481 14483 14486 14489 14492 14495 14498 14500 14502 14505 14507 14510 14513 14516 14519 14522 14525 14528 14531 14534 14536 14539 14542 14545 14547 14550 14553 14556 14559 14562 14565 14568 14571 14574 14577 14580 14583 14586 14589 14591 14594 14597 14600 14603 14606 14609 14612 14614 14617 14620 14622 14625 14628 14631 14634 14637 14640 14642 14645 14648 14651 14654 14656 14659 14662 14665 14668 14671 14674 14676 14679 14682 14685 14688 14691 14694 14697 14700 14702 14704 14707 14710 14713 14715 14717 14720 14723 14726 14729 14732 14734 14737 14740 14743 14746 14749 14752 14754 14757 14760 14763 14766 14768 14771 14774 14777 14780 14783 14785 14788 14791 14794 14797 14799 14802 14805 14808 14811 14814 14817 14820 14823 14826 14829 14832 14835 14838 14841 14844 14847 14850 14853 14856 14859 14862 14865 14868 14871 14874 14876 14879 14882 14885 14888 14890 14893 14895 14898 14900 14903 14906 14908 14911 14914 14916 14919 14922 14924 14927 14930 14933 14936 14939 14942 14944 14947 14950 14952 14955 14957 14959 14961 14964 14967 14969 14972 14974 14976 14979 14982 14985 14987 14990 14992 14995 14998 15001 15004 15007 15010 15012 15015 15018 15021 15023 15026 15029 15032 15035 15038 15041 15044 15046 15049 15052 15055 15057 15060 15062 15064 15067 15070 15073 15076 15079 15082 15085 15087 15090 15093 15096 15099 15102 15105 15108 15111 15113 15115 15118 15121 15124 15127 15129 15132 15135 15137 15140 15143 15146 15148 15151 15154 15157 15159 15161 15164 15167 15170 15173 15175 15178 15181 15184 15187 15190 15192 15194 15197 15200 15203 15206 15209 15212 15215 15218 15221 15224 15227 15230 15233 15236 15239 15242 15245 15248 15251 15254 15257 15260 15263 15266 15269 15272 15275 15278 15281 15284 15287 15289 15292 15295 15298 15300 15303 15306 15309 15312 15315 15318 15321 15324 15327 15330 15333 15336 15339 15342 15345 15347 15350 15352 15354 15357 15360 15362 15365 15368 15371 15374 15377 15380 15383 15386 15389 15392 15395 15398 15401 15404 15407 15410 15413 15416 15419 15422 15425 15428 15431 15433 15436 15439 15441 15443 15446 15449 15452 15455 15458 15461 15464 15466 15469 15472 15475 15477 15480 15483 15486 15489 15491 15493 15496 15499 15502 15505 15508 15511 15514 15516 15519 15522 15525 15528 15530 15533 15536 15539 15542 15544 15547 15550 15553 15556 15559 15562 15565 15568 15571 15574 15577 15580 15583 15586 15589 15592 15595 15598 15601 15603 15606 15609 15612 15615 15618 15621 15624 15627 15630 15633 15636 15639 15642 15645 15648 15651 15653 15656 15659 15662 15664 15667 15670 15673 15676 15679 15682 15685 15688 15691 15693 15696 15699 15702 15705 15708 15711 15714 15717 15720 15723 15726 15729 15732 15735 15738 15741 15744 15747 15750 15753 15756 15758 15761 15764 15767 15770 15773 15776 15779 15782 15785 15788 15791 15794 15797 15800 15803 15806 15809 15811 15814 15817 15820 15823 15826 15828 15831 15834 15837 15840 15843 15846 15849 15852 15855 15858 15861 15864 15867 15870 15873 15876 15879 15882 15885 15888 15891 15894 15897 15900 15903 15906 15909 15911 15914 15917 15919 15922 15925 15928 15930 15933 15936 15939 15942 15945 15948 15951 15954 15957 15960 15963 15966 15969 15972 15975 15977 15980 15982 15985 15988 15991 15994 15997 16000 16003 16006 16009 16011 16014 16017 16020 16023 16026 16029 16032 16035 16038 16040 16042 16045 16048 16051 16054 16057 16060 16063 16066 16069 16072 16075 16078 16081 16084 16087 16090 16093 16096 16099 16102 16105 16108 16111 16114 16117 16120 16123 16126 16129 16132 16135 16138 16141 16144 16147 16150 16153 16156 16159 16162 16165 16168 16171 16174 16177 16180 16183 16186 16189 16192 16195 16198 16201 16204 16207 16210 16213 16216 16219 16222 16225 16228 16231 16234 16237 16240 16243 16246 16249 16252 16255 16257 16260 16263 16266 16269 16272 16275 16277 16280 16283 16286 16289 16292 16295 16298 16301 16304 16306 16309 16311 16314 16317 16320 16323 16326 16329 16332 16335 16338 16341 16344 16347 16350 16353 16356 16359 16362 16365 16368 16371 16374 16377 16380 16383 16386 16389 16392 16395 16398 16401 16404 16407 16410 16413 16415 16418 16421 16424 16426 16428 16431 16434 16437 16440 16443 16446 16449 16452 16455 16458 16461 16464 16467 16470 16473 16476 16479 16482 16485 16488 16491 16494 16496 16498 16501 16504 16507 16510 16513 16516 16519 16522 16524 16527 16530 16533 16536 16539 16542 16544 16547 16550 16553 16556 16559 16561 16564 16567 16570 16573 16575 16578 16581 16584 16586 16589 16592 16595 16597 16600 16603 16605 16608 16611 16614 16617 16620 16623 16626 16629 16632 16635 16638 16641 16644 16646 16649 16652 16655 16658 16661 16664 16667 16670 16672 16675 16678 16681 16684 16687 16690 16693 16696 16699 16702 16705 16707 16710 16713 16716 16718 16721 16724 16727 16730 16732 16735 16738 16741 16744 16747 16750 16753 16756 16758 16761 16763 16766 16769 16771 16774 16777 16780 16783 16786 16788 16791 16794 16797 16800 16803 16806 16809 16812 16815 16818 16821 16824 16826 16829 16832 16835 16838 16841 16844 16847 16850 16853 16855 16858 16861 16864 16867 16870 16873 16875 16878 16881 16884 16887 16890 16893 16896 16898 16901 16904 16907 16910 16913 16915 16918 16921 16924 16927 16930 16933 16936 16939 16942 16945 16948 16951 16954 16957 16960 16963 16966 16969 16972 16975 16978 16981 16984 16987 16990 16993 16996 16999 17002 17005 17008 17011 17014 17017 17020 17023 17026 17029 17032 17035 17038 17041 17044 17047 17050 17053 17056 17058 17061 17063 17066 17069 17072 17075 17078 17081 17084 17087 17090 17093 17096 17099 17102 17105 17107 17110 17113 17116 17119 17122 17125 17128 17131 17134 17137 17140 17143 17146 17149 17152 17154 17157 17160 17162 17165 17167 17170 17173 17176 17179 17182 17184 17187 17190 17193 17196 17199 17202 17205 17208 17211 17214 17217 17220 17223 17226 17229 17232 17235 17238 17241 17244 17246 17249 17252 17255 17258 17261 17264 17267 17270 17273 17276 17279 17281 17284 17286 17289 17292 17294 17297 17299 17302 17305 17308 17311 17314 17317 17320 17322 17325 17327 17330 17333 17336 17339 17341 17344 17347 17350 17353 17355 17357 17360 17363 17365 17368 17371 17374 17377 17380 17383 17386 17389 17392 17395 17398 17401 17404 17407 17410 17413 17415 17418 17421 17424 17427 17430 17433 17436 17439 17442 17445 17448 17451 17454 17457 17459 17462 17464 17467 17470 17473 17476 17479 17482 17485 17487 17490 17492 17495 17498 17501 17504 17507 17510 17513 17516 17519 17521 17523 17526 17529 17532 17534 17537 17540 17543 17546 17548 17551 17553 17556 17559 17561 17564 17566 17568 17570 17573 17576 17578 17581 17584 17587 17589 17591 17593 17596 17599 17602 17605 17608 17611 17614 17617 17620 17623 17626 17628 17631 17634 17637 17640 17643 17646 17648 17651 17654 17657 17659 17662 17665 17668 17671 17674 17677 17680 17683 17685 17688 17691 17694 17696 17699 17702 17705 17708 17711 17714 17717 17720 17723 17726 17729 17732 17735 17738 17741 17744 17747 17750 17753 17756 17759 17762 17765 17768 17771 17774 17777 17780 17783 17786 17789 17792 17795 17798 17801 17804 17807 17810 17813 17816 17819 17822 17825 17828 17831 17834 17837 17840 17843 17846 17849 17852 17855 17858 17861 17864 17867 17870 17873 17876 17878 17881 17884 17887 17890 17893 17895 17898 17901 17904 17907 17909 17912 17915 17918 17920 17923 17926 17929 17932 17935 17938 17941 17944 17947 17950 17953 17956 17959 17962 17965 17968 17971 17974 17977 17980 17983 17986 17989 17992 17995 17998 18001 18004 18007 18010 18013 18016 18019 18022 18025 18028 18031 18034 18037 18040 18042 18045 18048 18050 18053 18056 18059 18062 18065 18068 18071 18073 18076 18079 18082 18085 18088 18091 18094 18097 18100 18103 18106 18108 18111 18114 18116 18119 18121 18124 18127 18130 18132 18135 18138 18141 18144 18147 18150 18153 18156 18158 18161 18164 18167 18170 18172 18175 18178 18181 18184 18186 18189 18191 18194 18197 18200 18203 18206 18209 18212 18215 18218 18221 18224 18227 18229 18232 18234 18237 18240 18243 18246 18249 18252 18255 18258 18261 18264 18267 18270 18273 18275 18278 18281 18284 18287 18290 18293 18296 18299 18302 18304 18307 18310 18313 18315 18318 18321 18324 18327 18330 18333 18336 18339 18342 18345 18348 18351 18354 18357 18360 18363 18366 18369 18372 18375 18378 18381 18384 18387 18390 18393 18396 18399 18402 18405 18408 18411 18414 18417 18420 18422 18425 18428 18430 18433 18436 18439 18442 18444 18447 18450 18453 18456 18459 18462 18465 18468 18471 18474 18477 18480 18483 18486 18489 18491 18494 18497 18500 18503 18506 18509 18512 18515 18518 18520 18523 18525 18528 18531 18534 18537 18540 18543 18546 18548 18551 18554 18557 18560 18563 18566 18569 18572 18575 18578 18581 18584 18587 18590 18592 18595 18598 18601 18604 18607 18610 18613 18616 18619 18622 18625 18627 18630 18633 18636 18639 18642 18645 18648 18651 18654 18657 18660 18663 18666 18669 18672 18675 18678 18681 18684 18687 18690 18693 18696 18698 18701 18703 18706 18709 18712 18715 18718 18721 18723 18726 18728 18731 18734 18737 18739 18742 18745 18748 18750 18753 18756 18759 18761 18764 18767 18769 18772 18775 18778 18781 18784 18787 18790 18792 18795 18798 18801 18804 18807 18810 18813 18815 18818 18821 18824 18827 18830 18833 18836 18839 18842 18845 18848 18851 18854 18856 18859 18862 18865 18868 18871 18874 18877 18880 18882 18885 18888 18891 18894 18897 18900 18903 18906 18909 18912 18915 18918 18921 18924 18927 18930 18933 18936 18939 18942 18944 18947 18950 18953 18956 18959 18962 18965 18968 18971 18974 18977 18980 18983 18986 18989 18992 18995 18998 19001 19004 19007 19010 19013 19016 19019 19022 19025 19028 19031 19034 19037 19040 19043 19046 19049 19052 19055 19058 19061 19064 19067 19070 19073 19076 19079 19082 19085 19088 19091 19094 19096 19099 19101 19104 19107 19110 19112 19115 19118 19120 19122 19125 19127 19130 19133 19136 19139 19142 19145 19148 19151 19154 19157 19160 19163 19166 19169 19172 19175 19178 19181 19184 19187 19190 19193 19196 19199 19202 19205 19208 19211 19214 19217 19220 19223 19226 19229 19232 19234 19237 19240 19243 19246 19248 19251 19254 19256 19259 19262 19265 19267 19270 19273 19276 19279 19281 19284 19286 19288 19291 19294 19297 19300 19302 19305 19308 19311 19313 19316 19319 19322 19324 19327 19330 19333 19336 19339 19342 19344 19347 19350 19353 19356 19359 19362 19365 19368 19371 19374 19377 19380 19383 19386 19389 19392 19395 19398 19401 19404 19406 19409 19412 19415 19418 19421 19424 19427 19430 19433 19436 19439 19442 19445 19448 19451 19454 19457 19460 19462 19465 19468 19470 19473 19476 19478 19481 19484 19487 19490 19493 19496 19499 19502 19505 19508 19511 19513 19516 19519 19522 19525 19527 19530 19533 19536 19539 19541 19544 19547 19550 19552 19555 19558 19561 19564 19567 19570 19573 19576 19579 19582 19585 19588 19591 19594 19597 19600 19603 19606 19609 19612 19615 19618 19621 19624 19627 19629 19632 19635 19638 19641 19644 19647 19650 19653 19655 19658 19661 19664 19666 19669 19672 19675 19678 19681 19684 19687 19690 19693 19696 19699 19702 19705 19708 19711 19714 19717 19720 19723 19726 19729 19732 19735 19738 19740 19743 19746 19749 19751 19754 19757 19760 19763 19766 19769 19772 19775 19777 19780 19783 19785 19788 19791 19794 19797 19799 19802 19805 19808 19811 19814 19817 19820 19822 19825 19827 19830 19833 19835 19838 19841 19843 19845 19848 19851 19854 19857 19860 19863 19866 19869 19872 19875 19878 19881 19884 19887 19890 19893 19896 19899 19902 19905 19908 19910 19913 19916 19919 19922 19924 19927 19930 19933 19936 19939 19942 19945 19948 19951 19954 19957 19960 19963 19965 19968 19971 19973 19976 19979 19982 19985 19988 19991 19994 19997 20000 20003 20006 20009 20012 20015 20018 20021 20024 20027 20030 20033 20036 20039 20042 20045 20048 20051 20054 20057 20060 20063 20066 20069 20072 20075 20078 20081 20084 20087 20090 20093 20096 20099 20102 20105 20108 20111 20114 20117 20120 20123 20126 20129 20132 20135 20138 20141 20144 20147 20150 20153 20156 20159 20162 20165 20168 20171 20174 20177 20180 20183 20186 20189 20192 20195 20198 20201 20204 20207 20210 20213 20216 20219 20222 20225 20228 20231 20234 20237 20240 20243 20246 20249 20252 20255 20258 20261 20264 20267 20270 20273 20276 20279 20282 20285 20288 20291 20294 20297 20300 20303 20306 20309 20312 20315 20318 20321 20324 20327 20330 20333 20336 20339 20342 20345 20348 20351 20354 20357 20359 20362 20365 20368 20371 20374 20377 20380 20382 20385 20388 20391 20394 20397 20400 20403 20406 20409 20411 20414 20416 20419 20422 20425 20427 20430 20433 20435 20438 20441 20444 20447 20450 20453 20456 20459 20462 20465 20468 20471 20474 20477 20480 20483 20486 20489 20492 20495 20498 20501 20504 20507 20510 20513 20516 20519 20522 20525 20528 20531 20534 20537 20540 20543 20546 20548 20551 20554 20556 20558 20561 20564 20566 20569 20572 20574 20577 20580 20583 20585 20588 20591 20594 20597 20600 20603 20606 20609 20612 20614 20617 20620 20623 20626 20629 20632 20634 20637 20640 20643 20646 20649 20652 20655 20658 20661 20664 20667 20670 20673 20676 20679 20682 20685 20688 20691 20694 20697 20700 20703 20706 20709 20712 20715 20718 20721 20724 20727 20729 20732 20735 20738 20741 20744 20747 20750 20753 20756 20759 20762 20765 20768 20771 20774 20777 20780 20783 20786 20789 20792 20795 20798 20801 20804 20807 20810 20813 20816 20819 20822 20825 20828 20831 20834 20837 20840 20843 20846 20849 20852 20855 20858 20861 20864 20867 20869 20872 20874 20877 20880 20883 20886 20888 20891 20894 20897 20900 20902 20905 20908 20911 20914 20916 20919 20922 20925 20928 20931 20934 20937 20940 20942 20945 20948 20950 20953 20955 20958 20961 20964 20967 20969 20972 20975 20977 20979 20982 20985 20988 20991 20994 20997 20999 21002 21005 21008 21011 21014 21017 21020 21023 21026 21029 21031 21033 21036 21039 21042 21045 21048 21050 21053 21056 21058 21061 21064 21067 21070 21072 21075 21078 21080 21083 21086 21089 21092 21095 21098 21101 21104 21107 21110 21113 21116 21119 21122 21125 21128 21131 21134 21137 21140 21143 21146 21149 21152 21155 21158 21161 21164 21167 21169 21172 21174 21177 21180 21183 21186 21189 21192 21195 21198 21201 21204 21207 21210 21213 21215 21218 21221 21224 21227 21229 21231 21234 21237 21240 21243 21246 21249 21252 21255 21258 21261 21264 21267 21270 21273 21276 21279 21282 21285 21288 21291 21294 21297 21300 21303 21306 21309 21312 21315 21318 21321 21324 21327 21330 21333 21336 21339 21342 21345 21348 21351 21354 21357 21359 21362 21365 21368 21370 21373 21376 21379 21382 21385 21388 21391 21394 21397 21400 21403 21406 21409 21412 21415 21418 21421 21424 21427 21430 21432 21435 21438 21440 21443 21446 21449 21452 21455 21458 21461 21464 21467 21469 21472 21475 21478 21481 21484 21486 21489 21492 21495 21498 21501 21503 21506 21508 21511 21514 21517 21520 21523 21526 21529 21532 21535 21538 21541 21544 21547 21549 21552 21555 21558 21560 21562 21565 21568 21571 21574 21577 21580 21583 21586 21588 21591 21594 21596 21599 21602 21604 21606 21609 21612 21615 21618 21621 21623 21626 21629 21632 21635 21638 21641 21644 21646 21649 21652 21654 21656 21659 21662 21665 21668 21671 21674 21676 21678 21681 21684 21687 21689 21692 21695 21698 21701 21704 21707 21710 21712 21715 21718 21721 21724 21727 21730 21733 21736 21739 21742 21745 21748 21751 21754 21757 21760 21763 21766 21769 21772 21775 21778 21781 21784 21787 21790 21792 21795 21798 21801 21804 21807 21810 21813 21815 21818 21821 21824 21827 21830 21833 21836 21839 21842 21845 21848 21850 21853 21856 21859 21862 21865 21868 21871 21874 21876 21879 21882 21885 21888 21891 21894 21897 21900 21903 21906 21909 21912 21915 21918 21921 21924 21926 21929 21932 21935 21937 21940 21943 21946 21949 21952 21954 21957 21960 21963 21966 21969 21972 21975 21978 21981 21984 21987 21990 21993 21996 21998 22001 22004 22007 22010 22012 22015 22018 22020 22023 22026 22029 22032 22035 22037 22040 22043 22046 22049 22052 22055 22058 22061 22064 22067 22070 22073 22076 22079 22081 22084 22086 22089 22092 22095 22097 22100 22102 22105 22107 22110 22113 22116 22119 22122 22125 22127 22129 22132 22135 22138 22141 22144 22147 22149 22152 22154 22157 22160 22163 22166 22169 22172 22175 22178 22181 22184 22187 22190 22193 22196 22199 22202 22205 22207 22210 22213 22216 22218 22220 22223 22226 22229 22232 22235 22237 22240 22243 22245 22247 22250 22253 22256 22259 22262 22265 22268 22271 22274 22277 22280 22283 22286 22289 22292 22295 22298 22301 22304 22307 22310 22313 22316 22319 22322 22325 22328 22331 22334 22337 22340 22343 22346 22349 22352 22355 22358 22361 22364 22367 22370 22373 22376 22379 22381 22384 22387 22389 22391 22393 22396 22399 22402 22405 22408 22411 22413 22416 22419 22422 22425 22428 22431 22434 22437 22440 22442 22445 22448 22451 22453 22456 22459 22462 22465 22468 22471 22474 22477 22480 22483 22486 22489 22492 22495 22498 22501 22504 22507 22510 22513 22515 22518 22521 22524 22527 22529 22532 22535 22538 22541 22544 22547 22550 22553 22556 22559 22562 22565 22568 22571 22574 22577 22580 22583 22586 22589 22592 22595 22598 22601 22604 22607 22610 22613 22616 22619 22622 22625 22628 22631 22633 22636 22638 22641 22644 22647 22650 22653 22656 22659 22662 22664 22667 22670 22673 22675 22678 22680 22683 22686 22689 22692 22695 22698 22701 22704 22706 22709 22712 22715 22718 22720 22723 22726 22729 22732 22734 22737 22740 22743 22746 22749 22752 22755 22757 22760 22763 22766 22769 22771 22774 22777 22780 22783 22786 22789 22792 22795 22798 22801 22804 22807 22810 22813 22816 22819 22822 22825 22828 22831 22834 22837 22840 22843 22846 22849 22852 22855 22858 22861 22864 22867 22870 22873 22876 22879 22882 22885 22888 22891 22894 22897 22900 22903 22906 22909 22911 22914 22917 22920 22923 22925 22927 22930 22933 22935 22937 22940 22943 22946 22949 22952 22955 22958 22961 22964 22967 22970 22973 22976 22979 22982 22985 22988 22991 22994 22996 22999 23002 23005 23007 23009 23012 23015 23018 23021 23024 23027 23030 23033 23036 23039 23042 23045 23048 23051 23054 23057 23060 23063 23066 23069 23072 23075 23078 23081 23084 23087 23090 23092 23095 23098 23101 23104 23107 23110 23113 23115 23118 23121 23124 23127 23130 23133 23136 23139 23142 23145 23148 23151 23154 23157 23160 23162 23165 23168 23171 23174 23177 23180 23183 23186 23188 23191 23193 23195 23198 23201 23204 23207 23210 23213 23216 23219 23222 23225 23228 23231 23233 23236 23239 23242 23245 23248 23251 23254 23257 23260 23263 23266 23269 23272 23275 23278 23281 23284 23287 23289 23292 23295 23298 23300 23303 23306 23309 23312 23315 23318 23321 23324 23326 23329 23332 23335 23338 23341 23344 23347 23350 23353 23356 23359 23362 23365 23368 23371 23373 23376 23379 23382 23384 23387 23390 23393 23396 23399 23402 23405 23408 23411 23414 23417 23420 23423 23426 23429 23432 23435 23438 23441 23444 23447 23450 23453 23456 23459 23462 23465 23468 23471 23474 23477 23480 23483 23485 23488 23490 23493 23496 23499 23502 23505 23508 23511 23514 23516 23519 23522 23525 23528 23531 23534 23537 23540 23543 23545 23548 23551 23553 23556 23559 23562 23565 23568 23570 23573 23576 23579 23582 23584 23587 23590 23593 23596 23598 23601 23604 23607 23609 23612 23614 23617 23620 23622 23625 23628 23631 23634 23637 23640 23643 23646 23649 23652 23655 23658 23661 23664 23666 23669 23672 23674 23677 23679 23682 23685 23688 23690 23693 23696 23698 23701 23704 23707 23710 23712 23715 23717 23720 23723 23726 23729 23732 23735 23737 23740 23742 23745 23748 23751 23754 23757 23759 23762 23765 23768 23771 23773 23776 23779 23782 23785 23788 23791 23793 23796 23799 23802 23805 23808 23811 23814 23817 23820 23823 23826 23829 23832 23835 23838 23841 23844 23847 23850 23853 23856 23859 23862 23865 23868 23871 23874 23877 23880 23883 23886 23889 23892 23894 23896 23899 23902 23905 23908 23911 23914 23917 23920 23923 23926 23928 23931 23934 23936 23938 23941 23943 23946 23949 23952 23955 23958 23961 23964 23966 23969 23972 23975 23978 23981 23984 23987 23990 23993 23996 23999 24002 24004 24007 24010 24013 24016 24018 24021 24024 24027 24030 24033 24036 24039 24042 24045 24048 24051 24054 24056 24059 24062 24065 24068 24071 24074 24077 24080 24083 24086 24089 24092 24095 24098 24101 24104 24107 24109 24112 24115 24118 24121 24124 24126 24129 24132 24135 24137 24140 24143 24146 24149 24152 24155 24157 24160 24162 24165 24168 24171 24173 24176 24179 24182 24185 24188 24191 24194 24197 24200 24202 24205 24208 24210 24213 24216 24219 24222 24225 24228 24231 24233 24236 24239 24242 24245 24248 24251 24254 24257 24260 24263 24266 24269 24272 24274 24277 24280 24282 24285 24288 24291 24294 24297 24300 24302 24305 24308 24311 24314 24317 24320 24322 24325 24328 24331 24334 24337 24340 24343 24345 24348 24351 24354 24357 24360 24363 24366 24369 24372 24375 24378 24381 24384 24387 24390 24393 24396 24399 24402 24405 24408 24411 24413 24416 24419 24422 24425 24428 24431 24434 24437 24440 24443 24445 24448 24451 24454 24457 24459 24461 24464 24467 24470 24473 24475 24478 24481 24484 24487 24490 24493 24496 24499 24502 24504 24507 24510 24513 24516 24519 24522 24525 24528 24531 24534 24537 24539 24542 24545 24548 24550 24553 24556 24559 24561 24564 24567 24570 24573 24576 24579 24582 24585 24588 24591 24594 24597 24599 24602 24605 24608 24611 24614 24616 24619 24622 24624 24627 24630 24633 24636 24639 24642 24645 24648 24651 24654 24657 24660 24663 24666 24668 24671 24674 24677 24680 24683 24686 24689 24691 24694 24697 24700 24702 24705 24708 24711 24714 24717 24719 24722 24725 24728 24731 24734 24737 24740 24743 24746 24748 24751 24754 24757 24760 24763 24766 24769 24772 24774 24777 24780 24783 24786 24789 24791 24794 24797 24800 24803 24806 24809 24812 24814 24817 24820 24823 24826 24829 24832 24835 24838 24841 24844 24847 24850 24853 24856 24859 24862 24865 24868 24871 24874 24877 24880 24883 24886 24889 24892 24895 24898 24901 24904 24907 24910 24913 24916 24919 24922 24925 24928 24931 24934 24937 24940 24943 24946 24949 24952 24955 24958 24960 24963 24966 24969 24972 24975 24978 24981 24983 24986 24989 24992 24995 24998 25001 25004 25007 25010 25013 25016 25019 25022 25025 25028 25031 25034 25037 25040 25043 25046 25049 25051 25053 25056 25059 25061 25063 25066 25069 25072 25075 25078 25081 25084 25086 25089 25092 25095 25098 25101 25104 25107 25110 25113 25116 25119 25122 25125 25128 25130 25133 25136 25139 25142 25145 25148 25151 25154 25156 25159 25162 25164 25167 25170 25173 25175 25178 25181 25184 25187 25190 25193 25196 25199 25202 25205 25208 25211 25214 25217 25220 25223 25226 25229 25232 25235 25238 25241 25244 25247 25250 25253 25256 25259 25261 25264 25267 25270 25273 25276 25279 25282 25285 25287 25290 25293 25296 25299 25302 25305 25307 25309 25312 25315 25318 25321 25323 25326 25329 25331 25334 25337 25339 25342 25345 25348 25351 25354 25357 25359 25362 25365 25368 25371 25374 25377 25380 25383 25385 25388 25391 25394 25397 25400 25403 25406 25409 25412 25415 25418 25420 25423 25426 25428 25431 25434 25437 25440 25443 25446 25449 25451 25454 25457 25460 25462 25465 25467 25470 25472 25475 25478 25481 25484 25487 25490 25493 25496 25499 25502 25505 25508 25511 25514 25517 25520 25523 25525 25528 25530 25533 25536 25539 25542 25545 25548 25551 25554 25557 25560 25562 25565 25568 25571 25574 25577 25580 25583 25585 25588 25591 25594 25596 25599 25601 25603 25606 25609 25611 25614 25617 25620 25623 25625 25628 25631 25634 25636 25639 25642 25645 25647 25650 25652 25654 25657 25660 25663 25666 25669 25672 25674 25677 25680 25683 25686 25689 25692 25695 25698 25700 25702 25704 25707 25709 25712 25715 25717 25719 25722 25725 25727 25730 25733 25736 25739 25742 25745 25748 25751 25754 25757 25760 25762 25765 25768 25771 25774 25777 25780 25783 25786 25789 25792 25795 25798 25801 25803 25805 25808 25811 25814 25817 25819 25822 25825 25828 25830 25833 25836 25839 25842 25845 25847 25849 25852 25855 25858 25860 25863 25866 25869 25872 25875 25878 25881 25884 25887 25890 25893 25896 25899 25902 25905 25907 25910 25913 25916 25918 25921 25924 25927 25929 25932 25935 25938 25941 25944 25947 25949 25952 25955 25958 25961 25964 25966 25969 25972 25975 25978 25981 25984 25987 25990 25992 25995 25998 26001 26004 26007 26010 26013 26016 26019 26021 26024 26027 26030 26033 26035 26038 26040 26043 26046 26048 26051 26053 26056 26059 26062 26065 26068 26071 26073 26076 26078 26080 26083 26086 26089 26092 26095 26098 26101 26104 26106 26109 26111 26114 26116 26119 26121 26124 26127 26130 26133 26136 26139 26142 26145 26148 26151 26154 26156 26159 26162 26165 26167 26170 26173 26176 26179 26182 26185 26188 26191 26193 26196 26199 26202 26205 26208 26211 26214 26217 26220 26222 26225 26228 26231 26234 26236 26239 26242 26244 26247 26250 26253 26256 26259 26262 26265 26268 26271 26273 26276 26279 26282 26284 26287 26290 26293 26296 26299 26302 26305 26308 26311 26314 26317 26320 26323 26326 26329 26332 26335 26338 26341 26343 26346 26349 26352 26355 26358 26361 26364 26367 26370 26373 26375 26378 26381 26384 26387 26390 26393 26396 26399 26402 26405 26408 26411 26414 26417 26420 26423 26426 26429 26432 26435 26438 26441 26444 26447 26450 26453 26456 26459 26462 26465 26468 26471 26474 26477 26480 26483 26486 26489 26492 26495 26498 26501 26504 26507 26510 26512 26514 26517 26520 26523 26526 26529 26532 26535 26538 26541 26544 26547 26550 26553 26555 26557 26560 26563 26566 26568 26571 26574 26576 26579 26582 26585 26587 26590 26593 26596 26598 26601 26604 26607 26610 26613 26616 26619 26622 26624 26627 26630 26632 26635 26637 26639 26642 26645 26648 26651 26654 26657 26659 26662 26664 26666 26668 26671 26674 26676 26679 26682 26684 26686 26689 26692 26695 26698 26701 26704 26707 26710 26713 26716 26719 26722 26725 26728 26731 26734 26737 26740 26743 26746 26749 26751 26754 26757 26760 26763 26766 26769 26772 26775 26778 26780 26783 26786 26789 26792 26795 26798 26801 26803 26805 26808 26811 26814 26817 26820 26823 26826 26829 26832 26835 26838 26841 26844 26847 26850 26853 26856 26859 26862 26865 26868 26871 26874 26876 26879 26881 26884 26887 26890 26893 26896 26899 26902 26904 26907 26910 26913 26915 26917 26920 26923 26925 26928 26931 26934 26937 26939 26942 26945 26948 26950 26953 26956 26959 26961 26964 26967 26970 26973 26976 26979 26982 26985 26988 26990 26992 26995 26998 27001 27004 27007 27009 27012 27015 27017 27019 27021 27024 27027 27030 27033 27036 27038 27041 27044 27047 27050 27053 27056 27059 27062 27065 27067 27070 27072 27075 27078 27081 27084 27087 27090 27093 27096 27099 27102 27105 27108 27111 27114 27117 27120 27123 27126 27129 27132 27135 27138 27141 27144 27146 27149 27152 27155 27158 27160 27162 27165 27168 27171 27173 27176 27179 27182 27185 27188 27191 27194 27197 27200 27203 27206 27209 27212 27215 27218 27221 27223 27226 27229 27232 27234 27237 27240 27242 27245 27248 27251 27254 27257 27260 27263 27266 27269 27272 27275 27278 27281 27283 27286 27289 27291 27294 27297 27300 27302 27305 27307 27310 27312 27315 27317 27319 27321 27324 27327 27330 27333 27336 27339 27342 27345 27347 27350 27353 27356 27359 27362 27365 27368 27371 27373 27376 27379 27381 27384 27387 27390 27393 27396 27399 27402 27405 27408 27411 27414 27417 27420 27423 27426 27429 27432 27435 27438 27441 27444 27446 27449 27452 27455 27458 27461 27464 27467 27470 27473 27476 27478 27481 27483 27486 27489 27491 27494 27496 27499 27501 27504 27507 27509 27512 27514 27517 27520 27522 27525 27528 27531 27533 27536 27539 27542 27545 27548 27551 27554 27557 27560 27563 27566 27569 27572 27575 27578 27581 27584 27587 27590 27593 27596 27599 27602 27605 27608 27611 27614 27617 27620 27623 27626 27629 27632 27635 27638 27641 27644 27647 27650 27653 27656 27659 27662 27665 27668 27671 27674 27677 27680 27683 27686 27689 27692 27695 27698 27701 27704 27707 27710 27713 27716 27718 27721 27724 27726 27729 27732 27735 27738 27741 27744 27746 27748 27751 27754 27757 27760 27763 27766 27769 27772 27775 27778 27781 27784 27787 27790 27793 27796 27799 27802 27804 27807 27810 27813 27815 27818 27821 27824 27827 27830 27833 27836 27839 27842 27845 27848 27851 27854 27857 27860 27863 27865 27868 27871 27874 27877 27880 27883 27886 27888 27891 27894 27897 27900 27903 27906 27909 27912 27914 27917 27919 27922 27925 27928 27931 27934 27937 27940 27943 27946 27949 27952 27955 27958 27961 27964 27967 27969 27972 27975 27978 27981 27984 27987 27990 27992 27995 27998 28001 28004 28006 28009 28012 28015 28018 28021 28024 28027 28029 28032 28035 28037 28039 28042 28045 28047 28050 28053 28056 28059 28062 28065 28067 28070 28073 28076 28079 28082 28085 28088 28091 28094 28096 28099 28102 28104 28107 28110 28112 28115 28118 28120 28123 28126 28129 28132 28135 28137 28140 28143 28146 28149 28152 28155 28158 28161 28163 28166 28169 28172 28175 28178 28181 28184 28186 28189 28192 28195 28198 28201 28204 28207 28210 28213 28216 28219 28222 28224 28227 28230 28233 28236 28239 28242 28245 28247 28249 28252 28254 28257 28259 28262 28265 28268 28271 28274 28277 28280 28283 28286 28289 28292 28295 28298 28301 28304 28306 28309 28311 28314 28317 28320 28323 28326 28329 28332 28335 28337 28340 28342 28345 28347 28350 28352 28355 28357 28360 28363 28365 28368 28371 28374 28377 28380 28382 28385 28388 28391 28394 28397 28400 28403 28406 28408 28411 28414 28417 28420 28423 28425 28428 28431 28433 28436 28438 28440 28443 28446 28449 28452 28455 28458 28461 28464 28466 28469 28472 28475 28478 28481 28484 28487 28490 28493 28496 28499 28502 28505 28507 28510 28513 28516 28519 28522 28525 28528 28530 28533 28536 28539 28541 28544 28547 28550 28553 28556 28559 28562 28565 28568 28571 28574 28577 28580 28583 28586 28589 28592 28594 28597 28600 28603 28606 28609 28612 28615 28617 28620 28623 28625 28628 28631 28634 28637 28640 28643 28646 28649 28652 28655 28658 28661 28664 28667 28670 28672 28675 28678 28681 28684 28686 28689 28692 28695 28698 28701 28704 28707 28710 28713 28716 28719 28722 28725 28728 28731 28734 28737 28740 28743 28746 28749 28752 28755 28758 28761 28763 28766 28769 28772 28775 28778 28781 28783 28786 28789 28792 28795 28798 28801 28804 28807 28810 28812 28814 28817 28820 28823 28825 28828 28830 28833 28836 28839 28842 28845 28848 28851 28854 28857 28860 28863 28866 28869 28872 28875 28877 28880 28883 28886 28889 28892 28895 28898 28901 28904 28907 28910 28913 28915 28917 28920 28923 28926 28929 28932 28935 28938 28941 28943 28946 28949 28951 28954 28957 28959 28961 28964 28967 28970 28973 28976 28979 28982 28984 28987 28990 28993 28996 28999 29002 29005 29008 29011 29013 29016 29019 29022 29024 29027 29030 29033 29036 29039 29041 29044 29047 29050 29053 29056 29059 29062 29065 29068 29071 29074 29077 29079 29082 29085 29088 29090 29093 29096 29099 29101 29104 29107 29110 29113 29116 29119 29122 29125 29128 29131 29134 29137 29140 29143 29146 29149 29152 29155 29158 29161 29164 29167 29170 29173 29176 29179 29182 29185 29188 29191 29194 29197 29199 29202 29205 29208 29211 29214 29217 29220 29223 29226 29229 29232 29235 29238 29241 29244 29247 29250 29253 29256 29259 29262 29265 29268 29271 29273 29276 29278 29281 29284 29286 29289 29292 29295 29298 29301 29304 29307 29310 29313 29315 29318 29321 29324 29327 29330 29333 29336 29339 29342 29345 29348 29351 29354 29357 29359 29362 29365 29368 29371 29373 29376 29379 29382 29384 29387 29390 29393 29396 29399 29402 29405 29408 29411 29414 29417 29420 29423 29426 29429 29432 29435 29438 29441 29444 29447 29450 29453 29456 29459 29462 29465 29468 29471 29474 29477 29480 29483 29486 29489 29492 29495 29498 29501 29504 29507 29510 29513 29516 29519 29522 29525 29528 29531 29534 29537 29540 29543 29546 29549 29552 29555 29558 29561 29564 29567 29570 29573 29576 29579 29582 29585 29588 29591 29594 29597 29600 29603 29606 29609 29612 29615 29618 29621 29624 29627 29630 29633 29636 29639 29642 29645 29648 29651 29654 29657 29660 29663 29666 29669 29672 29675 29678 29681 29684 29687 29690 29693 29696 29699 29702 29705 29708 29711 29714 29717 29720 29723 29726 29729 29732 29735 29738 29741 29744 29747 29750 29753 29756 29759 29762 29765 29768 29771 29774 29777 29780 29783 29786 29789 29792 29795 29798 29801 29804 29807 29810 29813 29816 29819 29822 29825 29828 29831 29834 29837 29840 29843 29846 29849 29852 29855 29858 29861 29864 29867 29870 29873 29876 29879 29882 29885 29888 29891 29894 29897 29900 29903 29906 29909 29912 29915 29918 29921 29924 29927 29930 29933 29936 29939 29942 29945 29948 29951 29953 29956 29959 29962 29965 29968 29971 29974 29977 29980 29983 29986 29989 29992 29995 29998 30001 30003 30006 30009 30012 30015 30018 30021 30024 30027 30029 30032 30035 30038 30041 30043 30046 30049 30052 30055 30058 30061 30064 30067 30070 30073 30076 30079 30082 30085 30088 30091 30094 30097 30100 30103 30106 30109 30111 30114 30117 30120 30123 30126 30129 30132 30135 30138 30141 30144 30147 30150 30152 30154 30157 30160 30163 30166 30169 30171 30174 30176 30179 30182 30185 30188 30191 30194 30197 30200 30203 30206 30209 30211 30214 30217 30220 30223 30226 30229 30232 30234 30237 30240 30243 30246 30249 30252 30255 30258 30261 30264 30267 30270 30273 30276 30279 30281 30283 30286 30289 30292 30295 30298 30301 30304 30307 30310 30313 30316 30319 30321 30324 30327 30330 30333 30336 30339 30342 30345 30348 30351 30354 30357 30360 30363 30366 30369 30371 30374 30377 30380 30383 30386 30389 30392 30394 30397 30400 30403 30406 30409 30412 30415 30418 30421 30424 30426 30428 30431 30434 30437 30440 30443 30446 30449 30452 30455 30458 30461 30464 30467 30470 30473 30476 30479 30482 30485 30488 30491 30494 30497 30500 30503 30506 30509 30512 30515 30518 30520 30523 30526 30529 30532 30535 30537 30540 30543 30546 30549 30552 30555 30558 30561 30564 30567 30569 30572 30575 30578 30581 30583 30586 30589 30592 30595 30598 30601 30604 30607 30610 30613 30615 30618 30620 30623 30626 30629 30632 30635 30638 30641 30644 30647 30650 30653 30656 30659 30662 30665 30668 30671 30674 30677 30680 30683 30686 30689 30692 30695 30698 30701 30704 30707 30710 30713 30715 30718 30721 30724 30727 30730 30732 30735 30738 30741 30744 30747 30750 30753 30756 30759 30762 30765 30768 30771 30774 30777 30780 30783 30786 30788 30791 30794 30796 30799 30802 30805 30807 30810 30813 30816 30819 30822 30824 30827 30830 30833 30836 30839 30842 30845 30848 30851 30854 30856 30859 30862 30865 30868 30871 30874 30876 30879 30882 30885 30888 30891 30893 30895 30898 30901 30903 30906 30909 30911 30914 30917 30920 30923 30926 30929 30932 30935 30938 30941 30943 30946 30949 30951 30954 30957 30959 30962 30965 30967 30970 30973 30975 30978 30981 30983 30986 30989 30992 30995 30998 31001 31003 31006 31009 31012 31015 31018 31021 31024 31027 31030 31033 31036 31038 31041 31044 31047 31050 31053 31056 31059 31061 31064 31067 31070 31073 31075 31078 31081 31084 31086 31089 31092 31095 31098 31101 31104 31107 31110 31113 31116 31119 31121 31124 31127 31130 31133 31136 31139 31142 31145 31148 31151 31154 31157 31160 31163 31166 31169 31172 31175 31178 31181 31184 31187 31190 31193 31195 31198 31201 31204 31207 31210 31212 31215 31218 31221 31224 31227 31230 31233 31236 31239 31242 31245 31248 31251 31254 31256 31259 31262 31264 31267 31269 31272 31275 31278 31281 31283 31286 31288 31290 31293 31295 31298 31301 31304 31307 31310 31313 31316 31318 31321 31323 31326 31329 31332 31335 31338 31341 31343 31346 31349 31352 31355 31358 31361 31363 31366 31369 31372 31375 31377 31380 31383 31386 31389 31392 31394 31397 31400 31402 31405 31408 31411 31414 31416 31419 31422 31425 31428 31430 31433 31436 31439 31442 31445 31448 31450 31453 31456 31459 31462 31465 31468 31471 31474 31477 31479 31482 31485 31488 31491 31494 31497 31499 31502 31505 31508 31511 31513 31516 31519 31522 31525 31528 31531 31534 31537 31540 31543 31546 31549 31552 31555 31558 31561 31563 31566 31569 31572 31574 31577 31580 31582 31585 31588 31591 31594 31597 31600 31603 31606 31609 31612 31615 31618 31621 31624 31627 31630 31632 31635 31637 31640 31643 31646 31649 31652 31655 31658 31661 31664 31667 31670 31673 31676 31679 31682 31685 31688 31691 31694 31697 31700 31703 31706 31709 31712 31715 31717 31720 31723 31725 31728 31731 31734 31737 31740 31743 31746 31749 31752 31755 31757 31760 31763 31766 31769 31771 31774 31777 31780 31783 31785 31788 31791 31794 31797 31800 31803 31806 31809 31812 31814 31817 31820 31823 31826 31829 31832 31835 31838 31841 31844 31847 31850 31853 31856 31859 31862 31865 31868 31871 31874 31877 31880 31883 31886 31889 31892 31895 31898 
</DataArray>
<DataArray type="UInt32" Name="types" format="ascii">
5 5 5 5 5 3 5 5 5 5 5 5 5 3 5 5 5 5 3 5 5 3 5 5 5 5 3 5 5 5 5 3 5 5 5 5 5 5 5 5 5 5 5 5 5 3 5 5 3 5 5 5 5 5 3 5 5 5 5 5 5 5 3 5 5 5 5 3 5 5 5 5 5 5 5 5 5 3 5 5 3 5 5 3 5 5 5 5 3 5 5 5 5 5 5 5 3 3 3 5 5 3 5 5 5 5 5 3 5 5 5 5 5 5 5 5 5 5 5 5 5 3 5 5 5 3 5 5 5 5 5 5 3 5 5 5 5 5 5 5 5 5 5 5 5 5 5 5 5 5 5 5 5 5 5 5 5 5 3 5 5 5 3 5 5 3 5 5 5 5 5 5 5 5 5 5 5 3 5 5 5 5 5 5 5 5 3 5 5 5 5 5 5 5 5 3 5 5 5 5 5 5 5 5 5 3 5 5 5 5 5 5 5 5 5 5 5 5 5 5 5 5 5 5 5 5 5 5 5 3 5 5 5 3 5 3 5 3 5 5 3 5 5 5 3 5 3 5 3 5 3 3 5 3 5 5 3 5 3 5 5 5 3 5 3 3 5 5 3 5 5 5 3 5 3 3 3 5 3 5 5 5 3 5 3 3 3 5 5 3 3 5 5 5 5 3 5 3 5 5 3 5 5 5 3 5 3 3 3 5 5 5 3 5 3 3 3 3 5 5 5 3 3 5 5 3 3 3 5 3 5 5 5 5 3 5 5 5 5 5 5 5 3 5 5 5 5 5 5 3 3 5 5 5 3 5 5 5 3 5 3 5 3 3 5 5 5 5 3 5 5 3 5 5 5 5 3 5 3 5 5 5 5 5 3 3 5 5 5 5 5 5 5 5 3 5 5 5 3 5 5 3 5 3 5 5 5 5 5 5 5 5 5 5 5 3 5 3 5 3 5 5 5 3 5 3 5 3 5 5 5 5 5 5 3 5 3 5 5 5 3 5 5 5 3 5 3 3 5 5 5 5 3 5 5 5 5 3 3 5 5 3 5 3 5 3 3 5 5 5 3 5 5 5 5 3 5 5 5 5 5 5 5 5 5 5 5 3 5 5 5 5 3 5 5 5 3 5 3 3 3 5 5 5 3 3 5 3 5 5 3 5 5 5 5 3 5 5 5 5 5 5 5 5 5 5 5 3 3 5 5 3 5 5 5 3 5 5 5 5 5 5 3 5 5 5 3 5 5 5 3 5 5 5 5 5 5 5 5 5 5 5 3 5 5 5 3 5 5 5 5 5 5 5 3 5 5 5 5 5 3 5 5 5 5 5 5 5 5 5 5 5 5 5 5 5 5 5 5 5 3 5 5 5 5 3 5 5 3 5 5 5 5 5 5 5 3 5 5 5 5 5 5 5 5 3 5 3 5 5 3 5 5 5 3 5 5 3 5 5 5 3 5 3 5 5 3 5 3 5 5 5 5 5 5 5 5 5 5 5 5 5 5 5 5 5 5 5 5 5 5 3 5 3 5 3 5 5 5 5 5 5 5 5 5 5 5 5 5 5 5 3 5 5 5 5 5 5 5 5 5 3 5 5 5 5 5 5 5 5 5 5 5 5 5 5 5 5 5 5 5 5 5 5 5 5 5 5 5 5 5 3 5 5 3 5 5 5 3 3 5 3 5 5 5 5 5 3 5 5 5 5 5 3 5 5 5 5 5 5 5 5 5 5 5 5 5 5 5 5 5 5 5 5 5 5 5 5 5 5 5 5 5 5 5 5 5 5 5 5 5 5 5 5 5 5 5 5 5 5 5 5 5 3 5 5 5 5 5 5 5 5 5 5 5 5 5 5 5 3 5 5 5 5 3 5 5 5 5 5 5 5 5 5 5 5 5 5 5 5 5 5 5 5 5 5 5 5 5 5 5 5 3 5 5 3 5 3 3 3 3 5 5 3 5 5 5 5 5 5 5 5 5 5 5 5 5 5 5 5 5 3 5 5 3 5 3 5 5 5 5 3 5 3 5 5 5 5 3 5 5 5 3 5 5 5 5 5 3 5 3 5 5 3 3 5 3 5 5 5 5 5 5 5 5 5 5 5 3 5 5 5 3 5 5 5 3 5 5 3 3 3 5 5 5 5 5 5 5 5 5 5 5 3 5 5 5 5 5 5 5 5 3 3 3 5 5 5 5 5 5 5 5 3 3 5 5 5 3 5 5 3 5 5 5 5 5 5 5 5 5 5 5 3 5 5 5 5 5 5 5 5 3 5 5 5 5 5 5 5 5 5 5 3 5 3 3 3 5 5 5 5 5 5 5 3 3 5 3 5 5 5 5 5 3 5 3 3 5 5 5 3 5 3 5 5 5 5 3 5 5 5 5 5 5 5 5 5 5 5 5 5 5 5 5 5 3 5 5 5 3 5 5 5 5 5 3 5 5 5 5 5 5 3 5 3 5 5 5 5 5 5 5 5 3 5 5 5 3 5 5 5 5 5 5 5 5 5 5 5 5 5 5 5 5 5 5 5 5 5 5 5 5 5 3 3 3 5 5 5 5 3 5 5 5 5 3 5 5 5 5 5 5 5 3 5 5 5 5 5 5 5 5 3 5 5 5 5 5 5 5 5 5 5 5 5 3 5 5 5 5 5 5 3 5 5 5 5 5 5 5 5 3 5 5 5 3 5 5 5 5 5 5 5 5 5 5 5 5 3 5 5 5 5 5 5 5 5 5 5 5 5 5 5 5 5 5 5 5 5 5 5 5 5 5 5 5 5 5 5 5 5 5 5 5 5 5 5 5 5 5 5 5 5 5 5 5 3 5 5 5 5 5 5 5 5 5 5 5 5 5 5 5 5 5 5 5 5 5 5 5 5 3 5 5 5 5 5 5 5 5 5 5 3 5 5 3 5 5 5 5 5 5 5 5 5 3 5 3 5 5 5 5 3 5 5 3 5 3 5 5 5 5 5 3 5 5 5 5 5 5 5 5 3 5 5 5 5 5 5 5 5 5 5 5 5 5 5 3 5 3 3 5 5 5 5 5 3 5 5 5 5 5 5 5 5 5 5 5 5 5 5 5 3 5 5 5 5 5 5 5 5 5 5 5 5 5 5 5 5 3 5 5 5 5 5 3 3 5 5 3 5 5 5 5 5 5 5 5 5 5 3 5 5 5 5 5 5 5 5 5 3 5 3 5 5 5 5 5 3 5 5 5 5 3 5 5 5 3 5 5 5 3 5 5 3 5 5 5 5 5 5 5 5 5 5 5 5 5 5 5 5 3 5 5 5 5 5 5 5 3 5 5 5 5 5 5 5 5 5 5 5 5 5 5 5 5 5 5 5 5 5 5 5 5 5 5 5 3 5 5 5 5 3 5 5 5 3 5 5 5 5 5 5 5 5 5 3 5 3 5 5 5 5 5 5 5 5 5 5 5 5 5 5 5 5 5 5 3 3 5 5 5 3 5 5 3 5 5 3 5 5 5 3 5 5 3 5 5 5 5 5 5 5 5 5 5 5 5 5 5 5 5 5 5 5 5 3 5 3 5 5 5 5 5 5 5 5 5 5 5 3 5 3 5 5 5 3 5 5 5 5 5 3 5 5 5 5 5 5 3 5 5 5 5 5 5 5 5 5 5 5 3 5 5 5 5 5 5 5 5 3 5 5 5 3 5 5 3 5 5 5 5 5 3 5 5 5 5 5 5 5 5 5 3 5 5 3 5 3 5 3 3 3 5 3 5 5 5 5 5 5 3 5 5 5 5 5 5 3 5 5 5 5 5 5 5 3 5 5 5 5 3 5 5 5 5 5 3 5 3 5 5 5 5 5 5 5 5 5 5 3 5 5 5 5 5 5 5 3 5 5 5 5 5 5 5 3 5 3 5 5 5 5 5 5 5 5 3 5 5 5 3 3 5 5 5 5 5 3 3 5 3 5 5 3 5 5 3 5 5 5 5 5 5 5 5 3 5 5 5 5 5 3 5 5 5 5 3 5 5 3 5 5 5 5 5 5 5 5 5 5 5 5 5 5 5 5 5 5 5 5 5 5 5 5 5 5 5 5 5 5 5 5 5 5 5 5 5 5 5 5 5 3 5 5 3 5 5 5 5 5 3 5 5 5 5 3 5 5 5 5 5 5 5 5 5 5 5 5 5 5 5 5 5 5 5 5 5 5 5 5 3 5 5 5 3 5 5 5 5 5 5 3 5 5 5 5 5 5 5 5 5 5 5 3 5 3 3 5 5 3 5 5 5 5 5 5 5 5 5 5 5 3 5 5 3 5 5 5 5 5 5 5 5 5 5 5 5 5 5 5 3 5 5 5 5 5 5 5 3 5 3 5 5 5 5 3 5 3 5 5 5 5 5 5 5 5 5 3 5 5 5 5 5 5 5 5 5 5 5 5 5 5 5 5 5 3 5 5 5 5 5 5 5 5 5 5 5 5 5 5 5 5 5 5 5 5 5 5 5 5 5 3 3 5 5 5 5 5 5 5 5 5 5 5 3 5 5 5 5 3 5 5 5 5 3 5 5 5 5 5 5 5 5 3 5 5 5 5 5 5 5 5 5 3 5 5 5 5 5 5 5 5 5 5 5 5 5 5 5 5 5 5 5 5 3 5 5 5 5 5 5 5 5 5 5 5 5 5 5 3 5 3 5 5 5 5 5 5 5 5 3 5 5 3 5 5 5 5 5 5 5 5 5 5 5 5 5 5 5 5 5 5 5 5 5 5 5 5 5 5 5 5 5 5 5 5 5 5 5 5 3 5 5 3 5 5 5 5 3 5 3 5 5 3 5 3 5 5 5 5 5 3 5 5 5 5 5 5 5 5 5 5 5 5 3 5 5 5 3 5 5 5 5 5 5 5 5 5 3 5 5 5 5 3 3 5 5 5 5 5 5 5 5 3 5 5 5 5 5 3 5 5 5 3 5 5 5 3 5 5 5 5 3 5 5 5 5 5 5 5 5 5 5 5 5 5 5 3 5 5 5 5 5 5 3 5 3 3 5 3 5 3 5 5 5 5 3 5 5 5 5 3 5 5 5 5 5 5 5 5 5 3 5 5 5 5 5 5 5 5 5 5 5 5 5 5 3 5 5 5 3 5 5 5 3 5 3 5 5 5 5 5 5 5 5 5 5 5 5 5 5 5 5 3 5 5 5 5 5 5 3 5 5 5 5 5 5 5 5 5 5 5 5 5 5 5 5 5 5 3 5 5 5 5 5 5 5 5 5 5 5 5 5 5 5 5 5 5 5 5 5 5 5 5 5 5 5 5 5 5 5 5 5 5 3 5 5 5 5 3 5 5 5 5 5 5 5 3 5 5 5 5 5 5 5 5 5 3 5 5 3 5 5 5 5 5 3 5 5 5 3 5 5 3 5 5 5 5 5 5 5 5 5 5 5 5 5 5 5 5 5 5 5 5 3 5 5 5 5 5 5 5 5 5 5 3 3 5 3 5 5 5 5 5 3 5 5 5 5 3 5 5 5 5 5 3 5 3 5 5 3 5 5 5 5 5 5 5 5 3 5 5 5 5 5 5 3 5 5 5 5 5 5 3 5 5 5 5 3 5 5 3 5 3 5 5 3 5 5 5 5 5 5 3 5 5 5 5 3 5 5 5 5 5 5 5 5 3 3 5 5 5 5 5 5 5 5 3 5 5 5 5 5 5 3 5 5 5 5 5 5 5 3 5 5 5 3 5 5 5 5 5 5 5 5 5 5 5 5 3 5 5 5 5 3 5 5 3 5 5 5 5 3 5 5 5 3 3 5 5 5 3 5 5 5 3 5 5 5 5 5 5 5 5 5 3 5 5 5 3 5 5 5 5 5 5 5 5 5 5 5 5 3 5 3 5 5 3 5 5 3 5 5 5 5 5 5 5 3 5 5 5 5 5 3 5 3 5 5 5 3 3 5 3 3 5 3 5 5 5 5 5 5 3 5 3 5 5 5 5 5 5 5 5 5 5 5 5 5 3 5 5 3 5 3 5 5 3 5 5 5 3 3 5 5 3 5 5 5 5 5 5 5 5 5 5 5 5 5 5 5 5 5 5 5 5 5 5 5 3 3 5 3 5 3 5 5 3 3 5 5 3 5 5 3 5 5 3 5 3 5 5 5 5 3 5 5 5 5 3 5 3 3 5 3 5 5 3 3 5 5 5 3 5 5 5 5 3 3 5 5 5 5 5 3 5 5 5 5 5 5 5 5 5 5 5 3 5 3 5 3 5 5 3 5 3 5 5 5 5 5 5 5 5 3 5 5 3 5 5 5 5 3 5 5 5 5 5 5 5 5 5 5 5 5 3 5 5 5 5 5 5 5 5 5 5 5 3 5 5 5 5 5 5 3 5 3 5 5 3 5 5 5 5 5 5 5 5 5 5 5 5 5 5 5 5 5 3 3 5 5 5 3 5 5 3 5 5 5 5 5 5 5 5 5 5 5 5 5 5 5 5 5 5 5 5 5 5 5 5 5 3 3 5 5 5 5 5 5 5 5 5 5 5 3 5 5 5 5 5 5 5 5 5 5 5 5 5 5 5 5 5 5 5 5 5 5 5 5 5 5 5 5 5 5 5 5 5 3 5 5 5 5 5 3 5 5 3 5 5 3 3 5 5 5 5 5 5 5 5 5 5 5 5 5 3 5 5 3 5 5 5 5 5 5 3 5 5 3 5 5 5 5 5 5 5 5 5 5 5 5 5 3 5 5 5 5 5 5 5 3 5 5 5 5 5 5 5 5 5 5 5 5 3 5 5 3 5 5 5 5 5 5 5 5 5 5 5 5 5 5 5 5 5 5 5 5 3 5 5 3 5 3 5 5 5 3 5 5 3 5 3 5 5 5 3 5 5 5 5 3 5 5 5 5 5 5 5 3 5 5 5 3 5 5 5 5 5 5 5 5 5 5 5 5 3 5 5 5 5 5 5 5 5 3 5 5 5 5 5 5 5 5 5 5 5 3 5 5 5 5 5 5 5 5 5 5 5 5 5 5 5 5 5 5 5 3 3 5 5 5 3 5 5 5 5 5 5 5 5 5 5 5 5 3 5 5 5 5 5 5 5 5 5 3 5 5 5 5 5 5 5 5 5 5 5 5 5 5 5 5 3 5 3 5 5 5 5 5 3 5 5 5 5 3 5 5 5 3 5 5 5 3 5 5 5 5 5 5 5 5 5 3 5 5 5 3 5 5 3 5 5 5 5 5 5 3 5 5 5 5 5 5 5 5 3 5 5 5 3 5 5 5 5 5 5 5 5 5 5 5 5 5 5 5 5 5 5 5 5 5 5 5 5 5 5 5 3 5 5 5 5 5 5 5 3 5 5 5 5 5 5 5 5 5 5 5 5 5 5 5 5 5 5 5 5 5 5 5 5 5 3 5 3 5 5 5 5 5 5 3 5 5 5 3 5 5 3 5 5 5 5 5 5 5 5 5 5 5 5 3 5 5 5 5 5 3 5 5 5 5 5 5 5 5 5 5 5 5 5 3 5 5 5 3 5 5 5 5 5 5 5 5 5 5 5 5 3 3 5 5 5 5 3 5 5 5 5 5 5 5 5 5 3 3 5 5 5 5 5 3 5 5 5 5 5 3 5 5 5 5 5 3 5 3 5 5 5 5 3 5 3 5 3 3 5 5 5 5 5 5 5 3 3 5 5 5 5 5 5 3 3 3 5 3 3 5 5 5 3 5 5 5 5 5 3 3 3 5 3 5 5 5 3 5 3 3 5 5 5 5 5 5 5 3 3 5 5 3 3 3 5 5 5 5 5 5 5 5 5 5 5 5 5 5 5 5 5 5 5 5 5 5 5 5 5 5 5 5 5 5 5 5 5 5 5 5 5 5 5 5 3 5 5 5 5 5 5 5 5 5 5 3 5 5 5 5 5 5 3 5 5 3 5 5 5 5 5 5 5 5 5 5 5 5 5 3 5 3 5 5 5 5 3 5 5 5 3 5 5 3 5 5 5 3 5 5 3 5 5 5 5 5 3 5 5 5 5 5 5 5 3 5 5 5 5 5 5 5 3 5 5 3 5 5 5 5 3 5 3 5 5 5 5 5 3 5 5 5 5 3 5 5 5 5 5 5 3 3 5 5 5 5 5 3 5 5 3 5 5 5 5 5 5 5 5 5 5 3 5 5 5 5 5 5 5 5 5 5 5 5 5 5 5 5 5 5 3 5 5 5 5 5 5 3 5 5 5 5 5 5 5 3 3 5 5 5 5 3 5 5 5 5 5 5 5 3 5 5 3 5 3 3 3 5 5 5 5 5 5 3 5 5 5 5 5 3 5 5 5 5 3 5 5 5 3 5 5 5 3 5 5 5 5 5 5 5 5 5 5 5 5 5 5 5 5 5 5 5 5 5 5 5 5 5 3 5 5 5 5 5 5 5 3 5 3 5 5 5 5 5 5 3 5 5 3 5 5 5 3 5 5 3 5 5 5 5 5 3 5 5 5 3 3 5 5 5 5 5 5 5 5 5 5 5 5 3 5 5 5 5 5 5 5 5 5 3 5 5 5 5 5 3 3 5 5 5 5 5 5 5 5 5 3 5 5 5 5 5 5 5 5 3 5 5 5 5 5 5 5 5 5 5 5 5 5 5 5 5 5 5 3 5 5 5 5 3 5 3 5 3 5 5 5 5 5 5 5 5 5 5 5 5 5 5 5 5 5 3 5 5 5 5 5 3 5 5 5 3 3 5 5 5 5 5 3 5 5 5 5 3 5 5 5 5 5 5 5 5 3 5 5 5 5 5 5 5 3 5 5 5 5 5 5 5 5 5 3 5 5 5 5 5 5 5 5 5 5 5 5 5 5 5 5 5 5 3 5 5 5 5 5 5 5 5 5 5 5 5 5 3 5 5 5 5 5 5 3 5 5 3 5 5 3 5 5 5 5 5 5 5 5 5 5 5 5 5 5 5 5 5 5 5 5 5 5 5 5 5 5 3 5 3 5 3 3 5 5 5 3 5 5 5 5 5 5 5 5 5 3 3 5 3 5 5 5 5 5 5 5 5 5 5 5 5 5 5 3 5 3 3 5 3 5 5 5 5 5 5 5 5 5 3 3 5 5 5 5 5 5 5 5 5 5 5 5 5 5 5 5 5 5 5 5 5 5 3 5 5 5 5 5 3 5 5 5 5 5 3 5 5 5 3 5 5 5 5 5 5 5 5 5 3 5 5 5 5 3 5 5 5 5 5 5 3 5 5 5 5 5 5 5 3 5 5 5 5 3 5 5 5 5 5 5 5 5 5 5 3 5 5 5 5 3 5 5 5 3 5 5 5 5 5 3 5 5 5 5 5 5 5 5 5 5 5 5 5 5 3 3 5 5 3 5 5 5 5 5 5 5 3 5 5 5 5 5 5 3 5 5 5 5 5 5 5 5 5 5 5 5 5 5 5 5 5 5 5 5 5 5 5 3 5 5 5 5 5 5 5 5 3 5 5 5 5 3 5 5 5 5 5 3 5 3 5 3 5 5 5 5 5 5 5 3 5 5 5 3 5 5 5 5 5 3 5 5 5 5 5 3 5 3 5 5 3 5 3 5 5 5 5 5 3 5 5 5 3 5 5 5 5 5 5 5 5 5 5 3 5 5 5 5 5 5 5 5 5 5 5 5 5 5 5 5 5 5 5 5 5 5 3 5 5 5 5 5 5 5 5 5 5 5 5 5 5 5 5 5 5 3 5 5 5 3 5 5 5 5 5 5 3 5 5 5 3 3 5 3 5 3 3 5 3 5 5 3 5 5 3 3 5 5 5 5 5 5 5 5 3 5 3 5 5 5 5 5 5 5 5 5 5 5 5 5 5 5 5 5 5 5 5 5 5 3 5 5 5 5 5 5 5 5 3 5 5 3 5 5 3 3 5 5 3 5 5 5 5 5 5 5 5 5 5 5 5 5 5 5 5 5 5 5 5 5 5 5 5 5 5 5 5 5 5 5 5 5 5 5 5 5 5 5 3 5 3 5 5 5 5 5 5 5 5 5 5 5 5 5 5 5 5 5 5 5 5 5 5 5 5 5 5 5 5 5 5 5 5 5 5 5 5 5 5 5 5 3 5 5 3 5 5 5 5 5 3 5 3 5 5 3 5 5 5 5 5 5 3 5 5 5 5 5 5 5 5 5 5 5 3 5 5 3 3 5 3 5 5 3 5 5 5 5 3 5 5 5 5 5 5 5 5 5 3 5 3 5 5 5 5 5 5 5 3 5 3 5 5 5 5 5 5 5 5 5 3 5 3 5 5 5 5 5 5 5 5 5 5 3 5 5 5 3 5 5 3 5 5 3 5 5 5 5 3 5 5 5 3 5 5 5 5 5 5 5 5 5 5 5 5 5 5 3 5 5 5 5 5 5 3 5 3 5 3 5 5 5 3 5 5 5 5 5 5 5 5 3 5 5 5 5 5 3 5 5 3 5 5 5 5 5 5 5 5 5 3 5 5 5 3 5 5 5 5 5 5 3 5 5 5 5 5 5 5 5 5 5 5 5 5 5 5 5 5 5 5 5 5 5 5 5 5 5 5 5 5 5 5 3 5 5 5 5 5 3 5 5 3 3 5 5 5 5 3 5 5 5 5 5 3 5 5 5 5 5 5 5 5 5 5 5 5 5 5 5 5 3 5 5 5 5 5 5 5 5 3 3 5 5 5 5 5 5 3 5 5 5 5 3 5 5 5 5 5 5 5 5 5 5 5 5 5 5 5 5 5 5 5 5 5 5 5 5 3 5 5 3 5 5 5 5 5 5 5 5 5 5 5 5 5 5 5 5 5 5 5 5 5 5 5 5 5 5 5 3 5 3 5 5 5 5 5 3 5 5 5 5 5 5 5 5 5 5 5 5 5 5 5 5 5 5 5 5 3 3 5 3 5 5 5 5 5 5 5 5 5 5 5 5 5 5 5 5 3 5 5 5 3 5 5 5 5 5 5 5 5 5 5 5 5 5 3 5 5 5 5 5 5 5 5 5 5 5 5 5 5 5 5 5 5 5 5 5 5 3 5 5 5 5 5 5 5 5 5 5 5 5 5 3 5 3 5 5 3 3 5 5 5 5 5 5 5 5 5 5 5 5 5 5 5 5 5 5 5 5 3 5 5 3 5 5 5 3 5 5 5 5 5 5 3 5 5 5 3 5 5 5 5 5 5 5 5 3 5 5 3 5 5 3 5 3 5 5 5 5 3 3 5 5 3 3 5 5 3 5 5 5 5 3 5 5 3 3 5 3 5 5 5 5 5 5 5 5 5 5 5 5 5 5 5 5 5 5 5 5 3 5 5 5 5 3 5 5 5 5 3 3 5 5 5 5 5 5 5 5 5 5 5 5 3 5 5 5 3 5 5 5 5 5 5 5 3 5 5 5 3 5 5 3 3 5 5 5 3 5 5 5 3 5 5 5 5 5 5 5 5 5 5 5 5 5 5 5 5 5 5 3 5 5 5 5 5 5 5 5 5 5 5 5 5 5 5 5 5 5 3 3 5 5 5 5 5 3 3 5 3 5 5 5 5 5 5 5 5 5 3 5 5 5 3 5 5 5 5 5 5 5 5 5 5 5 5 5 5 3 5 5 5 5 5 5 5 3 5 5 3 5 5 5 5 5 5 3 5 5 5 5 3 5 5 5 5 5 5 3 5 5 5 5 5 5 5 5 3 3 5 5 5 3 3 5 5 5 5 5 3 5 5 5 5 5 5 3 5 5 5 5 3 5 5 5 5 5 3 5 5 5 5 3 5 5 5 5 5 5 5 5 5 5 5 5 5 5 5 5 5 5 5 5 5 5 5 5 5 3 5 5 5 5 3 5 3 5 3 5 5 3 5 5 3 5 5 3 5 5 5 5 5 5 3 5 5 3 5 3 3 3 5 5 3 5 3 3 5 5 5 3 5 3 5 5 5 5 5 5 3 5 5 5 3 5 5 5 5 5 5 5 3 5 5 5 3 5 3 3 5 5 5 5 5 5 5 3 5 5 5 5 5 5 5 5 3 3 5 5 5 5 3 5 5 3 5 5 5 3 5 5 5 3 3 5 5 5 5 3 5 5 5 5 5 3 3 5 5 5 5 5 5 5 5 5 5 5 5 5 5 5 5 5 5 5 5 5 5 5 5 5 5 5 5 5 5 5 3 5 5 5 3 5 5 5 5 5 5 5 5 5 5 5 5 5 5 5 3 5 3 3 5 5 3 5 5 5 5 5 5 5 5 5 5 5 5 5 5 5 5 5 5 5 5 5 5 5 3 5 5 3 3 5 5 5 5 5 5 5 3 5 5 5 3 5 5 5 5 3 3 5 5 5 5 5 5 5 3 5 5 5 5 3 5 5 5 5 3 5 5 5 5 5 5 5 5 5 5 5 5 5 5 5 5 5 5 5 3 5 5 5 5 5 5 5 5 5 5 5 5 5 5 5 5 3 5 5 5 3 5 5 5 5 5 5 5 5 5 3 5 5 5 5 5 5 5 5 5 5 5 5 5 5 5 5 5 5 5 5 5 3 5 5 5 5 5 5 5 5 5 5 5 5 5 5 5 5 5 3 5 5 5 5 5 3 5 5 5 5 5 5 5 5 5 5 5 5 5 5 5 5 5 5 5 5 5 5 5 5 5 5 5 3 5 5 3 5 5 5 3 5 5 5 5 5 5 5 5 5 5 5 5 5 5 5 3 5 3 5 5 5 5 5 5 5 5 5 3 5 5 5 5 5 5 5 5 5 3 3 5 5 5 5 5 5 5 5 5 5 5 5 5 5 5 5 5 5 5 5 5 5 5 5 5 5 5 5 5 5 5 5 5 5 5 5 5 5 5 5 5 5 5 5 5 5 5 5 5 5 5 5 5 5 5 5 5 5 5 5 5 5 5 5 5 5 5 5 5 5 5 3 5 5 5 5 5 5 3 5 5 5 5 5 5 5 5 5 3 5 3 5 5 5 5 5 5 5 5 5 5 5 5 5 5 5 5 5 5 5 5 5 5 5 5 5 5 5 5 5 5 5 5 5 5 3 5 5 5 3 3 5 5 5 5 5 5 5 5 5 5 5 5 5 5 5 5 5 5 5 5 5 5 3 3 5 5 5 5 5 5 5 5 3 5 5 5 5 5 5 3 5 5 5 5 5 3 5 5 5 5 3 5 5 5 3 5 5 5 3 5 5 3 5 5 5 5 5 5 5 5 5 5 5 5 5 3 5 5 5 5 5 5 5 5 3 5 5 5 5 5 5 5 5 5 5 5 3 5 5 5 3 5 5 5 5 3 5 5 5 5 5 5 5 5 3 5 3 5 5 3 5 5 5 5 5 3 5 5 5 5 5 5 5 5 5 5 5 5 3 5 5 5 5 5 5 5 5 5 3 5 5 5 5 5 5 3 5 5 5 5 5 5 5 3 5 5 5 5 5 3 5 5 5 5 5 5 5 5 5 5 5 5 5 5 5 5 5 5 5 5 5 5 5 5 5 5 5 5 5 5 5 5 5 5 5 5 5 5 5 5 5 5 5 5 5 5 5 3 5 3 5 5 5 5 5 5 5 5 5 5 5 5 5 5 3 5 5 5 5 5 5 5 5 5 5 5 5 5 5 5 3 5 5 3 5 3 5 5 5 5 5 3 5 5 5 5 5 5 5 5 5 5 5 5 5 5 5 5 5 5 5 5 3 5 5 5 5 5 5 5 5 5 5 5 3 5 3 5 5 3 5 3 5 5 5 5 5 5 5 3 5 3 5 5 5 5 3 5 5 5 5 3 3 5 5 3 5 5 5 5 5 5 5 5 5 5 5 5 5 5 5 5 3 5 5 5 5 5 5 5 5 5 5 5 5 5 5 3 5 3 5 5 5 5 5 5 5 3 5 3 5 5 5 5 5 5 5 5 5 3 3 5 5 5 3 5 5 5 5 3 5 3 5 5 3 5 3 3 3 5 5 3 5 5 5 3 3 3 5 5 5 5 5 5 5 5 5 5 5 3 5 5 5 5 5 5 3 5 5 5 3 5 5 5 5 5 5 5 5 3 5 5 5 3 5 5 5 5 5 5 5 5 5 5 5 5 5 5 5 5 5 5 5 5 5 5 5 5 5 5 5 5 5 5 5 5 5 5 5 5 5 5 5 5 5 5 5 5 5 5 5 5 5 5 5 5 5 5 5 5 5 5 5 5 3 5 5 5 5 5 3 5 5 5 5 3 5 5 5 3 5 5 5 5 5 5 5 5 5 5 5 5 5 5 5 5 5 5 5 5 5 5 5 5 5 5 5 5 5 5 5 5 5 5 5 5 5 5 5 5 3 5 5 3 5 5 5 5 5 5 5 3 5 5 5 5 5 5 5 5 5 5 5 3 5 5 3 5 3 5 5 5 3 5 5 5 5 5 5 5 5 3 5 5 5 5 3 5 5 5 5 3 5 3 5 5 5 5 5 5 5 5 5 5 5 5 3 5 3 5 5 5 5 5 5 5 5 5 5 5 5 5 3 5 5 5 5 5 5 5 5 5 3 5 5 5 3 5 5 5 5 5 5 5 5 5 5 5 5 5 5 5 5 5 5 5 5 5 5 5 5 5 5 5 5 5 5 5 5 5 5 5 3 5 5 3 5 5 5 5 3 5 5 5 5 5 5 5 5 5 5 5 5 5 5 5 3 5 5 5 5 5 5 5 5 5 3 5 3 5 5 5 5 5 5 5 3 5 5 5 5 5 5 5 5 5 5 5 5 5 5 3 5 5 5 5 5 5 5 5 5 5 5 3 5 5 5 5 5 5 5 5 5 5 5 5 5 5 5 5 5 5 5 5 5 5 5 3 5 3 5 5 5 5 5 5 3 5 3 5 5 5 3 5 5 5 3 5 5 5 3 5 5 3 5 5 5 5 5 5 5 3 5 5 5 5 5 5 5 3 5 5 5 5 5 5 5 5 5 5 5 5 5 3 5 5 5 5 5 5 5 5 3 5 5 5 5 5 5 5 5 5 5 5 5 5 5 5 5 5 5 5 5 3 5 5 5 5 5 5 5 5 5 5 5 5 5 5 5 5 5 5 5 5 5 5 5 5 5 5 5 5 5 5 5 5 5 5 5 5 5 5 5 5 5 5 5 5 5 5 5 5 5 5 3 5 3 5 5 5 3 5 5 3 3 5 3 5 5 5 5 5 5 5 5 5 5 5 5 5 5 5 5 5 5 5 5 5 5 5 5 5 5 5 5 5 5 5 5 5 5 5 3 5 5 5 5 3 5 5 3 5 5 5 3 5 5 5 5 3 5 3 3 5 5 5 5 3 5 5 5 3 5 5 5 3 5 5 5 5 5 5 3 5 5 5 5 5 5 5 5 5 5 5 5 5 5 5 5 5 5 5 5 3 5 5 5 5 5 5 5 5 5 5 5 5 5 5 5 5 5 5 3 5 5 3 5 5 3 5 5 5 5 5 5 5 5 5 5 5 3 5 5 5 5 3 5 5 5 5 3 5 5 5 3 5 5 5 5 5 5 5 5 5 5 5 5 5 5 5 5 5 5 5 5 5 5 5 5 5 3 5 5 5 5 5 5 5 5 3 5 5 5 3 5 5 5 5 5 5 5 5 5 5 5 5 5 5 5 5 5 5 5 5 5 5 5 5 3 5 5 5 3 5 5 5 5 5 5 5 5 3 5 5 3 5 5 5 5 3 5 5 5 5 5 5 5 3 5 3 5 5 3 5 5 3 3 5 5 5 5 5 5 5 5 5 5 5 5 5 5 5 5 5 5 5 5 5 3 5 5 5 5 3 5 5 5 5 5 5 5 5 5 5 5 5 5 3 5 5 3 5 5 5 5 5 5 5 5 5 5 5 5 5 5 5 5 5 5 5 5 5 5 5 5 5 5 5 5 5 5 5 5 5 5 5 5 5 5 5 5 5 5 5 5 5 5 5 5 5 5 5 5 5 5 5 5 5 5 5 5 5 5 5 5 5 5 5 5 5 5 5 5 5 5 5 5 5 5 5 5 5 5 5 5 5 5 5 5 5 5 5 5 5 5 5 5 5 5 5 5 5 5 5 5 5 5 5 5 5 5 5 5 5 5 5 5 5 5 5 5 5 5 5 5 5 5 5 5 3 5 5 5 5 5 5 5 3 5 5 5 5 5 5 5 5 5 3 5 3 5 5 5 3 5 5 3 5 5 5 5 5 5 5 5 5 5 5 5 5 5 5 5 5 5 5 5 5 5 5 5 5 5 5 5 5 5 5 5 5 5 5 5 5 3 5 5 3 3 5 5 3 5 5 3 5 5 5 3 5 5 5 5 5 5 5 5 5 3 5 5 5 5 5 5 3 5 5 5 5 5 5 5 5 5 5 5 5 5 5 5 5 5 5 5 5 5 5 5 5 5 5 5 5 5 5 5 3 5 5 5 5 5 5 5 5 5 5 5 5 5 5 5 5 5 5 5 5 5 5 5 5 5 5 5 5 5 5 5 5 5 5 5 5 5 5 5 5 5 5 5 5 5 5 3 5 3 5 5 5 5 3 5 5 5 5 3 5 5 5 5 3 5 5 5 5 5 5 5 5 3 5 5 3 5 3 5 5 5 5 3 5 5 3 3 5 5 5 5 5 5 3 5 5 5 5 5 5 5 5 5 5 3 3 5 5 5 5 5 3 5 5 3 5 5 5 5 3 5 5 3 5 5 5 5 5 5 5 5 5 5 5 5 5 5 5 5 5 5 5 5 5 5 5 5 5 5 5 5 5 3 5 3 5 5 5 5 5 5 5 5 5 5 5 5 5 3 5 5 5 5 3 3 5 5 5 5 5 5 5 5 5 5 5 5 5 5 5 5 5 5 5 5 5 5 5 5 5 5 5 5 5 5 5 5 5 5 5 5 5 5 5 5 5 5 3 5 5 5 3 5 5 5 5 5 5 5 5 5 5 5 5 5 5 5 5 5 5 5 5 3 5 5 3 5 5 5 5 5 5 5 5 5 3 5 5 5 5 5 3 5 5 5 5 5 3 5 3 5 5 5 5 5 5 5 5 5 5 5 5 5 3 5 5 5 3 3 5 5 5 5 5 5 5 5 3 5 5 3 5 5 3 3 5 5 5 5 5 3 5 5 5 5 5 5 5 3 5 5 3 3 5 5 5 5 5 5 3 3 5 5 5 3 5 5 5 5 5 5 5 3 5 5 5 5 5 5 5 5 5 5 5 5 5 5 5 5 5 5 5 5 5 5 5 5 5 5 3 5 5 5 5 5 5 5 3 5 5 5 5 5 5 5 5 5 5 5 3 5 5 5 5 5 5 5 5 3 5 5 5 5 5 5 5 5 5 5 5 5 5 5 5 5 3 5 5 5 3 5 5 5 5 5 3 5 5 5 5 5 5 5 5 5 5 5 5 5 5 3 5 5 5 5 3 5 5 3 5 5 5 5 5 3 5 5 5 5 5 5 5 5 5 5 5 5 5 5 3 5 3 5 5 5 3 5 3 5 3 5 5 5 5 5 5 3 3 5 5 5 5 5 5 3 5 3 5 5 5 5 5 5 5 5 5 5 5 5 5 5 5 5 5 3 5 5 5 3 3 5 5 5 5 5 3 5 5 3 3 5 5 5 5 5 5 5 5 5 5 5 5 5 5 5 5 5 5 5 5 5 5 5 5 5 5 5 5 5 5 5 5 5 5 5 5 5 5 5 5 5 5 5 5 3 5 5 3 3 3 5 5 5 5 5 5 3 5 5 5 5 5 5 5 5 5 3 5 5 5 3 5 5 5 5 5 5 5 5 5 5 5 5 5 5 5 5 5 5 5 5 3 5 5 5 5 3 5 5 5 5 5 5 5 5 5 5 5 5 5 5 5 5 5 5 5 5 5 5 5 5 5 5 5 5 5 5 5 5 5 5 3 5 3 5 5 5 5 5 5 5 5 3 5 5 5 3 5 3 5 5 5 5 5 5 5 5 3 5 5 5 5 3 5 5 5 5 3 5 5 5 5 5 5 5 3 5 5 5 5 3 5 5 5 5 5 5 5 5 5 5 5 5 5 5 5 5 5 5 5 5 5 5 5 5 5 5 5 5 5 5 5 5 5 5 5 5 5 5 5 5 5 5 5 5 5 5 3 5 5 5 5 3 3 5 5 3 3 5 5 5 5 5 5 5 5 5 5 5 5 5 5 5 5 5 5 5 3 5 5 5 3 3 5 5 5 5 5 5 5 5 5 5 5 5 5 5 5 5 5 5 5 5 5 5 5 5 5 5 5 3 5 5 5 5 5 5 5 3 5 5 5 5 5 5 5 5 5 5 5 5 5 5 5 3 5 5 5 5 5 5 5 5 3 5 3 3 5 5 5 5 5 5 5 5 5 5 5 5 3 5 5 5 5 5 5 5 5 5 5 5 5 5 5 5 5 5 5 3 5 5 5 3 5 5 5 5 5 5 5 5 3 5 5 5 5 5 5 5 5 5 5 5 5 5 5 5 3 5 5 5 3 5 5 5 5 5 5 5 5 5 5 5 5 5 5 5 5 5 5 5 5 5 5 5 5 5 5 5 5 5 5 5 5 5 3 5 3 5 5 5 5 5 5 5 5 3 5 5 5 5 5 5 5 5 5 3 5 5 3 5 5 5 5 5 3 5 5 5 5 3 5 5 5 5 3 5 5 5 3 5 3 5 5 3 5 5 5 5 5 5 5 5 5 5 5 5 5 5 3 5 5 3 5 3 5 5 5 3 5 5 3 5 5 5 5 3 5 3 5 5 5 5 5 5 3 5 3 5 5 5 5 5 3 5 5 5 5 3 5 5 5 5 5 5 3 5 5 5 5 5 5 5 5 5 5 5 5 5 5 5 5 5 5 5 5 5 5 5 5 5 5 5 5 5 5 5 5 5 3 3 5 5 5 5 5 5 5 5 5 5 3 5 5 3 3 5 3 5 5 5 5 5 5 5 3 5 5 5 5 5 5 5 5 5 5 5 5 3 5 5 5 5 3 5 5 5 5 5 5 5 5 5 5 5 5 3 5 5 5 5 5 5 5 5 5 5 5 5 5 5 5 5 5 3 5 5 5 5 5 3 5 5 5 3 5 5 5 5 5 5 3 5 3 5 5 5 3 5 5 5 5 5 5 5 5 5 3 5 5 3 5 5 5 5 5 5 5 3 5 5 5 5 5 5 5 5 5 5 5 5 5 3 5 5 3 5 5 5 5 5 5 3 5 5 5 5 5 5 3 5 5 5 5 5 5 5 3 5 5 5 5 5 5 5 5 5 5 5 5 5 5 5 5 5 5 5 5 5 5 3 5 5 5 5 5 5 5 5 5 5 3 5 5 5 5 3 3 5 5 5 5 3 5 5 5 5 5 5 5 5 5 3 5 5 5 5 5 5 5 5 5 5 5 3 5 5 5 3 5 5 5 3 5 5 5 5 5 5 5 5 5 5 5 5 3 5 5 5 5 5 3 5 5 3 5 5 5 5 5 5 5 5 5 5 5 5 5 5 3 5 5 5 5 5 5 5 3 5 5 5 3 5 5 5 5 5 3 5 5 5 5 5 5 5 5 5 3 5 5 5 5 5 5 5 5 3 5 5 5 5 5 3 5 5 5 5 5 5 5 3 5 5 5 5 5 5 5 5 5 5 5 5 5 5 5 5 5 5 5 5 5 5 5 5 5 5 5 5 5 5 5 5 5 5 5 5 5 5 5 5 5 5 5 5 5 5 5 5 3 5 5 5 5 5 5 5 3 5 5 5 5 5 5 5 5 5 5 5 5 5 5 5 5 5 5 5 5 5 5 3 3 5 5 3 3 5 5 5 5 5 5 5 3 5 5 5 5 5 5 5 5 5 5 5 5 5 5 3 5 5 5 5 5 5 5 5 3 5 5 3 5 5 5 3 5 5 5 5 5 5 5 5 5 5 5 5 5 5 5 5 5 5 5 5 5 5 5 5 5 5 5 5 3 5 5 5 5 5 5 5 5 3 5 5 5 5 5 5 3 3 5 5 5 5 3 5 5 3 5 5 3 5 5 5 5 5 5 3 5 5 5 5 5 5 5 5 3 5 5 5 5 5 5 5 5 5 5 5 3 5 5 3 5 5 5 5 5 5 5 3 5 5 5 3 5 3 5 3 5 5 5 5 5 5 5 5 5 5 5 5 5 5 5 5 5 3 5 3 5 5 5 5 5 5 5 5 5 5 3 5 5 5 5 5 5 5 3 5 5 5 3 5 3 3 5 5 3 5 5 5 5 3 5 5 5 3 5 5 5 3 5 3 3 5 5 5 5 5 5 3 5 5 5 5 5 5 5 5 3 3 3 5 3 5 5 3 3 5 5 3 5 5 5 5 5 5 5 5 5 5 5 3 5 5 5 5 5 5 5 5 5 5 5 5 5 3 3 5 5 5 5 3 5 5 5 3 5 5 5 5 5 3 3 5 5 5 3 5 5 5 5 5 5 5 5 5 5 5 5 5 5 5 3 5 5 5 3 5 5 5 3 5 5 5 5 5 5 3 5 5 5 5 5 3 5 5 5 5 5 5 5 5 3 5 5 5 5 5 5 5 5 5 3 5 5 5 5 3 5 3 5 5 3 5 3 5 5 5 5 5 5 3 5 3 3 5 5 5 5 5 5 5 5 3 5 3 5 3 5 3 5 5 5 5 5 5 5 5 5 5 5 3 5 5 5 3 5 5 5 5 5 5 5 5 3 5 5 5 5 5 5 5 5 5 3 5 5 5 5 3 5 5 3 5 5 5 5 5 5 5 5 5 3 5 5 5 3 5 5 5 5 5 5 5 5 5 5 5 5 5 5 5 5 5 5 5 3 5 5 5 5 5 5 5 5 5 5 3 5 5 5 5 5 5 5 5 5 5 5 5 5 5 5 5 5 5 5 5 5 5 5 5 5 5 5 5 5 5 5 5 5 5 5 5 5 5 5 5 5 5 5 5 5 3 3 5 5 5 5 5 5 5 5 5 5 5 5 5 3 3 5 5 5 3 5 5 3 5 5 5 3 5 5 5 3 5 5 5 5 5 5 5 5 3 5 5 3 5 3 3 5 5 5 5 5 5 3 5 3 3 3 5 5 3 5 5 3 3 5 5 5 5 5 5 5 5 5 5 5 5 5 5 5 5 5 5 5 5 5 3 5 5 5 5 5 5 5 5 5 3 5 5 5 5 5 5 5 3 3 5 5 5 5 5 5 5 5 5 5 5 5 5 5 5 5 5 5 5 5 5 5 5 3 5 3 5 5 5 5 5 5 5 3 5 5 5 3 3 5 5 3 5 5 5 5 3 5 5 5 3 5 5 5 3 5 5 5 5 5 5 5 5 5 3 3 5 5 5 5 5 3 5 5 3 3 3 5 5 5 5 5 3 5 5 5 5 5 5 5 5 5 3 5 3 5 5 5 5 5 5 5 5 5 5 5 5 5 5 5 5 5 5 5 5 5 5 5 5 3 5 5 5 5 3 3 5 5 5 3 5 5 5 5 5 5 5 5 5 5 5 5 5 5 5 5 3 5 5 5 3 5 5 3 5 5 5 5 5 5 5 5 5 5 5 5 5 3 5 5 3 5 5 5 3 5 3 5 3 5 3 3 3 5 5 5 5 5 5 5 5 3 5 5 5 5 5 5 5 5 3 5 5 3 5 5 5 5 5 5 5 5 5 5 5 5 5 5 5 5 5 5 5 5 5 3 5 5 5 5 5 5 5 5 5 5 3 5 3 5 5 3 5 3 5 3 5 5 3 5 3 5 5 3 5 5 5 3 5 5 5 5 5 5 5 5 5 5 5 5 5 5 5 5 5 5 5 5 5 5 5 5 5 5 5 5 5 5 5 5 5 5 5 5 5 5 5 5 5 5 5 5 5 5 5 5 5 5 5 5 5 5 5 5 5 5 5 5 5 3 5 5 3 5 5 5 5 5 5 3 3 5 5 5 5 5 5 5 5 5 5 5 5 5 5 5 5 5 5 3 5 5 5 3 5 5 5 5 5 5 5 5 5 5 5 5 5 5 5 5 3 5 5 5 5 5 5 5 3 5 5 5 5 5 5 5 5 3 5 3 5 5 5 5 5 5 5 5 5 5 5 5 5 5 5 5 3 5 5 5 5 5 5 5 3 5 5 5 5 3 5 5 5 5 5 5 5 3 5 5 3 3 5 5 3 5 5 5 5 5 5 3 5 5 5 5 5 5 5 5 5 3 5 5 3 5 5 3 5 5 3 5 5 5 5 5 3 5 5 5 5 5 5 5 5 3 5 5 5 5 5 5 5 3 5 5 5 5 5 5 5 5 5 5 5 5 3 5 5 5 5 5 5 5 3 3 5 3 5 3 5 5 5 5 5 5 5 5 5 5 5 5 5 5 5 3 5 3 5 5 5 5 5 5 5 5 3 5 3 5 3 5 3 5 3 5 5 3 5 5 5 5 5 3 5 5 5 5 5 5 5 5 3 5 5 5 5 5 3 5 5 3 5 3 3 5 5 5 5 5 5 5 5 3 5 5 5 5 5 5 5 5 5 5 5 5 5 3 5 5 5 5 5 5 5 3 5 5 5 3 5 5 5 5 5 5 5 5 5 5 5 5 5 5 5 5 5 3 5 5 5 5 5 5 5 3 5 5 3 5 5 5 5 5 5 5 5 5 5 5 5 5 5 5 3 5 5 5 5 3 5 5 5 5 5 5 5 5 5 5 5 5 5 5 5 5 5 5 5 5 5 5 5 5 5 3 5 5 5 5 5 5 3 5 5 5 5 5 5 5 5 5 3 3 5 5 5 3 5 3 5 5 5 5 5 5 5 5 5 5 5 5 5 5 5 3 5 5 5 5 5 5 5 5 5 5 5 5 3 3 5 5 5 5 5 5 5 5 3 5 5 3 5 5 3 3 5 5 5 5 5 5 5 3 5 5 5 5 5 5 5 5 5 3 5 5 5 3 5 5 5 5 5 3 5 5 5 5 5 5 5 5 5 5 5 5 3 5 5 5 3 5 5 5 3 5 5 5 5 5 5 5 5 5 5 5 5 5 5 5 5 5 5 5 5 5 5 5 5 5 5 5 5 5 5 5 5 3 5 5 5 5 5 5 5 5 5 5 5 5 5 5 5 5 5 5 5 5 5 5 5 5 3 5 3 5 5 3 5 5 5 5 5 5 5 5 5 3 5 5 5 5 5 5 5 5 5 5 5 5 5 5 3 5 5 5 5 3 5 5 5 3 5 5 5 5 5 5 5 5 5 5 5 5 5 5 5 5 5 5 5 5 5 5 5 5 5 5 5 5 5 5 5 5 5 5 5 5 5 5 5 5 5 5 5 5 5 5 5 5 5 5 5 5 5 5 5 5 5 5 5 5 5 5 5 5 5 5 5 5 5 5 5 5 5 5 5 5 5 5 5 5 5 5 5 5 5 5 5 5 5 5 5 5 5 5 5 5 5 5 5 5 5 5 5 5 5 5 5 5 5 5 5 5 5 5 5 5 5 5 5 5 5 5 5 5 5 5 5 5 5 5 5 5 5 5 5 5 5 5 5 5 5 5 5 5 5 5 5 5 5 5 5 5 5 5 5 5 5 5 5 5 5 5 5 5 5 5 5 5 5 5 5 5 5 5 5 5 5 5 5 5 5 5 5 5 5 5 5 5 5 3 5 5 5 5 5 5 5 5 5 5 5 5 5 5 5 5 3 5 5 5 5 5 5 5 5 3 5 5 5 5 3 5 5 5 5 5 5 5 5 5 5 5 5 5 5 5 5 5 5 5 5 5 5 3 5 5 5 5 5 5 5 5 5 5 5 5 5 3 3 5 5 5 5 5 3 5 3 5 5 5 5 5 5 5 5 5 5 5 3 5 5 5 5 5 5 5 3 5 5 5 5 5 5 5 5 5 5 5 5 5 5 5 3 3 5 5 5 5 5 5 5 5 5 5 5 5 3 5 5 5 5 5 5 5 5 5 5 5 5 5 5 5 5 3 5 5 5 5 5 5 5 3 5 5 5 5 5 5 5 5 5 5 3 3 5 5 5 5 5 5 5 5 5 5 5 5 5 5 5 5 5 5 5 5 5 5 5 5 5 5 5 5 5 5 3 5 5 5 5 5 3 5 5 5 5 5 5 5 5 5 5 3 5 5 5 5 3 5 5 5 5 5 5 5 5 5 5 3 5 3 5 5 5 5 5 5 5 5 5 5 5 5 5 5 5 5 5 5 5 5 5 5 5 5 5 5 5 5 5 5 5 3 5 5 5 5 5 3 5 5 5 5 5 5 5 5 5 5 5 5 5 5 5 5 5 5 3 5 5 3 5 5 5 3 5 5 5 5 5 3 5 5 5 5 5 5 5 5 5 5 3 5 5 5 5 5 5 3 5 5 5 5 5 3 3 5 5 3 5 5 3 5 5 5 5 5 5 5 5 5 5 3 5 5 3 5 5 3 5 5 3 5 5 3 5 5 3 5 5 5 5 5 5 3 5 5 5 5 5 5 5 5 5 5 5 3 5 5 5 5 5 5 5 3 5 5 5 5 3 5 5 5 3 5 5 5 5 5 5 5 5 5 5 5 3 5 5 5 5 5 5 5 5 5 5 5 5 5 5 5 5 5 5 5 5 5 5 5 5 3 5 5 5 5 5 3 5 5 5 5 5 5 5 5 5 5 5 5 5 5 3 5 5 3 5 3 5 5 5 5 3 5 3 3 5 3 5 5 5 5 5 5 5 3 5 3 5 5 5 5 5 5 3 5 5 5 5 5 5 3 5 5 5 5 3 5 5 5 5 5 3 5 5 3 5 5 5 5 3 5 5 5 5 3 5 5 5 5 5 5 3 5 5 5 5 5 5 5 5 5 3 5 5 5 5 5 5 3 5 5 5 5 3 5 5 5 5 5 5 5 5 5 5 5 5 5 5 5 5 3 5 5 5 3 5 5 3 5 5 5 5 5 5 5 5 5 5 5 5 5 5 5 5 3 5 3 5 5 5 5 5 5 5 5 5 5 5 5 5 5 5 5 5 5 5 5 5 5 5 5 5 5 3 5 5 3 5 5 5 5 5 5 5 5 5 5 3 5 5 5 5 3 5 5 5 5 3 5 5 5 5 5 5 5 5 5 3 5 5 5 5 5 5 5 5 5 5 5 5 5 5 5 5 5 5 5 5 5 5 5 5 5 5 5 5 
</DataArray>
</Cells>
<PointData Scalars="" Vectors="displacement," Tensors="">
<DataArray type="Float64" Name="displacement" NumberOfComponents="3" format="ascii">
-3.1561244577543813e-06 -0.064994056451071688 0 -0.00031629822647562136 -0.060769546259996435 0 6.6822838691340237e-06 -0.054787267875978568 0 -3.1561244577543813e-06 -0.064994056451071688 0 -0.0002912997371798268 -0.063515688189016067 0 -0.00031629822647562136 -0.060769546259996435 0 -3.1561244577543813e-06 -0.064994056451071688 0 -0.0002912997371798268 -0.063515688189016067 0 1.1351386370097197e-08 -0.064998411785986948 0 -0.0002912997371798268 -0.063515688189016067 0 1.1351386370097197e-08 -0.064998411785986948 0 -0.00016035949651228639 -0.063516123730213633 0 1.1351386370097197e-08 -0.064998411785986948 0 -0.00016035949651228639 -0.063516123730213633 0 -0.0001264492516754602 -0.064563633924520594 0 -0.00055477298932566396 -0.059533508014649336 0 2.1750239769968572e-05 -0.057841179922455403 0 -0.00016035949651228639 -0.063516123730213633 0 0.0007321253008412558 -0.063459642041811384 0 0.00078946755635355261 -0.063820358220429599 0 -0.00016035949651228639 -0.063516123730213633 0 0.00078946755635355261 -0.063820358220429599 0 0.00038731969055423268 -0.064229387227820428 0 -0.0002912997371798268 -0.063515688189016067 0 -0.00016035949651228639 -0.063516123730213633 0 -0.00031629822647562136 -0.060769546259996435 0 -0.00016035949651228639 -0.063516123730213633 0 -0.00031629822647562136 -0.060769546259996435 0 0.0011573546374345214 -0.06198831436026031 0 -0.00031629822647562136 -0.060769546259996435 0 0.0024595566815225093 -0.058731418165343087 0 0.0011573546374345214 -0.06198831436026031 0 -0.00031629822647562136 -0.060769546259996435 0 6.6822838691340237e-06 -0.054787267875978568 0 0.0024595566815225093 -0.058731418165343087 0 3.6777557565842128e-06 -0.054766499480977601 0 0.00055954173259022285 -0.050503453660195131 0 -1.5519958606950555e-06 -0.051205230669777758 0 2.2924257050562733e-06 -0.054769981586901953 0 0.00096603217708269499 -0.053789741806693714 0 -1.5519958606950555e-06 -0.051205230669777758 0 -0.00014747165420031565 -0.049193662341561951 0 -0.0003112970907065899 -0.047879954385160496 0 -1.5519958606950555e-06 -0.051205230669777758 0 -4.7325987259286293e-07 -0.047637893887091422 0 -0.0003112970907065899 -0.047879954385160496 0 0.00055954173259022285 -0.050503453660195131 0 -1.5519958606950555e-06 -0.051205230669777758 0 -0.00014747165420031565 -0.049193662341561951 0 0.00055954173259022285 -0.050503453660195131 0 -0.00014747165420031565 -0.049193662341561951 0 0.00024542089294640469 -0.048714075660791986 0 0.00096603217708269499 -0.053789741806693714 0 0.0014227930369220729 -0.051818129553316716 0 -0.00014747165420031565 -0.049193662341561951 0 -0.00038308965020502814 -0.048292011688352704 0 0.00024542089294640469 -0.048714075660791986 0 -0.00014747165420031565 -0.049193662341561951 0 -0.00038308965020502814 -0.048292011688352704 0 -0.0003112970907065899 -0.047879954385160496 0 0.0010227700294199124 -0.047067604687381616 0 0.0014227930369220729 -0.051818129553316716 0 0.0014956296846719461 -0.037865854447813277 0 0.0010004214688934851 -0.038367408435360253 0 0.00035648870967465337 -0.038121506909969946 0 0.0014956296846719461 -0.037865854447813277 0 0.0010004214688934851 -0.038367408435360253 0 0.001529148068616384 -0.038451741106368301 0 0.0010004214688934851 -0.038367408435360253 0 0.00035648870967465337 -0.038121506909969946 0 0.00085291160848264202 -0.039018296401414722 0 0.0010419394373910214 -0.063595979323988666 0 0.00092019406212224826 -0.063756618105450844 0 0.0009885292593854358 -0.063683874203977434 0 0.0014227930369220729 -0.051818129553316716 0 0.0012343600445000216 -0.051265214979553997 0 0.00092019406212224826 -0.063756618105450844 0 0.0009885292593854358 -0.063683874203977434 0 0.0010095255005913254 -0.063747793125072283 0 0.00085291160848264202 -0.039018296401414722 0 0.001529148068616384 -0.038451741106368301 0 0.001688775810004762 -0.03904053484579971 0 0.0010004214688934851 -0.038367408435360253 0 0.00085291160848264202 -0.039018296401414722 0 0.001529148068616384 -0.038451741106368301 0 0.0010419394373910214 -0.063595979323988666 0 0.0007321253008412558 -0.063459642041811384 0 0.0009885292593854358 -0.063683874203977434 0 0.0014227930369220729 -0.051818129553316716 0 2.1750239769968572e-05 -0.057841179922455403 0 0.0024595566815225093 -0.058731418165343087 0 0.0037960633391900846 -0.06090896655371144 0 0.0011573546374345214 -0.06198831436026031 0 0.0009885292593854358 -0.063683874203977434 0 0.00078946755635355261 -0.063820358220429599 0 0.00099671087799351929 -0.06379252912194544 0 0.0009885292593854358 -0.063683874203977434 0 0.00099671087799351929 -0.06379252912194544 0 0.0010095255005913254 -0.063747793125072283 0 0.0007321253008412558 -0.063459642041811384 0 0.0009885292593854358 -0.063683874203977434 0 0.00078946755635355261 -0.063820358220429599 0 0.00078946755635355261 -0.063820358220429599 0 0.00075521975489635637 -0.064099454880962178 0 0.00038731969055423268 -0.064229387227820428 0 0.00075521975489635637 -0.064099454880962178 0 0.00068102218011649527 -0.064415299272785151 0 0.00038731969055423268 -0.064229387227820428 0 0.00075521975489635637 -0.064099454880962178 0 0.00089676753801840384 -0.06406052886490024 0 0.00087789455471549993 -0.064230847393798959 0 0.00075521975489635637 -0.064099454880962178 0 0.00093045715608609456 -0.063913689109184019 0 0.00089676753801840384 -0.06406052886490024 0 0.00078946755635355261 -0.063820358220429599 0 0.00075521975489635637 -0.064099454880962178 0 0.00093045715608609456 -0.063913689109184019 0 0.00078946755635355261 -0.063820358220429599 0 0.00099671087799351929 -0.06379252912194544 0 0.00093045715608609456 -0.063913689109184019 0 0.00099671087799351929 -0.06379252912194544 0 0.00093045715608609456 -0.063913689109184019 0 0.001103431845729744 -0.063833583921289405 0 0.00099671087799351929 -0.06379252912194544 0 0.001103431845729744 -0.063833583921289405 0 0.0010095255005913254 -0.063747793125072283 0 0.001103431845729744 -0.063833583921289405 0 0.0010095255005913254 -0.063747793125072283 0 0.0010257358083064262 -0.063619251767745119 0 0.0023683660961943908 -0.062431604483605192 0 0.0023923977667160532 -0.062259009391421483 0 0.001103431845729744 -0.063833583921289405 0 0.0010269321165454731 -0.064002611335270992 0 0.0012352140570781698 -0.064338358879275415 0 0.001103431845729744 -0.063833583921289405 0 0.0012070065483377362 -0.063518952632036177 0 0.0010257358083064262 -0.063619251767745119 0 0.0023916089741137093 -0.062345483875713849 0 0.0023923977667160532 -0.062259009391421483 0 0.0010269321165454731 -0.064002611335270992 0 0.00087789455471549993 -0.064230847393798959 0 0.001141517101941584 -0.06424830165991581 0 0.00093045715608609456 -0.063913689109184019 0 0.00089676753801840384 -0.06406052886490024 0 0.0010269321165454731 -0.064002611335270992 0 0.00093045715608609456 -0.063913689109184019 0 0.001103431845729744 -0.063833583921289405 0 0.0010269321165454731 -0.064002611335270992 0 0.00089676753801840384 -0.06406052886490024 0 0.0010269321165454731 -0.064002611335270992 0 0.00087789455471549993 -0.064230847393798959 0 0.00087789455471549993 -0.064230847393798959 0 0.001141517101941584 -0.06424830165991581 0 0.00091384307487258232 -0.064523146641233403 0 0.0023923977667160532 -0.062259009391421483 0 0.0019897030211264875 -0.06187767914343463 0 0.001141517101941584 -0.06424830165991581 0 0.00091384307487258232 -0.064523146641233403 0 0.0011835682070161621 -0.064817014580708862 0 0.00091384307487258232 -0.064523146641233403 0 0.00068102218011649527 -0.064415299272785151 0 0.00070793039266971451 -0.064859922764973543 0 0.00068102218011649527 -0.064415299272785151 0 0.00070793039266971451 -0.064859922764973543 0 0.00037786763426691817 -0.064551315752339633 0 0.00087789455471549993 -0.064230847393798959 0 0.00091384307487258232 -0.064523146641233403 0 0.00068102218011649527 -0.064415299272785151 0 0.00075521975489635637 -0.064099454880962178 0 0.00087789455471549993 -0.064230847393798959 0 0.00068102218011649527 -0.064415299272785151 0 0.00092019406212224826 -0.063756618105450844 0 0.00051893291140196177 -0.063508589565296064 0 0.00086835551600896875 -0.063589405631778617 0 0.00085291160848264202 -0.039018296401414722 0 0.001330189319798239 -0.039949447249478444 0 0.001688775810004762 -0.03904053484579971 0 0.0012343600445000216 -0.051265214979553997 0 0.0013466426730508617 -0.050927276566859317 0 0.00051893291140196177 -0.063508589565296064 0 0.00086835551600896875 -0.063589405631778617 0 0.00071825635719032594 -0.063354939565014021 0 0.00092019406212224826 -0.063756618105450844 0 0.00086835551600896875 -0.063589405631778617 0 0.0010095255005913254 -0.063747793125072283 0 0.00086835551600896875 -0.063589405631778617 0 0.0010095255005913254 -0.063747793125072283 0 0.0010257358083064262 -0.063619251767745119 0 0.0012070065483377362 -0.063518952632036177 0 0.00094940831116021272 -0.063296296399979357 0 0.0010311939741721461 -0.062830443781501974 0 0.0023923977667160532 -0.062259009391421483 0 0.0025117670684191881 -0.060263673468433775 0 0.00086835551600896875 -0.063589405631778617 0 0.0010257358083064262 -0.063619251767745119 0 0.00094940831116021272 -0.063296296399979357 0 0.0012070065483377362 -0.063518952632036177 0 0.0010257358083064262 -0.063619251767745119 0 0.00094940831116021272 -0.063296296399979357 0 0.00086835551600896875 -0.063589405631778617 0 0.00094940831116021272 -0.063296296399979357 0 0.00071825635719032594 -0.063354939565014021 0 0.00094940831116021272 -0.063296296399979357 0 0.00071825635719032594 -0.063354939565014021 0 0.00052711445573957799 -0.063006967733900798 0 0.00051893291140196177 -0.063508589565296064 0 0.00052711445573957799 -0.063006967733900798 0 0.00016980949989432349 -0.062977408155490258 0 0.00051893291140196177 -0.063508589565296064 0 0.00071825635719032594 -0.063354939565014021 0 0.00052711445573957799 -0.063006967733900798 0 0.00052711445573957799 -0.063006967733900798 0 0.00063185117141458652 -0.062606372184874651 0 0.0010311939741721461 -0.062830443781501974 0 0.00052711445573957799 -0.063006967733900798 0 0.00063185117141458652 -0.062606372184874651 0 0.00028046829057633613 -0.062537089489209885 0 0.00094940831116021272 -0.063296296399979357 0 0.00052711445573957799 -0.063006967733900798 0 0.0010311939741721461 -0.062830443781501974 0 0.0025117670684191881 -0.060263673468433775 0 0.0023088990151013066 -0.056185615092670782 0 0.0023908809519971974 -0.060118912481019617 0 0.0028366044157001275 -0.058498852484805297 0 0.0014819203389079031 -0.058514307248486594 0 0.0023908809519971974 -0.060118912481019617 0 0.0028366044157001275 -0.058498852484805297 0 0.0030695934755912862 -0.060110503316060653 0 0.0013739273793657097 -0.0601866452753324 0 0.0023088990151013066 -0.056185615092670782 0 0.00067830236781124987 -0.062033545789528396 0 0.00028046829057633613 -0.062537089489209885 0 8.9062112424621813e-05 -0.062011560334296167 0 0.00063185117141458652 -0.062606372184874651 0 0.00067830236781124987 -0.062033545789528396 0 0.00028046829057633613 -0.062537089489209885 0 0.0023088990151013066 -0.056185615092670782 0 0.0016028119581914847 -0.052668487464817837 0 0.00063185117141458652 -0.062606372184874651 0 0.0010311939741721461 -0.062830443781501974 0 0.00067830236781124987 -0.062033545789528396 0 0.0033009119664757854 -0.061725090203967214 0 0.0023908809519971974 -0.060118912481019617 0 0.0030695934755912862 -0.060110503316060653 0 0.00091384307487258232 -0.064523146641233403 0 0.00070793039266971451 -0.064859922764973543 0 0.0011835682070161621 -0.064817014580708862 0 0.0012480501020264957 -0.065314533850165377 0 0.00070793039266971451 -0.064859922764973543 0 0.0011835682070161621 -0.064817014580708862 0 0.0013739273793657097 -0.0601866452753324 0 0.0019897030211264875 -0.06187767914343463 0 0.0012480501020264957 -0.065314533850165377 0 0.00070793039266971451 -0.064859922764973543 0 0.00056428795185866319 -0.065322558900848038 0 0.00070793039266971451 -0.064859922764973543 0 0.00032357874896004382 -0.064928287919561262 0 0.00056428795185866319 -0.065322558900848038 0 0.00032357874896004382 -0.064928287919561262 0 -7.8971446427000022e-05 -0.065324955598176249 0 0.00056428795185866319 -0.065322558900848038 0 0.00070793039266971451 -0.064859922764973543 0 0.00032357874896004382 -0.064928287919561262 0 0.00037786763426691817 -0.064551315752339633 0 0.00032357874896004382 -0.064928287919561262 0 9.4834338435836126e-05 -0.064704100468572751 0 0.00037786763426691817 -0.064551315752339633 0 8.8616563718542474e-05 -0.064757316697600154 0 -4.0012401956080639e-05 -0.064910720988581389 0 -4.118915660762446e-05 -0.064699622210393132 0 9.6039159411779004e-06 -0.064989447009806162 0 7.7580877017004493e-06 -0.064995150641704441 0 1.7255365432295522e-06 -0.064995198848822697 0 0.00012431909414731826 -0.064801958072001009 0 1.1207044582324558e-05 -0.064930630180329379 0 0.00012431909414731826 -0.064801958072001009 0 0.00012442035678401987 -0.064801140150810871 0 0.00012431909414731826 -0.064801958072001009 0 0.00013565593068102399 -0.064719265764425923 0 0.00032357874896004382 -0.064928287919561262 0 9.4834338435836126e-05 -0.064704100468572751 0 7.7147798372102453e-06 -0.065011050708029691 0 0.00032357874896004382 -0.064928287919561262 0 7.7147798372102453e-06 -0.065011050708029691 0 -7.8971446427000022e-05 -0.065324955598176249 0 0.00013565593068102399 -0.064719265764425923 0 0.00022621630664580063 -0.06438121384040206 0 7.7580877017004493e-06 -0.064995150641704441 0 3.916300302352761e-06 -0.064996908150243823 0 6.1115854004086447e-06 -0.064999449908831566 0 3.916300302352761e-06 -0.064996908150243823 0 1.7255365432295522e-06 -0.064995198848822697 0 1.345781357013803e-06 -0.06499929435156368 0 1.7255365432295522e-06 -0.064995198848822697 0 6.6671430292369409e-07 -0.064999511406113999 0 1.345781357013803e-06 -0.06499929435156368 0 3.916300302352761e-06 -0.064996908150243823 0 1.345781357013803e-06 -0.06499929435156368 0 6.1115854004086447e-06 -0.064999449908831566 0 7.7580877017004493e-06 -0.064995150641704441 0 3.916300302352761e-06 -0.064996908150243823 0 1.7255365432295522e-06 -0.064995198848822697 0 -4.6552379273872358e-08 -0.064999895473227806 0 1.1207044582324558e-05 -0.064930630180329379 0 -2.8223352007010121e-09 -0.064999995704628499 0 1.7255365432295522e-06 -0.064995198848822697 0 6.6671430292369409e-07 -0.064999511406113999 0 1.0558495629371412e-07 -0.064999970059955572 0 -4.0012401956080639e-05 -0.064910720988581389 0 -2.6159212235231358e-07 -0.06499977891893835 0 -4.0012401956080639e-05 -0.064910720988581389 0 -4.118915660762446e-05 -0.064699622210393132 0 -2.6159212235231358e-07 -0.06499977891893835 0 -4.118915660762446e-05 -0.064699622210393132 0 -2.6159212235231358e-07 -0.06499977891893835 0 -0.0001264492516754602 -0.064563633924520594 0 1.1351386370097197e-08 -0.064998411785986948 0 -2.6159212235231358e-07 -0.06499977891893835 0 -0.0001264492516754602 -0.064563633924520594 0 -4.118915660762446e-05 -0.064699622210393132 0 -0.0001264492516754602 -0.064563633924520594 0 3.716675929455695e-06 -0.064357041029280262 0 -0.00016035949651228639 -0.063516123730213633 0 -0.0001264492516754602 -0.064563633924520594 0 3.716675929455695e-06 -0.064357041029280262 0 -0.00016035949651228639 -0.063516123730213633 0 3.716675929455695e-06 -0.064357041029280262 0 0.00038731969055423268 -0.064229387227820428 0 3.716675929455695e-06 -0.064357041029280262 0 0.00038731969055423268 -0.064229387227820428 0 0.0001488219877613004 -0.0645165722454209 0 0.00038731969055423268 -0.064229387227820428 0 0.00037786763426691817 -0.064551315752339633 0 0.0001488219877613004 -0.0645165722454209 0 0.00068102218011649527 -0.064415299272785151 0 0.00038731969055423268 -0.064229387227820428 0 0.00037786763426691817 -0.064551315752339633 0 8.9811940694257676e-05 -0.064782199109946245 0 0.00037786763426691817 -0.064551315752339633 0 0.00010273133143088721 -0.064720191164322607 0 0.00037786763426691817 -0.064551315752339633 0 0.00010273133143088721 -0.064720191164322607 0 0.0001488219877613004 -0.0645165722454209 0 0.00012431909414731826 -0.064801958072001009 0 0.00017782450539503974 -0.064763235362258725 0 -4.118915660762446e-05 -0.064699622210393132 0 0.00010273133143088721 -0.064720191164322607 0 0.0001488219877613004 -0.0645165722454209 0 8.8616563718542474e-05 -0.064757316697600154 0 -4.118915660762446e-05 -0.064699622210393132 0 0.00010273133143088721 -0.064720191164322607 0 -4.118915660762446e-05 -0.064699622210393132 0 3.716675929455695e-06 -0.064357041029280262 0 0.0001488219877613004 -0.0645165722454209 0 0.0021141772133524174 -0.033462117105408092 0 0.0029917194823338676 -0.031828092390178087 0 0.00093774663449022657 -0.03261734876251883 0 0.0011140058905448566 -0.031581320904236591 0 0.00062391436279160149 -0.032278144645232883 0 -0.00022384786980456548 -0.036386336374323772 0 0.00027276682776414116 -0.036306883969219828 0 0.00014535772416211039 -0.036543551942061457 0 -0.00022384786980456548 -0.036386336374323772 0 -0.00013077775707331406 -0.036443875612888789 0 0.00014535772416211039 -0.036543551942061457 0 -0.00022384786980456548 -0.036386336374323772 0 -0.00012863057551637915 -0.036266685583846527 0 -0.00013077775707331406 -0.036443875612888789 0 -0.00022384786980456548 -0.036386336374323772 0 -0.00020720890969348456 -0.035876778593222892 0 -0.00033548261493869552 -0.036513296527113825 0 -0.00022384786980456548 -0.036386336374323772 0 -0.00020720890969348456 -0.035876778593222892 0 0.00027276682776414116 -0.036306883969219828 0 0.0021141772133524174 -0.033462117105408092 0 0.0018216439938739404 -0.033759354802557803 0 -0.00020720890969348456 -0.035876778593222892 0 0.00027276682776414116 -0.036306883969219828 0 0.00026543858574576553 -0.034369589753300116 0 0.00093774663449022657 -0.03261734876251883 0 0.00026543858574576553 -0.034369589753300116 0 9.9945346089045449e-05 -0.033095668533570648 0 0.00026543858574576553 -0.034369589753300116 0 -7.6082276889620606e-07 -0.033370245177676137 0 -0.00022756810303666708 -0.035781108107411967 0 0.00026543858574576553 -0.034369589753300116 0 -7.6082276889620606e-07 -0.033370245177676137 0 -4.0413658350965893e-05 -0.032622646894429154 0 -7.6082276889620606e-07 -0.033370245177676137 0 -0.00022756810303666708 -0.035781108107411967 0 -6.7295775248965652e-07 -0.036937589638711084 0 -0.00020720890969348456 -0.035876778593222892 0 0.00026543858574576553 -0.034369589753300116 0 -0.00022756810303666708 -0.035781108107411967 0 -0.00020720890969348456 -0.035876778593222892 0 -0.00022756810303666708 -0.035781108107411967 0 -0.00033548261493869552 -0.036513296527113825 0 -0.00033548261493869552 -0.036513296527113825 0 -0.00014104600556809002 -0.037645887759672418 0 -4.1954135142156816e-05 -0.037420789970906983 0 -0.00022756810303666708 -0.035781108107411967 0 -0.00033548261493869552 -0.036513296527113825 0 -0.00014104600556809002 -0.037645887759672418 0 -6.7295775248965652e-07 -0.036937589638711084 0 -0.00014104600556809002 -0.037645887759672418 0 8.5217106356030968e-07 -0.040504250962640626 0 -0.00022756810303666708 -0.035781108107411967 0 -6.7295775248965652e-07 -0.036937589638711084 0 -0.00014104600556809002 -0.037645887759672418 0 -0.00014104600556809002 -0.037645887759672418 0 8.5217106356030968e-07 -0.040504250962640626 0 0.0002750690819289227 -0.039087631179928257 0 0.0002750690819289227 -0.039087631179928257 0 -4.1954135142156816e-05 -0.037420789970906983 0 0.0010205473808900659 -0.037861175260695788 0 -0.00014104600556809002 -0.037645887759672418 0 0.0002750690819289227 -0.039087631179928257 0 -4.1954135142156816e-05 -0.037420789970906983 0 -4.1954135142156816e-05 -0.037420789970906983 0 0.00047912628020905563 -0.03699346762168701 0 0.0010205473808900659 -0.037861175260695788 0 0.00047912628020905563 -0.03699346762168701 0 0.00034164232555370478 -0.036391669888331285 0 0.00091233880181821887 -0.036626621212467673 0 0.00047912628020905563 -0.03699346762168701 0 -0.00014537191137059486 -0.036614625937473631 0 0.00034164232555370478 -0.036391669888331285 0 -4.1954135142156816e-05 -0.037420789970906983 0 0.00047912628020905563 -0.03699346762168701 0 -0.00014537191137059486 -0.036614625937473631 0 -0.00022384786980456548 -0.036386336374323772 0 -0.00033548261493869552 -0.036513296527113825 0 -0.00014537191137059486 -0.036614625937473631 0 -0.00033548261493869552 -0.036513296527113825 0 -4.1954135142156816e-05 -0.037420789970906983 0 -0.00014537191137059486 -0.036614625937473631 0 -0.00022384786980456548 -0.036386336374323772 0 -0.00014537191137059486 -0.036614625937473631 0 -0.00012863057551637915 -0.036266685583846527 0 -0.00014537191137059486 -0.036614625937473631 0 -0.00012863057551637915 -0.036266685583846527 0 0.00034164232555370478 -0.036391669888331285 0 -0.00012863057551637915 -0.036266685583846527 0 0.00034164232555370478 -0.036391669888331285 0 0.00041900885106792014 -0.035864477440528918 0 0.00034164232555370478 -0.036391669888331285 0 0.0011209912242005529 -0.03602783876312516 0 0.00041900885106792014 -0.035864477440528918 0 0.00034164232555370478 -0.036391669888331285 0 0.00091233880181821887 -0.036626621212467673 0 0.0011209912242005529 -0.03602783876312516 0 0.0024075142973846672 -0.035710836108390036 0 0.0023541541543257794 -0.035920725006796744 0 0.0011646095494672116 -0.035677356267517592 0 0.0023636028863955154 -0.035602106799896761 0 0.0017090381585909823 -0.03687413730985771 0 0.00091233880181821887 -0.036626621212467673 0 0.0011209912242005529 -0.03602783876312516 0 0.0017090381585909823 -0.03687413730985771 0 0.002092121353218403 -0.03775629255087886 0 0.0020757168919490893 -0.037779364664733396 0 0.0019188465280278765 -0.037779459191504446 0 0.0029330777285829107 -0.037507171148187544 0 0.0027413056473786081 -0.037671722008572175 0 0.002092121353218403 -0.03775629255087886 0 0.0020757168919490893 -0.037779364664733396 0 0.0021157338720891364 -0.037816225441296557 0 0.0020757168919490893 -0.037779364664733396 0 0.0019188465280278765 -0.037779459191504446 0 0.0020257757909529889 -0.037794519293044289 0 0.0029330777285829107 -0.037507171148187544 0 0.0026488403281791583 -0.037562737877778009 0 0.0023636028863955154 -0.035602106799896761 0 0.0019188465280278765 -0.037779459191504446 0 0.0017090381585909823 -0.03687413730985771 0 0.0020757168919490893 -0.037779364664733396 0 0.0020730364711761648 -0.037804752158579938 0 0.0020967684366067106 -0.037832562099390447 0 0.0020757168919490893 -0.037779364664733396 0 0.0020730364711761648 -0.037804752158579938 0 0.0020257757909529889 -0.037794519293044289 0 0.0020730364711761648 -0.037804752158579938 0 0.0021091597266768261 -0.037837569570813204 0 0.0020967684366067106 -0.037832562099390447 0 0.0020730364711761648 -0.037804752158579938 0 0.0021091597266768261 -0.037837569570813204 0 0.0020257757909529889 -0.037794519293044289 0 0.0019188465280278765 -0.037779459191504446 0 0.0011897634515140468 -0.037208071875120041 0 0.0010205473808900659 -0.037861175260695788 0 0.0019188465280278765 -0.037779459191504446 0 0.0017090381585909823 -0.03687413730985771 0 0.0011897634515140468 -0.037208071875120041 0 0.00047912628020905563 -0.03699346762168701 0 0.00091233880181821887 -0.036626621212467673 0 0.0011897634515140468 -0.037208071875120041 0 0.00091233880181821887 -0.036626621212467673 0 0.0017090381585909823 -0.03687413730985771 0 0.0011897634515140468 -0.037208071875120041 0 0.00047912628020905563 -0.03699346762168701 0 0.0011897634515140468 -0.037208071875120041 0 0.0010205473808900659 -0.037861175260695788 0 0.0002750690819289227 -0.039087631179928257 0 0.0010205473808900659 -0.037861175260695788 0 0.0020194800986664953 -0.038122161660689609 0 -2.9865667937995074e-05 -0.042318600293141696 0 0.00029429933958153974 -0.042876592283538767 0 0.0002750690819289227 -0.039087631179928257 0 0.00019840874498360219 -0.041506645777272429 0 0.00015025162496506289 -0.043589012649504495 0 0.0019188465280278765 -0.037779459191504446 0 0.0010205473808900659 -0.037861175260695788 0 0.0020194800986664953 -0.038122161660689609 0 8.5217106356030968e-07 -0.040504250962640626 0 -6.8076559705827032e-08 -0.044071641238450712 0 0.00010541134539539134 -0.042909195555052258 0 8.5217106356030968e-07 -0.040504250962640626 0 0.00019840874498360219 -0.041506645777272429 0 0.00010541134539539134 -0.042909195555052258 0 8.5217106356030968e-07 -0.040504250962640626 0 0.0002750690819289227 -0.039087631179928257 0 0.00019840874498360219 -0.041506645777272429 0 0.00019840874498360219 -0.041506645777272429 0 0.00010541134539539134 -0.042909195555052258 0 0.00015025162496506289 -0.043589012649504495 0 0.00010541134539539134 -0.042909195555052258 0 0.00015025162496506289 -0.043589012649504495 0 -0.0001259258343888743 -0.045356264424917081 0 -6.8076559705827032e-08 -0.044071641238450712 0 0.00010541134539539134 -0.042909195555052258 0 -0.0001259258343888743 -0.045356264424917081 0 0.00029429933958153974 -0.042876592283538767 0 0.00068513266607600877 -0.044400964321139831 0 0.00015025162496506289 -0.043589012649504495 0 -0.00021429249534055887 -0.046465148649141204 0 -0.0001259258343888743 -0.045356264424917081 0 0.0021091597266768261 -0.037837569570813204 0 0.0020194800986664953 -0.038122161660689609 0 0.0021836088367985069 -0.037843453720293629 0 0.0019188465280278765 -0.037779459191504446 0 0.0020257757909529889 -0.037794519293044289 0 0.0020194800986664953 -0.038122161660689609 0 0.0021091597266768261 -0.037837569570813204 0 0.0020257757909529889 -0.037794519293044289 0 0.0020194800986664953 -0.038122161660689609 0 -0.00021429249534055887 -0.046465148649141204 0 -0.0001259258343888743 -0.045356264424917081 0 -0.0003112970907065899 -0.047879954385160496 0 -6.8076559705827032e-08 -0.044071641238450712 0 -0.0001259258343888743 -0.045356264424917081 0 -4.7325987259286293e-07 -0.047637893887091422 0 -0.0001259258343888743 -0.045356264424917081 0 -4.7325987259286293e-07 -0.047637893887091422 0 -0.0003112970907065899 -0.047879954385160496 0 -0.00038308965020502814 -0.048292011688352704 0 -0.00021429249534055887 -0.046465148649141204 0 -0.0003112970907065899 -0.047879954385160496 0 0.0010227700294199124 -0.047067604687381616 0 0.00068513266607600877 -0.044400964321139831 0 0.0014956296846719461 -0.037865854447813277 0 0.001529148068616384 -0.038451741106368301 0 0.0019956002168171213 -0.03802124272198909 0 0.0014956296846719461 -0.037865854447813277 0 0.0021836088367985069 -0.037843453720293629 0 0.0019956002168171213 -0.03802124272198909 0 0.001529148068616384 -0.038451741106368301 0 0.0019956002168171213 -0.03802124272198909 0 0.0020106137223114924 -0.038551211158003765 0 0.0021836088367985069 -0.037843453720293629 0 0.0019956002168171213 -0.03802124272198909 0 0.0021116116794577095 -0.03788873704799825 0 0.0021091597266768261 -0.037837569570813204 0 0.0021836088367985069 -0.037843453720293629 0 0.0021116116794577095 -0.03788873704799825 0 0.0021091597266768261 -0.037837569570813204 0 0.0021116116794577095 -0.03788873704799825 0 0.0020967684366067106 -0.037832562099390447 0 0.0021116116794577095 -0.03788873704799825 0 0.0020967684366067106 -0.037832562099390447 0 0.0021157338720891364 -0.037816225441296557 0 0.0019956002168171213 -0.03802124272198909 0 0.0027272754023752528 -0.038597797662954597 0 0.0020106137223114924 -0.038551211158003765 0 0.0019956002168171213 -0.03802124272198909 0 0.0021116116794577095 -0.03788873704799825 0 0.0021157338720891364 -0.037816225441296557 0 0.0026115826585475931 -0.037669375713059824 0 0.0027413056473786081 -0.037671722008572175 0 0.0027272754023752528 -0.038597797662954597 0 0.0023011583973871555 -0.038878235120372411 0 0.0020106137223114924 -0.038551211158003765 0 0.0020757168919490893 -0.037779364664733396 0 0.0020967684366067106 -0.037832562099390447 0 0.0021157338720891364 -0.037816225441296557 0 0.0027272754023752528 -0.038597797662954597 0 0.0028070482342456033 -0.038916878152019649 0 0.0023011583973871555 -0.038878235120372411 0 0.0033548843428696114 -0.039136052223580242 0 0.0027272754023752528 -0.038597797662954597 0 0.0028070482342456033 -0.038916878152019649 0 0.0028070482342456033 -0.038916878152019649 0 0.0024936646226467137 -0.03920229595279924 0 0.0026561004245205075 -0.039557634569213219 0 0.0028070482342456033 -0.038916878152019649 0 0.0024936646226467137 -0.03920229595279924 0 0.0023011583973871555 -0.038878235120372411 0 0.0024936646226467137 -0.03920229595279924 0 0.0023011583973871555 -0.038878235120372411 0 0.0020781439728804921 -0.039485064659086432 0 0.0023011583973871555 -0.038878235120372411 0 0.001688775810004762 -0.03904053484579971 0 0.0020781439728804921 -0.039485064659086432 0 0.001529148068616384 -0.038451741106368301 0 0.001688775810004762 -0.03904053484579971 0 0.0020106137223114924 -0.038551211158003765 0 0.0023011583973871555 -0.038878235120372411 0 0.001688775810004762 -0.03904053484579971 0 0.0020106137223114924 -0.038551211158003765 0 0.001330189319798239 -0.039949447249478444 0 0.001688775810004762 -0.03904053484579971 0 0.0020781439728804921 -0.039485064659086432 0 0.001330189319798239 -0.039949447249478444 0 0.0020781439728804921 -0.039485064659086432 0 0.0020137164402693917 -0.040165533847982382 0 0.0020781439728804921 -0.039485064659086432 0 0.0024577887222716429 -0.039997006089057825 0 0.0020137164402693917 -0.040165533847982382 0 0.0028070482342456033 -0.038916878152019649 0 0.0026561004245205075 -0.039557634569213219 0 0.0032266428335705815 -0.039882454472684126 0 0.0024936646226467137 -0.03920229595279924 0 0.0020781439728804921 -0.039485064659086432 0 0.0026561004245205075 -0.039557634569213219 0 0.0026561004245205075 -0.039557634569213219 0 0.0028579101577319182 -0.039969943031847616 0 0.0024577887222716429 -0.039997006089057825 0 0.0026561004245205075 -0.039557634569213219 0 0.0028579101577319182 -0.039969943031847616 0 0.0032266428335705815 -0.039882454472684126 0 0.0020781439728804921 -0.039485064659086432 0 0.0026561004245205075 -0.039557634569213219 0 0.0024577887222716429 -0.039997006089057825 0 0.0024577887222716429 -0.039997006089057825 0 0.0023888018103499897 -0.04047065500978575 0 0.0020137164402693917 -0.040165533847982382 0 0.0023888018103499897 -0.04047065500978575 0 0.0018457497758179204 -0.040903689854536122 0 0.0029799935431093372 -0.04092753733548455 0 0.0024577887222716429 -0.039997006089057825 0 0.0027926645205437165 -0.040240122451471447 0 0.0023888018103499897 -0.04047065500978575 0 0.0028579101577319182 -0.039969943031847616 0 0.0024577887222716429 -0.039997006089057825 0 0.0027926645205437165 -0.040240122451471447 0 0.0028579101577319182 -0.039969943031847616 0 0.0027926645205437165 -0.040240122451471447 0 0.0031590449844207838 -0.040171165495571995 0 0.0031176763825570158 -0.039057561143587535 0 0.0031517985647545642 -0.03902497562504352 0 0.0027926645205437165 -0.040240122451471447 0 0.0023888018103499897 -0.04047065500978575 0 0.0029799935431093372 -0.04092753733548455 0 0.0027926645205437165 -0.040240122451471447 0 0.0029799935431093372 -0.04092753733548455 0 0.0031534792637842026 -0.040172119201899531 0 0.001330189319798239 -0.039949447249478444 0 0.0020137164402693917 -0.040165533847982382 0 0.0018457497758179204 -0.040903689854536122 0 0.0013466426730508617 -0.050927276566859317 0 0.0012620107347560783 -0.049589672463693328 0 0.0023888018103499897 -0.04047065500978575 0 0.0020137164402693917 -0.040165533847982382 0 0.0018457497758179204 -0.040903689854536122 0 0.0011022106642043896 -0.050576154637094507 0 0.0012620107347560783 -0.049589672463693328 0 0.00052711445573957799 -0.063006967733900798 0 2.8932110753354516e-05 -0.062981867340640083 0 0.00028046829057633613 -0.062537089489209885 0 0.0012620107347560783 -0.049589672463693328 0 0.0019140962929582608 -0.050369501526754089 0 2.8932110753354516e-05 -0.062981867340640083 0 0.00028046829057633613 -0.062537089489209885 0 -0.00024376370270921889 -0.062495866588684966 0 0.00028046829057633613 -0.062537089489209885 0 -0.00024376370270921889 -0.062495866588684966 0 8.9062112424621813e-05 -0.062011560334296167 0 0.0016028119581914847 -0.052668487464817837 0 0.0016904612907810202 -0.048119789945321963 0 -0.00024376370270921889 -0.062495866588684966 0 8.9062112424621813e-05 -0.062011560334296167 0 -0.00051508145051614351 -0.061993237697912207 0 0.0013094717562512808 -0.047330936229569423 0 0.0011231245372518672 -0.047059119695035637 0 0.0010025563485766217 -0.047585316739871236 0 0.0035368848130202034 -0.04231107959110534 0 0.0035129152661455641 -0.042417660402278838 0 0.0034854351723602431 -0.042356853194656534 0 0.00180634330035874 -0.047468110798355695 0 0.0029291876964762688 -0.042910188626516334 0 0.0012340190863707448 -0.045535683844004846 0 0.0019522702696034733 -0.045523843555809886 0 0.0011926553731362237 -0.045712015485766172 0 0.00180634330035874 -0.047468110798355695 0 0.0026580333170730429 -0.044727687196166745 0 0.0001009023104606857 -0.048627316266408808 0 0.00025744628142957608 -0.048625222479408807 0 0.00014700745639552049 -0.048428029846281688 0 0.00180634330035874 -0.047468110798355695 0 0.0016904612907810202 -0.048119789945321963 0 0.0013094717562512808 -0.047330936229569423 0 0.0011231245372518672 -0.047059119695035637 0 0.0011547297017211902 -0.047058952098325071 0 0.0019140962929582608 -0.050369501526754089 0 0.0016904612907810202 -0.048119789945321963 0 0.0012620107347560783 -0.049589672463693328 0 0.0029291876964762688 -0.042910188626516334 0 0.0014638596225573885 -0.047605070323325532 0 0.0013094717562512808 -0.047330936229569423 0 0.0010025563485766217 -0.047585316739871236 0 0.0029291876964762688 -0.042910188626516334 0 0.00375554347027447 -0.039657617141601681 0 0.0034531402167645845 -0.042413131597346873 0 0.0034854351723602431 -0.042356853194656534 0 0.0034207307174875458 -0.042335117040776436 0 0.0035129152661455641 -0.042417660402278838 0 0.0034531402167645845 -0.042413131597346873 0 0.0034854351723602431 -0.042356853194656534 0 0.0026580333170730429 -0.044727687196166745 0 0.0040835837516725489 -0.037892704264823808 0 0.0034854351723602431 -0.042356853194656534 0 0.0035025113473550755 -0.042308434302690906 0 0.0034207307174875458 -0.042335117040776436 0 0.0026580333170730429 -0.044727687196166745 0 0.0040807978766508523 -0.039124944645515976 0 0.0035368848130202034 -0.04231107959110534 0 0.0034854351723602431 -0.042356853194656534 0 0.0035025113473550755 -0.042308434302690906 0 0.0029214211420287776 -0.041575533468732224 0 0.0048354377841166888 -0.041535312625791257 0 0.0045567914162934894 -0.040885444094103988 0 0.0041971620331128492 -0.035445534488772176 0 0.0040612905571941506 -0.035129471174884026 0 0.0048774158913805921 -0.035131786712196661 0 0.0040835837516725489 -0.037892704264823808 0 0.0040807978766508523 -0.039124944645515976 0 0.0038828724464488006 -0.037220384882844681 0 0.0038778025264563482 -0.037206761655846896 0 0.0038644216554946246 -0.037212465162198498 0 0.00375554347027447 -0.039657617141601681 0 0.0040807978766508523 -0.039124944645515976 0 0.00375554347027447 -0.039657617141601681 0 0.0038428673591568772 -0.035072105683077039 0 0.0038661484403510809 -0.036961063899503273 0 0.0036721024835786754 -0.037123980118447003 0 0.0033815843087497003 -0.036942394322024369 0 0.0036721024835786754 -0.037123980118447003 0 0.0039851694145524178 -0.037240867685079899 0 0.0036392219568324 -0.037302151275122611 0 0.0033115935461706897 -0.038638412799654194 0 0.0029953415131049738 -0.036258078154265828 0 0.0036721024835786754 -0.037123980118447003 0 0.0036392219568324 -0.037302151275122611 0 0.0034878707211735728 -0.03717275497945758 0 0.0047627070273255278 -0.039864600633126114 0 0.0041058299872325935 -0.041333928886008925 0 0.0044344764870390858 -0.041273283561895427 0 0.0047627070273255278 -0.039864600633126114 0 0.0034600255843608399 -0.039827674532258488 0 0.0041058299872325935 -0.041333928886008925 0 0.00375554347027447 -0.039657617141601681 0 0.0033115935461706897 -0.038638412799654194 0 0.0038661484403510809 -0.036961063899503273 0 0.0036721024835786754 -0.037123980118447003 0 0.0039851694145524178 -0.037240867685079899 0 0.0029291876964762688 -0.042910188626516334 0 0.0031517985647545642 -0.03902497562504352 0 0.0031517985647545642 -0.03902497562504352 0 0.0031810421107138034 -0.038637879565583261 0 0.0033115935461706897 -0.038638412799654194 0 0.0031810421107138034 -0.038637879565583261 0 0.0031956062567760337 -0.038315148391816621 0 0.0038169333912843693 -0.038199694563277181 0 0.003580715852549851 -0.039214859265038503 0 0.0033115935461706897 -0.038638412799654194 0 0.0031517985647545642 -0.03902497562504352 0 0.0033548843428696114 -0.039136052223580242 0 0.0028070482342456033 -0.038916878152019649 0 0.0031947462565217609 -0.039815966132620437 0 0.00351793813987981 -0.037644088722000035 0 0.0035912420187680563 -0.037329579361442503 0 0.0031091932567144918 -0.037297263630109281 0 0.0035437126723447013 -0.03721882804055051 0 0.0035912420187680563 -0.037329579361442503 0 0.0031091932567144918 -0.037297263630109281 0 0.0032001216297810925 -0.038869674250278728 0 0.0031810421107138034 -0.038637879565583261 0 0.0028579101577319182 -0.039969943031847616 0 0.0031590449844207838 -0.040171165495571995 0 0.0032266428335705815 -0.039882454472684126 0 0.0029330777285829107 -0.037507171148187544 0 0.0031810421107138034 -0.038637879565583261 0 0.0029330777285829107 -0.037507171148187544 0 0.0029953415131049738 -0.036258078154265828 0 0.0024075142973846672 -0.035710836108390036 0 0.0029351273018383157 -0.035754117135312874 0 0.0011646095494672116 -0.035677356267517592 0 0.0023636028863955154 -0.035602106799896761 0 0.00098468653598698919 -0.034453678408186639 0 0.0011646095494672116 -0.035677356267517592 0 0.00098468653598698919 -0.034453678408186639 0 0.00063024753185582426 -0.034520322204936019 0 0.0029953415131049738 -0.036258078154265828 0 0.0029351273018383157 -0.035754117135312874 0 0.0029351273018383157 -0.035754117135312874 0 0.0029140967621146953 -0.034695413065957387 0 0.0011209912242005529 -0.03602783876312516 0 0.00074182602311420327 -0.035314890835793381 0 0.00041900885106792014 -0.035864477440528918 0 0.0031581440907617821 -0.035192530446064456 0 0.0031482822274460955 -0.035193562975669147 0 0.0031559502340472159 -0.035187243348860545 0 0.00074182602311420327 -0.035314890835793381 0 0.00041900885106792014 -0.035864477440528918 0 -8.0812789556647884e-05 -0.035472984213249743 0 -0.00012863057551637915 -0.036266685583846527 0 0.00041900885106792014 -0.035864477440528918 0 -8.0812789556647884e-05 -0.035472984213249743 0 0.0029140967621146953 -0.034695413065957387 0 0.002517766183935055 -0.033433444529138157 0 0.0037512223860916949 -0.031737649513215241 0 0.0039660463367571222 -0.03194037099933783 0 0.0041493007992161159 -0.031659781795526025 0 0.0026459078512586507 -0.035138248884495349 0 0.0029140967621146953 -0.034695413065957387 0 -0.00012863057551637915 -0.036266685583846527 0 -0.00014974765005130094 -0.036356116670295695 0 -0.00013077775707331406 -0.036443875612888789 0 0.0037512223860916949 -0.031737649513215241 0 0.0039660463367571222 -0.03194037099933783 0 0.0037124483134320773 -0.032157223677219571 0 0.0029140967621146953 -0.034695413065957387 0 0.0035669516415510576 -0.034612772023288406 0 0.0039660463367571222 -0.03194037099933783 0 0.0039437633425890434 -0.03213975664961688 0 0.0037124483134320773 -0.032157223677219571 0 0.0037566432262503315 -0.034826485062643818 0 0.0038439055417776721 -0.035011659475017679 0 0.003907015101261316 -0.034952099259767708 0 0.0031482822274460955 -0.035193562975669147 0 0.0031559502340472159 -0.035187243348860545 0 0.0031497765187966154 -0.035181198376341434 0 0.0033292128345284258 -0.035573270217014542 0 0.0035669516415510576 -0.034612772023288406 0 0.0036721024835786754 -0.037123980118447003 0 0.0034878707211735728 -0.03717275497945758 0 0.0033815843087497003 -0.036942394322024369 0 0.0033292128345284258 -0.035573270217014542 0 0.0038428673591568772 -0.035072105683077039 0 0.0029953415131049738 -0.036258078154265828 0 0.0033292128345284258 -0.035573270217014542 0 0.0029351273018383157 -0.035754117135312874 0 0.0033292128345284258 -0.035573270217014542 0 0.0030351585638788751 -0.035995902177360151 0 0.0029929786766788005 -0.036003589897336444 0 0.0029596030976967252 -0.035931411488408491 0 0.0038778025264563482 -0.037206761655846896 0 0.0038644216554946246 -0.037212465162198498 0 0.0038622730515558775 -0.03720692918589863 0 0.0038439055417776721 -0.035011659475017679 0 0.0039013403866876729 -0.03501308486283651 0 0.003907015101261316 -0.034952099259767708 0 0.0038428673591568772 -0.035072105683077039 0 0.0038747796376662987 -0.034329122833470442 0 0.0034198976808065807 -0.034888509792363812 0 0.0033311688536801962 -0.034699986120086325 0 0.0033132225237755839 -0.034885466387477061 0 0.0038428673591568772 -0.035072105683077039 0 0.0040275613351390908 -0.034669124534816839 0 0.0040275613351390908 -0.034669124534816839 0 0.0038747796376662987 -0.034329122833470442 0 0.0040835837516725489 -0.037892704264823808 0 0.0046586825995343119 -0.031674079012095568 0 0.0040807978766508523 -0.039124944645515976 0 0.0040275613351390908 -0.034669124534816839 0 0.0040612905571941506 -0.035129471174884026 0 0.0050282395022142176 -0.03472531795951133 0 0.0048774158913805921 -0.035131786712196661 0 0.0041971620331128492 -0.035445534488772176 0 0.0048774158913805921 -0.035131786712196661 0 0.0049609422645835411 -0.035427131658842141 0 0.0050282395022142176 -0.03472531795951133 0 0.0048774158913805921 -0.035131786712196661 0 0.0049716725429709086 -0.035324157019367329 0 0.0040275613351390908 -0.034669124534816839 0 0.0046801721911173795 -0.031706470311234858 0 0.0047310132417698637 -0.031847387098071868 0 0.0046801721911173795 -0.031706470311234858 0 0.0048774158913805921 -0.035131786712196661 0 0.0049706857972109534 -0.035324747884057955 0 0.0049609422645835411 -0.035427131658842141 0 0.0056991219540986895 -0.030537991468313982 0 0.0056202213501837569 -0.031361592733601375 0 0.0060927951441791268 -0.0313546370574437 0 0.0046801721911173795 -0.031706470311234858 0 0.004660059171110828 -0.031188905053877128 0 0.0046801721911173795 -0.031706470311234858 0 0.0046586825995343119 -0.031674079012095568 0 0.0046586825995343119 -0.031674079012095568 0 0.004660059171110828 -0.031188905053877128 0 0.0048562199486858687 -0.02955095531882701 0 0.0048434064177992672 -0.029561112984316611 0 0.0048352957204396774 -0.029555369032909683 0 0.004660059171110828 -0.031188905053877128 0 0.0052087212992855117 -0.025325648369559278 0 0.0048562199486858687 -0.02955095531882701 0 0.0048352957204396774 -0.029555369032909683 0 0.0048299366017684961 -0.029545135344769841 0 0.0048589105643635421 -0.029554445708194918 0 0.0048562199486858687 -0.02955095531882701 0 0.0048502317870959682 -0.029563331082985297 0 0.0048562199486858687 -0.02955095531882701 0 0.0048502317870959682 -0.029563331082985297 0 0.0048434064177992672 -0.029561112984316611 0 0.004857778057050708 -0.029593215436658139 0 0.0048589105643635421 -0.029554445708194918 0 0.0048502317870959682 -0.029563331082985297 0 0.0040275613351390908 -0.034669124534816839 0 0.0038476132571359299 -0.03396861401503265 0 0.0048621746492207444 -0.029578239721353674 0 0.0048502317870959682 -0.029563331082985297 0 0.0048488070572940307 -0.02957070060104619 0 0.0048502317870959682 -0.029563331082985297 0 0.0048434064177992672 -0.029561112984316611 0 0.0048488070572940307 -0.02957070060104619 0 0.0048434064177992672 -0.029561112984316611 0 0.0048390564050083381 -0.029563263037916253 0 0.0048488070572940307 -0.02957070060104619 0 0.0048390564050083381 -0.029563263037916253 0 0.0048306179867395943 -0.029560579633228678 0 0.0048352957204396774 -0.029555369032909683 0 0.0048434064177992672 -0.029561112984316611 0 0.0048390564050083381 -0.029563263037916253 0 0.0048352957204396774 -0.029555369032909683 0 0.0048425128890862068 -0.029575439228548092 0 0.0048630139787526833 -0.029591999314215231 0 0.0048270679765184616 -0.029591574362104571 0 0.0048390564050083381 -0.029563263037916253 0 0.0048425128890862068 -0.029575439228548092 0 0.0048306179867395943 -0.029560579633228678 0 0.0038747796376662987 -0.034329122833470442 0 0.0044300963928230012 -0.030880946807759616 0 0.003704198262061878 -0.032247803557181855 0 0.0037831505896455584 -0.032216583200255333 0 0.0040792297561579359 -0.032250536175495038 0 0.0048390564050083381 -0.029563263037916253 0 0.0048425128890862068 -0.029575439228548092 0 0.0048488070572940307 -0.02957070060104619 0 0.0048425128890862068 -0.029575439228548092 0 0.0048488070572940307 -0.02957070060104619 0 0.0048630139787526833 -0.029591999314215231 0 0.0048621746492207444 -0.029578239721353674 0 0.0048488070572940307 -0.02957070060104619 0 0.0048630139787526833 -0.029591999314215231 0 0.0039437633425890434 -0.03213975664961688 0 0.0037831505896455584 -0.032216583200255333 0 0.0037124483134320773 -0.032157223677219571 0 0.003704198262061878 -0.032247803557181855 0 0.0037831505896455584 -0.032216583200255333 0 0.0037128164248655289 -0.032159730859203248 0 0.0038747796376662987 -0.034329122833470442 0 0.0035669516415510576 -0.034612772023288406 0 0.0035421289494408305 -0.034570189270203708 0 0.0035669516415510576 -0.034612772023288406 0 0.0039437633425890434 -0.03213975664961688 0 0.0037831505896455584 -0.032216583200255333 0 0.0040792297561579359 -0.032250536175495038 0 0.0048306179867395943 -0.029560579633228678 0 0.0047886038954188422 -0.029446630890161828 0 0.0047255199606892236 -0.02959189798833468 0 0.0048270679765184616 -0.029591574362104571 0 0.0048306179867395943 -0.029560579633228678 0 0.0047255199606892236 -0.02959189798833468 0 0.0044300963928230012 -0.030880946807759616 0 0.0049642867789002109 -0.027420607746969826 0 0.0040792297561579359 -0.032250536175495038 0 0.0044541896326153246 -0.032254212536731747 0 0.004227992673001349 -0.03200553507136128 0 0.0048425128890862068 -0.029575439228548092 0 0.0048270679765184616 -0.029591574362104571 0 0.0048306179867395943 -0.029560579633228678 0 0.0048306179867395943 -0.029560579633228678 0 0.0047886038954188422 -0.029446630890161828 0 0.0048155737453692594 -0.029445269548910722 0 0.0053546156094098222 -0.026822129841997146 0 0.0052087212992855117 -0.025325648369559278 0 0.0048306179867395943 -0.029560579633228678 0 0.0048352957204396774 -0.029555369032909683 0 0.0048299366017684961 -0.029545135344769841 0 0.0051258230705052126 -0.024404356059833019 0 0.0052087212992855117 -0.025325648369559278 0 0.0099777096876358714 -0.017991833898123557 0 0.0078990565928045743 -0.019329171300047684 0 0.0081176046095550788 -0.021805246385638372 0 0.0051258230705052126 -0.024404356059833019 0 0.004568333254276506 -0.02141118721889379 0 0.0051258230705052126 -0.024404356059833019 0 0.0049642867789002109 -0.027420607746969826 0 0.0099777096876358714 -0.017991833898123557 0 0.0078990565928045743 -0.019329171300047684 0 0.005769381187095148 -0.018014748598275409 0 0.0078990565928045743 -0.019329171300047684 0 0.0066394991425192439 -0.020688679144236746 0 0.005769381187095148 -0.018014748598275409 0 0.0078990565928045743 -0.019329171300047684 0 0.0066394991425192439 -0.020688679144236746 0 0.0081176046095550788 -0.021805246385638372 0 0.0092843012106566467 -0.021940289290172173 0 0.0077878759586147046 -0.022369317062987608 0 0.0054536934112352792 -0.021842065026165598 0 0.0049642867789002109 -0.027420607746969826 0 0.0047639644335635703 -0.025748623917528204 0 0.0066394991425192439 -0.020688679144236746 0 0.0081176046095550788 -0.021805246385638372 0 0.0051015393353317133 -0.021760675605561823 0 0.0092843012106566467 -0.021940289290172173 0 0.0077878759586147046 -0.022369317062987608 0 0.0079652447661280722 -0.024649192090147803 0 0.0049642867789002109 -0.027420607746969826 0 0.0045992512088077631 -0.028240229658310152 0 0.0044541896326153246 -0.032254212536731747 0 0.0045826084952207882 -0.031992258952319427 0 0.004227992673001349 -0.03200553507136128 0 0.0045826084952207882 -0.031992258952319427 0 0.004227992673001349 -0.03200553507136128 0 0.0043770493969454653 -0.031810256525639354 0 0.0080287384455770307 -0.024585885623083056 0 0.007734209885170951 -0.025205110224494495 0 0.0084418870688131517 -0.028937044936363458 0 0.0077878759586147046 -0.022369317062987608 0 0.0080094453343216871 -0.02460057755144399 0 0.0068946148015295869 -0.023540897377060221 0 0.0047052063094810241 -0.027394537114476973 0 0.0045992512088077631 -0.028240229658310152 0 0.0080094453343216871 -0.02460057755144399 0 0.007734209885170951 -0.025205110224494495 0 0.0066360390198416386 -0.025092433986492114 0 0.0045992512088077631 -0.028240229658310152 0 0.0046368686472425501 -0.028177650540690994 0 0.0039660463367571222 -0.03194037099933783 0 0.004227992673001349 -0.03200553507136128 0 0.0041493007992161159 -0.031659781795526025 0 0.0039437633425890434 -0.03213975664961688 0 0.0040792297561579359 -0.032250536175495038 0 0.004227992673001349 -0.03200553507136128 0 0.0039660463367571222 -0.03194037099933783 0 0.0039437633425890434 -0.03213975664961688 0 0.004227992673001349 -0.03200553507136128 0 0.004227992673001349 -0.03200553507136128 0 0.0041493007992161159 -0.031659781795526025 0 0.0043770493969454653 -0.031810256525639354 0 0.0041493007992161159 -0.031659781795526025 0 0.0043770493969454653 -0.031810256525639354 0 0.0045476336847108554 -0.03158344164751567 0 0.0045992512088077631 -0.028240229658310152 0 0.0029917194823338676 -0.031828092390178087 0 0.002517766183935055 -0.033433444529138157 0 0.0029917194823338676 -0.031828092390178087 0 0.0045826084952207882 -0.031992258952319427 0 0.0043770493969454653 -0.031810256525639354 0 0.0045476336847108554 -0.03158344164751567 0 0.007734209885170951 -0.025205110224494495 0 0.0084418870688131517 -0.028937044936363458 0 0.0071830381748184896 -0.026586235998984051 0 0.0047960636156756074 -0.013887532348286956 0 0.0054130949475876336 -0.014644196495745228 0 0.0046370740950143719 -0.013287387677927026 0 0.0047960636156756074 -0.013887532348286956 0 0.0044036015855114389 -0.014204340397297781 0 0.0040989414434486945 -0.013516762088359925 0 0.0047960636156756074 -0.013887532348286956 0 0.0044550119960424361 -0.013422902864252732 0 0.0040989414434486945 -0.013516762088359925 0 0.0044550119960424361 -0.013422902864252732 0 0.0042707962078913442 -0.013026520820123856 0 0.0040989414434486945 -0.013516762088359925 0 0.0047960636156756074 -0.013887532348286956 0 0.0044550119960424361 -0.013422902864252732 0 0.0046370740950143719 -0.013287387677927026 0 0.0048593736404016954 -0.013677471862303985 0 0.0051018919957250067 -0.013316944759053227 0 0.0048784182487244827 -0.013077861479010395 0 0.004650800273575101 -0.016490845507138033 0 0.0045210863208493372 -0.014756736904649381 0 0.005756801029671031 -0.014989672603944354 0 0.0046370740950143719 -0.013287387677927026 0 0.0045973172773681806 -0.01288533168019452 0 0.0048593736404016954 -0.013677471862303985 0 0.0048784182487244827 -0.013077861479010395 0 0.0045973172773681806 -0.01288533168019452 0 0.0055872160141702655 -0.015031670199717727 0 0.005756801029671031 -0.014989672603944354 0 0.0046370740950143719 -0.013287387677927026 0 0.0034625598910822727 -0.023041540788694682 0 0.0023249531843367124 -0.017263892697106337 0 0.0055872160141702655 -0.015031670199717727 0 0.0050815858338464689 -0.015828179838307133 0 0.0046370740950143719 -0.013287387677927026 0 0.0057711767526445476 -0.01499548424072243 0 0.0050815858338464689 -0.015828179838307133 0 0.0066136217108014993 -0.016639274619658966 0 0.0034625598910822727 -0.023041540788694682 0 0.0039801621986037938 -0.024311090198063497 0 0.0055872160141702655 -0.015031670199717727 0 0.0057711767526445476 -0.01499548424072243 0 0.0050815858338464689 -0.015828179838307133 0 0.0034826272929530037 -0.023025770433715443 0 0.0034625598910822727 -0.023041540788694682 0 0.0054130949475876336 -0.014644196495745228 0 0.0048370965051418259 -0.014387357007481201 0 0.0047119045133589207 -0.01489109754250984 0 0.0047960636156756074 -0.013887532348286956 0 0.0054130949475876336 -0.014644196495745228 0 0.0048370965051418259 -0.014387357007481201 0 0.0047960636156756074 -0.013887532348286956 0 0.0048370965051418259 -0.014387357007481201 0 0.0044036015855114389 -0.014204340397297781 0 0.0048370965051418259 -0.014387357007481201 0 0.0044036015855114389 -0.014204340397297781 0 0.0047119045133589207 -0.01489109754250984 0 0.0044036015855114389 -0.014204340397297781 0 0.0047119045133589207 -0.01489109754250984 0 0.0038585116578361226 -0.014802568086904591 0 0.0054130949475876336 -0.014644196495745228 0 0.0047119045133589207 -0.01489109754250984 0 0.0051313576157871249 -0.01582326354962877 0 0.0047119045133589207 -0.01489109754250984 0 0.0043294557733536479 -0.0159174219858252 0 0.0038585116578361226 -0.014802568086904591 0 0.0047119045133589207 -0.01489109754250984 0 0.0051313576157871249 -0.01582326354962877 0 0.0043294557733536479 -0.0159174219858252 0 0.0057817988947698774 -0.017281182830203759 0 0.0050452792282771608 -0.016655275582296656 0 0.0039734391190731034 -0.017431257965241306 0 0.0043294557733536479 -0.0159174219858252 0 0.0050452792282771608 -0.016655275582296656 0 0.0039734391190731034 -0.017431257965241306 0 0.0051313576157871249 -0.01582326354962877 0 0.0043294557733536479 -0.0159174219858252 0 0.0050452792282771608 -0.016655275582296656 0 0.0050928947881290106 -0.023425815243079649 0 0.0039801621986037938 -0.024311090198063497 0 0.0049903229337046138 -0.023742647670727354 0 0.0033508077201658466 -0.023766395157470147 0 0.0037967447164347335 -0.026179431665177097 0 0.0052087212992855117 -0.025325648369559278 0 0.0050928947881290106 -0.023425815243079649 0 0.0057817988947698774 -0.017281182830203759 0 0.0050452792282771608 -0.016655275582296656 0 0.0060083313266089365 -0.016826760855088115 0 0.0051258230705052126 -0.024404356059833019 0 0.0050928947881290106 -0.023425815243079649 0 0.0051313576157871249 -0.01582326354962877 0 0.0050452792282771608 -0.016655275582296656 0 0.0060083313266089365 -0.016826760855088115 0 0.0054130949475876336 -0.014644196495745228 0 0.0051313576157871249 -0.01582326354962877 0 0.0060083313266089365 -0.016826760855088115 0 0.0050815858338464689 -0.015828179838307133 0 0.0055982284309171182 -0.018749497539915949 0 0.0066136217108014993 -0.016639274619658966 0 0.004650800273575101 -0.016490845507138033 0 0.0050928947881290106 -0.023425815243079649 0 0.0042993341708976035 -0.027574139894076349 0 0.0053615343231028277 -0.028141690018112207 0 0.0045977078415741944 -0.026963708264305341 0 0.0039801621986037938 -0.024311090198063497 0 0.0038849143740145374 -0.024672790280394558 0 0.0040444264174011538 -0.026916892285881948 0 0.003671447068343324 -0.02681361110852579 0 0.0038323687383135037 -0.026473193738119995 0 0.004660059171110828 -0.031188905053877128 0 0.0039801621986037938 -0.024311090198063497 0 0.0040444264174011538 -0.026916892285881948 0 0.0036908230113421878 -0.026914133408298582 0 0.003671447068343324 -0.02681361110852579 0 0.0051533177147451287 -0.029349711591811333 0 0.0042993341708976035 -0.027574139894076349 0 0.0053615343231028277 -0.028141690018112207 0 0.0052499504060303844 -0.029348612746930305 0 0.0051533177147451287 -0.029349711591811333 0 0.0053615343231028277 -0.028141690018112207 0 0.004262823021558667 -0.034915023932942491 0 0.0032421836399798205 -0.034923852650091895 0 0.003597575192423806 -0.034463882355376993 0 0.004262823021558667 -0.034915023932942491 0 0.003597575192423806 -0.034463882355376993 0 0.0038449860901770662 -0.033935750050460359 0 0.0032421836399798205 -0.034923852650091895 0 0.003597575192423806 -0.034463882355376993 0 0.0033330524197212768 -0.033941258773046643 0 0.0046586825995343119 -0.031674079012095568 0 0.0045979256438909598 -0.031411994822247803 0 0.003597575192423806 -0.034463882355376993 0 0.0038449860901770662 -0.033935750050460359 0 0.0033330524197212768 -0.033941258773046643 0 0.0044730707305686481 -0.03599120245567692 0 0.004575235825125987 -0.031622733280029465 0 0.0024178214121239124 -0.042401493308460485 0 0.0020685572749661288 -0.041623216872276839 0 0.002506608704788331 -0.041867451814765061 0 0.0053615343231028277 -0.028141690018112207 0 0.005466669832367827 -0.026942221904850894 0 0.0045977078415741944 -0.026963708264305341 0 0.0038449860901770662 -0.033935750050460359 0 0.0033330524197212768 -0.033941258773046643 0 0.0034231169346518567 -0.032952870326980889 0 0.0045979256438909598 -0.031411994822247803 0 0.004575235825125987 -0.031622733280029465 0 0.0024465917757735527 -0.041502272482576506 0 0.0020685572749661288 -0.041623216872276839 0 0.002506608704788331 -0.041867451814765061 0 0.0024465917757735527 -0.041502272482576506 0 0.0020685572749661288 -0.041623216872276839 0 0.0021198015265021315 -0.04106477794912608 0 0.0024465917757735527 -0.041502272482576506 0 0.0023782611285564845 -0.041017962013829429 0 0.0021198015265021315 -0.04106477794912608 0 0.004575235825125987 -0.031622733280029465 0 0.004323951081671551 -0.03066907940218359 0 0.0056108154544940612 -0.029045098846085231 0 0.005874258703111453 -0.029660691731698663 0 0.0059362074421469629 -0.028984739331185002 0 0.0046007090248830207 -0.027894623363060461 0 0.004575235825125987 -0.031622733280029465 0 0.0034625598910822727 -0.023041540788694682 0 0.0046007090248830207 -0.027894623363060461 0 0.0037799699217037045 -0.026462658795216604 0 0.0051465215344609011 -0.02620924907086777 0 0.0045977078415741944 -0.026963708264305341 0 0.0037799699217037045 -0.026462658795216604 0 0.004308735909658001 -0.027551072642941411 0 0.0045977078415741944 -0.026963708264305341 0 0.0051465215344609011 -0.02620924907086777 0 0.005466669832367827 -0.026942221904850894 0 0.0045977078415741944 -0.026963708264305341 0 0.0054835676640067792 -0.013582511956037602 0 0.0051018919957250067 -0.013316944759053227 0 0.0052972766331819496 -0.013138979598264197 0 0.0046007090248830207 -0.027894623363060461 0 0.0032332800405562912 -0.0227664744189628 0 0.0048593736404016954 -0.013677471862303985 0 0.0054835676640067792 -0.013582511956037602 0 0.0051018919957250067 -0.013316944759053227 0 0.0051018919957250067 -0.013316944759053227 0 0.0052972766331819496 -0.013138979598264197 0 0.0050673805191703523 -0.013020409140674784 0 0.0051018919957250067 -0.013316944759053227 0 0.0050673805191703523 -0.013020409140674784 0 0.0048784182487244827 -0.013077861479010395 0 0.0018556434884645348 -0.040608846698851092 0 0.0020792831502128629 -0.0408723572897738 0 0.0024624304126217868 -0.040325247078469635 0 0.0045075898178401699 -0.029976409731649785 0 0.0046925992075530229 -0.032798879958669098 0 0.0046925992075530229 -0.032798879958669098 0 0.004323951081671551 -0.03066907940218359 0 0.0040554112655146954 -0.033360243067990167 0 0.0026464614755924813 -0.031719125545867415 0 0.0042417351947983259 -0.031418784613794826 0 0.0039746697498438026 -0.028577583619335333 0 0.0027757646305108497 -0.02577787921896061 0 0.0052482948908179321 -0.027025116370196257 0 0.0046007090248830207 -0.027894623363060461 0 0.004323951081671551 -0.03066907940218359 0 0.0039746697498438026 -0.028577583619335333 0 0.0052482948908179321 -0.027025116370196257 0 0.0051209402393581696 -0.028363313694560896 0 0.0045075898178401699 -0.029976409731649785 0 0.004323951081671551 -0.03066907940218359 0 0.0020792831502128629 -0.0408723572897738 0 0.0024624304126217868 -0.040325247078469635 0 0.0030310843893142829 -0.040722004853151243 0 0.0046925992075530229 -0.032798879958669098 0 0.0033003849776742679 -0.041636653930304704 0 0.0033003849776742679 -0.041636653930304704 0 0.001992300934054018 -0.050788150482670151 0 0.0032560486644116699 -0.041058390186187975 0 0.0037845329080363711 -0.041919909175456849 0 0.0040694363047970262 -0.040925411513412488 0 0.0032560486644116699 -0.041058390186187975 0 0.0030853125023780435 -0.041938319788899905 0 0.0037845329080363711 -0.041919909175456849 0 0.0024465917757735527 -0.041502272482576506 0 0.0023782611285564845 -0.041017962013829429 0 0.0030853125023780435 -0.041938319788899905 0 0.0046925992075530229 -0.032798879958669098 0 0.0057196451303081755 -0.036610750159996791 0 0.0024662035505689786 -0.041189065812856522 0 0.0032560486644116699 -0.041058390186187975 0 0.0030853125023780435 -0.041938319788899905 0 0.0024465917757735527 -0.041502272482576506 0 0.002506608704788331 -0.041867451814765061 0 0.0030853125023780435 -0.041938319788899905 0 0.0024178214121239124 -0.042401493308460485 0 0.002506608704788331 -0.041867451814765061 0 0.0030853125023780435 -0.041938319788899905 0 0.0024178214121239124 -0.042401493308460485 0 0.0030853125023780435 -0.041938319788899905 0 0.0033130866456426793 -0.042334537294750889 0 0.0040835837516725489 -0.037892704264823808 0 0.0044730707305686481 -0.03599120245567692 0 0.002733630039565697 -0.043122634588047187 0 0.0024178214121239124 -0.042401493308460485 0 0.0031857127548832877 -0.042769836255471656 0 0.0024178214121239124 -0.042401493308460485 0 0.0031857127548832877 -0.042769836255471656 0 0.0033130866456426793 -0.042334537294750889 0 0.0036406330210129855 -0.04311669960329665 0 0.002733630039565697 -0.043122634588047187 0 0.0031857127548832877 -0.042769836255471656 0 0.0036406330210129855 -0.04311669960329665 0 0.0036824488317312941 -0.042841166165099316 0 0.0031857127548832877 -0.042769836255471656 0 0.0031857127548832877 -0.042769836255471656 0 0.0037027025063639664 -0.042547517859427744 0 0.0033130866456426793 -0.042334537294750889 0 0.0036824488317312941 -0.042841166165099316 0 0.0031857127548832877 -0.042769836255471656 0 0.0037027025063639664 -0.042547517859427744 0 0.0030853125023780435 -0.041938319788899905 0 0.0033130866456426793 -0.042334537294750889 0 0.0037845329080363711 -0.041919909175456849 0 0.0037027025063639664 -0.042547517859427744 0 0.0033130866456426793 -0.042334537294750889 0 0.0037845329080363711 -0.041919909175456849 0 0.0037027025063639664 -0.042547517859427744 0 0.0037845329080363711 -0.041919909175456849 0 0.0039902981196123857 -0.042482453925204826 0 0.0037845329080363711 -0.041919909175456849 0 0.0042872957144306535 -0.042319343797998635 0 0.0045368522017685195 -0.041739369894697037 0 0.0037845329080363711 -0.041919909175456849 0 0.0042872957144306535 -0.042319343797998635 0 0.0039902981196123857 -0.042482453925204826 0 0.0017650253302925543 -0.046460573588926579 0 0.0018847734071851584 -0.047132999326440196 0 0.0037027025063639664 -0.042547517859427744 0 0.0039902981196123857 -0.042482453925204826 0 0.0040020423820467561 -0.042893073803547961 0 0.0018261528983018272 -0.051561029095643425 0 0.0025323356213319092 -0.051542076012914703 0 0.0025630287733363869 -0.051692441792141323 0 0.0042872957144306535 -0.042319343797998635 0 0.0039902981196123857 -0.042482453925204826 0 0.0040020423820467561 -0.042893073803547961 0 0.0036406330210129855 -0.04311669960329665 0 0.0036824488317312941 -0.042841166165099316 0 0.0039886910232500399 -0.042974134699138057 0 0.0026580333170730429 -0.044727687196166745 0 0.0018847734071851584 -0.047132999326440196 0 0.0019522702696034733 -0.045523843555809886 0 0.0011926553731362237 -0.045712015485766172 0 0.0011593214549685037 -0.045854214113959339 0 0.0025323356213319092 -0.051542076012914703 0 0.0025789996242950265 -0.05162463826241185 0 0.0025630287733363869 -0.051692441792141323 0 0.0036824488317312941 -0.042841166165099316 0 0.0037027025063639664 -0.042547517859427744 0 0.0039886910232500399 -0.042974134699138057 0 0.0016904612907810202 -0.048119789945321963 0 0.0017396920116547995 -0.047609907588503378 0 0.0037027025063639664 -0.042547517859427744 0 0.0040020423820467561 -0.042893073803547961 0 0.0039787491631771768 -0.042987838454328589 0 0.00180634330035874 -0.047468110798355695 0 0.0017396920116547995 -0.047609907588503378 0 0.0017396920116547995 -0.047609907588503378 0 0.0018847734071851584 -0.047132999326440196 0 0.0018973775045816967 -0.047090611205910425 0 0.0018847734071851584 -0.047132999326440196 0 0.0018261528983018272 -0.051561029095643425 0 0.0025630287733363869 -0.051692441792141323 0 0.0014564845162567442 -0.052164842087803372 0 0.0042872957144306535 -0.042319343797998635 0 0.0040020423820467561 -0.042893073803547961 0 0.0050055544716989002 -0.042573067739014543 0 0.0040020423820467561 -0.042893073803547961 0 0.0039804599499217658 -0.042984413556183869 0 0.0050055544716989002 -0.042573067739014543 0 0.0018847734071851584 -0.047132999326440196 0 0.002286495992141608 -0.05311700785393246 0 0.0024279695929712952 -0.052582727883134159 0 0.002286495992141608 -0.05311700785393246 0 0.0042872957144306535 -0.042319343797998635 0 0.0045368522017685195 -0.041739369894697037 0 0.0050055544716989002 -0.042573067739014543 0 0.0024279695929712952 -0.052582727883134159 0 0.001992300934054018 -0.050788150482670151 0 0.00038651469630472532 -0.064461966989158265 0 0.00044100201735886892 -0.064540925422909512 0 0.00034474792764253441 -0.064523812662667157 0 0.0037845329080363711 -0.041919909175456849 0 0.0045368522017685195 -0.041739369894697037 0 0.0040694363047970262 -0.040925411513412488 0 0.001992300934054018 -0.050788150482670151 0 -6.8943638808471568e-05 -0.056920324014839936 0 0.00044100201735886892 -0.064540925422909512 0 0.00034380612847384961 -0.064588493064308694 0 0.00034474792764253441 -0.064523812662667157 0 -1.9865794828229574e-05 -0.064659928611391665 0 -6.5107833697960262e-05 -0.064611923027316956 0 7.4380270115548113e-06 -0.064617141816098844 0 -8.6107270285448951e-05 -0.064650863220765173 0 -1.9865794828229574e-05 -0.064659928611391665 0 -6.5107833697960262e-05 -0.064611923027316956 0 -8.6107270285448951e-05 -0.064650863220765173 0 -6.5107833697960262e-05 -0.064611923027316956 0 -0.00014070287197680482 -0.064573459258288057 0 0.001992300934054018 -0.050788150482670151 0 0.0026826560000266825 -0.050664080896223818 0 -6.5107833697960262e-05 -0.064611923027316956 0 -5.4010860999532012e-05 -0.064566259623053943 0 -0.00014070287197680482 -0.064573459258288057 0 -6.5107833697960262e-05 -0.064611923027316956 0 -5.4010860999532012e-05 -0.064566259623053943 0 7.4380270115548113e-06 -0.064617141816098844 0 -5.4010860999532012e-05 -0.064566259623053943 0 -8.3493496515223381e-05 -0.064510834233043074 0 -0.00012624183781580328 -0.064505791672144583 0 -5.4010860999532012e-05 -0.064566259623053943 0 -8.3493496515223381e-05 -0.064510834233043074 0 -2.9486785780644381e-05 -0.064540609122694742 0 -8.3493496515223381e-05 -0.064510834233043074 0 -6.2862306257502277e-05 -0.064505923222818951 0 -0.00011520237318682877 -0.064474221143976426 0 -8.3493496515223381e-05 -0.064510834233043074 0 -2.9486785780644381e-05 -0.064540609122694742 0 -6.2862306257502277e-05 -0.064505923222818951 0 -8.3493496515223381e-05 -0.064510834233043074 0 -0.00012624183781580328 -0.064505791672144583 0 -0.00012035956173852553 -0.064453933862587284 0 -0.00012624183781580328 -0.064505791672144583 0 -0.00012035956173852553 -0.064453933862587284 0 -0.00016609738333548164 -0.064440263767393868 0 -5.4010860999532012e-05 -0.064566259623053943 0 -0.00012624183781580328 -0.064505791672144583 0 -0.00014070287197680482 -0.064573459258288057 0 0.0027356979168484488 -0.038341109558912796 0 0.0025057305440711795 -0.038665619630900573 0 0.0033705816312046481 -0.039454051368578158 0 -0.00012624183781580328 -0.064505791672144583 0 -0.00019206406777210269 -0.064480783672350439 0 -0.00014070287197680482 -0.064573459258288057 0 0.0029109997902426652 -0.047348749899648927 0 0.0026826560000266825 -0.050664080896223818 0 0.0029109997902426652 -0.047348749899648927 0 0.00095916415658197968 -0.051264815928097326 0 -0.00012624183781580328 -0.064505791672144583 0 -0.00019206406777210269 -0.064480783672350439 0 -0.00016609738333548164 -0.064440263767393868 0 0.0023114600860041075 -0.043057547475086728 0 0.0030589499262698343 -0.041959581823752062 0 0.0022227508968540068 -0.041677748893090713 0 0.0029109997902426652 -0.047348749899648927 0 0.0014590348002021098 -0.031120828482230491 0 0.0027529550004580933 -0.038310983770340756 0 0.0020094728471959861 -0.038383685080441696 0 0.0020936559064167926 -0.037163862039816496 0 0.0023114600860041075 -0.043057547475086728 0 0.0022227508968540068 -0.041677748893090713 0 0.0015306159456291428 -0.041690864654548271 0 0.0027529550004580933 -0.038310983770340756 0 0.0025057305440711795 -0.038665619630900573 0 0.0020094728471959861 -0.038383685080441696 0 0.0029109997902426652 -0.047348749899648927 0 0.0032622196747495026 -0.046537639986367736 0 0.0025057305440711795 -0.038665619630900573 0 0.0025704315363132206 -0.039491724700233023 0 0.0019436868621091731 -0.039515821028525716 0 0.0025057305440711795 -0.038665619630900573 0 0.0025704315363132206 -0.039491724700233023 0 0.0033705816312046481 -0.039454051368578158 0 0.0024624304126217868 -0.040325247078469635 0 0.0030310843893142829 -0.040722004853151243 0 0.0033705816312046481 -0.039454051368578158 0 0.0030310843893142829 -0.040722004853151243 0 0.0039944827825466088 -0.040564273959105571 0 0.0033705816312046481 -0.039454051368578158 0 0.0024624304126217868 -0.040325247078469635 0 0.0025704315363132206 -0.039491724700233023 0 0.0033705816312046481 -0.039454051368578158 0 0.0024624304126217868 -0.040325247078469635 0 0.0025704315363132206 -0.039491724700233023 0 0.0019436868621091731 -0.039515821028525716 0 0.0045075898178401699 -0.029976409731649785 0 0.0039888243826118434 -0.027426918370665073 0 0.0018556434884645348 -0.040608846698851092 0 0.0024624304126217868 -0.040325247078469635 0 0.0019436868621091731 -0.039515821028525716 0 0.0063462317505180886 -0.015244025464854139 0 0.0060073124573358427 -0.014562140003945661 0 0.0064444480354627518 -0.01394972545183037 0 0.0060073124573358427 -0.014562140003945661 0 0.0058891689256513431 -0.014111581229243702 0 0.0064444480354627518 -0.01394972545183037 0 0.0045075898178401699 -0.029976409731649785 0 0.00250039887094044 -0.020244499837382052 0 0.0063462317505180886 -0.015244025464854139 0 0.0060073124573358427 -0.014562140003945661 0 0.0053983684907999534 -0.014110673319264605 0 0.0027757646305108497 -0.02577787921896061 0 0.0052482948908179321 -0.027025116370196257 0 0.0015773668715111818 -0.022976603409851321 0 0.0052972766331819496 -0.013138979598264197 0 0.0050673805191703523 -0.013020409140674784 0 0.0051028502155980636 -0.01272152196168882 0 0.0032332800405562912 -0.0227664744189628 0 0.00250039887094044 -0.020244499837382052 0 0.0050673805191703523 -0.013020409140674784 0 0.0051028502155980636 -0.01272152196168882 0 0.0049600653457466714 -0.012855569409491318 0 0.0060073124573358427 -0.014562140003945661 0 0.0057507503180671445 -0.014177234381042705 0 0.0058891689256513431 -0.014111581229243702 0 0.0060073124573358427 -0.014562140003945661 0 0.0053983684907999534 -0.014110673319264605 0 0.0057507503180671445 -0.014177234381042705 0 0.0057507503180671445 -0.014177234381042705 0 0.0058891689256513431 -0.014111581229243702 0 0.0056732104711748558 -0.013948799043927493 0 0.0053983684907999534 -0.014110673319264605 0 0.0057507503180671445 -0.014177234381042705 0 0.0056732104711748558 -0.013948799043927493 0 0.0056732104711748558 -0.013948799043927493 0 0.0058554193757155053 -0.013783204525003347 0 0.005460614382462565 -0.013502408581535572 0 0.0058891689256513431 -0.014111581229243702 0 0.0056732104711748558 -0.013948799043927493 0 0.0058554193757155053 -0.013783204525003347 0 0.0053983684907999534 -0.014110673319264605 0 0.0056732104711748558 -0.013948799043927493 0 0.005460614382462565 -0.013502408581535572 0 0.0058554193757155053 -0.013783204525003347 0 0.005460614382462565 -0.013502408581535572 0 0.005868251007453874 -0.013237653657063102 0 0.0058554193757155053 -0.013783204525003347 0 0.0064444480354627518 -0.01394972545183037 0 0.005868251007453874 -0.013237653657063102 0 0.0064444480354627518 -0.01394972545183037 0 0.0064607998004861927 -0.012802736521922098 0 0.005868251007453874 -0.013237653657063102 0 0.0039888243826118434 -0.027426918370665073 0 0.0031937742005120912 -0.02700585785125904 0 0.0058891689256513431 -0.014111581229243702 0 0.0058554193757155053 -0.013783204525003347 0 0.0064444480354627518 -0.01394972545183037 0 0.0025057305440711795 -0.038665619630900573 0 0.0019436868621091731 -0.039515821028525716 0 0.0020094728471959861 -0.038383685080441696 0 0.0064607998004861927 -0.012802736521922098 0 0.0057812170968172894 -0.012402547343002862 0 0.005868251007453874 -0.013237653657063102 0 0.0031937742005120912 -0.02700585785125904 0 0.0014590348002021098 -0.031120828482230491 0 0.0064607998004861927 -0.012802736521922098 0 0.0057812170968172894 -0.012402547343002862 0 0.0064782456218318843 -0.011804905489042925 0 0.0057812170968172894 -0.012402547343002862 0 0.005369284906094644 -0.012827781745673618 0 0.0050516475336713287 -0.012036609520413867 0 0.0057812170968172894 -0.012402547343002862 0 0.0050516475336713287 -0.012036609520413867 0 0.0058115673443882706 -0.011744877193143308 0 0.0057812170968172894 -0.012402547343002862 0 0.005369284906094644 -0.012827781745673618 0 0.005868251007453874 -0.013237653657063102 0 0.005460614382462565 -0.013502408581535572 0 0.005369284906094644 -0.012827781745673618 0 0.005868251007453874 -0.013237653657063102 0 0.005369284906094644 -0.012827781745673618 0 0.0047001460322914756 -0.013000990549229806 0 0.0050516475336713287 -0.012036609520413867 0 0.005460614382462565 -0.013502408581535572 0 0.005369284906094644 -0.012827781745673618 0 0.0047001460322914756 -0.013000990549229806 0 0.0025875675886733434 -0.01520269833075346 0 0.0027319190037781663 -0.014006975599084032 0 0.0047001460322914756 -0.013000990549229806 0 0.0050516475336713287 -0.012036609520413867 0 0.0040836460741777852 -0.011905021069757677 0 0.0045200269962545163 -0.012186390387205065 0 0.0039105117295536573 -0.012167692412947356 0 0.0040836460741777852 -0.011905021069757677 0 0.0045200269962545163 -0.012186390387205065 0 0.0041456167974072474 -0.012505082020424481 0 0.0039105117295536573 -0.012167692412947356 0 0.0045200269962545163 -0.012186390387205065 0 0.0041456167974072474 -0.012505082020424481 0 0.0044966375341155421 -0.012619865906708718 0 0.0053983684907999534 -0.014110673319264605 0 0.005460614382462565 -0.013502408581535572 0 0.0047001460322914756 -0.013000990549229806 0 0.00250039887094044 -0.020244499837382052 0 0.0025875675886733434 -0.01520269833075346 0 0.0045200269962545163 -0.012186390387205065 0 0.0044966375341155421 -0.012619865906708718 0 0.0047845603665773711 -0.012745895729317102 0 0.0051028502155980636 -0.01272152196168882 0 0.0045200269962545163 -0.012186390387205065 0 0.0047845603665773711 -0.012745895729317102 0 0.0044966375341155421 -0.012619865906708718 0 0.0047845603665773711 -0.012745895729317102 0 0.0046522783621361424 -0.012789663365038726 0 0.0046522783621361424 -0.012789663365038726 0 0.0048287765774170264 -0.012864311580029514 0 0.0047401173914962099 -0.012903962828877623 0 0.0047845603665773711 -0.012745895729317102 0 0.0046522783621361424 -0.012789663365038726 0 0.0048287765774170264 -0.012864311580029514 0 0.0046522783621361424 -0.012789663365038726 0 0.0047401173914962099 -0.012903962828877623 0 0.0045973172773681806 -0.01288533168019452 0 0.0051028502155980636 -0.01272152196168882 0 0.0047845603665773711 -0.012745895729317102 0 0.0049600653457466714 -0.012855569409491318 0 0.0047845603665773711 -0.012745895729317102 0 0.0048287765774170264 -0.012864311580029514 0 0.0049600653457466714 -0.012855569409491318 0 0.0050673805191703523 -0.013020409140674784 0 0.0049600653457466714 -0.012855569409491318 0 0.0048784182487244827 -0.013077861479010395 0 0.0048287765774170264 -0.012864311580029514 0 0.0049600653457466714 -0.012855569409491318 0 0.0048784182487244827 -0.013077861479010395 0 0.0048287765774170264 -0.012864311580029514 0 0.0048784182487244827 -0.013077861479010395 0 0.0047401173914962099 -0.012903962828877623 0 0.0048784182487244827 -0.013077861479010395 0 0.0047401173914962099 -0.012903962828877623 0 0.0045973172773681806 -0.01288533168019452 0 0.0044550119960424361 -0.013422902864252732 0 0.0046370740950143719 -0.013287387677927026 0 0.0042707962078913442 -0.013026520820123856 0 0.0041456167974072474 -0.012505082020424481 0 0.0044966375341155421 -0.012619865906708718 0 0.0042707962078913442 -0.013026520820123856 0 0.0046370740950143719 -0.013287387677927026 0 0.0045973172773681806 -0.01288533168019452 0 0.0042707962078913442 -0.013026520820123856 0 0.0044966375341155421 -0.012619865906708718 0 0.0046522783621361424 -0.012789663365038726 0 0.0045973172773681806 -0.01288533168019452 0 0.0044966375341155421 -0.012619865906708718 0 0.0045973172773681806 -0.01288533168019452 0 0.0042707962078913442 -0.013026520820123856 0 0.00018142787892890341 -0.06483142346706923 0 0.00038487009002951888 -0.06492023744344827 0 0.00043986224196055832 -0.064568031941902124 0 0.00018142787892890341 -0.06483142346706923 0 0.00038487009002951888 -0.06492023744344827 0 2.540705160767678e-05 -0.065032845803016964 0 -3.1700247203039734e-05 -0.063957158636197178 0 -8.5917171902587743e-05 -0.062746855074679961 0 0.00038487009002951888 -0.06492023744344827 0 0.00043986224196055832 -0.064568031941902124 0 0.00077686558518176032 -0.064749703640036529 0 8.1044291156971056e-05 -0.064680728365610896 0 9.6358916895104927e-05 -0.064721536537393334 0 0.00010896853523276835 -0.064665154638661557 0 8.1044291156971056e-05 -0.064680728365610896 0 9.6358916895104927e-05 -0.064721536537393334 0 6.0109451954918162e-05 -0.064788258435093615 0 9.6358916895104927e-05 -0.064721536537393334 0 6.0109451954918162e-05 -0.064788258435093615 0 7.703256597099036e-05 -0.064818287793731819 0 -3.1700247203039734e-05 -0.063957158636197178 0 -1.7396484136346126e-05 -0.064591043016784311 0 8.1044291156971056e-05 -0.064680728365610896 0 6.0109451954918162e-05 -0.064788258435093615 0 1.050851323507071e-05 -0.06483478037770786 0 2.540705160767678e-05 -0.065032845803016964 0 5.9269088642847239e-07 -0.064991716451489129 0 1.1140393128883393e-05 -0.064963701709154983 0 -1.7396484136346126e-05 -0.064591043016784311 0 -1.2123486922315278e-07 -0.064999332043689254 0 5.9269088642847239e-07 -0.064991716451489129 0 8.1388842663276367e-09 -0.064999971234604825 0 -2.5064536906251559e-08 -0.06500002515535877 0 2.540705160767678e-05 -0.065032845803016964 0 5.9269088642847239e-07 -0.064991716451489129 0 -2.5064536906251559e-08 -0.06500002515535877 0 5.9269088642847239e-07 -0.064991716451489129 0 5.4860690689319149e-06 -0.064990228071839032 0 8.1388842663276367e-09 -0.064999971234604825 0 0.00018142787892890341 -0.06483142346706923 0 1.1140393128883393e-05 -0.064963701709154983 0 6.8974301184256904e-05 -0.064596101772987621 0 5.4860690689319149e-06 -0.064990228071839032 0 1.1140393128883393e-05 -0.064963701709154983 0 -3.6222632998907724e-06 -0.064995382090151349 0 5.9269088642847239e-07 -0.064991716451489129 0 5.4860690689319149e-06 -0.064990228071839032 0 1.1140393128883393e-05 -0.064963701709154983 0 0.00018142787892890341 -0.06483142346706923 0 2.540705160767678e-05 -0.065032845803016964 0 1.1140393128883393e-05 -0.064963701709154983 0 7.2118823736343232e-05 -0.064816248764920564 0 0.0001082025388803648 -0.064708289052219994 0 5.4860690689319149e-06 -0.064990228071839032 0 -3.6222632998907724e-06 -0.064995382090151349 0 1.2803031470597628e-06 -0.064998180106399406 0 5.4860690689319149e-06 -0.064990228071839032 0 5.1842693806351585e-09 -0.064999997049675351 0 1.2803031470597628e-06 -0.064998180106399406 0 5.4860690689319149e-06 -0.064990228071839032 0 8.1388842663276367e-09 -0.064999971234604825 0 5.1842693806351585e-09 -0.064999997049675351 0 -2.8223352007010121e-09 -0.064999995704628499 0 5.1842693806351585e-09 -0.064999997049675351 0 6.6671430292369409e-07 -0.064999511406113999 0 5.1842693806351585e-09 -0.064999997049675351 0 1.2803031470597628e-06 -0.064998180106399406 0 6.6671430292369409e-07 -0.064999511406113999 0 -3.6222632998907724e-06 -0.064995382090151349 0 1.2803031470597628e-06 -0.064998180106399406 0 1.345781357013803e-06 -0.06499929435156368 0 -3.6222632998907724e-06 -0.064995382090151349 0 1.345781357013803e-06 -0.06499929435156368 0 -1.3357611823510325e-06 -0.0649987425257295 0 1.2803031470597628e-06 -0.064998180106399406 0 6.6671430292369409e-07 -0.064999511406113999 0 1.345781357013803e-06 -0.06499929435156368 0 0.00018175045318238637 -0.064414666984859231 0 0.00022621630664580063 -0.06438121384040206 0 6.8974301184256904e-05 -0.064596101772987621 0 0.00016156063786119208 -0.06423379582045953 0 0.00043986224196055832 -0.064568031941902124 0 0.0001082025388803648 -0.064708289052219994 0 0.00022621630664580063 -0.06438121384040206 0 0.00018142787892890341 -0.06483142346706923 0 6.8974301184256904e-05 -0.064596101772987621 0 0.00043986224196055832 -0.064568031941902124 0 0.00016156063786119208 -0.06423379582045953 0 0.00043986224196055832 -0.064568031941902124 0 0.00063569372682001411 -0.064217598367977774 0 0.00022621630664580063 -0.06438121384040206 0 0.00064131610021466508 -0.0630115746507528 0 0.00043986224196055832 -0.064568031941902124 0 0.00063569372682001411 -0.064217598367977774 0 0.00087588792142394821 -0.064432976193488478 0 0.0011105827898027752 -0.064198688088882752 0 0.00063569372682001411 -0.064217598367977774 0 0.00087588792142394821 -0.064432976193488478 0 0.0011105827898027752 -0.064198688088882752 0 0.00087588792142394821 -0.064432976193488478 0 0.001164494491849229 -0.06457757311513479 0 0.0013739273793657097 -0.0601866452753324 0 0.00064131610021466508 -0.0630115746507528 0 0.00087588792142394821 -0.064432976193488478 0 0.001164494491849229 -0.06457757311513479 0 0.00077686558518176032 -0.064749703640036529 0 0.00020933542611104857 -0.064457460757131685 0 0.00020705914335042032 -0.064441613577593704 0 0.00011498230968659403 -0.064561462315168905 0 0.00012291881753694194 -0.060098370973801205 0 -8.5917171902587743e-05 -0.062746855074679961 0 0.00043986224196055832 -0.064568031941902124 0 0.00087588792142394821 -0.064432976193488478 0 0.00077686558518176032 -0.064749703640036529 0 0.0015370537692149663 -0.05682830233058276 0 0.0015660865205018601 -0.056875770884559564 0 0.0014778490375811071 -0.056918827502857802 0 0.0011215486525977224 -0.051579873789605928 0 0.0018261528983018272 -0.051561029095643425 0 0.0014564845162567442 -0.052164842087803372 0 0.0023088990151013066 -0.056185615092670782 0 0.002286495992141608 -0.05311700785393246 0 0.0014677139847975274 -0.056835303641270492 0 0.0015370537692149663 -0.05682830233058276 0 0.0014778490375811071 -0.056918827502857802 0 0.0013739273793657097 -0.0601866452753324 0 0.00012291881753694194 -0.060098370973801205 0 0.00020819625849997144 -0.06443639500595319 0 0.00029355250220236589 -0.06444452753017571 0 0.00024956636748362182 -0.064474232854517408 0 0.00020933542611104857 -0.064457460757131685 0 0.00020819625849997144 -0.06443639500595319 0 0.00024956636748362182 -0.064474232854517408 0 0.0001299968594066942 -0.06016128976680353 0 0.00012291881753694194 -0.060098370973801205 0 0.00038651469630472532 -0.064461966989158265 0 0.00033336019814799735 -0.064353017905165108 0 0.00029355250220236589 -0.06444452753017571 0 0.002286495992141608 -0.05311700785393246 0 0.00012291881753694194 -0.060098370973801205 0 0.00033336019814799735 -0.064353017905165108 0 0.00020819625849997144 -0.06443639500595319 0 0.00029355250220236589 -0.06444452753017571 0 0.00038651469630472532 -0.064461966989158265 0 0.00034474792764253441 -0.064523812662667157 0 0.00029355250220236589 -0.06444452753017571 0 0.00034474792764253441 -0.064523812662667157 0 0.00029355250220236589 -0.06444452753017571 0 0.00027248642140127586 -0.064536972402336218 0 0.00029355250220236589 -0.06444452753017571 0 0.00027248642140127586 -0.064536972402336218 0 0.00024956636748362182 -0.064474232854517408 0 0.00020933542611104857 -0.064457460757131685 0 0.00022265572915485793 -0.06452647920196887 0 0.00016332828872585371 -0.064580729924449895 0 0.00027248642140127586 -0.064536972402336218 0 0.00024956636748362182 -0.064474232854517408 0 0.00022265572915485793 -0.06452647920196887 0 0.00027248642140127586 -0.064536972402336218 0 0.00022265572915485793 -0.06452647920196887 0 0.00021534079945800114 -0.064579389832937636 0 0.00020933542611104857 -0.064457460757131685 0 0.00024956636748362182 -0.064474232854517408 0 0.00022265572915485793 -0.06452647920196887 0 0.00022265572915485793 -0.06452647920196887 0 0.00021534079945800114 -0.064579389832937636 0 0.00016332828872585371 -0.064580729924449895 0 0.00027248642140127586 -0.064536972402336218 0 0.00021534079945800114 -0.064579389832937636 0 0.00023393515576864213 -0.064636966846478808 0 0.00021534079945800114 -0.064579389832937636 0 0.00011834032668442563 -0.064661458788646028 0 0.00023393515576864213 -0.064636966846478808 0 0.00034380612847384961 -0.064588493064308694 0 0.00027248642140127586 -0.064536972402336218 0 0.00023393515576864213 -0.064636966846478808 0 0.00034380612847384961 -0.064588493064308694 0 0.00034474792764253441 -0.064523812662667157 0 0.00027248642140127586 -0.064536972402336218 0 0.00011498230968659403 -0.064561462315168905 0 0.00016332828872585371 -0.064580729924449895 0 0.00010896853523276835 -0.064665154638661557 0 8.1044291156971056e-05 -0.064680728365610896 0 0.00011498230968659403 -0.064561462315168905 0 0.00010896853523276835 -0.064665154638661557 0 0.00020933542611104857 -0.064457460757131685 0 0.00011498230968659403 -0.064561462315168905 0 0.00016332828872585371 -0.064580729924449895 0 0.00016332828872585371 -0.064580729924449895 0 0.00010896853523276835 -0.064665154638661557 0 0.00011834032668442563 -0.064661458788646028 0 0.00021534079945800114 -0.064579389832937636 0 0.00016332828872585371 -0.064580729924449895 0 0.00011834032668442563 -0.064661458788646028 0 0.00010896853523276835 -0.064665154638661557 0 0.00011834032668442563 -0.064661458788646028 0 0.00012124771459324351 -0.064654924383704696 0 0.00011834032668442563 -0.064661458788646028 0 9.8426361099263998e-05 -0.064626371049379794 0 6.74469635830843e-05 -0.064633740096475933 0 0.00011834032668442563 -0.064661458788646028 0 9.8426361099263998e-05 -0.064626371049379794 0 0.00012124771459324351 -0.064654924383704696 0 9.8426361099263998e-05 -0.064626371049379794 0 0.00012124771459324351 -0.064654924383704696 0 0.00010715601410936727 -0.064610296053090613 0 0.000104551262122363 -0.064728904971035048 0 0.00010712348028707825 -0.064722347375352512 0 0.00010371925883174251 -0.064868071904933461 0 7.9541902589376208e-05 -0.064829388881832442 0 8.6314920126752853e-05 -0.06486966650849435 0 -6.8943638808471568e-05 -0.056920324014839936 0 -0.00041891803324242883 -0.059737714701741662 0 -1.9865794828229574e-05 -0.064659928611391665 0 4.7546210559936107e-05 -0.064666370252378091 0 7.4380270115548113e-06 -0.064617141816098844 0 -0.00044957934919991348 -0.060556805440179023 0 -0.00041891803324242883 -0.059737714701741662 0 0.00011834032668442563 -0.064661458788646028 0 4.7546210559936107e-05 -0.064666370252378091 0 6.74469635830843e-05 -0.064633740096475933 0 4.7546210559936107e-05 -0.064666370252378091 0 6.74469635830843e-05 -0.064633740096475933 0 7.4380270115548113e-06 -0.064617141816098844 0 9.8426361099263998e-05 -0.064626371049379794 0 6.74469635830843e-05 -0.064633740096475933 0 5.8614466499999781e-05 -0.064610160795210592 0 6.74469635830843e-05 -0.064633740096475933 0 7.4380270115548113e-06 -0.064617141816098844 0 5.8614466499999781e-05 -0.064610160795210592 0 -5.4010860999532012e-05 -0.064566259623053943 0 7.4380270115548113e-06 -0.064617141816098844 0 9.1665578052180904e-06 -0.064576262051329478 0 7.4380270115548113e-06 -0.064617141816098844 0 9.1665578052180904e-06 -0.064576262051329478 0 5.8614466499999781e-05 -0.064610160795210592 0 -5.4010860999532012e-05 -0.064566259623053943 0 9.1665578052180904e-06 -0.064576262051329478 0 -2.9486785780644381e-05 -0.064540609122694742 0 9.8426361099263998e-05 -0.064626371049379794 0 5.8614466499999781e-05 -0.064610160795210592 0 9.2528878910673264e-05 -0.064598147998024824 0 9.1665578052180904e-06 -0.064576262051329478 0 5.8614466499999781e-05 -0.064610160795210592 0 9.2528878910673264e-05 -0.064598147998024824 0 9.2528878910673264e-05 -0.064598147998024824 0 2.0536113969063734e-05 -0.064547240623411828 0 0.00010704668036924626 -0.064571052017588823 0 9.2528878910673264e-05 -0.064598147998024824 0 0.000121015173053831 -0.064643862104727376 0 0.00010704668036924626 -0.064571052017588823 0 9.1665578052180904e-06 -0.064576262051329478 0 9.2528878910673264e-05 -0.064598147998024824 0 2.0536113969063734e-05 -0.064547240623411828 0 9.1665578052180904e-06 -0.064576262051329478 0 2.0536113969063734e-05 -0.064547240623411828 0 -2.9486785780644381e-05 -0.064540609122694742 0 2.0536113969063734e-05 -0.064547240623411828 0 -2.9486785780644381e-05 -0.064540609122694742 0 -6.2862306257502277e-05 -0.064505923222818951 0 9.8426361099263998e-05 -0.064626371049379794 0 9.2528878910673264e-05 -0.064598147998024824 0 0.00010715601410936727 -0.064610296053090613 0 0.00010712348028707825 -0.064722347375352512 0 0.00010761102678949236 -0.064708001509363011 0 9.2528878910673264e-05 -0.064598147998024824 0 0.00010715601410936727 -0.064610296053090613 0 0.000121015173053831 -0.064643862104727376 0 7.9541902589376208e-05 -0.064829388881832442 0 9.2861144790819909e-05 -0.064823151221260325 0 0.000121015173053831 -0.064643862104727376 0 9.2861144790819909e-05 -0.064823151221260325 0 5.2377027866871723e-05 -0.064906499881665441 0 4.1830566367967781e-05 -0.064911643141777137 0 9.2861144790819909e-05 -0.064823151221260325 0 5.2377027866871723e-05 -0.064906499881665441 0 8.6314920126752853e-05 -0.06486966650849435 0 7.9541902589376208e-05 -0.064829388881832442 0 9.2861144790819909e-05 -0.064823151221260325 0 8.6314920126752853e-05 -0.06486966650849435 0 0.00010371925883174251 -0.064868071904933461 0 8.6314920126752853e-05 -0.06486966650849435 0 5.1565071800166221e-05 -0.064870889574094481 0 5.2377027866871723e-05 -0.064906499881665441 0 8.6314920126752853e-05 -0.06486966650849435 0 5.1565071800166221e-05 -0.064870889574094481 0 6.0109451954918162e-05 -0.064788258435093615 0 5.1565071800166221e-05 -0.064870889574094481 0 7.703256597099036e-05 -0.064818287793731819 0 6.0109451954918162e-05 -0.064788258435093615 0 1.050851323507071e-05 -0.06483478037770786 0 5.1565071800166221e-05 -0.064870889574094481 0 9.8078468464326079e-05 -0.064717573663543762 0 0.000104551262122363 -0.064728904971035048 0 9.6358916895104927e-05 -0.064721536537393334 0 0.00010896853523276835 -0.064665154638661557 0 0.00012124771459324351 -0.064654924383704696 0 9.6358916895104927e-05 -0.064721536537393334 0 0.00010371925883174251 -0.064868071904933461 0 7.703256597099036e-05 -0.064818287793731819 0 0.00010371925883174251 -0.064868071904933461 0 5.1565071800166221e-05 -0.064870889574094481 0 7.703256597099036e-05 -0.064818287793731819 0 1.050851323507071e-05 -0.06483478037770786 0 -4.1834498834227062e-08 -0.064999737901499016 0 1.4410834407852897e-05 -0.064938103778930306 0 1.050851323507071e-05 -0.06483478037770786 0 5.1565071800166221e-05 -0.064870889574094481 0 1.4410834407852897e-05 -0.064938103778930306 0 5.2377027866871723e-05 -0.064906499881665441 0 5.1565071800166221e-05 -0.064870889574094481 0 1.4410834407852897e-05 -0.064938103778930306 0 1.4410834407852897e-05 -0.064938103778930306 0 2.5983298551992983e-08 -0.064999951966170089 0 2.1899605767726343e-05 -0.064954492258288574 0 -4.1834498834227062e-08 -0.064999737901499016 0 1.4410834407852897e-05 -0.064938103778930306 0 2.5983298551992983e-08 -0.064999951966170089 0 2.5983298551992983e-08 -0.064999951966170089 0 2.1899605767726343e-05 -0.064954492258288574 0 2.0716438450282969e-08 -0.06499990365644219 0 5.2377027866871723e-05 -0.064906499881665441 0 1.4410834407852897e-05 -0.064938103778930306 0 2.1899605767726343e-05 -0.064954492258288574 0 5.2377027866871723e-05 -0.064906499881665441 0 2.1899605767726343e-05 -0.064954492258288574 0 4.1830566367967781e-05 -0.064911643141777137 0 2.1899605767726343e-05 -0.064954492258288574 0 4.1830566367967781e-05 -0.064911643141777137 0 2.0716438450282969e-08 -0.06499990365644219 0 2.0716438450282969e-08 -0.06499990365644219 0 2.5556121399248022e-05 -0.064934133273225364 0 1.1058172016846957e-08 -0.064999915640294489 0 4.1830566367967781e-05 -0.064911643141777137 0 2.0716438450282969e-08 -0.06499990365644219 0 2.5556121399248022e-05 -0.064934133273225364 0 4.1830566367967781e-05 -0.064911643141777137 0 2.5556121399248022e-05 -0.064934133273225364 0 6.1582917029808542e-05 -0.064858801887293954 0 2.5556121399248022e-05 -0.064934133273225364 0 6.1582917029808542e-05 -0.064858801887293954 0 2.2462299535185903e-05 -0.06494209142691465 0 2.5556121399248022e-05 -0.064934133273225364 0 1.1058172016846957e-08 -0.064999915640294489 0 2.2462299535185903e-05 -0.06494209142691465 0 9.2861144790819909e-05 -0.064823151221260325 0 6.1582917029808542e-05 -0.064858801887293954 0 0.00010995876352191509 -0.064734357836229606 0 9.2861144790819909e-05 -0.064823151221260325 0 4.1830566367967781e-05 -0.064911643141777137 0 6.1582917029808542e-05 -0.064858801887293954 0 6.1582917029808542e-05 -0.064858801887293954 0 7.4208508031530613e-05 -0.064851374032882464 0 2.2462299535185903e-05 -0.06494209142691465 0 6.1582917029808542e-05 -0.064858801887293954 0 7.4208508031530613e-05 -0.064851374032882464 0 0.00010995876352191509 -0.064734357836229606 0 7.4208508031530613e-05 -0.064851374032882464 0 7.9656948208892871e-05 -0.064931829346964218 0 0.00014894632186778672 -0.06480097855250197 0 7.4208508031530613e-05 -0.064851374032882464 0 7.9656948208892871e-05 -0.064931829346964218 0 2.2462299535185903e-05 -0.06494209142691465 0 7.9656948208892871e-05 -0.064931829346964218 0 2.2462299535185903e-05 -0.06494209142691465 0 3.2825687569392526e-05 -0.064989219005652576 0 1.1058172016846957e-08 -0.064999915640294489 0 2.2462299535185903e-05 -0.06494209142691465 0 8.712090854897728e-10 -0.064999950217032462 0 2.2462299535185903e-05 -0.06494209142691465 0 8.5810583361151452e-06 -0.064993207216983553 0 3.2825687569392526e-05 -0.064989219005652576 0 2.2462299535185903e-05 -0.06494209142691465 0 8.712090854897728e-10 -0.064999950217032462 0 8.5810583361151452e-06 -0.064993207216983553 0 8.712090854897728e-10 -0.064999950217032462 0 8.5810583361151452e-06 -0.064993207216983553 0 4.2545584070849762e-09 -0.06500002437250707 0 8.5810583361151452e-06 -0.064993207216983553 0 4.2545584070849762e-09 -0.06500002437250707 0 5.1470123540373302e-06 -0.065006787571965291 0 9.2115842777401514e-07 -0.064998526250514679 0 0.00018442337445422809 -0.064666982607019877 0 2.1286886574579413e-10 -0.064999999904594249 0 1.1913450702210063e-08 -0.064999588700074162 0 -2.830727229219039e-10 -0.064999999098354883 0 9.7208835590524463e-07 -0.065000615065958708 0 1.4235454483570008e-08 -0.064999977393489589 0 7.68012055930954e-07 -0.064999345750179655 0 0.00018442337445422809 -0.064666982607019877 0 1.7436261222882053e-07 -0.064998914207053587 0 0.0021004964699179794 -0.063066429978914471 0 0.0017247684709164369 -0.063070458031163637 0 0.0016840837643099639 -0.063350941792573848 0 0.0021004964699179794 -0.063066429978914471 0 0.0017247684709164369 -0.063070458031163637 0 0.0017090964838589111 -0.062788746321437688 0 9.7208835590524463e-07 -0.065000615065958708 0 7.68012055930954e-07 -0.064999345750179655 0 -4.3259572731327979e-06 -0.064999118381003321 0 0.00018442337445422809 -0.064666982607019877 0 0.00048594430818074805 -0.064285793911166081 0 0.00018442337445422809 -0.064666982607019877 0 0.00070013131324881143 -0.064294724651893842 0 8.5810583361151452e-06 -0.064993207216983553 0 5.1470123540373302e-06 -0.065006787571965291 0 3.2825687569392526e-05 -0.064989219005652576 0 0.00063529442218812333 -0.064323577702292606 0 0.00070013131324881143 -0.064294724651893842 0 0.001283058887978726 -0.063650367404904706 0 0.0016840837643099639 -0.063350941792573848 0 0.0014030468179870893 -0.063075915519285305 0 0.001283058887978726 -0.063650367404904706 0 0.0014030468179870893 -0.063075915519285305 0 0.0010169497911016953 -0.06326152336911986 0 0.0014030468179870893 -0.063075915519285305 0 0.0010214612033113896 -0.062907616982960129 0 0.0010169497911016953 -0.06326152336911986 0 0.0017247684709164369 -0.063070458031163637 0 0.0014030468179870893 -0.063075915519285305 0 0.0017090964838589111 -0.062788746321437688 0 0.0017247684709164369 -0.063070458031163637 0 0.0016840837643099639 -0.063350941792573848 0 0.0014030468179870893 -0.063075915519285305 0 0.00044579610074928721 -0.064013394508534688 0 0.00048594430818074805 -0.064285793911166081 0 -2.1183694282159484e-05 -0.064989581830630014 0 -4.2146684698347937e-06 -0.06499007132394917 0 -4.3259572731327979e-06 -0.064999118381003321 0 0.0014030468179870893 -0.063075915519285305 0 0.0012967532799204237 -0.062508370444468192 0 0.0017090964838589111 -0.062788746321437688 0 0.0012967532799204237 -0.062508370444468192 0 0.00093956322570032575 -0.062538829431857762 0 0.0010214612033113896 -0.062907616982960129 0 0.0014030468179870893 -0.063075915519285305 0 0.0012967532799204237 -0.062508370444468192 0 0.0010214612033113896 -0.062907616982960129 0 0.0012967532799204237 -0.062508370444468192 0 0.00093956322570032575 -0.062538829431857762 0 0.00087816856667900681 -0.062258902988452103 0 0.00044579610074928721 -0.064013394508534688 0 0.00027783142289317472 -0.063864026915125452 0 -2.1183694282159484e-05 -0.064989581830630014 0 -4.2146684698347937e-06 -0.06499007132394917 0 -1.1248229511090857e-05 -0.064974508321338456 0 -4.2146684698347937e-06 -0.06499007132394917 0 4.3979842485406007e-06 -0.064989992582197717 0 1.6159819237492276e-06 -0.064997824554165667 0 -4.2146684698347937e-06 -0.06499007132394917 0 4.3979842485406007e-06 -0.064989992582197717 0 -1.1248229511090857e-05 -0.064974508321338456 0 -1.8507610016662059e-08 -0.065000035039699422 0 4.3979842485406007e-06 -0.064989992582197717 0 1.6159819237492276e-06 -0.064997824554165667 0 1.4235454483570008e-08 -0.064999977393489589 0 -1.8507610016662059e-08 -0.065000035039699422 0 1.6159819237492276e-06 -0.064997824554165667 0 1.4235454483570008e-08 -0.064999977393489589 0 1.6159819237492276e-06 -0.064997824554165667 0 7.68012055930954e-07 -0.064999345750179655 0 1.6159819237492276e-06 -0.064997824554165667 0 7.68012055930954e-07 -0.064999345750179655 0 -4.3259572731327979e-06 -0.064999118381003321 0 -4.2146684698347937e-06 -0.06499007132394917 0 1.6159819237492276e-06 -0.064997824554165667 0 -4.3259572731327979e-06 -0.064999118381003321 0 0.00042205586083822634 -0.062786378756556599 0 0.00013533361300512497 -0.06270938140202012 0 0.0003086729530723281 -0.062557547048354381 0 0.00013533361300512497 -0.06270938140202012 0 0.0001239992368637563 -0.062517617394446598 0 0.0003086729530723281 -0.062557547048354381 0 0.00042205586083822634 -0.062786378756556599 0 0.0003086729530723281 -0.062557547048354381 0 0.00051808299772420057 -0.062563238182679073 0 0.00013533361300512497 -0.06270938140202012 0 0.0001239992368637563 -0.062517617394446598 0 -8.6730174399085537e-05 -0.062551461277813719 0 0.00013533361300512497 -0.06270938140202012 0 -6.6161147863151443e-05 -0.062776515732035729 0 -8.6730174399085537e-05 -0.062551461277813719 0 0.0001239992368637563 -0.062517617394446598 0 3.8747073571960156e-05 -0.062386574593174773 0 -8.6730174399085537e-05 -0.062551461277813719 0 0.0001239992368637563 -0.062517617394446598 0 3.8747073571960156e-05 -0.062386574593174773 0 0.00025700000495308071 -0.062376205245508382 0 0.0001239992368637563 -0.062517617394446598 0 0.00025700000495308071 -0.062376205245508382 0 0.0003086729530723281 -0.062557547048354381 0 0.0003086729530723281 -0.062557547048354381 0 0.0004066222279415454 -0.062400834020165642 0 0.00051808299772420057 -0.062563238182679073 0 0.00025700000495308071 -0.062376205245508382 0 0.0003086729530723281 -0.062557547048354381 0 0.0004066222279415454 -0.062400834020165642 0 0.00025700000495308071 -0.062376205245508382 0 0.0004066222279415454 -0.062400834020165642 0 0.00039816949929019895 -0.062282493766859043 0 0.0004066222279415454 -0.062400834020165642 0 0.00058215762846880448 -0.062395071890682954 0 0.00050339689616882885 -0.062284301484498511 0 0.00058215762846880448 -0.062395071890682954 0 0.00064262654343653512 -0.06228524437278516 0 0.00050339689616882885 -0.062284301484498511 0 0.00058215762846880448 -0.062395071890682954 0 0.00070228946954312447 -0.062520021821110702 0 0.00073702744015599565 -0.062380236319041896 0 0.00058215762846880448 -0.062395071890682954 0 0.00073702744015599565 -0.062380236319041896 0 0.00064262654343653512 -0.06228524437278516 0 0.00058215762846880448 -0.062395071890682954 0 0.00070228946954312447 -0.062520021821110702 0 0.00051808299772420057 -0.062563238182679073 0 0.0004066222279415454 -0.062400834020165642 0 0.00058215762846880448 -0.062395071890682954 0 0.00051808299772420057 -0.062563238182679073 0 0.00073702744015599565 -0.062380236319041896 0 0.00093956322570032575 -0.062538829431857762 0 0.00087816856667900681 -0.062258902988452103 0 0.00070228946954312447 -0.062520021821110702 0 0.00073702744015599565 -0.062380236319041896 0 0.00093956322570032575 -0.062538829431857762 0 0.00093956322570032575 -0.062538829431857762 0 0.00070300238180532638 -0.062733235070845481 0 0.0010214612033113896 -0.062907616982960129 0 0.00070228946954312447 -0.062520021821110702 0 0.00093956322570032575 -0.062538829431857762 0 0.00070300238180532638 -0.062733235070845481 0 0.00042205586083822634 -0.062786378756556599 0 0.00051808299772420057 -0.062563238182679073 0 0.00070300238180532638 -0.062733235070845481 0 0.00070228946954312447 -0.062520021821110702 0 0.00051808299772420057 -0.062563238182679073 0 0.00070300238180532638 -0.062733235070845481 0 0.00042205586083822634 -0.062786378756556599 0 0.00070300238180532638 -0.062733235070845481 0 0.00064241410450747657 -0.063127284551369553 0 0.00070300238180532638 -0.062733235070845481 0 0.00064241410450747657 -0.063127284551369553 0 0.0010214612033113896 -0.062907616982960129 0 0.00064241410450747657 -0.063127284551369553 0 0.0010214612033113896 -0.062907616982960129 0 0.0010169497911016953 -0.06326152336911986 0 0.001283058887978726 -0.063650367404904706 0 0.0010169497911016953 -0.06326152336911986 0 0.00077500071020832029 -0.063555093742562477 0 0.00064241410450747657 -0.063127284551369553 0 0.0010169497911016953 -0.06326152336911986 0 0.00077500071020832029 -0.063555093742562477 0 0.00064241410450747657 -0.063127284551369553 0 0.00035006515338307891 -0.063451776135652366 0 0.00077500071020832029 -0.063555093742562477 0 0.00035006515338307891 -0.063451776135652366 0 0.00020540839030336032 -0.06304027027876985 0 0.00011783290310809492 -0.063349888962842466 0 0.00064241410450747657 -0.063127284551369553 0 0.00035006515338307891 -0.063451776135652366 0 0.00020540839030336032 -0.06304027027876985 0 0.00035006515338307891 -0.063451776135652366 0 0.00011783290310809492 -0.063349888962842466 0 0.00013276313931799609 -0.063654372482733521 0 0.00042205586083822634 -0.062786378756556599 0 0.00064241410450747657 -0.063127284551369553 0 0.00020540839030336032 -0.06304027027876985 0 0.00042205586083822634 -0.062786378756556599 0 0.00013533361300512497 -0.06270938140202012 0 0.00020540839030336032 -0.06304027027876985 0 -6.6161147863151443e-05 -0.062776515732035729 0 -2.4579570912257868e-05 -0.063159872948316681 0 -0.00022073475304488515 -0.062805514732395665 0 0.00020540839030336032 -0.06304027027876985 0 -6.6161147863151443e-05 -0.062776515732035729 0 -2.4579570912257868e-05 -0.063159872948316681 0 0.00013533361300512497 -0.06270938140202012 0 0.00020540839030336032 -0.06304027027876985 0 -6.6161147863151443e-05 -0.062776515732035729 0 -2.4579570912257868e-05 -0.063159872948316681 0 -0.00022073475304488515 -0.062805514732395665 0 -0.00022355739079395182 -0.06342562297644036 0 0.00020540839030336032 -0.06304027027876985 0 -2.4579570912257868e-05 -0.063159872948316681 0 0.00011783290310809492 -0.063349888962842466 0 -2.4579570912257868e-05 -0.063159872948316681 0 0.00011783290310809492 -0.063349888962842466 0 -0.00010701254338730206 -0.06349712223725261 0 -2.4579570912257868e-05 -0.063159872948316681 0 -0.00010701254338730206 -0.06349712223725261 0 -0.00022355739079395182 -0.06342562297644036 0 -0.0016919923672428104 -0.059719517461263874 0 -0.0014039980188939242 -0.058691344455165217 0 -0.00010701254338730206 -0.06349712223725261 0 -0.00025978220219902165 -0.063646275356750784 0 -0.00022355739079395182 -0.06342562297644036 0 -0.00010701254338730206 -0.06349712223725261 0 -5.6433250074833318e-05 -0.063806671007417173 0 -0.00026961718871329222 -0.063897351121867133 0 -5.6433250074833318e-05 -0.063806671007417173 0 -7.1625534048256389e-05 -0.064011271381660823 0 -0.00026961718871329222 -0.063897351121867133 0 -5.6433250074833318e-05 -0.063806671007417173 0 0.00013276313931799609 -0.063654372482733521 0 0.00011039673809577153 -0.063988991556471697 0 -0.00010701254338730206 -0.06349712223725261 0 -5.6433250074833318e-05 -0.063806671007417173 0 0.00013276313931799609 -0.063654372482733521 0 0.00011783290310809492 -0.063349888962842466 0 -0.00010701254338730206 -0.06349712223725261 0 0.00013276313931799609 -0.063654372482733521 0 0.00035006515338307891 -0.063451776135652366 0 0.00013276313931799609 -0.063654372482733521 0 0.00043115437104472468 -0.063863248333611164 0 0.00013276313931799609 -0.063654372482733521 0 0.00011039673809577153 -0.063988991556471697 0 0.00043115437104472468 -0.063863248333611164 0 0.00011039673809577153 -0.063988991556471697 0 1.0967729793171462e-05 -0.064191969915268932 0 0.00023934187137568467 -0.064491854537895563 0 0.00011039673809577153 -0.063988991556471697 0 0.00043115437104472468 -0.063863248333611164 0 0.00023934187137568467 -0.064491854537895563 0 1.0967729793171462e-05 -0.064191969915268932 0 -7.1625534048256389e-05 -0.064011271381660823 0 -0.0001579761831299606 -0.064149508741530303 0 1.0967729793171462e-05 -0.064191969915268932 0 -3.1665247522857716e-05 -0.064342433469294247 0 -0.0001579761831299606 -0.064149508741530303 0 -7.1625534048256389e-05 -0.064011271381660823 0 -0.00026961718871329222 -0.063897351121867133 0 -0.0001579761831299606 -0.064149508741530303 0 0.00011039673809577153 -0.063988991556471697 0 1.0967729793171462e-05 -0.064191969915268932 0 -7.1625534048256389e-05 -0.064011271381660823 0 -5.6433250074833318e-05 -0.063806671007417173 0 0.00011039673809577153 -0.063988991556471697 0 -7.1625534048256389e-05 -0.064011271381660823 0 0.00063529442218812333 -0.064323577702292606 0 0.00046916124888937613 -0.064421421083195374 0 0.001283058887978726 -0.063650367404904706 0 0.00077500071020832029 -0.063555093742562477 0 0.00086517369239446046 -0.064018887853128245 0 0.00077500071020832029 -0.063555093742562477 0 0.00043115437104472468 -0.063863248333611164 0 0.00086517369239446046 -0.064018887853128245 0 0.00035006515338307891 -0.063451776135652366 0 0.00077500071020832029 -0.063555093742562477 0 0.00043115437104472468 -0.063863248333611164 0 0.00043115437104472468 -0.063863248333611164 0 0.00086517369239446046 -0.064018887853128245 0 0.00023934187137568467 -0.064491854537895563 0 0.00046916124888937613 -0.064421421083195374 0 0.0003573564082277008 -0.064484423285403367 0 7.4208508031530613e-05 -0.064851374032882464 0 0.00014894632186778672 -0.06480097855250197 0 0.00010995876352191509 -0.064734357836229606 0 0.00014894632186778672 -0.06480097855250197 0 0.00010995876352191509 -0.064734357836229606 0 0.00023934187137568467 -0.064491854537895563 0 0.00010995876352191509 -0.064734357836229606 0 0.000121015173053831 -0.064643862104727376 0 0.00023934187137568467 -0.064491854537895563 0 9.2861144790819909e-05 -0.064823151221260325 0 0.00010995876352191509 -0.064734357836229606 0 0.000121015173053831 -0.064643862104727376 0 -3.1665247522857716e-05 -0.064342433469294247 0 3.175305705951482e-05 -0.064483102248354698 0 -0.00011543369879246216 -0.064379887486255977 0 -3.1665247522857716e-05 -0.064342433469294247 0 -0.00017464207133336684 -0.064279456036670637 0 -0.0001579761831299606 -0.064149508741530303 0 -3.1665247522857716e-05 -0.064342433469294247 0 -0.00011543369879246216 -0.064379887486255977 0 -0.00017464207133336684 -0.064279456036670637 0 0.00023934187137568467 -0.064491854537895563 0 0.00010704668036924626 -0.064571052017588823 0 3.175305705951482e-05 -0.064483102248354698 0 1.0967729793171462e-05 -0.064191969915268932 0 -3.1665247522857716e-05 -0.064342433469294247 0 0.00023934187137568467 -0.064491854537895563 0 -3.1665247522857716e-05 -0.064342433469294247 0 0.00023934187137568467 -0.064491854537895563 0 3.175305705951482e-05 -0.064483102248354698 0 0.000121015173053831 -0.064643862104727376 0 0.00023934187137568467 -0.064491854537895563 0 0.00010704668036924626 -0.064571052017588823 0 2.0536113969063734e-05 -0.064547240623411828 0 0.00010704668036924626 -0.064571052017588823 0 3.175305705951482e-05 -0.064483102248354698 0 2.0536113969063734e-05 -0.064547240623411828 0 3.175305705951482e-05 -0.064483102248354698 0 -4.3853452962781272e-05 -0.064483495897757828 0 3.175305705951482e-05 -0.064483102248354698 0 -4.3853452962781272e-05 -0.064483495897757828 0 -0.00011543369879246216 -0.064379887486255977 0 2.0536113969063734e-05 -0.064547240623411828 0 -4.3853452962781272e-05 -0.064483495897757828 0 -6.2862306257502277e-05 -0.064505923222818951 0 -6.2862306257502277e-05 -0.064505923222818951 0 -0.00011520237318682877 -0.064474221143976426 0 -0.00011240736184607556 -0.064452754467010112 0 -4.3853452962781272e-05 -0.064483495897757828 0 -6.2862306257502277e-05 -0.064505923222818951 0 -0.00011240736184607556 -0.064452754467010112 0 -8.3493496515223381e-05 -0.064510834233043074 0 -0.00011520237318682877 -0.064474221143976426 0 -0.00012035956173852553 -0.064453933862587284 0 -0.00011520237318682877 -0.064474221143976426 0 -0.00013996895649700413 -0.064457728196530853 0 -0.00012035956173852553 -0.064453933862587284 0 -0.00011520237318682877 -0.064474221143976426 0 -0.00013996895649700413 -0.064457728196530853 0 -0.00014122970250160966 -0.064449619168889818 0 -0.00013996895649700413 -0.064457728196530853 0 -0.00014122970250160966 -0.064449619168889818 0 -0.00018914688642385278 -0.064440613475810427 0 -0.00011520237318682877 -0.064474221143976426 0 -0.00014122970250160966 -0.064449619168889818 0 -0.00011240736184607556 -0.064452754467010112 0 -0.00014122970250160966 -0.064449619168889818 0 -0.00011240736184607556 -0.064452754467010112 0 -0.00017053871298698621 -0.064405927108201796 0 -0.00014122970250160966 -0.064449619168889818 0 -0.00017053871298698621 -0.064405927108201796 0 -0.00018914688642385278 -0.064440613475810427 0 -4.3853452962781272e-05 -0.064483495897757828 0 -0.00011240736184607556 -0.064452754467010112 0 -0.00011543369879246216 -0.064379887486255977 0 -0.00017053871298698621 -0.064405927108201796 0 -0.00017464207133336684 -0.064279456036670637 0 -0.00031046753434381722 -0.064169763463366961 0 -0.00011543369879246216 -0.064379887486255977 0 -0.00017053871298698621 -0.064405927108201796 0 -0.00017464207133336684 -0.064279456036670637 0 0.00094692711797363582 -0.056268193976811966 0 -0.00055781428033272265 -0.056496966345389428 0 -0.00011240736184607556 -0.064452754467010112 0 -0.00011543369879246216 -0.064379887486255977 0 -0.00017053871298698621 -0.064405927108201796 0 -0.00017053871298698621 -0.064405927108201796 0 -0.00018914688642385278 -0.064440613475810427 0 -0.00031046753434381722 -0.064169763463366961 0 0.00021184274131209212 -0.052189991407840523 0 -0.00020829591095344627 -0.051823882351591931 0 0.00079115217615997012 -0.053730247830080312 0 3.9551710835484612e-05 -0.052827887077618312 0 -0.00040537435383938917 -0.055450252105993053 0 0.00021184274131209212 -0.052189991407840523 0 0.00043979397712970826 -0.048974876952736418 0 0.00021184274131209212 -0.052189991407840523 0 -0.00055781428033272265 -0.056496966345389428 0 0.00021184274131209212 -0.052189991407840523 0 0.00094692711797363582 -0.056268193976811966 0 0.00021184274131209212 -0.052189991407840523 0 0.00095916415658197968 -0.051264815928097326 0 -0.0001389342125580452 -0.064354510468342896 0 -0.00010850799048615007 -0.06439736835233871 0 -0.00012035956173852553 -0.064453933862587284 0 -0.0001389342125580452 -0.064354510468342896 0 -0.00012035956173852553 -0.064453933862587284 0 -0.00016609738333548164 -0.064440263767393868 0 0.00094692711797363582 -0.056268193976811966 0 0.00077478598189804817 -0.057367901009324734 0 -0.00013996895649700413 -0.064457728196530853 0 -0.00018914688642385278 -0.064440613475810427 0 -0.00012035956173852553 -0.064453933862587284 0 0.003832694066222414 -0.040840632126154075 0 0.0030589499262698343 -0.041959581823752062 0 0.0028364857124794536 -0.041020644690173975 0 0.0030589499262698343 -0.041959581823752062 0 0.0022227508968540068 -0.041677748893090713 0 0.0028364857124794536 -0.041020644690173975 0 0.0019382329766408479 -0.041212723152743283 0 0.0016241621497284796 -0.040731525230889493 0 0.0015306159456291428 -0.041690864654548271 0 0.0022227508968540068 -0.041677748893090713 0 0.0023106187851573909 -0.041152188542591957 0 0.0019382329766408479 -0.041212723152743283 0 0.0022227508968540068 -0.041677748893090713 0 0.0023106187851573909 -0.041152188542591957 0 0.0028364857124794536 -0.041020644690173975 0 0.0022227508968540068 -0.041677748893090713 0 0.0019382329766408479 -0.041212723152743283 0 0.0015306159456291428 -0.041690864654548271 0 0.0016241621497284796 -0.040731525230889493 0 0.001985592618900842 -0.040241402066925641 0 0.001453028667884658 -0.039765498817455683 0 0.0019382329766408479 -0.041212723152743283 0 0.0016241621497284796 -0.040731525230889493 0 0.0021697349536851092 -0.040763258376734127 0 0.0023106187851573909 -0.041152188542591957 0 0.0021697349536851092 -0.040763258376734127 0 0.0028364857124794536 -0.041020644690173975 0 0.0023106187851573909 -0.041152188542591957 0 0.0019382329766408479 -0.041212723152743283 0 0.0021697349536851092 -0.040763258376734127 0 0.0021697349536851092 -0.040763258376734127 0 0.001985592618900842 -0.040241402066925641 0 0.0025110322339907351 -0.040410723607981446 0 0.0016241621497284796 -0.040731525230889493 0 0.0021697349536851092 -0.040763258376734127 0 0.001985592618900842 -0.040241402066925641 0 0.003832694066222414 -0.040840632126154075 0 0.0028364857124794536 -0.041020644690173975 0 0.003125825241679865 -0.040301499820535956 0 0.0017902794935780366 -0.050253911588623273 0 0.0008029723410516458 -0.049520339722394162 0 0.00050389435748007555 -0.048702270195724588 0 0.0021697349536851092 -0.040763258376734127 0 0.0028364857124794536 -0.041020644690173975 0 0.0025110322339907351 -0.040410723607981446 0 0.0028364857124794536 -0.041020644690173975 0 0.0025110322339907351 -0.040410723607981446 0 0.003125825241679865 -0.040301499820535956 0 0.00043979397712970826 -0.048974876952736418 0 0.00088902335368456478 -0.04699857994510831 0 0.0025110322339907351 -0.040410723607981446 0 0.003125825241679865 -0.040301499820535956 0 0.0024355082421709529 -0.039726038582429027 0 0.0008029723410516458 -0.049520339722394162 0 0.00050389435748007555 -0.048702270195724588 0 -0.00015286289413555176 -0.048741103145371834 0 -0.00020829591095344627 -0.051823882351591931 0 0.00088902335368456478 -0.04699857994510831 0 0.004471596561114172 -0.037546200805944292 0 0.0035281271655572309 -0.037588001681786797 0 0.0032666492240980075 -0.036538964179737538 0 0.00088902335368456478 -0.04699857994510831 0 0.0021397873693076398 -0.038118631564566852 0 -0.0036846980757041701 -0.058369043601984263 0 -0.0030613244984987959 -0.058336281347990127 0 -0.0025036416325927308 -0.059707914657704787 0 0.001985592618900842 -0.040241402066925641 0 0.0024355082421709529 -0.039726038582429027 0 0.001453028667884658 -0.039765498817455683 0 0.001985592618900842 -0.040241402066925641 0 0.0025110322339907351 -0.040410723607981446 0 0.0024355082421709529 -0.039726038582429027 0 -0.0005485086687000469 -0.055617393956224601 0 -0.00010739611105668291 -0.05623087755312102 0 -2.6598165684900906e-06 -0.056303527163988246 0 0.00088902335368456478 -0.04699857994510831 0 0.0025968816507639957 -0.045468826673254331 0 -0.0030613244984987959 -0.058336281347990127 0 -0.0025036416325927308 -0.059707914657704787 0 -0.0014598811743503346 -0.059719327618657676 0 -0.00020829591095344627 -0.051823882351591931 0 4.6237903966144748e-05 -0.05619515203487685 0 -8.0447859777723677e-05 -0.056369119223889173 0 -0.0002938885528381854 -0.056569275888996177 0 -5.4477735124881914e-05 -0.056641112707597266 0 -0.00010739611105668291 -0.05623087755312102 0 -2.6598165684900906e-06 -0.056303527163988246 0 0.00032175485183521933 -0.056810649097904335 0 -0.00043101158726720023 -0.055964056034604144 0 -0.00049571995112003716 -0.056370488491936183 0 -0.00084290931684086385 -0.056347698742799088 0 -0.00043101158726720023 -0.055964056034604144 0 -8.0447859777723677e-05 -0.056369119223889173 0 -0.00049571995112003716 -0.056370488491936183 0 -0.00020829591095344627 -0.051823882351591931 0 0.00066585429668275509 -0.054287720327232634 0 -8.0447859777723677e-05 -0.056369119223889173 0 -0.00049571995112003716 -0.056370488491936183 0 -0.0002938885528381854 -0.056569275888996177 0 -0.00049571995112003716 -0.056370488491936183 0 -0.00070992676324755602 -0.056724098819771994 0 -0.0002938885528381854 -0.056569275888996177 0 -0.00049571995112003716 -0.056370488491936183 0 -0.00084290931684086385 -0.056347698742799088 0 -0.00070992676324755602 -0.056724098819771994 0 -0.00061107138086927192 -0.056873536213396782 0 -0.0011636419632912853 -0.059918922700730723 0 -0.00084290931684086385 -0.056347698742799088 0 -0.0011640619248689541 -0.056019612946002419 0 -0.0012665489943381309 -0.056642077413824293 0 -0.00025978220219902165 -0.063646275356750784 0 -0.00031885368699489632 -0.06340916439764073 0 -0.00022355739079395182 -0.06342562297644036 0 -0.00025978220219902165 -0.063646275356750784 0 -0.00037044840528608117 -0.063732878897722958 0 -0.00031885368699489632 -0.06340916439764073 0 -0.00025978220219902165 -0.063646275356750784 0 -0.00037044840528608117 -0.063732878897722958 0 -0.00032473174065439668 -0.063733483173136055 0 -0.00054622054101612983 -0.056424077220626076 0 -4.5984226652014823e-06 -0.056430003060262052 0 -0.00071749843874131846 -0.057460058936807563 0 -0.00061107138086927192 -0.056873536213396782 0 -0.00090876560471548793 -0.057151375984580033 0 -0.00026961718871329222 -0.063897351121867133 0 -0.00029345136227947906 -0.064047744903197618 0 -0.0001579761831299606 -0.064149508741530303 0 -0.0014039980188939242 -0.058691344455165217 0 -0.00090876560471548793 -0.057151375984580033 0 -0.00029345136227947906 -0.064047744903197618 0 -0.0001579761831299606 -0.064149508741530303 0 -0.00031046753434381722 -0.064169763463366961 0 -0.00017464207133336684 -0.064279456036670637 0 -0.0001579761831299606 -0.064149508741530303 0 -0.00031046753434381722 -0.064169763463366961 0 -0.00061107138086927192 -0.056873536213396782 0 -0.00055781428033272265 -0.056496966345389428 0 -0.00090876560471548793 -0.057151375984580033 0 -0.00055781428033272265 -0.056496966345389428 0 -0.00043101158726720023 -0.055964056034604144 0 -0.00084290931684086385 -0.056347698742799088 0 -0.0011640619248689541 -0.056019612946002419 0 -0.00020829591095344627 -0.051823882351591931 0 -0.00061107138086927192 -0.056873536213396782 0 -0.00010218134567647838 -0.053904919812292784 0 0.00070832077175889076 -0.053860895900680557 0 0.00067841264579954728 -0.054043974484729113 0 0.00037622764712698544 -0.054478342720724153 0 -0.00010218134567647838 -0.053904919812292784 0 0.00067841264579954728 -0.054043974484729113 0 0.0045486560657718722 -0.011334561736002275 0 0.0044537514374079282 -0.010771080812897803 0 0.0039075633431867847 -0.0111732946725671 0 0.0045486560657718722 -0.011334561736002275 0 0.0050658377957053576 -0.010695585275058223 0 0.0044537514374079282 -0.010771080812897803 0 0.0050516475336713287 -0.012036609520413867 0 0.0045486560657718722 -0.011334561736002275 0 0.0040836460741777852 -0.011905021069757677 0 0.0050516475336713287 -0.012036609520413867 0 0.0045486560657718722 -0.011334561736002275 0 0.0053626418806862275 -0.011279463373206162 0 0.0045486560657718722 -0.011334561736002275 0 0.0053626418806862275 -0.011279463373206162 0 0.0050658377957053576 -0.010695585275058223 0 0.0053626418806862275 -0.011279463373206162 0 0.0057277559985931172 -0.010648814359659335 0 0.0050658377957053576 -0.010695585275058223 0 0.0053626418806862275 -0.011279463373206162 0 0.0058115673443882706 -0.011744877193143308 0 0.0060870216592968382 -0.011208419299479518 0 0.0053626418806862275 -0.011279463373206162 0 0.0060870216592968382 -0.011208419299479518 0 0.0057277559985931172 -0.010648814359659335 0 0.0050516475336713287 -0.012036609520413867 0 0.0053626418806862275 -0.011279463373206162 0 0.0058115673443882706 -0.011744877193143308 0 0.0014590348002021098 -0.031120828482230491 0 0.0020117206117273227 -0.028903270134818641 0 0.0058115673443882706 -0.011744877193143308 0 0.0064782456218318843 -0.011804905489042925 0 0.0060870216592968382 -0.011208419299479518 0 0.0057812170968172894 -0.012402547343002862 0 0.0058115673443882706 -0.011744877193143308 0 0.0064782456218318843 -0.011804905489042925 0 0.0016241621497284796 -0.040731525230889493 0 0.0015306159456291428 -0.041690864654548271 0 0.00099387587066696297 -0.040753471997290583 0 0.0020117206117273227 -0.028903270134818641 0 0.003039355960177275 -0.029120489997496172 0 0.0016241621497284796 -0.040731525230889493 0 0.00099387587066696297 -0.040753471997290583 0 0.001453028667884658 -0.039765498817455683 0 0.00099387587066696297 -0.040753471997290583 0 0.001453028667884658 -0.039765498817455683 0 0.00046248033250473341 -0.039808369860354784 0 0.0035281271655572309 -0.037588001681786797 0 0.0032666492240980075 -0.036538964179737538 0 0.0025787071693805369 -0.037633298683641125 0 0.0021397873693076398 -0.038118631564566852 0 0.003039355960177275 -0.029120489997496172 0 0.0032666492240980075 -0.036538964179737538 0 0.0019931236843824551 -0.036599995371811397 0 0.0025787071693805369 -0.037633298683641125 0 0.0050623492667137577 -0.010310483622317665 0 0.0053249598157548393 -0.010790947940177995 0 0.0048769336715922332 -0.010783430279884968 0 0.002715017953202442 -0.025823768169606034 0 0.003039355960177275 -0.029120489997496172 0 0.003039355960177275 -0.029120489997496172 0 0.0046081585749351188 -0.02382228709284771 0 0.0046081585749351188 -0.02382228709284771 0 0.0048473682720787401 -0.022220214972797449 0 0.0050623492667137577 -0.010310483622317665 0 0.0048769336715922332 -0.010783430279884968 0 0.0045548208655090596 -0.010335268932694777 0 0.0050623492667137577 -0.010310483622317665 0 0.0045548208655090596 -0.010335268932694777 0 0.0047896263142940014 -0.0098594682315584978 0 0.0045548208655090596 -0.010335268932694777 0 0.0041013406911104182 -0.010525348544311076 0 0.004202006964010855 -0.010109957596684961 0 0.0045548208655090596 -0.010335268932694777 0 0.0044155074579079589 -0.010013671043822399 0 0.004202006964010855 -0.010109957596684961 0 0.0045548208655090596 -0.010335268932694777 0 0.0044537514374079282 -0.010771080812897803 0 0.0041013406911104182 -0.010525348544311076 0 0.0048769336715922332 -0.010783430279884968 0 0.0045548208655090596 -0.010335268932694777 0 0.0044537514374079282 -0.010771080812897803 0 0.0045356279441121899 -0.0095165582151406983 0 0.0044842853136285183 -0.0096094146493782562 0 0.0047896263142940014 -0.0098594682315584978 0 0.0043269871494736514 -0.0095040897146381441 0 0.0044842853136285183 -0.0096094146493782562 0 0.0044239848264611501 -0.0093809300772540218 0 0.0043269871494736514 -0.0095040897146381441 0 0.0044842853136285183 -0.0096094146493782562 0 0.0043101066909445674 -0.0096611892212712519 0 0.0043269871494736514 -0.0095040897146381441 0 0.0043101066909445674 -0.0096611892212712519 0 0.0041651007979420802 -0.0095081535483901008 0 0.0045356279441121899 -0.0095165582151406983 0 0.0044842853136285183 -0.0096094146493782562 0 0.0044667291069920819 -0.0094771613327508889 0 0.0055373117555943515 -0.023844368842900306 0 0.0059802914282352741 -0.026321591820982971 0 0.0044842853136285183 -0.0096094146493782562 0 0.0044970650190231248 -0.0098100514691354338 0 0.0047896263142940014 -0.0098594682315584978 0 0.0044842853136285183 -0.0096094146493782562 0 0.0043101066909445674 -0.0096611892212712519 0 0.0044970650190231248 -0.0098100514691354338 0 0.0043101066909445674 -0.0096611892212712519 0 0.0042763792348681912 -0.0098558770859115477 0 0.0044970650190231248 -0.0098100514691354338 0 0.0045548208655090596 -0.010335268932694777 0 0.0044155074579079589 -0.010013671043822399 0 0.0047896263142940014 -0.0098594682315584978 0 0.0042763792348681912 -0.0098558770859115477 0 0.0044155074579079589 -0.010013671043822399 0 0.0044970650190231248 -0.0098100514691354338 0 0.0044155074579079589 -0.010013671043822399 0 0.0044970650190231248 -0.0098100514691354338 0 0.0047896263142940014 -0.0098594682315584978 0 0.0042763792348681912 -0.0098558770859115477 0 0.0044155074579079589 -0.010013671043822399 0 0.004202006964010855 -0.010109957596684961 0 0.0019931236843824551 -0.036599995371811397 0 0.0014002399213808273 -0.035561046440309774 0 0.0020461125278760741 -0.035527725556519986 0 0.002715017953202442 -0.025823768169606034 0 0.0033002903573382497 -0.025555766323678904 0 0.0058408567732229312 -0.029656435796503979 0 0.0046851442177526766 -0.041413117723915871 0 0.0058408567732229312 -0.029656435796503979 0 0.0033002903573382497 -0.025555766323678904 0 0.00080663065096600616 -0.03451086515065873 0 0.0014002399213808273 -0.035561046440309774 0 0.0020461125278760741 -0.035527725556519986 0 0.00037022453985851943 -0.061976366492299081 0 2.3189283190309138e-05 -0.061815431905079425 0 -0.00010775150748056772 -0.061098557268368568 0 2.3189283190309138e-05 -0.061815431905079425 0 -0.00058737175427694261 -0.061710748223176924 0 2.5650811790063295e-05 -0.062221795277555683 0 2.459164816642975e-06 -0.062377615253464427 0 -3.8306416125203891e-05 -0.062406515782173384 0 3.386135044685275e-05 -0.062324001262509712 0 -0.00058737175427694261 -0.061710748223176924 0 -0.00010775150748056772 -0.061098557268368568 0 -0.00075560756142792893 -0.061106241647898484 0 2.3189283190309138e-05 -0.061815431905079425 0 -0.00058737175427694261 -0.061710748223176924 0 -0.00010775150748056772 -0.061098557268368568 0 0.0032666492240980075 -0.036538964179737538 0 0.0019931236843824551 -0.036599995371811397 0 0.0020461125278760741 -0.035527725556519986 0 -0.0014598811743503346 -0.059719327618657676 0 -0.00010775150748056772 -0.061098557268368568 0 -0.00075560756142792893 -0.061106241647898484 0 0.0025968816507639957 -0.045468826673254331 0 0.0046851442177526766 -0.041413117723915871 0 0.00019924894914604503 -0.059128927787661642 0 0.00033374332616548162 -0.059072248136811285 0 -0.0025036416325927308 -0.059707914657704787 0 -0.0014598811743503346 -0.059719327618657676 0 -0.0013850294858702478 -0.060987897058407688 0 -0.0014598811743503346 -0.059719327618657676 0 -0.00075560756142792893 -0.061106241647898484 0 -0.0013850294858702478 -0.060987897058407688 0 -2.6598165684900906e-06 -0.056303527163988246 0 0.00051357064743315535 -0.056945288169300078 0 0.00032175485183521933 -0.056810649097904335 0 4.6237903966144748e-05 -0.05619515203487685 0 0.00033374332616548162 -0.059072248136811285 0 -5.3770713351667187e-05 -0.062399667444957417 0 -3.8306416125203891e-05 -0.062406515782173384 0 -9.8116718379524968e-05 -0.062449765451996937 0 2.459164816642975e-06 -0.062377615253464427 0 -5.3770713351667187e-05 -0.062399667444957417 0 -3.8306416125203891e-05 -0.062406515782173384 0 0.00059154481177495992 -0.060327054944250801 0 0.00033374332616548162 -0.059072248136811285 0 -0.00058737175427694261 -0.061710748223176924 0 -0.00075560756142792893 -0.061106241647898484 0 -0.0012611290468554071 -0.06103075967410402 0 -1.3567511074250397e-05 -0.062410340020657359 0 -0.00010282697891398494 -0.062460984003150428 0 -9.4091124024183221e-05 -0.062533770843201872 0 -3.8306416125203891e-05 -0.062406515782173384 0 -1.3567511074250397e-05 -0.062410340020657359 0 -0.00010282697891398494 -0.062460984003150428 0 -3.8306416125203891e-05 -0.062406515782173384 0 -1.3567511074250397e-05 -0.062410340020657359 0 3.386135044685275e-05 -0.062324001262509712 0 -1.3567511074250397e-05 -0.062410340020657359 0 2.6250647408755967e-05 -0.062523156770743979 0 -9.4091124024183221e-05 -0.062533770843201872 0 2.6250647408755967e-05 -0.062523156770743979 0 -9.4091124024183221e-05 -0.062533770843201872 0 -7.9328159453262883e-06 -0.062725797398145919 0 2.6250647408755967e-05 -0.062523156770743979 0 0.00016611250139531256 -0.062340485122101913 0 0.00014849930501005868 -0.062721405220738186 0 -1.3567511074250397e-05 -0.062410340020657359 0 2.6250647408755967e-05 -0.062523156770743979 0 0.00016611250139531256 -0.062340485122101913 0 0.00016611250139531256 -0.062340485122101913 0 3.386135044685275e-05 -0.062324001262509712 0 2.5650811790063295e-05 -0.062221795277555683 0 -1.3567511074250397e-05 -0.062410340020657359 0 0.00016611250139531256 -0.062340485122101913 0 3.386135044685275e-05 -0.062324001262509712 0 2.459164816642975e-06 -0.062377615253464427 0 3.386135044685275e-05 -0.062324001262509712 0 2.5650811790063295e-05 -0.062221795277555683 0 0.00059154481177495992 -0.060327054944250801 0 0.00067251936592602874 -0.06070685065168626 0 0.00037022453985851943 -0.061976366492299081 0 2.3189283190309138e-05 -0.061815431905079425 0 0.00017077849626703402 -0.062129004009632165 0 2.3189283190309138e-05 -0.061815431905079425 0 2.5650811790063295e-05 -0.062221795277555683 0 0.00017077849626703402 -0.062129004009632165 0 0.00037022453985851943 -0.061976366492299081 0 0.00017077849626703402 -0.062129004009632165 0 0.00021251358198848852 -0.062128769835251882 0 0.00017077849626703402 -0.062129004009632165 0 0.00015881415186215115 -0.062176632648945789 0 0.00021251358198848852 -0.062128769835251882 0 0.00017077849626703402 -0.062129004009632165 0 0.00013568080241040744 -0.062238738239376888 0 0.00015881415186215115 -0.062176632648945789 0 2.5650811790063295e-05 -0.062221795277555683 0 0.00017077849626703402 -0.062129004009632165 0 0.00013568080241040744 -0.062238738239376888 0 0.00016611250139531256 -0.062340485122101913 0 2.5650811790063295e-05 -0.062221795277555683 0 0.00013568080241040744 -0.062238738239376888 0 0.00016611250139531256 -0.062340485122101913 0 0.00013568080241040744 -0.062238738239376888 0 0.00016871423710334996 -0.062126046402242223 0 0.0018718877022666182 -0.060719957987865239 0 0.0021636461485510846 -0.060148159585278881 0 0.00016611250139531256 -0.062340485122101913 0 0.00016871423710334996 -0.062126046402242223 0 0.00030459906467235093 -0.061776528183702106 0 0.00016871423710334996 -0.062126046402242223 0 0.00010766707111137576 -0.062107362783949238 0 7.834139637388341e-05 -0.061973786851647221 0 0.00016871423710334996 -0.062126046402242223 0 7.834139637388341e-05 -0.061973786851647221 0 0.00030459906467235093 -0.061776528183702106 0 0.00016871423710334996 -0.062126046402242223 0 0.00015881415186215115 -0.062176632648945789 0 0.00010766707111137576 -0.062107362783949238 0 0.00013568080241040744 -0.062238738239376888 0 0.00016871423710334996 -0.062126046402242223 0 0.00015881415186215115 -0.062176632648945789 0 0.00015881415186215115 -0.062176632648945789 0 0.00011188219329690589 -0.062123338236271398 0 0.00010766707111137576 -0.062107362783949238 0 0.00011188219329690589 -0.062123338236271398 0 0.00010766707111137576 -0.062107362783949238 0 -1.1990412732327323e-05 -0.06207459826072461 0 7.834139637388341e-05 -0.061973786851647221 0 -1.1990412732327323e-05 -0.06207459826072461 0 -6.2449066211184021e-05 -0.061755848543678958 0 0.00010766707111137576 -0.062107362783949238 0 7.834139637388341e-05 -0.061973786851647221 0 -1.1990412732327323e-05 -0.06207459826072461 0 -1.1990412732327323e-05 -0.06207459826072461 0 -0.00013418458149074355 -0.062112798167137738 0 -6.2449066211184021e-05 -0.061755848543678958 0 0.005357057589313219 -0.029835354258332412 0 0.0057001067434657568 -0.029504581199980555 0 0.0079720086677864451 -0.022198100758489988 0 0.0095477554912607454 -0.029596837542363287 0 0.0058110805043917199 -0.023039890590403417 0 0.0057001067434657568 -0.029504581199980555 0 0.0068835040778208014 -0.029206935719282252 0 0.0057001067434657568 -0.029504581199980555 0 0.0081788982307807196 -0.025022059302281643 0 0.0068835040778208014 -0.029206935719282252 0 0.0081788982307807196 -0.025022059302281643 0 0.00011188219329690589 -0.062123338236271398 0 2.2100838475344047e-06 -0.06207441940990812 0 0.00018011019136124798 -0.062123988686338699 0 0.00011188219329690589 -0.062123338236271398 0 -1.1990412732327323e-05 -0.06207459826072461 0 2.2100838475344047e-06 -0.06207441940990812 0 0.0087213376600869946 -0.024819455983255651 0 0.0089143829067280401 -0.025727550024680652 0 0.0066119419881428042 -0.023849673502219389 0 0.00015881415186215115 -0.062176632648945789 0 0.00011188219329690589 -0.062123338236271398 0 0.00021251358198848852 -0.062128769835251882 0 0.00011188219329690589 -0.062123338236271398 0 0.00018011019136124798 -0.062123988686338699 0 0.00021251358198848852 -0.062128769835251882 0 0.0052583009124180478 -0.028360119368830181 0 0.0052112154175886919 -0.028302275615427912 0 0.0052256964245682982 -0.028340285992433066 0 0.00037022453985851943 -0.061976366492299081 0 0.00018011019136124798 -0.062123988686338699 0 0.00021251358198848852 -0.062128769835251882 0 0.0058408567732229312 -0.029656435796503979 0 0.0068835040778208014 -0.029206935719282252 0 0.0058408567732229312 -0.029656435796503979 0 0.0059802914282352741 -0.026321591820982971 0 0.0043269871494736514 -0.0095040897146381441 0 0.0044239848264611501 -0.0093809300772540218 0 0.0041962261912839791 -0.0093638565985112651 0 0.0068835040778208014 -0.029206935719282252 0 0.0059802914282352741 -0.026321591820982971 0 -0.00019649358903188515 -0.062676959443670868 0 -0.00020277350204098716 -0.062600920020924142 0 -0.00020082286075035131 -0.062674330992960922 0 -0.00019649358903188515 -0.062676959443670868 0 -0.00020277350204098716 -0.062600920020924142 0 -0.00017159391870339937 -0.062587110173885629 0 -0.00019649358903188515 -0.062676959443670868 0 -0.00022073475304488515 -0.062805514732395665 0 -0.00020082286075035131 -0.062674330992960922 0 -6.6161147863151443e-05 -0.062776515732035729 0 -0.00022073475304488515 -0.062805514732395665 0 -0.00020082286075035131 -0.062674330992960922 0 -0.00019649358903188515 -0.062676959443670868 0 -0.00022073475304488515 -0.062805514732395665 0 -0.00024168954307361067 -0.062609238196686651 0 -0.0011749290288051732 -0.061064051350919739 0 -0.0011636419632912853 -0.059918922700730723 0 -0.00022073475304488515 -0.062805514732395665 0 -0.00041586017832879096 -0.063391027350937088 0 -0.00022355739079395182 -0.06342562297644036 0 -0.0011636419632912853 -0.059918922700730723 0 -0.0010776903243727056 -0.059991135804791006 0 -0.0011636419632912853 -0.059918922700730723 0 -0.00052655359406185323 -0.059677336436673306 0 -0.00084290931684086385 -0.056347698742799088 0 -0.0012665489943381309 -0.056642077413824293 0 -0.00070992676324755602 -0.056724098819771994 0 -0.00019649358903188515 -0.062676959443670868 0 -0.00024168954307361067 -0.062609238196686651 0 -0.00017159391870339937 -0.062587110173885629 0 -0.00017159391870339937 -0.062587110173885629 0 -0.00013698610005900293 -0.06247357113355495 0 -0.00016082396089526726 -0.062514824550691406 0 -0.00052655359406185323 -0.059677336436673306 0 -8.2090767119390236e-05 -0.059422363722610894 0 -0.00070992676324755602 -0.056724098819771994 0 -0.0002938885528381854 -0.056569275888996177 0 -0.00014675628149001609 -0.05681948398517267 0 0.00033374332616548162 -0.059072248136811285 0 -8.2090767119390236e-05 -0.059422363722610894 0 0.00051357064743315535 -0.056945288169300078 0 0.00032175485183521933 -0.056810649097904335 0 -0.00014675628149001609 -0.05681948398517267 0 -5.3770713351667187e-05 -0.062399667444957417 0 -0.00013698610005900293 -0.06247357113355495 0 -9.8116718379524968e-05 -0.062449765451996937 0 -8.0447859777723677e-05 -0.056369119223889173 0 0.00032175485183521933 -0.056810649097904335 0 -5.4477735124881914e-05 -0.056641112707597266 0 0.00032175485183521933 -0.056810649097904335 0 -5.4477735124881914e-05 -0.056641112707597266 0 -0.00014675628149001609 -0.05681948398517267 0 0.00066585429668275509 -0.054287720327232634 0 0.00089430819641043405 -0.054986835920844641 0 -0.0002938885528381854 -0.056569275888996177 0 -5.4477735124881914e-05 -0.056641112707597266 0 -0.00014675628149001609 -0.05681948398517267 0 -0.00013698610005900293 -0.06247357113355495 0 -9.8116718379524968e-05 -0.062449765451996937 0 -0.00016082396089526726 -0.062514824550691406 0 -9.8116718379524968e-05 -0.062449765451996937 0 -0.00016082396089526726 -0.062514824550691406 0 -0.00010282697891398494 -0.062460984003150428 0 -3.8306416125203891e-05 -0.062406515782173384 0 -9.8116718379524968e-05 -0.062449765451996937 0 -0.00010282697891398494 -0.062460984003150428 0 -0.00020277350204098716 -0.062600920020924142 0 -0.00017159391870339937 -0.062587110173885629 0 -0.00016082396089526726 -0.062514824550691406 0 -0.00020277350204098716 -0.062600920020924142 0 -0.00016082396089526726 -0.062514824550691406 0 -0.0001995446599775973 -0.062531230046216316 0 -0.0001995446599775973 -0.062531230046216316 0 -0.00010282697891398494 -0.062460984003150428 0 -9.4091124024183221e-05 -0.062533770843201872 0 -0.00016082396089526726 -0.062514824550691406 0 -0.0001995446599775973 -0.062531230046216316 0 -0.00010282697891398494 -0.062460984003150428 0 -0.0001995446599775973 -0.062531230046216316 0 -9.4091124024183221e-05 -0.062533770843201872 0 -0.00026148094246920112 -0.062572864515240148 0 -0.0001995446599775973 -0.062531230046216316 0 -0.00026148094246920112 -0.062572864515240148 0 -0.0002284231781148494 -0.062566606120141297 0 -0.00026148094246920112 -0.062572864515240148 0 -0.0002284231781148494 -0.062566606120141297 0 -0.00019614670292655433 -0.062408293528656525 0 -0.00020277350204098716 -0.062600920020924142 0 -0.0002284231781148494 -0.062566606120141297 0 -0.00020082286075035131 -0.062674330992960922 0 -0.00020277350204098716 -0.062600920020924142 0 -0.0001995446599775973 -0.062531230046216316 0 -0.0002284231781148494 -0.062566606120141297 0 -0.0002284231781148494 -0.062566606120141297 0 -0.00020082286075035131 -0.062674330992960922 0 -8.6730174399085537e-05 -0.062551461277813719 0 -6.6161147863151443e-05 -0.062776515732035729 0 -0.00020082286075035131 -0.062674330992960922 0 -8.6730174399085537e-05 -0.062551461277813719 0 3.8747073571960156e-05 -0.062386574593174773 0 -8.6730174399085537e-05 -0.062551461277813719 0 -0.00019614670292655433 -0.062408293528656525 0 -0.0002284231781148494 -0.062566606120141297 0 -8.6730174399085537e-05 -0.062551461277813719 0 -0.00019614670292655433 -0.062408293528656525 0 -0.00019968120814497744 -0.062916491903842561 0 -0.00013009160230508603 -0.063174297578302827 0 -0.00055543658452678025 -0.062671191172693083 0 -0.00060699116878289725 -0.062808612632183694 0 -0.00079441981230855743 -0.06275680913783506 0 3.8747073571960156e-05 -0.062386574593174773 0 -0.00019614670292655433 -0.062408293528656525 0 4.4981093931247358e-05 -0.062214640546743541 0 -0.00060699116878289725 -0.062808612632183694 0 -0.00050731330470749482 -0.062951146974875402 0 -0.00077397858941604997 -0.062879710317488374 0 7.1275194337763061e-06 -0.063360708794864856 0 -8.0470579679973314e-05 -0.063470657453277249 0 0.0005533724389079922 -0.063556858392502524 0 0.00055111527140221345 -0.06357844366949772 0 0.00055959046608409504 -0.063600254318991981 0 -0.00050731330470749482 -0.062951146974875402 0 -0.00038643647934554436 -0.062795345200444053 0 -0.0002411459544627416 -0.063040688214200377 0 -0.00060699116878289725 -0.062808612632183694 0 -0.00050731330470749482 -0.062951146974875402 0 -0.00038643647934554436 -0.062795345200444053 0 -0.00055543658452678025 -0.062671191172693083 0 -0.00060699116878289725 -0.062808612632183694 0 -0.00038643647934554436 -0.062795345200444053 0 -0.00026148094246920112 -0.062572864515240148 0 -0.00055543658452678025 -0.062671191172693083 0 -0.00038643647934554436 -0.062795345200444053 0 -0.00019658179411886253 -0.062841550730074053 0 -0.00019968120814497744 -0.062916491903842561 0 -0.00026148094246920112 -0.062572864515240148 0 -0.00038643647934554436 -0.062795345200444053 0 -0.00016894296320611515 -0.062768260406269927 0 -9.4091124024183221e-05 -0.062533770843201872 0 -0.00026148094246920112 -0.062572864515240148 0 -0.00016894296320611515 -0.062768260406269927 0 -9.4091124024183221e-05 -0.062533770843201872 0 -0.00016894296320611515 -0.062768260406269927 0 -7.9328159453262883e-06 -0.062725797398145919 0 -0.00016894296320611515 -0.062768260406269927 0 -2.5482370779784006e-05 -0.06291026882359653 0 -7.9328159453262883e-06 -0.062725797398145919 0 -0.00016894296320611515 -0.062768260406269927 0 -2.5482370779784006e-05 -0.06291026882359653 0 -0.0002411459544627416 -0.063040688214200377 0 -0.00038643647934554436 -0.062795345200444053 0 -0.00016894296320611515 -0.062768260406269927 0 -0.0002411459544627416 -0.063040688214200377 0 7.1275194337763061e-06 -0.063360708794864856 0 9.848903538595984e-05 -0.063314848239605828 0 0.0005533724389079922 -0.063556858392502524 0 0.00040406922250534895 -0.063452533750018608 0 0.00045366778706737492 -0.063365437545018471 0 9.848903538595984e-05 -0.063314848239605828 0 0.00014448991829038994 -0.063300001904301378 0 0.00040406922250534895 -0.063452533750018608 0 0.00045366778706737492 -0.063365437545018471 0 0.0001508721931009526 -0.063185580134616531 0 -2.5482370779784006e-05 -0.06291026882359653 0 -0.0002411459544627416 -0.063040688214200377 0 0.0001508721931009526 -0.063185580134616531 0 0.00045366778706737492 -0.063365437545018471 0 0.0001508721931009526 -0.063185580134616531 0 0.00035811865915819367 -0.063243247576526884 0 0.00045366778706737492 -0.063365437545018471 0 0.00056284816699524382 -0.063493071032695456 0 0.00056462389788290474 -0.063399380035484371 0 0.00056284816699524382 -0.063493071032695456 0 0.00056462389788290474 -0.063399380035484371 0 0.00058536339021299753 -0.063539109831864296 0 0.00056284816699524382 -0.063493071032695456 0 0.00058536339021299753 -0.063539109831864296 0 0.00055959046608409504 -0.063600254318991981 0 0.0005533724389079922 -0.063556858392502524 0 0.00056284816699524382 -0.063493071032695456 0 0.00055959046608409504 -0.063600254318991981 0 0.0005533724389079922 -0.063556858392502524 0 0.00045366778706737492 -0.063365437545018471 0 0.00056284816699524382 -0.063493071032695456 0 0.0027930358777913419 -0.05767018456750414 0 0.0021636461485510846 -0.060148159585278881 0 -4.0796443294150431e-05 -0.060977642747642322 0 -6.2449066211184021e-05 -0.061755848543678958 0 -0.00043503587764956832 -0.061446421977789302 0 -0.00013418458149074355 -0.062112798167137738 0 -6.2449066211184021e-05 -0.061755848543678958 0 -0.00043503587764956832 -0.061446421977789302 0 -4.0796443294150431e-05 -0.060977642747642322 0 -6.2449066211184021e-05 -0.061755848543678958 0 0.00030459906467235093 -0.061776528183702106 0 0.0057001067434657568 -0.029504581199980555 0 0.0046339922521089864 -0.0426293197105648 0 7.834139637388341e-05 -0.061973786851647221 0 -6.2449066211184021e-05 -0.061755848543678958 0 0.00030459906467235093 -0.061776528183702106 0 0.00035139541520439122 -0.062963288920788091 0 0.00036300823795155061 -0.062750658115019828 0 0.00028901612541811671 -0.063014732490558917 0 0.00036300823795155061 -0.062750658115019828 0 0.00023397735788706361 -0.062979558397887062 0 0.00028901612541811671 -0.063014732490558917 0 0.00023397735788706361 -0.062979558397887062 0 0.0001188117315877445 -0.06289927408930486 0 0.0001508721931009526 -0.063185580134616531 0 0.00023397735788706361 -0.062979558397887062 0 0.00014849930501005868 -0.062721405220738186 0 0.0001188117315877445 -0.06289927408930486 0 0.00016611250139531256 -0.062340485122101913 0 0.00036300823795155061 -0.062750658115019828 0 0.00014849930501005868 -0.062721405220738186 0 0.00036300823795155061 -0.062750658115019828 0 0.00023397735788706361 -0.062979558397887062 0 0.00014849930501005868 -0.062721405220738186 0 0.00014849930501005868 -0.062721405220738186 0 -7.9328159453262883e-06 -0.062725797398145919 0 0.0001188117315877445 -0.06289927408930486 0 2.6250647408755967e-05 -0.062523156770743979 0 0.00014849930501005868 -0.062721405220738186 0 -7.9328159453262883e-06 -0.062725797398145919 0 -2.5482370779784006e-05 -0.06291026882359653 0 0.0001188117315877445 -0.06289927408930486 0 0.0001508721931009526 -0.063185580134616531 0 -2.5482370779784006e-05 -0.06291026882359653 0 -7.9328159453262883e-06 -0.062725797398145919 0 0.0001188117315877445 -0.06289927408930486 0 0.0001508721931009526 -0.063185580134616531 0 0.00022404069414639943 -0.063170685911225821 0 0.00021846588560144069 -0.063121544929065826 0 0.0001508721931009526 -0.063185580134616531 0 0.00022404069414639943 -0.063170685911225821 0 0.00035811865915819367 -0.063243247576526884 0 0.00022404069414639943 -0.063170685911225821 0 0.00021846588560144069 -0.063121544929065826 0 0.00022223517272295824 -0.063113169022238944 0 0.00021846588560144069 -0.063121544929065826 0 0.00024146062076952415 -0.063086966000615224 0 0.00022223517272295824 -0.063113169022238944 0 0.00023397735788706361 -0.062979558397887062 0 0.0001508721931009526 -0.063185580134616531 0 0.00021846588560144069 -0.063121544929065826 0 0.00023397735788706361 -0.062979558397887062 0 0.00021846588560144069 -0.063121544929065826 0 0.00028901612541811671 -0.063014732490558917 0 0.00021846588560144069 -0.063121544929065826 0 0.00028901612541811671 -0.063014732490558917 0 0.00024146062076952415 -0.063086966000615224 0 0.00028901612541811671 -0.063014732490558917 0 0.00024146062076952415 -0.063086966000615224 0 0.00028309261086582942 -0.063037995312687861 0 0.00024146062076952415 -0.063086966000615224 0 0.00023625873387449331 -0.063063312349819711 0 0.00020996634044767899 -0.063068195548506623 0 0.00024146062076952415 -0.063086966000615224 0 0.00023625873387449331 -0.063063312349819711 0 0.00028309261086582942 -0.063037995312687861 0 0.00023625873387449331 -0.063063312349819711 0 0.00028309261086582942 -0.063037995312687861 0 0.00028944911474844761 -0.063032735110473373 0 0.00023625873387449331 -0.063063312349819711 0 0.00020210265990484156 -0.06306086933725423 0 0.00028944911474844761 -0.063032735110473373 0 0.00035139541520439122 -0.062963288920788091 0 0.00028309261086582942 -0.063037995312687861 0 0.00028944911474844761 -0.063032735110473373 0 0.00035139541520439122 -0.062963288920788091 0 0.00028901612541811671 -0.063014732490558917 0 0.00028309261086582942 -0.063037995312687861 0 0.0027930358777913419 -0.05767018456750414 0 0.0023833336784297495 -0.04967027348163669 0 0.00078808210653337897 -0.049999327757613739 0 0.0021281309961839285 -0.046376261321486256 0 0.00023489645772247625 -0.058346154326688757 0 0.0011910163413809164 -0.052983943864319205 0 0.0013981693640893356 -0.057231421348052723 0 0.0019295196065412963 -0.056541942290573202 0 0.0022429205644327972 -0.055050471616024305 0 0.0013366151322465941 -0.049830864414795818 0 0.0011772201267974684 -0.050292979160518315 0 0.0014759581859712539 -0.04956934384587857 0 8.160805446495362e-05 -0.06292172615205989 0 0.00017085240951065784 -0.063022449568676836 0 0.00020210265990484156 -0.06306086933725423 0 0.0013981693640893356 -0.057231421348052723 0 0.0019295196065412963 -0.056541942290573202 0 0.0016156825039862319 -0.05800737906213875 0 0.00098136371616439565 -0.051991830462917145 0 0.00078808210653337897 -0.049999327757613739 0 8.160805446495362e-05 -0.06292172615205989 0 0.00014523661949807871 -0.062960967278354915 0 0.00020640848043314153 -0.062681192537579727 0 0.00014523661949807871 -0.062960967278354915 0 0.00017085240951065784 -0.063022449568676836 0 0.0001827317405606179 -0.06302833008423217 0 8.160805446495362e-05 -0.06292172615205989 0 0.00014523661949807871 -0.062960967278354915 0 0.00017085240951065784 -0.063022449568676836 0 0.00020398909685573363 -0.06305751731915811 0 0.00017085240951065784 -0.063022449568676836 0 0.00020210265990484156 -0.06306086933725423 0 0.00098136371616439565 -0.051991830462917145 0 0.0011910163413809164 -0.052983943864319205 0 0.00023625873387449331 -0.063063312349819711 0 0.00020398909685573363 -0.06305751731915811 0 0.00020210265990484156 -0.06306086933725423 0 0.00023625873387449331 -0.063063312349819711 0 0.00020398909685573363 -0.06305751731915811 0 0.00020996634044767899 -0.063068195548506623 0 0.00020398909685573363 -0.06305751731915811 0 0.00017085240951065784 -0.063022449568676836 0 0.00020996634044767899 -0.063068195548506623 0 0.00017085240951065784 -0.063022449568676836 0 0.00020996634044767899 -0.063068195548506623 0 0.0001827317405606179 -0.06302833008423217 0 0.00020996634044767899 -0.063068195548506623 0 0.00020216746947019818 -0.063047499621269126 0 0.0001827317405606179 -0.06302833008423217 0 0.00020996634044767899 -0.063068195548506623 0 0.00020216746947019818 -0.063047499621269126 0 0.00022223517272295824 -0.063113169022238944 0 0.00024146062076952415 -0.063086966000615224 0 0.00020996634044767899 -0.063068195548506623 0 0.00022223517272295824 -0.063113169022238944 0 0.00027305085628233578 -0.062951795261896551 0 0.00041735187318966478 -0.062938755916325362 0 0.00014523661949807871 -0.062960967278354915 0 0.00067047918997591377 -0.062803915017754799 0 0.00020640848043314153 -0.062681192537579727 0 0.00014523661949807871 -0.062960967278354915 0 0.00020216746947019818 -0.063047499621269126 0 0.00023057873367583756 -0.063047238083034446 0 0.00014523661949807871 -0.062960967278354915 0 0.00020216746947019818 -0.063047499621269126 0 0.0001827317405606179 -0.06302833008423217 0 0.00020216746947019818 -0.063047499621269126 0 0.00023057873367583756 -0.063047238083034446 0 0.00022223517272295824 -0.063113169022238944 0 0.00023057873367583756 -0.063047238083034446 0 0.00022223517272295824 -0.063113169022238944 0 0.00025966696122434066 -0.063126700652392467 0 0.00022404069414639943 -0.063170685911225821 0 0.00025966696122434066 -0.063126700652392467 0 0.00035811865915819367 -0.063243247576526884 0 0.00022404069414639943 -0.063170685911225821 0 0.00022223517272295824 -0.063113169022238944 0 0.00025966696122434066 -0.063126700652392467 0 0.00023057873367583756 -0.063047238083034446 0 0.00025966696122434066 -0.063126700652392467 0 0.00032917795834521454 -0.063042689052771994 0 0.00041735187318966478 -0.062938755916325362 0 0.00061504043845004674 -0.062928072254397491 0 0.00067047918997591377 -0.062803915017754799 0 0.00078771693877017145 -0.062571840135517212 0 0.00093734720011214435 -0.062741756161120113 0 0.00078771693877017145 -0.062571840135517212 0 0.00091648832986655402 -0.062503333357265531 0 0.00093734720011214435 -0.062741756161120113 0 0.00078771693877017145 -0.062571840135517212 0 0.00091648832986655402 -0.062503333357265531 0 0.00072990290600653254 -0.062270289088705175 0 0.00091648832986655402 -0.062503333357265531 0 0.00072990290600653254 -0.062270289088705175 0 0.00083505293670827461 -0.062131921197751419 0 0.00078771693877017145 -0.062571840135517212 0 0.00072990290600653254 -0.062270289088705175 0 0.00048267105745303707 -0.062483803138727353 0 0.00072990290600653254 -0.062270289088705175 0 0.00048355333567347156 -0.061978830835222355 0 0.00068205982591845195 -0.061734371212809301 0 0.00072990290600653254 -0.062270289088705175 0 0.00048267105745303707 -0.062483803138727353 0 0.00048355333567347156 -0.061978830835222355 0 0.00067047918997591377 -0.062803915017754799 0 0.00078771693877017145 -0.062571840135517212 0 0.00048267105745303707 -0.062483803138727353 0 0.00067047918997591377 -0.062803915017754799 0 0.00020640848043314153 -0.062681192537579727 0 0.00048267105745303707 -0.062483803138727353 0 0.00020640848043314153 -0.062681192537579727 0 0.0002752642866909731 -0.062452053417266451 0 6.6133509809631846e-05 -0.062345004702087814 0 0.00020640848043314153 -0.062681192537579727 0 0.0002752642866909731 -0.062452053417266451 0 0.00048267105745303707 -0.062483803138727353 0 0.00048267105745303707 -0.062483803138727353 0 0.00033178115974307566 -0.062319565262452407 0 0.00048355333567347156 -0.061978830835222355 0 6.9548313085692224e-05 -0.060047483441233028 0 5.4052472029342524e-05 -0.060484007615076538 0 0.00048355333567347156 -0.061978830835222355 0 6.6133509809631846e-05 -0.062345004702087814 0 0.00043694552545535772 -0.061203234892730669 0 0.0002752642866909731 -0.062452053417266451 0 0.00048267105745303707 -0.062483803138727353 0 0.00033178115974307566 -0.062319565262452407 0 0.00033178115974307566 -0.062319565262452407 0 0.00048355333567347156 -0.061978830835222355 0 6.6133509809631846e-05 -0.062345004702087814 0 0.0002752642866909731 -0.062452053417266451 0 0.00033178115974307566 -0.062319565262452407 0 6.6133509809631846e-05 -0.062345004702087814 0 0.00091103636384211881 -0.059628297621644032 0 0.0010089617403693757 -0.059986771005478758 0 0.00088138227265084569 -0.060583496789206874 0 0.0006542861319227374 -0.059332510036344266 0 0.0012849770536859655 -0.059212861105314527 0 0.00088138227265084569 -0.060583496789206874 0 -0.00054660689727556704 -0.051264602128771875 0 -0.00094314479676641894 -0.054695192603501232 0 0.0010841648582879261 -0.06014572256587386 0 0.0010089617403693757 -0.059986771005478758 0 0.00088138227265084569 -0.060583496789206874 0 0.0011271225466531996 -0.059864630587243332 0 0.0012399517104956109 -0.059706311157911682 0 0.0012541224437069777 -0.059989820874149523 0 0.0010841648582879261 -0.06014572256587386 0 0.0011271225466531996 -0.059864630587243332 0 0.0012541224437069777 -0.059989820874149523 0 0.0010841648582879261 -0.06014572256587386 0 0.0010089617403693757 -0.059986771005478758 0 0.0011271225466531996 -0.059864630587243332 0 0.0010089617403693757 -0.059986771005478758 0 0.0011271225466531996 -0.059864630587243332 0 0.0010602183067056059 -0.059774620100293212 0 0.0011271225466531996 -0.059864630587243332 0 0.0010602183067056059 -0.059774620100293212 0 0.0012399517104956109 -0.059706311157911682 0 0.00091103636384211881 -0.059628297621644032 0 0.0010602183067056059 -0.059774620100293212 0 0.0012399517104956109 -0.059706311157911682 0 0.00091103636384211881 -0.059628297621644032 0 0.0010089617403693757 -0.059986771005478758 0 0.0010602183067056059 -0.059774620100293212 0 -0.00054660689727556704 -0.051264602128771875 0 0.00078808210653337897 -0.049999327757613739 0 0.0013981693640893356 -0.057231421348052723 0 0.0006542861319227374 -0.059332510036344266 0 0.0016156825039862319 -0.05800737906213875 0 0.002277639015068477 -0.042608129740898622 0 0.0026169633062730758 -0.041323425513928889 0 0.0042005531087801334 -0.041513349702351807 0 8.160805446495362e-05 -0.06292172615205989 0 0.00020640848043314153 -0.062681192537579727 0 6.6133509809631846e-05 -0.062345004702087814 0 0.00023489645772247625 -0.058346154326688757 0 6.9548313085692224e-05 -0.060047483441233028 0 0.0006542861319227374 -0.059332510036344266 0 0.0012849770536859655 -0.059212861105314527 0 0.0016156825039862319 -0.05800737906213875 0 0.00063973682180136081 -0.063332072929426539 0 0.00053373022340205017 -0.063255225201366325 0 0.00072844740320053732 -0.063023042213753711 0 0.00063973682180136081 -0.063332072929426539 0 0.00072844740320053732 -0.063023042213753711 0 0.00069159040383101199 -0.063275122256712724 0 0.00063973682180136081 -0.063332072929426539 0 0.00069159040383101199 -0.063275122256712724 0 0.00060795649842132157 -0.063490038292816284 0 0.00058536339021299753 -0.063539109831864296 0 0.00063973682180136081 -0.063332072929426539 0 0.00060795649842132157 -0.063490038292816284 0 0.00056462389788290474 -0.063399380035484371 0 0.00058536339021299753 -0.063539109831864296 0 0.00063973682180136081 -0.063332072929426539 0 0.00056462389788290474 -0.063399380035484371 0 0.00063973682180136081 -0.063332072929426539 0 0.00053373022340205017 -0.063255225201366325 0 0.00045366778706737492 -0.063365437545018471 0 0.00056462389788290474 -0.063399380035484371 0 0.00053373022340205017 -0.063255225201366325 0 0.00045366778706737492 -0.063365437545018471 0 0.00053373022340205017 -0.063255225201366325 0 0.00035811865915819367 -0.063243247576526884 0 0.00053373022340205017 -0.063255225201366325 0 0.00035811865915819367 -0.063243247576526884 0 0.00032917795834521454 -0.063042689052771994 0 0.00025966696122434066 -0.063126700652392467 0 0.00035811865915819367 -0.063243247576526884 0 0.00032917795834521454 -0.063042689052771994 0 0.00053373022340205017 -0.063255225201366325 0 0.00032917795834521454 -0.063042689052771994 0 0.00072844740320053732 -0.063023042213753711 0 0.00061504043845004674 -0.062928072254397491 0 0.00070343162524596136 -0.062934156203447653 0 0.00093734720011214435 -0.062741756161120113 0 0.00097309092081260718 -0.062736509038266455 0 0.00072844740320053732 -0.063023042213753711 0 0.00091648832986655402 -0.062503333357265531 0 0.00093734720011214435 -0.062741756161120113 0 0.00097309092081260718 -0.062736509038266455 0 0.00091648832986655402 -0.062503333357265531 0 0.00097309092081260718 -0.062736509038266455 0 0.00092271810024872913 -0.062193727957890979 0 0.00097309092081260718 -0.062736509038266455 0 0.00085582643435848696 -0.063023559930450349 0 0.00072844740320053732 -0.063023042213753711 0 0.00085582643435848696 -0.063023559930450349 0 0.00072844740320053732 -0.063023042213753711 0 0.00069159040383101199 -0.063275122256712724 0 0.00085582643435848696 -0.063023559930450349 0 0.00069159040383101199 -0.063275122256712724 0 0.00065391075618173122 -0.063347396842345916 0 0.00065391075618173122 -0.063347396842345916 0 0.00047957974352000684 -0.063671370764182306 0 0.00056446450520849362 -0.063546117504581806 0 0.00065391075618173122 -0.063347396842345916 0 0.00047957974352000684 -0.063671370764182306 0 0.0005642981014723806 -0.063490315547225881 0 0.00047957974352000684 -0.063671370764182306 0 0.00056446450520849362 -0.063546117504581806 0 0.00042991114525041532 -0.063779542241738096 0 0.00069159040383101199 -0.063275122256712724 0 0.00065391075618173122 -0.063347396842345916 0 0.00056446450520849362 -0.063546117504581806 0 0.00056446450520849362 -0.063546117504581806 0 0.00052031116954409716 -0.063681805422810975 0 0.00060795649842132157 -0.063490038292816284 0 0.00069159040383101199 -0.063275122256712724 0 0.00056446450520849362 -0.063546117504581806 0 0.00060795649842132157 -0.063490038292816284 0 0.00056446450520849362 -0.063546117504581806 0 0.00052031116954409716 -0.063681805422810975 0 0.00042991114525041532 -0.063779542241738096 0 0.00052031116954409716 -0.063681805422810975 0 0.00054316083618616046 -0.063666139781880335 0 0.00048141433259567994 -0.063797724018961458 0 0.00052031116954409716 -0.063681805422810975 0 0.00060795649842132157 -0.063490038292816284 0 0.00054316083618616046 -0.063666139781880335 0 0.00058536339021299753 -0.063539109831864296 0 0.00060795649842132157 -0.063490038292816284 0 0.00054316083618616046 -0.063666139781880335 0 0.00033390590576006662 -0.064031724681257188 0 0.00028666884125290877 -0.064046021760744171 0 0.0002379866870155634 -0.064216851557477861 0 0.00033390590576006662 -0.064031724681257188 0 0.00040843848806115237 -0.063885684096586889 0 0.00039798737402284675 -0.063945971791708411 0 0.00033390590576006662 -0.064031724681257188 0 0.0002379866870155634 -0.064216851557477861 0 0.00031183716384101712 -0.064097457126991941 0 0.00040843848806115237 -0.063885684096586889 0 0.00048141433259567994 -0.063797724018961458 0 0.00039798737402284675 -0.063945971791708411 0 0.00052031116954409716 -0.063681805422810975 0 0.00040843848806115237 -0.063885684096586889 0 0.00048141433259567994 -0.063797724018961458 0 0.00052031116954409716 -0.063681805422810975 0 0.00040843848806115237 -0.063885684096586889 0 0.00042991114525041532 -0.063779542241738096 0 0.00040843848806115237 -0.063885684096586889 0 0.00028666884125290877 -0.064046021760744171 0 0.00042991114525041532 -0.063779542241738096 0 0.00033390590576006662 -0.064031724681257188 0 0.00040843848806115237 -0.063885684096586889 0 0.00028666884125290877 -0.064046021760744171 0 0.00028666884125290877 -0.064046021760744171 0 0.00032258880590543772 -0.06389804586880618 0 0.00023614255168943969 -0.064061167047157849 0 0.00028666884125290877 -0.064046021760744171 0 0.00032258880590543772 -0.06389804586880618 0 0.00042991114525041532 -0.063779542241738096 0 0.00047957974352000684 -0.063671370764182306 0 0.00032258880590543772 -0.06389804586880618 0 0.00042991114525041532 -0.063779542241738096 0 0.00047957974352000684 -0.063671370764182306 0 0.00032258880590543772 -0.06389804586880618 0 0.00035053111051924399 -0.063910303184972095 0 0.00032258880590543772 -0.06389804586880618 0 0.00018302185367958547 -0.064058265033471798 0 0.00035053111051924399 -0.063910303184972095 0 0.00018302185367958547 -0.064058265033471798 0 0.00012310894448203959 -0.064126820393943462 0 0.00012849799423016845 -0.064233824088060082 0 0.00012310894448203959 -0.064126820393943462 0 0.00012849799423016845 -0.064233824088060082 0 0.00013745003346983276 -0.064290065292047269 0 0.00018302185367958547 -0.064058265033471798 0 0.00012849799423016845 -0.064233824088060082 0 0.00016583539164119509 -0.064236923146568245 0 0.00012849799423016845 -0.064233824088060082 0 0.0001315459932795754 -0.064388937756473516 0 0.00011841168196387789 -0.064477809798529934 0 0.00012849799423016845 -0.064233824088060082 0 0.0001315459932795754 -0.064388937756473516 0 0.00016583539164119509 -0.064236923146568245 0 0.00028666884125290877 -0.064046021760744171 0 0.00016583539164119509 -0.064236923146568245 0 0.00023614255168943969 -0.064061167047157849 0 0.00032258880590543772 -0.06389804586880618 0 0.00018302185367958547 -0.064058265033471798 0 0.00023614255168943969 -0.064061167047157849 0 0.00018302185367958547 -0.064058265033471798 0 0.00016583539164119509 -0.064236923146568245 0 0.00023614255168943969 -0.064061167047157849 0 -1.0218500382892597e-10 -0.065000079541733508 0 2.3082025667528745e-05 -0.064997804314325572 0 6.4472979816456884e-06 -0.065002393158825583 0 0.00030382642471436729 -0.064256776138180996 0 0.00017827799323059601 -0.064133831536506716 0 0.00013745003346983276 -0.064290065292047269 0 0.00030382642471436729 -0.064256776138180996 0 0.00013745003346983276 -0.064290065292047269 0 0.00014379273983414231 -0.06452665102281957 0 0.00012310894448203959 -0.064126820393943462 0 0.00017827799323059601 -0.064133831536506716 0 0.00013745003346983276 -0.064290065292047269 0 0.00012849799423016845 -0.064233824088060082 0 0.00013745003346983276 -0.064290065292047269 0 0.00011841168196387789 -0.064477809798529934 0 0.00011841168196387789 -0.064477809798529934 0 0.00014379273983414231 -0.06452665102281957 0 0.00010914455506045292 -0.064684567156062966 0 0.00013745003346983276 -0.064290065292047269 0 0.00011841168196387789 -0.064477809798529934 0 0.00014379273983414231 -0.06452665102281957 0 -1.0218500382892597e-10 -0.065000079541733508 0 2.3082025667528745e-05 -0.064997804314325572 0 8.5383764872008427e-05 -0.064894306053077763 0 0.00030382642471436729 -0.064256776138180996 0 0.00014379273983414231 -0.06452665102281957 0 8.5383764872008427e-05 -0.064894306053077763 0 -1.0218500382892597e-10 -0.065000079541733508 0 2.1634377705896088e-07 -0.064999342648373967 0 8.5383764872008427e-05 -0.064894306053077763 0 9.5111805776134365e-05 -0.06460934912723397 0 9.9949223280365078e-05 -0.064655722951631578 0 0.00014379273983414231 -0.06452665102281957 0 8.5383764872008427e-05 -0.064894306053077763 0 0.00010914455506045292 -0.064684567156062966 0 2.1634377705896088e-07 -0.064999342648373967 0 8.0246704355303606e-05 -0.06481422183972585 0 4.933699003678136e-05 -0.064840682260263488 0 2.1634377705896088e-07 -0.064999342648373967 0 8.5383764872008427e-05 -0.064894306053077763 0 8.0246704355303606e-05 -0.06481422183972585 0 8.5383764872008427e-05 -0.064894306053077763 0 8.0246704355303606e-05 -0.06481422183972585 0 0.00010914455506045292 -0.064684567156062966 0 8.0246704355303606e-05 -0.06481422183972585 0 0.00010898764183087959 -0.06462553054087003 0 4.933699003678136e-05 -0.064840682260263488 0 8.0246704355303606e-05 -0.06481422183972585 0 0.00010898764183087959 -0.06462553054087003 0 0.00010914455506045292 -0.064684567156062966 0 0.00011841168196387789 -0.064477809798529934 0 0.00010898764183087959 -0.06462553054087003 0 0.00010914455506045292 -0.064684567156062966 0 0.0001315459932795754 -0.064388937756473516 0 0.00011841168196387789 -0.064477809798529934 0 0.00010898764183087959 -0.06462553054087003 0 0.00010898764183087959 -0.06462553054087003 0 0.00010438518506362829 -0.064580142361747167 0 0.00014341699719442187 -0.064417616833730984 0 0.00010898764183087959 -0.06462553054087003 0 0.00010438518506362829 -0.064580142361747167 0 4.933699003678136e-05 -0.064840682260263488 0 0.00010438518506362829 -0.064580142361747167 0 4.933699003678136e-05 -0.064840682260263488 0 5.6072414449317945e-05 -0.064697830506707979 0 2.1634377705896088e-07 -0.064999342648373967 0 4.933699003678136e-05 -0.064840682260263488 0 1.7238265501246418e-08 -0.06499957682745007 0 0.00028666884125290877 -0.064046021760744171 0 0.00016583539164119509 -0.064236923146568245 0 0.00019884412498966166 -0.064252184116368752 0 0.00028666884125290877 -0.064046021760744171 0 0.00019884412498966166 -0.064252184116368752 0 0.0002379866870155634 -0.064216851557477861 0 0.00016583539164119509 -0.064236923146568245 0 0.00019884412498966166 -0.064252184116368752 0 0.00014341699719442187 -0.064417616833730984 0 0.0001315459932795754 -0.064388937756473516 0 0.00016583539164119509 -0.064236923146568245 0 0.00014341699719442187 -0.064417616833730984 0 0.0001315459932795754 -0.064388937756473516 0 0.00010898764183087959 -0.06462553054087003 0 0.00014341699719442187 -0.064417616833730984 0 0.00019884412498966166 -0.064252184116368752 0 0.00014341699719442187 -0.064417616833730984 0 0.00016122610217559393 -0.064388076901270255 0 0.00010438518506362829 -0.064580142361747167 0 0.00016122610217559393 -0.064388076901270255 0 0.00014394104575367989 -0.064401264305391545 0 0.00010438518506362829 -0.064580142361747167 0 0.00014341699719442187 -0.064417616833730984 0 0.00016122610217559393 -0.064388076901270255 0 0.00016122610217559393 -0.064388076901270255 0 0.0002379866870155634 -0.064216851557477861 0 0.00014394104575367989 -0.064401264305391545 0 0.00019884412498966166 -0.064252184116368752 0 0.00016122610217559393 -0.064388076901270255 0 0.0002379866870155634 -0.064216851557477861 0 0.0002379866870155634 -0.064216851557477861 0 0.00014394104575367989 -0.064401264305391545 0 0.00031183716384101712 -0.064097457126991941 0 0.00014394104575367989 -0.064401264305391545 0 2.1099255807123404e-05 -0.064671824052863924 0 0.00018261648229272423 -0.064168660505262057 0 5.6454715524063243e-05 -0.064323962474005514 0 3.6172407458959624e-05 -0.064267833957023401 0 0.00014394104575367989 -0.064401264305391545 0 0.00018261648229272423 -0.064168660505262057 0 0.00031183716384101712 -0.064097457126991941 0 0.00018261648229272423 -0.064168660505262057 0 0.00035921452033018839 -0.06388602365516613 0 0.00031183716384101712 -0.064097457126991941 0 4.933699003678136e-05 -0.064840682260263488 0 1.7238265501246418e-08 -0.06499957682745007 0 5.6072414449317945e-05 -0.064697830506707979 0 0.00010438518506362829 -0.064580142361747167 0 0.00014394104575367989 -0.064401264305391545 0 5.6072414449317945e-05 -0.064697830506707979 0 0.00014394104575367989 -0.064401264305391545 0 5.6072414449317945e-05 -0.064697830506707979 0 2.1099255807123404e-05 -0.064671824052863924 0 1.7238265501246418e-08 -0.06499957682745007 0 5.6072414449317945e-05 -0.064697830506707979 0 2.1099255807123404e-05 -0.064671824052863924 0 1.7238265501246418e-08 -0.06499957682745007 0 2.1099255807123404e-05 -0.064671824052863924 0 9.4327042995239085e-08 -0.064999773411193715 0 2.1099255807123404e-05 -0.064671824052863924 0 9.4327042995239085e-08 -0.064999773411193715 0 -1.3316074476137225e-05 -0.06491834544908999 0 2.1099255807123404e-05 -0.064671824052863924 0 -1.3316074476137225e-05 -0.06491834544908999 0 -0.00010715744121577162 -0.064855610580816292 0 4.3979842485406007e-06 -0.064989992582197717 0 -1.3316074476137225e-05 -0.06491834544908999 0 -0.00011778077953317861 -0.064981850805656202 0 4.6026815429725309e-07 -0.064764220228191838 0 -2.5091706281595123e-05 -0.064688566168145542 0 4.3979842485406007e-06 -0.064989992582197717 0 9.4327042995239085e-08 -0.064999773411193715 0 -1.3316074476137225e-05 -0.06491834544908999 0 -1.8507610016662059e-08 -0.065000035039699422 0 4.3979842485406007e-06 -0.064989992582197717 0 9.4327042995239085e-08 -0.064999773411193715 0 3.6172407458959624e-05 -0.064267833957023401 0 9.122620134698494e-06 -0.064119399327695822 0 -0.00023231115750010748 -0.064871946545338316 0 -0.00033450339767366125 -0.064933092710392395 0 -0.00038000518594989729 -0.064823746831692369 0 -0.00023231115750010748 -0.064871946545338316 0 -0.00021236793979914289 -0.064767728226540644 0 -0.00038000518594989729 -0.064823746831692369 0 2.1099255807123404e-05 -0.064671824052863924 0 -0.00021236793979914289 -0.064767728226540644 0 -0.00010715744121577162 -0.064855610580816292 0 -0.00023231115750010748 -0.064871946545338316 0 -0.00021236793979914289 -0.064767728226540644 0 -0.00010715744121577162 -0.064855610580816292 0 -1.3316074476137225e-05 -0.06491834544908999 0 -0.00010715744121577162 -0.064855610580816292 0 -0.00011778077953317861 -0.064981850805656202 0 -0.00023231115750010748 -0.064871946545338316 0 -0.00010715744121577162 -0.064855610580816292 0 -0.00011778077953317861 -0.064981850805656202 0 -2.1183694282159484e-05 -0.064989581830630014 0 -1.1248229511090857e-05 -0.064974508321338456 0 -3.9201735709497399e-05 -0.064959269118511936 0 -0.00023231115750010748 -0.064871946545338316 0 -0.00011778077953317861 -0.064981850805656202 0 -0.00033450339767366125 -0.064933092710392395 0 -2.1183694282159484e-05 -0.064989581830630014 0 -4.6675316932889386e-05 -0.064969694498757558 0 -3.9201735709497399e-05 -0.064959269118511936 0 -2.5091706281595123e-05 -0.064688566168145542 0 -5.1329920471194318e-05 -0.06442915772826463 0 -4.6675316932889386e-05 -0.064969694498757558 0 -3.9201735709497399e-05 -0.064959269118511936 0 -7.6378385447235212e-05 -0.064943276876945011 0 -5.1329920471194318e-05 -0.06442915772826463 0 5.6814721562585224e-05 -0.063862209797070787 0 0.00073702744015599565 -0.062380236319041896 0 0.00087816856667900681 -0.062258902988452103 0 0.00064262654343653512 -0.06228524437278516 0 -0.00033450339767366125 -0.064933092710392395 0 -0.00038000518594989729 -0.064823746831692369 0 -0.00052708412420651707 -0.064882323116999763 0 0.00035921452033018839 -0.06388602365516613 0 0.00044214883597943434 -0.063852522344995749 0 0.00048318471036188862 -0.063770016049124204 0 -0.00038000518594989729 -0.064823746831692369 0 -0.00054576921140115948 -0.06486896630708118 0 -0.00052708412420651707 -0.064882323116999763 0 9.122620134698494e-06 -0.064119399327695822 0 6.8521681011594993e-05 -0.063833925054927729 0 0.00044214883597943434 -0.063852522344995749 0 0.00048318471036188862 -0.063770016049124204 0 0.00049094504746508396 -0.063795822781888473 0 0.00049378295545683432 -0.06205256331620889 0 0.00044412182414655597 -0.062091433368931435 0 0.00040773519758966913 -0.062037171665722077 0 5.6814721562585224e-05 -0.063862209797070787 0 5.018731035336343e-05 -0.063762257134886757 0 6.7245590544168726e-05 -0.063767394044801293 0 6.9417774678776182e-05 -0.063768917633635902 0 6.5276148337681849e-05 -0.063767930862308836 0 6.8521681011594993e-05 -0.063833925054927729 0 5.6814721562585224e-05 -0.063862209797070787 0 0.00087816856667900681 -0.062258902988452103 0 0.00056766434374202969 -0.062177521932608698 0 0.00064262654343653512 -0.06228524437278516 0 0.00049378295545683432 -0.06205256331620889 0 0.00048341685088252689 -0.062121122716573079 0 0.00056766434374202969 -0.062177521932608698 0 0.00048341685088252689 -0.062121122716573079 0 0.00044412182414655597 -0.062091433368931435 0 0.00042808306920521941 -0.062163605112257804 0 0.00087816856667900681 -0.062258902988452103 0 0.00049378295545683432 -0.06205256331620889 0 0.00056766434374202969 -0.062177521932608698 0 0.00049378295545683432 -0.06205256331620889 0 0.00048341685088252689 -0.062121122716573079 0 0.00044412182414655597 -0.062091433368931435 0 0.00027783142289317472 -0.063864026915125452 0 5.6814721562585224e-05 -0.063862209797070787 0 0.00048341685088252689 -0.062121122716573079 0 0.00056766434374202969 -0.062177521932608698 0 0.00042808306920521941 -0.062163605112257804 0 0.00050339689616882885 -0.062284301484498511 0 0.00039816949929019895 -0.062282493766859043 0 0.00042808306920521941 -0.062163605112257804 0 0.00056766434374202969 -0.062177521932608698 0 0.00050339689616882885 -0.062284301484498511 0 0.00042808306920521941 -0.062163605112257804 0 0.00056766434374202969 -0.062177521932608698 0 0.00064262654343653512 -0.06228524437278516 0 0.00050339689616882885 -0.062284301484498511 0 0.00025700000495308071 -0.062376205245508382 0 0.00039816949929019895 -0.062282493766859043 0 0.00031918847199043321 -0.062245317968424474 0 0.00031183503381860032 -0.062149113490988367 0 4.4981093931247358e-05 -0.062214640546743541 0 0.00040773519758966913 -0.062037171665722077 0 0.0004066222279415454 -0.062400834020165642 0 0.00050339689616882885 -0.062284301484498511 0 0.00039816949929019895 -0.062282493766859043 0 0.00020471725546533092 -0.062249126738777513 0 0.00031183503381860032 -0.062149113490988367 0 4.4981093931247358e-05 -0.062214640546743541 0 -0.00013009160230508603 -0.063174297578302827 0 5.018731035336343e-05 -0.063762257134886757 0 0.00039816949929019895 -0.062282493766859043 0 0.00031918847199043321 -0.062245317968424474 0 0.00042808306920521941 -0.062163605112257804 0 0.00025700000495308071 -0.062376205245508382 0 0.00031918847199043321 -0.062245317968424474 0 0.00020471725546533092 -0.062249126738777513 0 0.00031918847199043321 -0.062245317968424474 0 0.00020471725546533092 -0.062249126738777513 0 0.00031183503381860032 -0.062149113490988367 0 0.00044412182414655597 -0.062091433368931435 0 0.00039790589039582835 -0.062110799023631355 0 0.00040773519758966913 -0.062037171665722077 0 0.00044412182414655597 -0.062091433368931435 0 0.00039790589039582835 -0.062110799023631355 0 0.00042808306920521941 -0.062163605112257804 0 0.00031183503381860032 -0.062149113490988367 0 0.00039790589039582835 -0.062110799023631355 0 0.00042808306920521941 -0.062163605112257804 0 0.00031183503381860032 -0.062149113490988367 0 0.00039790589039582835 -0.062110799023631355 0 0.00040773519758966913 -0.062037171665722077 0 0.00031918847199043321 -0.062245317968424474 0 0.00031183503381860032 -0.062149113490988367 0 0.00042808306920521941 -0.062163605112257804 0 3.8747073571960156e-05 -0.062386574593174773 0 0.00020471725546533092 -0.062249126738777513 0 4.4981093931247358e-05 -0.062214640546743541 0 3.8747073571960156e-05 -0.062386574593174773 0 0.00025700000495308071 -0.062376205245508382 0 0.00020471725546533092 -0.062249126738777513 0 -0.00079441981230855743 -0.06275680913783506 0 -0.00077397858941604997 -0.062879710317488374 0 -0.0010122276807561714 -0.062825068671909665 0 0.00055111527140221345 -0.06357844366949772 0 0.00053145790108310347 -0.063587539584729832 0 0.00055959046608409504 -0.063600254318991981 0 -0.00060699116878289725 -0.062808612632183694 0 -0.00079441981230855743 -0.06275680913783506 0 -0.00077397858941604997 -0.062879710317488374 0 0.00055111527140221345 -0.06357844366949772 0 0.00050694289411890015 -0.063566924223277727 0 0.00053145790108310347 -0.063587539584729832 0 -8.0470579679973314e-05 -0.063470657453277249 0 5.018731035336343e-05 -0.063762257134886757 0 0.00050263358206262233 -0.063568178415686946 0 0.00050694289411890015 -0.063566924223277727 0 0.00053145790108310347 -0.063587539584729832 0 6.8521681011594993e-05 -0.063833925054927729 0 5.018731035336343e-05 -0.063762257134886757 0 6.8521681011594993e-05 -0.063833925054927729 0 0.00030290755801407109 -0.063843595745441337 0 0.00048318471036188862 -0.063770016049124204 0 0.00052176049825689258 -0.063745004520843501 0 0.00049094504746508396 -0.063795822781888473 0 0.00049094504746508396 -0.063795822781888473 0 0.0005212503304184398 -0.063732851736386278 0 0.00045895254174713797 -0.063852848875469659 0 0.00052176049825689258 -0.063745004520843501 0 0.00049094504746508396 -0.063795822781888473 0 0.0005212503304184398 -0.063732851736386278 0 0.00052176049825689258 -0.063745004520843501 0 0.0005212503304184398 -0.063732851736386278 0 0.00055959046608409504 -0.063600254318991981 0 0.0005212503304184398 -0.063732851736386278 0 0.00055959046608409504 -0.063600254318991981 0 0.0005525392978912606 -0.063634013344905441 0 0.00030290755801407109 -0.063843595745441337 0 0.00036748218397482005 -0.063837620116760377 0 0.0005212503304184398 -0.063732851736386278 0 0.00054316083618616046 -0.063666139781880335 0 0.0005525392978912606 -0.063634013344905441 0 0.00058536339021299753 -0.063539109831864296 0 0.00055959046608409504 -0.063600254318991981 0 0.0005525392978912606 -0.063634013344905441 0 0.00058536339021299753 -0.063539109831864296 0 0.00054316083618616046 -0.063666139781880335 0 0.0005525392978912606 -0.063634013344905441 0 0.0005212503304184398 -0.063732851736386278 0 0.00048141433259567994 -0.063797724018961458 0 0.00045895254174713797 -0.063852848875469659 0 0.0005212503304184398 -0.063732851736386278 0 0.00054316083618616046 -0.063666139781880335 0 0.00048141433259567994 -0.063797724018961458 0 0.00039798737402284675 -0.063945971791708411 0 0.0003985317956812682 -0.063946500420865401 0 0.00045895254174713797 -0.063852848875469659 0 0.00048141433259567994 -0.063797724018961458 0 0.00039798737402284675 -0.063945971791708411 0 0.00045895254174713797 -0.063852848875469659 0 0.00039798737402284675 -0.063945971791708411 0 0.00031183716384101712 -0.064097457126991941 0 0.0003985317956812682 -0.063946500420865401 0 0.00033390590576006662 -0.064031724681257188 0 0.00039798737402284675 -0.063945971791708411 0 0.00031183716384101712 -0.064097457126991941 0 0.00035921452033018839 -0.06388602365516613 0 0.00031183716384101712 -0.064097457126991941 0 0.0003985317956812682 -0.063946500420865401 0 0.00035921452033018839 -0.06388602365516613 0 0.00044214883597943434 -0.063852522344995749 0 0.0003985317956812682 -0.063946500420865401 0 0.00044214883597943434 -0.063852522344995749 0 0.0003985317956812682 -0.063946500420865401 0 0.00045895254174713797 -0.063852848875469659 0 0.00044214883597943434 -0.063852522344995749 0 0.00049094504746508396 -0.063795822781888473 0 0.00045895254174713797 -0.063852848875469659 0 0.0056266554798087799 0.0091709532607983993 0 0.0066727105056489256 0.0063635808671315434 0 0.0035400314636180007 0.0063240367431789107 0 0.0056266554798087799 0.0091709532607983993 0 0.0092975301516833413 0.0065229164653973883 0 0.0066727105056489256 0.0063635808671315434 0 0.0019213971411752193 0.0069368356280941883 0 -5.3188539563659336e-05 0.0084131004368042696 0 0.0056266554798087799 0.0091709532607983993 0 0.0025360375146558701 0.0098306883878084492 0 0.0035400314636180007 0.0063240367431789107 0 0.0025360375146558701 0.0098306883878084492 0 0.0035400314636180007 0.0063240367431789107 0 0.00055974628538827721 0.0095617702478279706 0 0.0056266554798087799 0.0091709532607983993 0 0.0038752964717131467 0.010823161195310458 0 0.0025360375146558701 0.0098306883878084492 0 0.0038752964717131467 0.010823161195310458 0 0.0025360375146558701 0.0098306883878084492 0 0.0026319007686259159 0.011973812252169369 0 0.0025360375146558701 0.0098306883878084492 0 0.0026319007686259159 0.011973812252169369 0 0.00044981266267897139 0.011295278748163209 0 0.0025360375146558701 0.0098306883878084492 0 0.00055974628538827721 0.0095617702478279706 0 0.00044981266267897139 0.011295278748163209 0 0.0026319007686259159 0.011973812252169369 0 0.00044981266267897139 0.011295278748163209 0 0.0012377971885873568 0.013306417588103163 0 0.0038752964717131467 0.010823161195310458 0 0.0026319007686259159 0.011973812252169369 0 0.0046823751083659767 0.012688226371666972 0 0.0026319007686259159 0.011973812252169369 0 0.0046823751083659767 0.012688226371666972 0 0.003057474168487409 0.013902102969274679 0 0.0056266554798087799 0.0091709532607983993 0 0.0046823751083659767 0.012688226371666972 0 0.0085375669812476161 0.012167988431447525 0 0.0056266554798087799 0.0091709532607983993 0 0.0038752964717131467 0.010823161195310458 0 0.0046823751083659767 0.012688226371666972 0 0.0084409002597793954 0.010418196778414312 0 0.010673346643099251 0.010012601813631073 0 0.0092975301516833413 0.0065229164653973883 0 0.0084409002597793954 0.010418196778414312 0 0.010673346643099251 0.010012601813631073 0 0.010579391365955187 0.012592953003892082 0 0.01205956850447081 0.0088613498062764442 0 0.010673346643099251 0.010012601813631073 0 0.012961779679521584 0.011421698819602153 0 0.01205956850447081 0.0088613498062764442 0 0.011830178128114302 0.0066601660040474884 0 0.0092975301516833413 0.0065229164653973883 0 0.01205956850447081 0.0088613498062764442 0 0.010673346643099251 0.010012601813631073 0 0.0092975301516833413 0.0065229164653973883 0 0.0083792814587026841 0.012097845648046661 0 0.0088770615593199032 0.0093548566319834603 0 0.0056266554798087799 0.0091709532607983993 0 0.0085375669812476161 0.012167988431447525 0 0.0092975301516833413 0.0065229164653973883 0 0.0092975301516833413 0.0065229164653973883 0 0.011991474267946589 0.0047130638271284673 0 0.0081249294943293408 0.0036848706626025208 0 0.0092975301516833413 0.0065229164653973883 0 0.0081249294943293408 0.0036848706626025208 0 0.0066727105056489256 0.0063635808671315434 0 0.011830178128114302 0.0066601660040474884 0 0.0092975301516833413 0.0065229164653973883 0 0.011991474267946589 0.0047130638271284673 0 0.011991474267946589 0.0047130638271284673 0 0.0081249294943293408 0.0036848706626025208 0 0.011509853587211023 0.0015242399720677736 0 0.0051754922295383678 0.00449442590239318 0 0.0083232629941704349 0.0019016033111876991 0 0.0012053335992808442 0.0035960958984454006 0 0.0024732695871369417 0.0018591726294135129 0 0.0028240055824298419 0.0055161521151842804 0 0.00027601120463504762 0.0055476470478281357 0 0.0026287080186282682 0.0028215857075456672 0 0.0028240055824298419 0.0055161521151842804 0 0.0001268420316971193 0.0075193157978282882 0 0.00027601120463504762 0.0055476470478281357 0 0.0051754922295383678 0.00449442590239318 0 0.0019213971411752193 0.0069368356280941883 0 0.0081249294943293408 0.0036848706626025208 0 0.0066727105056489256 0.0063635808671315434 0 0.0035400314636180007 0.0063240367431789107 0 0.0001268420316971193 0.0075193157978282882 0 -0.00084956564961486769 0.0066977203274848802 0 0.00027601120463504762 0.0055476470478281357 0 0.0001268420316971193 0.0075193157978282882 0 -0.00084956564961486769 0.0066977203274848802 0 -0.001281226947164776 0.0081133424534527571 0 -0.00084956564961486769 0.0066977203274848802 0 0.00027601120463504762 0.0055476470478281357 0 -0.0014330876991752526 0.0052303074999100231 0 0.00027601120463504762 0.0055476470478281357 0 -0.0014330876991752526 0.0052303074999100231 0 0.00022296763243003967 0.0027397537464804536 0 -0.0025004218758766399 0.006016362363583618 0 -0.0041469445318904436 0.0061248195508229577 0 -0.00449927214501259 0.0070268543724692619 0 -0.0025004218758766399 0.006016362363583618 0 -0.0041469445318904436 0.0061248195508229577 0 -0.0041785678838657915 0.0042497463955089914 0 -0.0051673019396814637 0.0070041653267623122 0 -0.0050832543421952814 0.0074900837271416167 0 -0.0057623451427836888 0.0074973650418587367 0 -0.0052003010962255467 0.0070950459477248989 0 -0.0041469445318904436 0.0061248195508229577 0 -0.0041785678838657915 0.0042497463955089914 0 -0.0052003010962255467 0.0070950459477248989 0 -0.0051673019396814637 0.0070041653267623122 0 -0.0057623451427836888 0.0074973650418587367 0 -0.0049461032795031562 0.0060223088305963726 0 -0.0046934268864518734 0.0056101349576969202 0 -0.0051673019396814637 0.0070041653267623122 0 -0.0045006063332109743 0.0073509170685637712 0 -0.0050832543421952814 0.0074900837271416167 0 -0.0052003010962255467 0.0070950459477248989 0 -0.0041469445318904436 0.0061248195508229577 0 -0.00449927214501259 0.0070268543724692619 0 -0.0052003010962255467 0.0070950459477248989 0 -0.0051673019396814637 0.0070041653267623122 0 -0.0054864515557323749 0.0076336456053116165 0 -0.0052003010962255467 0.0070950459477248989 0 -0.00449927214501259 0.0070268543724692619 0 -0.0054864515557323749 0.0076336456053116165 0 -0.00449927214501259 0.0070268543724692619 0 -0.0044148208821891315 0.0078548950656280279 0 -0.0054864515557323749 0.0076336456053116165 0 -0.0025004218758766399 0.006016362363583618 0 -0.00449927214501259 0.0070268543724692619 0 -0.0044148208821891315 0.0078548950656280279 0 -0.00084956564961486769 0.0066977203274848802 0 -0.0014330876991752526 0.0052303074999100231 0 -0.0018407945893158587 0.0070714580061533973 0 -0.0014330876991752526 0.0052303074999100231 0 -0.0031979653099178701 0.0073250023779322356 0 -0.0018407945893158587 0.0070714580061533973 0 -0.0031979653099178701 0.0073250023779322356 0 -0.0018407945893158587 0.0070714580061533973 0 -0.0024500711615333438 0.0080493196276841018 0 -0.0020330271407199918 0.005599173017362063 0 -0.0036684307548998669 0.0073919694835300883 0 -0.00084956564961486769 0.0066977203274848802 0 -0.0018407945893158587 0.0070714580061533973 0 -0.001281226947164776 0.0081133424534527571 0 -0.002422567321812594 0.022772722626474683 0 -0.0023408424655065063 0.022527077906459494 0 -0.0036542854208819441 0.0074619506433048722 0 -0.004154135593273281 0.0066509094581226925 0 -0.003363265718183058 0.006139085649976922 0 -0.0036542854208819441 0.0074619506433048722 0 -0.003363265718183058 0.006139085649976922 0 -0.0024199021706385834 0.0077178554192051402 0 -0.0036542854208819441 0.0074619506433048722 0 -0.004154135593273281 0.0066509094581226925 0 -0.0045006063332109743 0.0073509170685637712 0 -0.0051673019396814637 0.0070041653267623122 0 -0.0045006063332109743 0.0073509170685637712 0 -0.0046066021778413671 0.0067003479382471819 0 -0.004154135593273281 0.0066509094581226925 0 -0.0045006063332109743 0.0073509170685637712 0 -0.0046066021778413671 0.0067003479382471819 0 -0.0013718432349341897 0.011109932366208001 0 -0.0012993974451587006 0.013427036126648941 0 -0.004154135593273281 0.0066509094581226925 0 -0.0045836564758588837 0.0057977863393853628 0 -0.003363265718183058 0.006139085649976922 0 -0.0051673019396814637 0.0070041653267623122 0 -0.0046066021778413671 0.0067003479382471819 0 -0.0045836564758588837 0.0057977863393853628 0 -0.004154135593273281 0.0066509094581226925 0 -0.0046066021778413671 0.0067003479382471819 0 -0.0045836564758588837 0.0057977863393853628 0 -0.0015601721623510418 0.038829523340362791 0 -0.0017526970911067039 0.039817045851481409 0 -0.00090104097630881838 0.04023563403927561 0 -0.002422567321812594 0.022772722626474683 0 -0.002070557416005557 0.024018195754620782 0 -0.0015601721623510418 0.038829523340362791 0 -0.0017526970911067039 0.039817045851481409 0 -0.0024547055891837293 0.039513243645098978 0 -0.0017526970911067039 0.039817045851481409 0 -0.0016583612344582767 0.040517510574476098 0 -0.0021473525608256749 0.040241797641067244 0 -0.0017526970911067039 0.039817045851481409 0 -0.00090104097630881838 0.04023563403927561 0 -0.0016583612344582767 0.040517510574476098 0 -0.0012993974451587006 0.013427036126648941 0 -0.002070557416005557 0.024018195754620782 0 -0.0054864515557323749 0.0076336456053116165 0 -0.0060576777889746235 0.0095621984840509114 0 -0.0056925081974706698 0.0096730596301807577 0 -0.0045836564758588837 0.0057977863393853628 0 -0.003363265718183058 0.006139085649976922 0 -0.0041766983888162123 0.0047077149573079057 0 -5.940203151275259e-05 0.03737220725429078 0 0.0014283569295610973 0.040329200087201728 0 -0.0009520611379007154 0.039973114946316293 0 -0.002070557416005557 0.024018195754620782 0 -0.0007823478307706056 0.02521295678188069 0 -0.0056925081974706698 0.0096730596301807577 0 -0.0045075480621693869 0.010016196050259232 0 -0.0044667814732325499 0.012844763023026663 0 -0.0060576777889746235 0.0095621984840509114 0 -0.0056925081974706698 0.0096730596301807577 0 -0.0044667814732325499 0.012844763023026663 0 -0.002070557416005557 0.024018195754620782 0 -0.003577349819713257 0.035269994075430251 0 -0.00090104097630881838 0.04023563403927561 0 -0.0016583612344582767 0.040517510574476098 0 -0.0013130522851145742 0.041393869470594168 0 -0.0016583612344582767 0.040517510574476098 0 -0.0013130522851145742 0.041393869470594168 0 -0.0022695152090021625 0.040839529296462035 0 -0.0016583612344582767 0.040517510574476098 0 -0.0021473525608256749 0.040241797641067244 0 -0.0022695152090021625 0.040839529296462035 0 0.0001268420316971193 0.0075193157978282882 0 -0.001281226947164776 0.0081133424534527571 0 -0.0019058806534806643 0.0097432876375208467 0 0.0035400314636180007 0.0063240367431789107 0 0.00055974628538827721 0.0095617702478279706 0 -0.0019058806534806643 0.0097432876375208467 0 -0.0018284396847784979 0.0087774936952108289 0 -0.001281226947164776 0.0081133424534527571 0 -0.0019058806534806643 0.0097432876375208467 0 -0.0018284396847784979 0.0087774936952108289 0 -0.002216173092379817 0.0092712072438461413 0 -0.0027624126944969392 0.0090310078025392041 0 -0.002216173092379817 0.0092712072438461413 0 -0.0023577523793825886 0.0095626476373070184 0 -0.0027624126944969392 0.0090310078025392041 0 -0.002216173092379817 0.0092712072438461413 0 -0.0023577523793825886 0.0095626476373070184 0 -0.0019058806534806643 0.0097432876375208467 0 -0.0018284396847784979 0.0087774936952108289 0 -0.002216173092379817 0.0092712072438461413 0 -0.0019058806534806643 0.0097432876375208467 0 -0.0018284396847784979 0.0087774936952108289 0 -0.0024500711615333438 0.0080493196276841018 0 -0.0027624126944969392 0.0090310078025392041 0 -0.0018284396847784979 0.0087774936952108289 0 -0.001281226947164776 0.0081133424534527571 0 -0.0024500711615333438 0.0080493196276841018 0 -0.0018407945893158587 0.0070714580061533973 0 -0.001281226947164776 0.0081133424534527571 0 -0.0024500711615333438 0.0080493196276841018 0 -0.0031979653099178701 0.0073250023779322356 0 -0.0030790644891113099 0.0083328713768644549 0 -0.003930890501776356 0.0089566913357999895 0 -0.0044148208821891315 0.0078548950656280279 0 -0.0054864515557323749 0.0076336456053116165 0 -0.0056925081974706698 0.0096730596301807577 0 -0.0031979653099178701 0.0073250023779322356 0 -0.0056925081974706698 0.0096730596301807577 0 -0.003930890501776356 0.0089566913357999895 0 -0.0036684307548998669 0.0073919694835300883 0 -0.0046337470301363011 0.0084381237660722981 0 -0.0024500711615333438 0.0080493196276841018 0 -0.0030790644891113099 0.0083328713768644549 0 -0.0027624126944969392 0.0090310078025392041 0 -0.0031979653099178701 0.0073250023779322356 0 -0.0024500711615333438 0.0080493196276841018 0 -0.0030790644891113099 0.0083328713768644549 0 -0.0056925081974706698 0.0096730596301807577 0 -0.003930890501776356 0.0089566913357999895 0 -0.0045075480621693869 0.010016196050259232 0 -0.003930890501776356 0.0089566913357999895 0 -0.0027624126944969392 0.0090310078025392041 0 -0.0034759506956098061 0.01009402922639247 0 -0.0030790644891113099 0.0083328713768644549 0 -0.003930890501776356 0.0089566913357999895 0 -0.0027624126944969392 0.0090310078025392041 0 -0.0027624126944969392 0.0090310078025392041 0 -0.0027286887053362624 0.0096778565561720792 0 -0.0034759506956098061 0.01009402922639247 0 -0.0023577523793825886 0.0095626476373070184 0 -0.0027624126944969392 0.0090310078025392041 0 -0.0027286887053362624 0.0096778565561720792 0 0.0010056555837569922 0.01899533968344733 0 -0.0007823478307706056 0.02521295678188069 0 -0.0027286887053362624 0.0096778565561720792 0 -0.0034759506956098061 0.01009402922639247 0 -0.0022956841418789796 0.010046791180596964 0 -0.0034759506956098061 0.01009402922639247 0 -0.0045075480621693869 0.010016196050259232 0 -0.0044667814732325499 0.012844763023026663 0 -0.0022956841418789796 0.010046791180596964 0 -0.0026707691623177993 0.013165402736875281 0 -0.0054836177846281668 0.014538842506908938 0 -0.0034759506956098061 0.01009402922639247 0 -0.0022956841418789796 0.010046791180596964 0 -0.0044667814732325499 0.012844763023026663 0 -0.003930890501776356 0.0089566913357999895 0 -0.0034759506956098061 0.01009402922639247 0 -0.0045075480621693869 0.010016196050259232 0 -0.001460809236755343 0.012245539314707577 0 -0.0022956841418789796 0.010046791180596964 0 -0.0026707691623177993 0.013165402736875281 0 -0.001460809236755343 0.012245539314707577 0 -0.0014935273868549642 0.010724593803252065 0 -0.0008140942120145677 0.01136894880776349 0 -0.001460809236755343 0.012245539314707577 0 -0.0014935273868549642 0.010724593803252065 0 -0.0022956841418789796 0.010046791180596964 0 -0.0014935273868549642 0.010724593803252065 0 -0.00066880052213989078 0.010543731605860231 0 -0.0008140942120145677 0.01136894880776349 0 -0.0014935273868549642 0.010724593803252065 0 -0.0019058806534806643 0.0097432876375208467 0 -0.00066880052213989078 0.010543731605860231 0 -0.0023577523793825886 0.0095626476373070184 0 -0.0019058806534806643 0.0097432876375208467 0 -0.0022956841418789796 0.010046791180596964 0 -0.0014935273868549642 0.010724593803252065 0 -0.0019058806534806643 0.0097432876375208467 0 -0.0022956841418789796 0.010046791180596964 0 -0.0023577523793825886 0.0095626476373070184 0 -0.0027286887053362624 0.0096778565561720792 0 -0.0022956841418789796 0.010046791180596964 0 0.00055974628538827721 0.0095617702478279706 0 -0.00066880052213989078 0.010543731605860231 0 0.00044981266267897139 0.011295278748163209 0 0.00055974628538827721 0.0095617702478279706 0 -0.0019058806534806643 0.0097432876375208467 0 -0.00066880052213989078 0.010543731605860231 0 -0.00066880052213989078 0.010543731605860231 0 0.00044981266267897139 0.011295278748163209 0 -0.0008140942120145677 0.01136894880776349 0 0.00044981266267897139 0.011295278748163209 0 -0.00026900890376542453 0.012541909040970311 0 0.0012377971885873568 0.013306417588103163 0 0.00044981266267897139 0.011295278748163209 0 -0.0008140942120145677 0.01136894880776349 0 -0.00026900890376542453 0.012541909040970311 0 -0.001460809236755343 0.012245539314707577 0 -0.0008140942120145677 0.01136894880776349 0 -0.00026900890376542453 0.012541909040970311 0 -0.00026900890376542453 0.012541909040970311 0 -0.00052113383506804153 0.014333587515354724 0 0.0012377971885873568 0.013306417588103163 0 -0.001460809236755343 0.012245539314707577 0 -0.00026900890376542453 0.012541909040970311 0 -0.00052113383506804153 0.014333587515354724 0 -0.00052113383506804153 0.014333587515354724 0 -0.00012257992979335626 0.017456100539837534 0 0.0019077991104863895 0.015704010842349816 0 -0.00052113383506804153 0.014333587515354724 0 -0.0021650131221929241 0.015661716917132008 0 -0.00012257992979335626 0.017456100539837534 0 -0.00052113383506804153 0.014333587515354724 0 -0.0021650131221929241 0.015661716917132008 0 -0.0026707691623177993 0.013165402736875281 0 -0.001460809236755343 0.012245539314707577 0 -0.00052113383506804153 0.014333587515354724 0 -0.0026707691623177993 0.013165402736875281 0 -0.0021650131221929241 0.015661716917132008 0 -0.0026707691623177993 0.013165402736875281 0 -0.0054836177846281668 0.014538842506908938 0 -0.0021650131221929241 0.015661716917132008 0 -0.0054836177846281668 0.014538842506908938 0 -0.0029287079200270151 0.019355143480101148 0 -0.0007823478307706056 0.02521295678188069 0 0.00012776383845399089 0.02444224043403519 0 0.0022866155886683386 0.025819025104792757 0 0.0031480357257587729 0.02747707224285012 0 0.0021421275564269099 0.02756091290026013 0 -0.0021650131221929241 0.015661716917132008 0 -0.0029287079200270151 0.019355143480101148 0 -0.00012257992979335626 0.017456100539837534 0 -0.0029287079200270151 0.019355143480101148 0 -0.00012257992979335626 0.017456100539837534 0 0.00040198444138589895 0.020510780619654258 0 -0.0013130522851145742 0.041393869470594168 0 -0.0024997585716392853 0.04144039350984622 0 -0.002424094127348825 0.042193561932645708 0 -0.003577349819713257 0.035269994075430251 0 -0.0038375763023237811 0.038081574237711933 0 -0.0013130522851145742 0.041393869470594168 0 -0.0022695152090021625 0.040839529296462035 0 -0.0024997585716392853 0.04144039350984622 0 0.0014283569295610973 0.040329200087201728 0 -0.0009520611379007154 0.039973114946316293 0 -0.00038830275551976522 0.042667081064681825 0 0.0022866155886683386 0.025819025104792757 0 0.001243569537867191 0.027196730606673297 0 0.0021421275564269099 0.02756091290026013 0 -0.0007823478307706056 0.02521295678188069 0 -0.0017345940817500057 0.03176294955674161 0 -0.0009520611379007154 0.039973114946316293 0 -0.00038830275551976522 0.042667081064681825 0 -0.0016638949237328879 0.042508935858056263 0 -0.0013130522851145742 0.041393869470594168 0 -0.0016638949237328879 0.042508935858056263 0 -0.002424094127348825 0.042193561932645708 0 -0.00038830275551976522 0.042667081064681825 0 -0.0016638949237328879 0.042508935858056263 0 -0.0015766095320464575 0.043232059768775345 0 -0.0016638949237328879 0.042508935858056263 0 -0.0020627664701826174 0.043201849467933859 0 -0.0015766095320464575 0.043232059768775345 0 -0.0016638949237328879 0.042508935858056263 0 -0.0020627664701826174 0.043201849467933859 0 -0.0022094179135838223 0.042711840472659156 0 -0.0016638949237328879 0.042508935858056263 0 -0.0022094179135838223 0.042711840472659156 0 -0.002424094127348825 0.042193561932645708 0 0.001243569537867191 0.027196730606673297 0 0.00017106143943836582 0.028563012760455891 0 0.00028658069785065686 0.028501999869351997 0 -0.00038830275551976522 0.042667081064681825 0 -0.0017793712555337323 0.044161959883262748 0 -0.0015766095320464575 0.043232059768775345 0 0.001243569537867191 0.027196730606673297 0 0.00028658069785065686 0.028501999869351997 0 0.0014324338172640651 0.028407017922386413 0 -0.0017345940817500057 0.03176294955674161 0 -0.0023600485952135746 0.034970297677973716 0 0.0001648240977275847 0.028559061140925417 0 0.00028658069785065686 0.028501999869351997 0 0.00025320686300303147 0.028844207966692272 0 -0.0023600485952135746 0.034970297677973716 0 -0.002339285934159269 0.034952759855524866 0 -0.0017793712555337323 0.044161959883262748 0 -0.0019027391634730477 0.043595213948734834 0 -0.0023187762284621904 0.04385702817078297 0 -0.0019027391634730477 0.043595213948734834 0 -0.0020627664701826174 0.043201849467933859 0 -0.0023187762284621904 0.04385702817078297 0 -0.0017793712555337323 0.044161959883262748 0 -0.0019027391634730477 0.043595213948734834 0 -0.0015766095320464575 0.043232059768775345 0 -0.0019027391634730477 0.043595213948734834 0 -0.0020627664701826174 0.043201849467933859 0 -0.0015766095320464575 0.043232059768775345 0 0.00028658069785065686 0.028501999869351997 0 0.0014324338172640651 0.028407017922386413 0 0.00062028572311367152 0.029037835001040506 0 0.001243569537867191 0.027196730606673297 0 0.0014324338172640651 0.028407017922386413 0 0.0021421275564269099 0.02756091290026013 0 0.0014324338172640651 0.028407017922386413 0 0.0021421275564269099 0.02756091290026013 0 0.0025339841194922399 0.028673334145466963 0 0.0015440500987332852 0.029293358722517676 0 0.00083993153206005436 0.029794343449577022 0 0.0023241069246608009 0.02997100333221165 0 0.0015440500987332852 0.029293358722517676 0 0.0025339841194922399 0.028673334145466963 0 0.0023241069246608009 0.02997100333221165 0 0.0014324338172640651 0.028407017922386413 0 0.0015440500987332852 0.029293358722517676 0 0.0025339841194922399 0.028673334145466963 0 0.0014324338172640651 0.028407017922386413 0 0.0015440500987332852 0.029293358722517676 0 0.00062028572311367152 0.029037835001040506 0 0.00062028572311367152 0.029037835001040506 0 0.00083993153206005436 0.029794343449577022 0 7.8607833725116466e-05 0.02931696127424134 0 0.0015440500987332852 0.029293358722517676 0 0.00062028572311367152 0.029037835001040506 0 0.00083993153206005436 0.029794343449577022 0 0.00083993153206005436 0.029794343449577022 0 7.8607833725116466e-05 0.02931696127424134 0 -0.00015943135135690518 0.029982828491289564 0 7.8607833725116466e-05 0.02931696127424134 0 0.00025320686300303147 0.028844207966692272 0 -7.0737616904382244e-05 0.028822247630287179 0 0.00062028572311367152 0.029037835001040506 0 7.8607833725116466e-05 0.02931696127424134 0 0.00025320686300303147 0.028844207966692272 0 0.00028658069785065686 0.028501999869351997 0 0.00062028572311367152 0.029037835001040506 0 0.00025320686300303147 0.028844207966692272 0 0.0001648240977275847 0.028559061140925417 0 0.00025320686300303147 0.028844207966692272 0 -7.0737616904382244e-05 0.028822247630287179 0 -0.0023600485952135746 0.034970297677973716 0 -0.0022401244429262912 0.034784594139983527 0 0.00012776383845399089 0.02444224043403519 0 0.0021758189264897091 0.026444145103858081 0 -0.0029287079200270151 0.019355143480101148 0 0.00040198444138589895 0.020510780619654258 0 -0.0003794051305547727 0.024241748229876802 0 0.0031480357257587729 0.02747707224285012 0 0.0021421275564269099 0.02756091290026013 0 0.0025339841194922399 0.028673334145466963 0 0.0031480357257587729 0.02747707224285012 0 0.0025339841194922399 0.028673334145466963 0 0.0040097195396056233 0.029140868289046912 0 0.0021758189264897091 0.026444145103858081 0 0.0016891869958726889 0.028298497138557234 0 0.0025339841194922399 0.028673334145466963 0 0.0040097195396056233 0.029140868289046912 0 0.0023241069246608009 0.02997100333221165 0 0.003920326995023221 0.029184153260508165 0 0.0024489472286519823 0.029892339754048591 0 0.0036220952191378993 0.030201118485321567 0 0.0021758189264897091 0.026444145103858081 0 0.0029312231330971355 0.027758124850636598 0 0.00088842087569701274 0.023794081986514518 0 0.0038116741288007458 0.024789502534118369 0 0.0024311953095432241 0.026760766955898643 0 0.0038116741288007458 0.024789502534118369 0 0.0066893740950682793 0.02373004302245383 0 0.003610353763690512 0.022485186402117538 0 0.0021758189264897091 0.026444145103858081 0 0.0034305430763292917 0.025050192862442571 0 0.00088842087569701274 0.023794081986514518 0 0.0038116741288007458 0.024789502534118369 0 0.003610353763690512 0.022485186402117538 0 0.0066893740950682793 0.02373004302245383 0 0.0092372229399298681 0.025361668566687281 0 0.0057425580864358984 0.026523433918880981 0 0.0038116741288007458 0.024789502534118369 0 0.0066893740950682793 0.02373004302245383 0 0.0057425580864358984 0.026523433918880981 0 0.0069688508766232006 0.020196562451562223 0 0.0074889129889890403 0.017099687446181538 0 0.0066893740950682793 0.02373004302245383 0 0.0059683728986255295 0.021116254952549977 0 0.003610353763690512 0.022485186402117538 0 0.0066893740950682793 0.02373004302245383 0 0.0059683728986255295 0.021116254952549977 0 0.007549636501686924 0.018259713138377931 0 0.0041911479403029866 0.0244337885545814 0 0.0034305430763292917 0.025050192862442571 0 0.0059683728986255295 0.021116254952549977 0 0.0027364941212667071 0.022745796004111966 0 0.0027234509104016166 0.018778584326348366 0 0.00040198444138589895 0.020510780619654258 0 0.0027364941212667071 0.022745796004111966 0 0.0027234509104016166 0.018778584326348366 0 0.00040198444138589895 0.020510780619654258 0 -0.0003794051305547727 0.024241748229876802 0 0.0027364941212667071 0.022745796004111966 0 -0.00012257992979335626 0.017456100539837534 0 0.00040198444138589895 0.020510780619654258 0 0.0027234509104016166 0.018778584326348366 0 -0.00012257992979335626 0.017456100539837534 0 0.0027234509104016166 0.018778584326348366 0 0.0019077991104863895 0.015704010842349816 0 0.0027234509104016166 0.018778584326348366 0 0.0048202133793717938 0.015850556693404256 0 0.0019077991104863895 0.015704010842349816 0 0.0059683728986255295 0.021116254952549977 0 0.0027234509104016166 0.018778584326348366 0 0.0052800140014287013 0.018512143245566385 0 0.0059683728986255295 0.021116254952549977 0 0.0052800140014287013 0.018512143245566385 0 0.007549636501686924 0.018259713138377931 0 0.0052800140014287013 0.018512143245566385 0 0.0048202133793717938 0.015850556693404256 0 0.007549636501686924 0.018259713138377931 0 0.0027234509104016166 0.018778584326348366 0 0.0052800140014287013 0.018512143245566385 0 0.0048202133793717938 0.015850556693404256 0 0.0046823751083659767 0.012688226371666972 0 0.0085375669812476161 0.012167988431447525 0 0.0048202133793717938 0.015850556693404256 0 0.0085375669812476161 0.012167988431447525 0 0.0048202133793717938 0.015850556693404256 0 0.007549636501686924 0.018259713138377931 0 0.0046823751083659767 0.012688226371666972 0 0.0048202133793717938 0.015850556693404256 0 0.003057474168487409 0.013902102969274679 0 -0.00052113383506804153 0.014333587515354724 0 0.0012377971885873568 0.013306417588103163 0 0.0019077991104863895 0.015704010842349816 0 0.003057474168487409 0.013902102969274679 0 0.0012377971885873568 0.013306417588103163 0 0.0019077991104863895 0.015704010842349816 0 0.0026319007686259159 0.011973812252169369 0 0.003057474168487409 0.013902102969274679 0 0.0012377971885873568 0.013306417588103163 0 0.0048202133793717938 0.015850556693404256 0 0.003057474168487409 0.013902102969274679 0 0.0019077991104863895 0.015704010842349816 0 0.010673346643099251 0.010012601813631073 0 0.010579391365955187 0.012592953003892082 0 0.012961779679521584 0.011421698819602153 0 0.010579391365955187 0.012592953003892082 0 0.012961779679521584 0.011421698819602153 0 0.012928373593093042 0.014383474191763387 0 0.0084409002597793954 0.010418196778414312 0 0.010579391365955187 0.012592953003892082 0 0.0070672933418610218 0.016847627435911113 0 0.0083792814587026841 0.012097845648046661 0 0.0074889129889890403 0.017099687446181538 0 0.010579391365955187 0.012592953003892082 0 0.0070672933418610218 0.016847627435911113 0 0.010915887610211332 0.017382988351903311 0 0.013799929967163652 0.012907568713656377 0 0.015753032824775345 0.01393211518266122 0 0.010579391365955187 0.012592953003892082 0 0.010915887610211332 0.017382988351903311 0 0.01498865391782934 0.018262021104582967 0 0.011053046653079478 0.02165732336481848 0 0.014438771055730836 0.022597329502849432 0 0.01498865391782934 0.018262021104582967 0 0.010915887610211332 0.017382988351903311 0 0.011053046653079478 0.02165732336481848 0 0.01498865391782934 0.018262021104582967 0 0.0066893740950682793 0.02373004302245383 0 0.0070672933418610218 0.016847627435911113 0 0.011053046653079478 0.02165732336481848 0 0.0070672933418610218 0.016847627435911113 0 0.010915887610211332 0.017382988351903311 0 0.011053046653079478 0.02165732336481848 0 0.011053046653079478 0.02165732336481848 0 0.0092372229399298681 0.025361668566687281 0 0.011904881221305515 0.026300331650402835 0 0.0066893740950682793 0.02373004302245383 0 0.011053046653079478 0.02165732336481848 0 0.0092372229399298681 0.025361668566687281 0 0.011053046653079478 0.02165732336481848 0 0.014438771055730836 0.022597329502849432 0 0.011904881221305515 0.026300331650402835 0 0.014438771055730836 0.022597329502849432 0 0.015057846983254328 0.025676568457813232 0 0.011904881221305515 0.026300331650402835 0 0.015167005172094393 0.016664552936929474 0 0.017011388814577446 0.014112293596013159 0 0.012928373593093042 0.014383474191763387 0 0.014438771055730836 0.022597329502849432 0 0.018191621066514996 0.022940052977041863 0 0.015057846983254328 0.025676568457813232 0 0.018400632437628961 0.012457462797783198 0 0.015753032824775345 0.01393211518266122 0 0.014438771055730836 0.022597329502849432 0 0.018191621066514996 0.022940052977041863 0 0.01498865391782934 0.018262021104582967 0 0.018400632437628961 0.012457462797783198 0 0.011712139257601123 -0.0064429415394828609 0 0.015167005172094393 0.016664552936929474 0 0.018533121764587879 0.016925319540907709 0 0.017303682123311261 0.018985608565591283 0 0.0026098527737536395 -0.059561882702831463 0 0.0024442006366917212 -0.059639610564045299 0 0.0025564500110574727 -0.059164150020531825 0 0.0026098527737536395 -0.059561882702831463 0 0.0024442006366917212 -0.059639610564045299 0 0.0024831525117928258 -0.05980484873732142 0 0.013480304719978053 -0.01581509609274015 0 0.013914212033223808 -0.018717754667289536 0 0.018533121764587879 0.016925319540907709 0 0.017011388814577446 0.014112293596013159 0 0.019831345016662588 0.014780158773559217 0 0.015167005172094393 0.016664552936929474 0 0.018533121764587879 0.016925319540907709 0 0.017011388814577446 0.014112293596013159 0 0.017011388814577446 0.014112293596013159 0 0.019007226869079484 0.01309078100570522 0 0.019831345016662588 0.014780158773559217 0 0.017011388814577446 0.014112293596013159 0 0.019007226869079484 0.01309078100570522 0 0.018061586742820032 0.010890115436576154 0 0.019007226869079484 0.01309078100570522 0 0.018061586742820032 0.010890115436576154 0 0.021092199427050477 0.012576581523407199 0 0.022864996450658114 -0.0054535885029321669 0 0.014162990581213191 -0.018091355208336952 0 0.017011388814577446 0.014112293596013159 0 0.018061586742820032 0.010890115436576154 0 0.015224502897843981 0.012095800576551623 0 0.018061586742820032 0.010890115436576154 0 0.015224502897843981 0.012095800576551623 0 0.015275293172815299 0.0094439240637288827 0 0.015224502897843981 0.012095800576551623 0 0.012961779679521584 0.011421698819602153 0 0.015275293172815299 0.0094439240637288827 0 0.017011388814577446 0.014112293596013159 0 0.015224502897843981 0.012095800576551623 0 0.012928373593093042 0.014383474191763387 0 0.015224502897843981 0.012095800576551623 0 0.012961779679521584 0.011421698819602153 0 0.012928373593093042 0.014383474191763387 0 0.0026169633062730758 -0.041323425513928889 0 0.0042005531087801334 -0.041513349702351807 0 0.0037436650724200576 -0.040335739656559344 0 -0.00054660689727556704 -0.051264602128771875 0 0.0011244547797922711 -0.045624784792910121 0 0.00091103636384211881 -0.059628297621644032 0 0.0015338230717253077 -0.059289698150920819 0 0.0012399517104956109 -0.059706311157911682 0 0.0015338230717253077 -0.059289698150920819 0 0.0014818826479444588 -0.059786768382095873 0 0.001724484309511847 -0.059657161949021278 0 0.0015338230717253077 -0.059289698150920819 0 0.0012399517104956109 -0.059706311157911682 0 0.0014818826479444588 -0.059786768382095873 0 0.0012399517104956109 -0.059706311157911682 0 0.0012541224437069777 -0.059989820874149523 0 0.0014818826479444588 -0.059786768382095873 0 0.0012541224437069777 -0.059989820874149523 0 0.0014818826479444588 -0.059786768382095873 0 0.0013892750828278328 -0.060098665019283098 0 0.0014818826479444588 -0.059786768382095873 0 0.0013892750828278328 -0.060098665019283098 0 0.0016203879043563212 -0.059958549322297112 0 0.0014818826479444588 -0.059786768382095873 0 0.001724484309511847 -0.059657161949021278 0 0.0016203879043563212 -0.059958549322297112 0 0.001724484309511847 -0.059657161949021278 0 0.0019459680197764712 -0.05976478985153439 0 0.0019482183856071981 -0.059397788053745258 0 0.001724484309511847 -0.059657161949021278 0 0.0019459680197764712 -0.05976478985153439 0 0.0016203879043563212 -0.059958549322297112 0 0.0015338230717253077 -0.059289698150920819 0 0.001724484309511847 -0.059657161949021278 0 0.0019482183856071981 -0.059397788053745258 0 0.0015338230717253077 -0.059289698150920819 0 0.0019482183856071981 -0.059397788053745258 0 0.0019657041879344384 -0.059007453922231952 0 0.0011244547797922711 -0.045624784792910121 0 0.0033347328877178497 -0.037125891242432457 0 0.0019482183856071981 -0.059397788053745258 0 0.0022416807696939004 -0.059174554672504182 0 0.0019657041879344384 -0.059007453922231952 0 0.0019482183856071981 -0.059397788053745258 0 0.0022416807696939004 -0.059174554672504182 0 0.0022144406849105283 -0.059529731758673037 0 0.0019459680197764712 -0.05976478985153439 0 0.0019482183856071981 -0.059397788053745258 0 0.0022144406849105283 -0.059529731758673037 0 0.0019459680197764712 -0.05976478985153439 0 0.0022144406849105283 -0.059529731758673037 0 0.0021744600068657896 -0.059831965756674287 0 0.0022144406849105283 -0.059529731758673037 0 0.0024442006366917212 -0.059639610564045299 0 0.0021744600068657896 -0.059831965756674287 0 0.0022144406849105283 -0.059529731758673037 0 0.0024442006366917212 -0.059639610564045299 0 0.0025564500110574727 -0.059164150020531825 0 0.0022416807696939004 -0.059174554672504182 0 0.0022144406849105283 -0.059529731758673037 0 0.0025564500110574727 -0.059164150020531825 0 0.019007226869079484 0.01309078100570522 0 0.019831345016662588 0.014780158773559217 0 0.021092199427050477 0.012576581523407199 0 0.013914212033223808 -0.018717754667289536 0 0.014162990581213191 -0.018091355208336952 0 0.0022416807696939004 -0.059174554672504182 0 0.0025564500110574727 -0.059164150020531825 0 0.0023941257574161949 -0.058717395393101161 0 0.021455693807549876 0.012630030495318946 0 0.023119270448777009 0.0098318327462678396 0 0.020939302947543703 0.010483879738588033 0 0.018061586742820032 0.010890115436576154 0 0.021455693807549876 0.012630030495318946 0 0.020939302947543703 0.010483879738588033 0 0.014162990581213191 -0.018091355208336952 0 0.013373772756832327 -0.015689352754614624 0 0.0078816709691379976 -0.039366195615424676 0 0.0059060556329079738 -0.038595050941688226 0 0.0067271932413381927 -0.037392553069294752 0 0.0078816709691379976 -0.039366195615424676 0 0.0060573526052837053 -0.040425589246240352 0 0.0059060556329079738 -0.038595050941688226 0 0.014162990581213191 -0.018091355208336952 0 0.0033347328877178497 -0.037125891242432457 0 0.0022416807696939004 -0.059174554672504182 0 0.0023941257574161949 -0.058717395393101161 0 0.0019657041879344384 -0.059007453922231952 0 0.0060573526052837053 -0.040425589246240352 0 0.0047749054152935733 -0.039570096118822375 0 0.0059060556329079738 -0.038595050941688226 0 0.0042005531087801334 -0.041513349702351807 0 0.0060573526052837053 -0.040425589246240352 0 0.0047749054152935733 -0.039570096118822375 0 0.0047749054152935733 -0.039570096118822375 0 0.0059060556329079738 -0.038595050941688226 0 0.0047511502906732372 -0.038001314378965867 0 0.0047511502906732372 -0.038001314378965867 0 0.0032735049895463455 -0.039023434339480953 0 0.0038209107130878633 -0.03707519224303852 0 0.0021281309961839285 -0.046376261321486256 0 0.0021660663728593514 -0.047982238334471405 0 0.001494016471095531 -0.049368016773419503 0 0.0014759581859712539 -0.04956934384587857 0 0.0017329789357078474 -0.048930569297936155 0 0.0047749054152935733 -0.039570096118822375 0 0.0047511502906732372 -0.038001314378965867 0 0.0032735049895463455 -0.039023434339480953 0 0.0013366151322465941 -0.049830864414795818 0 0.001494016471095531 -0.049368016773419503 0 0.0014759581859712539 -0.04956934384587857 0 0.0047749054152935733 -0.039570096118822375 0 0.0032735049895463455 -0.039023434339480953 0 0.0037436650724200576 -0.040335739656559344 0 0.0042005531087801334 -0.041513349702351807 0 0.0047749054152935733 -0.039570096118822375 0 0.0037436650724200576 -0.040335739656559344 0 0.0026169633062730758 -0.041323425513928889 0 0.0032735049895463455 -0.039023434339480953 0 0.0037436650724200576 -0.040335739656559344 0 -4.0796443294150431e-05 -0.060977642747642322 0 -0.00071166532991629155 -0.060501193313211368 0 -0.00062371230718497126 -0.060064662354594622 0 0.0038463284723192475 -0.035703499823916213 0 0.0042737704624387718 -0.035643685633669348 0 0.0041653227575656759 -0.034462513653136503 0 0.0042737704624387718 -0.035643685633669348 0 0.0039504503352114952 -0.036823515383856101 0 0.0052513906654858798 -0.036868187751587206 0 0.0028827432570978748 -0.044802686980992171 0 0.0021963432760121956 -0.047702551211126702 0 0.0042737704624387718 -0.035643685633669348 0 0.0036094754625548603 -0.036833511405178404 0 0.0038944101111389566 -0.03724268093809404 0 0.0038463284723192475 -0.035703499823916213 0 0.0042737704624387718 -0.035643685633669348 0 0.0036094754625548603 -0.036833511405178404 0 0.0035547020186902497 -0.046562325993943096 0 0.0023833336784297495 -0.04967027348163669 0 0.0010257184648755533 -0.05224564771435411 0 0.001987807637831792 -0.047558798470365184 0 0.0023442416374334363 -0.048977682613753709 0 0.0011910163413809164 -0.052983943864319205 0 0.0023833336784297495 -0.04967027348163669 0 0.001987807637831792 -0.047558798470365184 0 0.0023442416374334363 -0.048977682613753709 0 0.0025201480417783354 -0.048320921548308603 0 0.0023833336784297495 -0.04967027348163669 0 0.0021963432760121956 -0.047702551211126702 0 0.0021660663728593514 -0.047982238334471405 0 0.0021963432760121956 -0.047702551211126702 0 0.0011910163413809164 -0.052983943864319205 0 0.0021660663728593514 -0.047982238334471405 0 0.0047511502906732372 -0.038001314378965867 0 0.0038209107130878633 -0.03707519224303852 0 0.003890159723452251 -0.036811278669664958 0 0.0015046093247815934 -0.045408586148268329 0 0.0021963432760121956 -0.047702551211126702 0 0.0052513906654858798 -0.036868187751587206 0 0.0056243490543876279 -0.035451249409147977 0 0.0067271932413381927 -0.037392553069294752 0 0.0059060556329079738 -0.038595050941688226 0 0.0047511502906732372 -0.038001314378965867 0 0.0052513906654858798 -0.036868187751587206 0 0.0059060556329079738 -0.038595050941688226 0 0.0052513906654858798 -0.036868187751587206 0 0.0067271932413381927 -0.037392553069294752 0 0.0047511502906732372 -0.038001314378965867 0 0.0039504503352114952 -0.036823515383856101 0 0.0052513906654858798 -0.036868187751587206 0 0.0042737704624387718 -0.035643685633669348 0 0.0052513906654858798 -0.036868187751587206 0 0.0056243490543876279 -0.035451249409147977 0 0.0042737704624387718 -0.035643685633669348 0 0.0056243490543876279 -0.035451249409147977 0 0.0041653227575656759 -0.034462513653136503 0 0.012762615748032611 -0.016210510363696737 0 0.013373772756832327 -0.015689352754614624 0 0.024964936651507407 0.0068458753820247005 0 0.02263738113718505 0.0076482333983580314 0 0.021696048699992358 0.0055840599640516707 0 0.024964936651507407 0.0068458753820247005 0 0.02263738113718505 0.0076482333983580314 0 0.023119270448777009 0.0098318327462678396 0 0.02263738113718505 0.0076482333983580314 0 0.023119270448777009 0.0098318327462678396 0 0.020825749043087694 0.008271109322065269 0 0.023119270448777009 0.0098318327462678396 0 0.020939302947543703 0.010483879738588033 0 0.020825749043087694 0.008271109322065269 0 0.020825749043087694 0.008271109322065269 0 0.021696048699992358 0.0055840599640516707 0 0.018279145203241715 0.0070505760553672137 0 0.02263738113718505 0.0076482333983580314 0 0.020825749043087694 0.008271109322065269 0 0.021696048699992358 0.0055840599640516707 0 0.019680622940799621 0.0042803528054678065 0 0.018294348964965557 0.0031885416508100999 0 0.02224780875188237 0.0020581282368576418 0 0.018536833227321279 0.0029357442065173181 0 0.019605213928955652 -0.00016877477489198419 0 0.021696048699992358 0.0055840599640516707 0 0.02224780875188237 0.0020581282368576418 0 0.018536833227321279 0.0029357442065173181 0 0.02224780875188237 0.0020581282368576418 0 0.024164674697222478 0.0041814885040130029 0 0.024701256138935718 0.0022226045432890292 0 0.02224780875188237 0.0020581282368576418 0 0.024701256138935718 0.0022226045432890292 0 0.024080171231064002 0.00049844743226760383 0 0.024964936651507407 0.0068458753820247005 0 0.021696048699992358 0.0055840599640516707 0 0.024164674697222478 0.0041814885040130029 0 0.021696048699992358 0.0055840599640516707 0 0.02224780875188237 0.0020581282368576418 0 0.024164674697222478 0.0041814885040130029 0 0.0056243490543876279 -0.035451249409147977 0 0.0045334583546683439 -0.033409679558544528 0 0.0041653227575656759 -0.034462513653136503 0 0.012762615748032611 -0.016210510363696737 0 0.011177607073723294 -0.018592256309521615 0 0.024964936651507407 0.0068458753820247005 0 0.024164674697222478 0.0041814885040130029 0 0.026951935182559374 0.0034756612269740131 0 0.024701256138935718 0.0022226045432890292 0 0.026951935182559374 0.0034756612269740131 0 0.025986462828302703 0.00096127434610818088 0 0.024164674697222478 0.0041814885040130029 0 0.024701256138935718 0.0022226045432890292 0 0.026951935182559374 0.0034756612269740131 0 0.0030298994286359648 -0.031486246727923078 0 0.0035993425934570367 -0.032454594939254636 0 0.0034330900085348557 -0.033581106915963665 0 0.011177607073723294 -0.018592256309521615 0 0.0081788982307807196 -0.025022059302281643 0 0.0045334583546683439 -0.033409679558544528 0 0.0035993425934570367 -0.032454594939254636 0 0.0034021449211543743 -0.031338460427933951 0 0.026951935182559374 0.0034756612269740131 0 0.028873501498263541 -3.96689435675661e-06 0 0.025986462828302703 0.00096127434610818088 0 0.0045334583546683439 -0.033409679558544528 0 0.0035993425934570367 -0.032454594939254636 0 0.0034330900085348557 -0.033581106915963665 0 -4.0796443294150431e-05 -0.060977642747642322 0 -0.00071166532991629155 -0.060501193313211368 0 -0.00043503587764956832 -0.061446421977789302 0 0.0039003185279841567 -0.035723506419025691 0 0.0034330900085348557 -0.033581106915963665 0 0.0041653227575656759 -0.034462513653136503 0 0.0035547020186902497 -0.046562325993943096 0 0.0046339922521089864 -0.0426293197105648 0 0.0045334583546683439 -0.033409679558544528 0 0.0034330900085348557 -0.033581106915963665 0 0.0041653227575656759 -0.034462513653136503 0 0.0035547020186902497 -0.046562325993943096 0 0.0039810116942775742 -0.043828869945519718 0 0.015275293172815299 0.0094439240637288827 0 0.018279145203241715 0.0070505760553672137 0 0.0144093697528891 0.0062590286417549988 0 0.01205956850447081 0.0088613498062764442 0 0.011830178128114302 0.0066601660040474884 0 0.0144093697528891 0.0062590286417549988 0 0.01205956850447081 0.0088613498062764442 0 0.015275293172815299 0.0094439240637288827 0 0.0144093697528891 0.0062590286417549988 0 0.01205956850447081 0.0088613498062764442 0 0.012961779679521584 0.011421698819602153 0 0.015275293172815299 0.0094439240637288827 0 0.018061586742820032 0.010890115436576154 0 0.015275293172815299 0.0094439240637288827 0 0.018279145203241715 0.0070505760553672137 0 0.018061586742820032 0.010890115436576154 0 0.020825749043087694 0.008271109322065269 0 0.018279145203241715 0.0070505760553672137 0 0.018061586742820032 0.010890115436576154 0 0.020939302947543703 0.010483879738588033 0 0.020825749043087694 0.008271109322065269 0 0.018279145203241715 0.0070505760553672137 0 0.016738715545570684 0.0042774406028641496 0 0.0144093697528891 0.0062590286417549988 0 0.021696048699992358 0.0055840599640516707 0 0.018279145203241715 0.0070505760553672137 0 0.019431286490055093 0.0036442699368874564 0 0.018279145203241715 0.0070505760553672137 0 0.019431286490055093 0.0036442699368874564 0 0.016738715545570684 0.0042774406028641496 0 0.018294348964965557 0.0031885416508100999 0 0.015507842133912016 0.0011582276324362587 0 0.019431286490055093 0.0036442699368874564 0 0.016738715545570684 0.0042774406028641496 0 0.01706377239544097 0.0014751000949636116 0 0.016738715545570684 0.0042774406028641496 0 0.014435889293862199 0.0029272713482244796 0 0.01706377239544097 0.0014751000949636116 0 0.016738715545570684 0.0042774406028641496 0 0.014435889293862199 0.0029272713482244796 0 0.0144093697528891 0.0062590286417549988 0 0.011991474267946589 0.0047130638271284673 0 0.014435889293862199 0.0029272713482244796 0 0.0144093697528891 0.0062590286417549988 0 0.011830178128114302 0.0066601660040474884 0 0.011991474267946589 0.0047130638271284673 0 0.0144093697528891 0.0062590286417549988 0 0.011991474267946589 0.0047130638271284673 0 0.014435889293862199 0.0029272713482244796 0 0.011509853587211023 0.0015242399720677736 0 0.014435889293862199 0.0029272713482244796 0 0.014609141699381259 -0.00073175660096408553 0 0.011509853587211023 0.0015242399720677736 0 0.011590236036999584 -0.0013461472488541253 0 0.0083232629941704349 0.0019016033111876991 0 0.0084956621067873803 0.00074353488971156594 0 0.0087753165200207036 0.00098612844463196272 0 0.0057942117723336619 0.0032756912915114919 0 0.006838124017885177 0.00028149037864392645 0 0.0084956621067873803 0.00074353488971156594 0 0.0057942117723336619 0.0032756912915114919 0 0.006838124017885177 0.00028149037864392645 0 0.0084956621067873803 0.00074353488971156594 0 0.0081468966515087799 -2.6421329225488736e-05 0 0.0088662671422381732 0.00023992587708550003 0 0.0087717575754227457 0.00098164727322714489 0 0.009678470985612973 -0.00034645113329243938 0 0.0085761555394588199 0.00013138998101679898 0 0.0084956621067873803 0.00074353488971156594 0 0.0081468966515087799 -2.6421329225488736e-05 0 0.0088662671422381732 0.00023992587708550003 0 0.0085761555394588199 0.00013138998101679898 0 0.0084956621067873803 0.00074353488971156594 0 0.0088662671422381732 0.00023992587708550003 0 0.0084956621067873803 0.00074353488971156594 0 0.0087717575754227457 0.00098164727322714489 0 0.011573785724510097 -0.001344363576580428 0 0.011590236036999584 -0.0013461472488541253 0 0.014435889293862199 0.0029272713482244796 0 0.014609141699381259 -0.00073175660096408553 0 0.01706377239544097 0.0014751000949636116 0 0.011590236036999584 -0.0013461472488541253 0 0.015507842133912016 0.0011582276324362587 0 0.015510251246963785 0.00031308436082584033 0 0.017573527572909996 -0.0021654464482272814 0 0.019605213928955652 -0.00016877477489198419 0 0.018536833227321279 0.0029357442065173181 0 0.015510251246963785 0.00031308436082584033 0 0.019605213928955652 -0.00016877477489198419 0 0.017573527572909996 -0.0021654464482272814 0 0.01607787682915399 -0.0050356515212417576 0 0.020423012810891202 -0.0033363572316166662 0 0.017573527572909996 -0.0021654464482272814 0 0.019605213928955652 -0.00016877477489198419 0 0.020423012810891202 -0.0033363572316166662 0 0.017573527572909996 -0.0021654464482272814 0 0.015507651761163614 -0.0023312695030630829 0 0.01607787682915399 -0.0050356515212417576 0 0.012501084927203652 -0.0023046027329467924 0 0.015510251246963785 0.00031308436082584033 0 0.015507651761163614 -0.0023312695030630829 0 0.012501084927203652 -0.0023046027329467924 0 0.015507651761163614 -0.0023312695030630829 0 0.01607787682915399 -0.0050356515212417576 0 0.015510251246963785 0.00031308436082584033 0 0.017573527572909996 -0.0021654464482272814 0 0.015507651761163614 -0.0023312695030630829 0 0.0097418689452610056 -0.0052915795862220278 0 0.0071537048105673158 -0.0057788424744052696 0 0.011598197302447634 -0.0011905474510735669 0 0.009678470985612973 -0.00034645113329243938 0 0.0096289467290167786 -0.0019552445538214601 0 0.002926602941019458 -0.0094882752881911853 0 0.0030578611695165577 -0.009590661361167898 0 0.0032086009567264874 -0.0095583092013839452 0 0.002926602941019458 -0.0094882752881911853 0 0.0032357582268370158 -0.0093803170048576256 0 0.0032086009567264874 -0.0095583092013839452 0 0.0097418689452610056 -0.0052915795862220278 0 0.01213286201726632 -0.0083412951893314779 0 0.0097418689452610056 -0.0052915795862220278 0 0.0085285707817734369 -0.0053208663567647302 0 0.0030578611695165577 -0.009590661361167898 0 0.0027980625444651739 -0.0096143251786198931 0 0.0031159663648933134 -0.0098133944056398633 0 0.002846995198369224 -0.009376877955173368 0 0.0030578611695165577 -0.009590661361167898 0 0.0027980625444651739 -0.0096143251786198931 0 0.002846995198369224 -0.009376877955173368 0 0.0027980625444651739 -0.0096143251786198931 0 0.0026100291362794984 -0.0094449639154390863 0 0.0027980625444651739 -0.0096143251786198931 0 0.0026100291362794984 -0.0094449639154390863 0 0.0025275397151302719 -0.0095943226438045554 0 0.0024585739989808476 -0.0094919374251066033 0 0.0026100291362794984 -0.0094449639154390863 0 0.0025275397151302719 -0.0095943226438045554 0 0.0055254632445474435 -0.0060041168798227827 0 0.0071537048105673158 -0.0057788424744052696 0 0.0055254632445474435 -0.0060041168798227827 0 0.005315631038236077 -0.0064174202792796836 0 0.0023586254846829535 -0.0092699394163251337 0 0.0022781621880036875 -0.0096411880328919342 0 0.0020910208749772511 -0.0091963650879148297 0 0.0055254632445474435 -0.0060041168798227827 0 0.0042032338696211874 -0.0070616226883387099 0 0.006838124017885177 0.00028149037864392645 0 0.0080130218547455525 -0.00097684717081733042 0 0.0051371414764782445 3.2360806192828805e-05 0 0.0076529950935228259 -0.0027301706063285157 0 0.0080130218547455525 -0.00097684717081733042 0 0.0051371414764782445 3.2360806192828805e-05 0 0.0055254632445474435 -0.0060041168798227827 0 0.0045607225566515345 -0.001711682858580262 0 0.006838124017885177 0.00028149037864392645 0 0.0080130218547455525 -0.00097684717081733042 0 0.0081468966515087799 -2.6421329225488736e-05 0 0.0080130218547455525 -0.00097684717081733042 0 0.0081468966515087799 -2.6421329225488736e-05 0 0.0087959810258678231 -0.00043117111126249585 0 0.011590236036999584 -0.0013461472488541253 0 0.0097418689452610056 -0.0052915795862220278 0 0.0087717575754227457 0.00098164727322714489 0 0.011598197302447634 -0.0011905474510735669 0 0.009678470985612973 -0.00034645113329243938 0 0.0085761555394588199 0.00013138998101679898 0 0.0081468966515087799 -2.6421329225488736e-05 0 0.0087959810258678231 -0.00043117111126249585 0 0.0088662671422381732 0.00023992587708550003 0 0.0085761555394588199 0.00013138998101679898 0 0.0087959810258678231 -0.00043117111126249585 0 0.0088662671422381732 0.00023992587708550003 0 0.0087959810258678231 -0.00043117111126249585 0 0.009678470985612973 -0.00034645113329243938 0 0.0087959810258678231 -0.00043117111126249585 0 0.009678470985612973 -0.00034645113329243938 0 0.0096289467290167786 -0.0019552445538214601 0 0.0076529950935228259 -0.0027301706063285157 0 0.0080130218547455525 -0.00097684717081733042 0 0.0096289467290167786 -0.0019552445538214601 0 0.0080130218547455525 -0.00097684717081733042 0 0.0087959810258678231 -0.00043117111126249585 0 0.0096289467290167786 -0.0019552445538214601 0 0.0044239848264611501 -0.0093809300772540218 0 0.0041962261912839791 -0.0093638565985112651 0 0.0040100944830308788 -0.0090626516029606533 0 0.0059802914282352741 -0.026321591820982971 0 0.0089925765131792148 -0.021035023389308537 0 0.0040291843030870172 -0.0093691503872811929 0 0.0040100944830308788 -0.0090626516029606533 0 0.0037966306516962643 -0.0093771624218720422 0 0.0041962261912839791 -0.0093638565985112651 0 0.0040291843030870172 -0.0093691503872811929 0 0.0041651007979420802 -0.0095081535483901008 0 0.0041962261912839791 -0.0093638565985112651 0 0.0040291843030870172 -0.0093691503872811929 0 0.0040100944830308788 -0.0090626516029606533 0 0.0087213376600869946 -0.024819455983255651 0 0.0078875885853266284 -0.02335525572976201 0 0.0066119419881428042 -0.023849673502219389 0 0.028873501498263541 -3.96689435675661e-06 0 0.02724227016728132 -0.0006256559583226681 0 0.025986462828302703 0.00096127434610818088 0 0.0081788982307807196 -0.025022059302281643 0 0.0089925765131792148 -0.021035023389308537 0 0.0030298994286359648 -0.031486246727923078 0 0.0035993425934570367 -0.032454594939254636 0 0.0034021449211543743 -0.031338460427933951 0 0.025986462828302703 0.00096127434610818088 0 0.024699515566319399 -0.0016283168300961215 0 0.024080171231064002 0.00049844743226760383 0 0.02724227016728132 -0.0006256559583226681 0 0.025986462828302703 0.00096127434610818088 0 0.024699515566319399 -0.0016283168300961215 0 0.024701256138935718 0.0022226045432890292 0 0.025986462828302703 0.00096127434610818088 0 0.024080171231064002 0.00049844743226760383 0 0.0089925765131792148 -0.021035023389308537 0 0.013017696017255826 -0.013599767318539501 0 0.0036785694312668092 -0.0091948144029229944 0 0.0037966306516962643 -0.0093771624218720422 0 0.0035448005465219513 -0.0095373044039037194 0 0.0040100944830308788 -0.0090626516029606533 0 0.0036785694312668092 -0.0091948144029229944 0 0.0037966306516962643 -0.0093771624218720422 0 0.013017696017255826 -0.013599767318539501 0 0.01213286201726632 -0.0083412951893314779 0 0.024699515566319399 -0.0016283168300961215 0 0.022228813617090108 -0.00052982550709831109 0 0.020423012810891202 -0.0033363572316166662 0 0.0036785694312668092 -0.0091948144029229944 0 0.0032357582268370158 -0.0093803170048576256 0 0.0035448005465219513 -0.0095373044039037194 0 0.024699515566319399 -0.0016283168300961215 0 0.022228813617090108 -0.00052982550709831109 0 0.024080171231064002 0.00049844743226760383 0 0.02224780875188237 0.0020581282368576418 0 0.022228813617090108 -0.00052982550709831109 0 0.024080171231064002 0.00049844743226760383 0 0.02224780875188237 0.0020581282368576418 0 0.022228813617090108 -0.00052982550709831109 0 0.019605213928955652 -0.00016877477489198419 0 0.022228813617090108 -0.00052982550709831109 0 0.019605213928955652 -0.00016877477489198419 0 0.020423012810891202 -0.0033363572316166662 0 0.0032086009567264874 -0.0095583092013839452 0 0.0033271474295831329 -0.0097496870193559473 0 0.0035448005465219513 -0.0095373044039037194 0 0.0032357582268370158 -0.0093803170048576256 0 0.0032086009567264874 -0.0095583092013839452 0 0.0035448005465219513 -0.0095373044039037194 0 0.0030578611695165577 -0.009590661361167898 0 0.0032086009567264874 -0.0095583092013839452 0 0.0033271474295831329 -0.0097496870193559473 0 0.0030578611695165577 -0.009590661361167898 0 0.0033271474295831329 -0.0097496870193559473 0 0.0031159663648933134 -0.0098133944056398633 0 0.0033271474295831329 -0.0097496870193559473 0 0.0035474932971304748 -0.0097849585375957022 0 0.0035448005465219513 -0.0095373044039037194 0 0.0033271474295831329 -0.0097496870193559473 0 0.003415661782827355 -0.0099225787792298504 0 0.0033089146752105043 -0.0099042909528472677 0 0.0033271474295831329 -0.0097496870193559473 0 0.0035474932971304748 -0.0097849585375957022 0 0.003415661782827355 -0.0099225787792298504 0 0.0035474932971304748 -0.0097849585375957022 0 0.0035341553352369673 -0.010050893971640497 0 0.003415661782827355 -0.0099225787792298504 0 0.0037966306516962643 -0.0093771624218720422 0 0.0035448005465219513 -0.0095373044039037194 0 0.0037336619176924781 -0.0096366597852595316 0 0.0037966306516962643 -0.0093771624218720422 0 0.0037336619176924781 -0.0096366597852595316 0 0.0039501785955540561 -0.0095521992687991036 0 0.0040291843030870172 -0.0093691503872811929 0 0.0037966306516962643 -0.0093771624218720422 0 0.0039501785955540561 -0.0095521992687991036 0 0.0037336619176924781 -0.0096366597852595316 0 0.0038291709098747487 -0.0098187183994177321 0 0.0039501785955540561 -0.0095521992687991036 0 0.0035474932971304748 -0.0097849585375957022 0 0.0035448005465219513 -0.0095373044039037194 0 0.0037336619176924781 -0.0096366597852595316 0 0.0035474932971304748 -0.0097849585375957022 0 0.0037336619176924781 -0.0096366597852595316 0 0.0038291709098747487 -0.0098187183994177321 0 0.0035474932971304748 -0.0097849585375957022 0 0.0038291709098747487 -0.0098187183994177321 0 0.0035341553352369673 -0.010050893971640497 0 0.0038291709098747487 -0.0098187183994177321 0 0.0040618656978904577 -0.0099111653541077045 0 0.0038628681706903427 -0.010190776660043701 0 0.0038291709098747487 -0.0098187183994177321 0 0.0040618656978904577 -0.0099111653541077045 0 0.0041077213822530347 -0.0096904099331794127 0 0.0042763792348681912 -0.0098558770859115477 0 0.0040618656978904577 -0.0099111653541077045 0 0.004202006964010855 -0.010109957596684961 0 0.0042763792348681912 -0.0098558770859115477 0 0.0040618656978904577 -0.0099111653541077045 0 0.0041077213822530347 -0.0096904099331794127 0 0.0043101066909445674 -0.0096611892212712519 0 0.0042763792348681912 -0.0098558770859115477 0 0.0041077213822530347 -0.0096904099331794127 0 0.0043101066909445674 -0.0096611892212712519 0 0.0041077213822530347 -0.0096904099331794127 0 0.0041651007979420802 -0.0095081535483901008 0 0.0038291709098747487 -0.0098187183994177321 0 0.0041077213822530347 -0.0096904099331794127 0 0.0039501785955540561 -0.0095521992687991036 0 0.0041077213822530347 -0.0096904099331794127 0 0.0039501785955540561 -0.0095521992687991036 0 0.0041651007979420802 -0.0095081535483901008 0 0.0040291843030870172 -0.0093691503872811929 0 0.0039501785955540561 -0.0095521992687991036 0 0.0041651007979420802 -0.0095081535483901008 0 0.0043269871494736514 -0.0095040897146381441 0 0.0041962261912839791 -0.0093638565985112651 0 0.0041651007979420802 -0.0095081535483901008 0 0.0041013406911104182 -0.010525348544311076 0 0.0038628681706903427 -0.010190776660043701 0 0.0037181924977216299 -0.01069921144452011 0 0.0044537514374079282 -0.010771080812897803 0 0.0041013406911104182 -0.010525348544311076 0 0.0039075633431867847 -0.0111732946725671 0 0.0041013406911104182 -0.010525348544311076 0 0.0037181924977216299 -0.01069921144452011 0 0.0039075633431867847 -0.0111732946725671 0 0.0041013406911104182 -0.010525348544311076 0 0.004202006964010855 -0.010109957596684961 0 0.0038628681706903427 -0.010190776660043701 0 0.0040618656978904577 -0.0099111653541077045 0 0.004202006964010855 -0.010109957596684961 0 0.0038628681706903427 -0.010190776660043701 0 0.0038291709098747487 -0.0098187183994177321 0 0.0038628681706903427 -0.010190776660043701 0 0.0035341553352369673 -0.010050893971640497 0 0.0038628681706903427 -0.010190776660043701 0 0.0035341553352369673 -0.010050893971640497 0 0.0034910889623077255 -0.010470260600278683 0 0.0037181924977216299 -0.01069921144452011 0 0.0034910889623077255 -0.010470260600278683 0 0.0032556295623334536 -0.011109992393755003 0 0.0038628681706903427 -0.010190776660043701 0 0.0037181924977216299 -0.01069921144452011 0 0.0034910889623077255 -0.010470260600278683 0 0.0028493266812628102 -0.010441772235678532 0 0.0025891986097048366 -0.010656536489848918 0 0.0029255473230528342 -0.010805609733383145 0 0.0031074656335750329 -0.010438173008981731 0 0.003148837039274341 -0.010954503312223404 0 0.0034910889623077255 -0.010470260600278683 0 0.0031172207341470847 -0.010380952923392237 0 0.0032556295623334536 -0.011109992393755003 0 0.0035341553352369673 -0.010050893971640497 0 0.0034910889623077255 -0.010470260600278683 0 0.0031172207341470847 -0.010380952923392237 0 0.0032271474695317755 -0.010334593352696467 0 0.0031074656335750329 -0.010438173008981731 0 0.0035341553352369673 -0.010050893971640497 0 0.003415661782827355 -0.0099225787792298504 0 0.0034026047353452227 -0.010013180791506721 0 0.003415661782827355 -0.0099225787792298504 0 0.0034026047353452227 -0.010013180791506721 0 0.0033089146752105043 -0.0099042909528472677 0 0.0033271474295831329 -0.0097496870193559473 0 0.0033089146752105043 -0.0099042909528472677 0 0.0031159663648933134 -0.0098133944056398633 0 0.0034026047353452227 -0.010013180791506721 0 0.0033089146752105043 -0.0099042909528472677 0 0.0032615867423177753 -0.0099946077816369418 0 0.0033089146752105043 -0.0099042909528472677 0 0.0032615867423177753 -0.0099946077816369418 0 0.0031159663648933134 -0.0098133944056398633 0 0.0031074656335750329 -0.010438173008981731 0 0.0029249279669778987 -0.010514861382221283 0 0.0032615867423177753 -0.0099946077816369418 0 0.0032197323502640607 -0.010163914955513748 0 0.0030799742296291122 -0.0099817790116134009 0 0.0034026047353452227 -0.010013180791506721 0 0.0032615867423177753 -0.0099946077816369418 0 0.0032197323502640607 -0.010163914955513748 0 0.0025891986097048366 -0.010656536489848918 0 0.0026647491448352646 -0.010944375791215894 0 0.0029255473230528342 -0.010805609733383145 0 0.0026647491448352646 -0.010944375791215894 0 0.0030413283562422217 -0.011200524623091882 0 0.0024989337211131857 -0.011235194950755515 0 0.003148837039274341 -0.010954503312223404 0 0.0032232130745212919 -0.011481102976659292 0 0.0026647491448352646 -0.010944375791215894 0 0.0029255473230528342 -0.010805609733383145 0 0.0030413283562422217 -0.011200524623091882 0 0.0037181924977216299 -0.01069921144452011 0 0.0032556295623334536 -0.011109992393755003 0 0.0039075633431867847 -0.0111732946725671 0 0.0032556295623334536 -0.011109992393755003 0 0.0039075633431867847 -0.0111732946725671 0 0.0033817839812330368 -0.011761389602731298 0 0.0039075633431867847 -0.0111732946725671 0 0.0040836460741777852 -0.011905021069757677 0 0.0033817839812330368 -0.011761389602731298 0 0.0045486560657718722 -0.011334561736002275 0 0.0039075633431867847 -0.0111732946725671 0 0.0040836460741777852 -0.011905021069757677 0 0.0025400725650176763 -0.0099388654762854085 0 0.0024402891133911719 -0.01039659456236278 0 0.0022023791262534747 -0.010158885801219238 0 0.0025400725650176763 -0.0099388654762854085 0 0.0022781621880036875 -0.0096411880328919342 0 0.0022023791262534747 -0.010158885801219238 0 0.0022781621880036875 -0.0096411880328919342 0 0.0022023791262534747 -0.010158885801219238 0 0.001915798168693194 -0.0097524023943344838 0 0.0023586254846829535 -0.0092699394163251337 0 0.0022781621880036875 -0.0096411880328919342 0 0.0025275397151302719 -0.0095943226438045554 0 0.0025400725650176763 -0.0099388654762854085 0 0.0025275397151302719 -0.0095943226438045554 0 0.002698863472750875 -0.0097307038375731673 0 0.0025400725650176763 -0.0099388654762854085 0 0.0022781621880036875 -0.0096411880328919342 0 0.0025275397151302719 -0.0095943226438045554 0 0.0025400725650176763 -0.0099388654762854085 0 0.002698863472750875 -0.0097307038375731673 0 0.0028864315449592692 -0.0098646352098140846 0 0.0027980625444651739 -0.0096143251786198931 0 0.0025275397151302719 -0.0095943226438045554 0 0.002698863472750875 -0.0097307038375731673 0 0.0027980625444651739 -0.0096143251786198931 0 0.002698863472750875 -0.0097307038375731673 0 0.0028864315449592692 -0.0098646352098140846 0 0.0027980625444651739 -0.0096143251786198931 0 0.0028864315449592692 -0.0098646352098140846 0 0.0031159663648933134 -0.0098133944056398633 0 0.0028864315449592692 -0.0098646352098140846 0 0.0031159663648933134 -0.0098133944056398633 0 0.0030799742296291122 -0.0099817790116134009 0 0.0032615867423177753 -0.0099946077816369418 0 0.0031159663648933134 -0.0098133944056398633 0 0.0030799742296291122 -0.0099817790116134009 0 0.0032197323502640607 -0.010163914955513748 0 0.0030799742296291122 -0.0099817790116134009 0 0.0028748770562585838 -0.010118108665762774 0 0.0028864315449592692 -0.0098646352098140846 0 0.0030799742296291122 -0.0099817790116134009 0 0.0028748770562585838 -0.010118108665762774 0 0.0025400725650176763 -0.0099388654762854085 0 0.0028748770562585838 -0.010118108665762774 0 0.0024402891133911719 -0.01039659456236278 0 0.0025400725650176763 -0.0099388654762854085 0 0.0028864315449592692 -0.0098646352098140846 0 0.0028748770562585838 -0.010118108665762774 0 0.0029401417934776814 -0.010466397894005799 0 0.0023609579890351978 -0.010929407246652124 0 0.0024402891133911719 -0.01039659456236278 0 0.0028748770562585838 -0.010118108665762774 0 0.0029401417934776814 -0.010466397894005799 0 0.0024402891133911719 -0.01039659456236278 0 0.0032197323502640607 -0.010163914955513748 0 0.0028748770562585838 -0.010118108665762774 0 0.0029401417934776814 -0.010466397894005799 0 0.0029249279669778987 -0.010514861382221283 0 0.0027104056553812037 -0.010664927280429025 0 0.0025891986097048366 -0.010656536489848918 0 0.0026647491448352646 -0.010944375791215894 0 0.0023619317679565042 -0.010874450104093325 0 0.0026647491448352646 -0.010944375791215894 0 0.0023619317679565042 -0.010874450104093325 0 0.0024989337211131857 -0.011235194950755515 0 0.0023619317679565042 -0.010874450104093325 0 0.0024989337211131857 -0.011235194950755515 0 0.002292913552953039 -0.011204627338154019 0 0.0027104056553812037 -0.010664927280429025 0 0.0025906203948059575 -0.010757834687155559 0 0.0023619317679565042 -0.010874450104093325 0 0.0023609579890351978 -0.010929407246652124 0 0.002292913552953039 -0.011204627338154019 0 0.0023609579890351978 -0.010929407246652124 0 0.0024402891133911719 -0.01039659456236278 0 0.0020734226564878204 -0.010789655820950216 0 0.0024402891133911719 -0.01039659456236278 0 0.0022023791262534747 -0.010158885801219238 0 0.0020734226564878204 -0.010789655820950216 0 0.0022023791262534747 -0.010158885801219238 0 0.0020734226564878204 -0.010789655820950216 0 0.001894220356555906 -0.010418943602405677 0 0.0020734226564878204 -0.010789655820950216 0 0.0016230048972039049 -0.010861461073419693 0 0.001894220356555906 -0.010418943602405677 0 0.0016230048972039049 -0.010861461073419693 0 0.0015252262360668789 -0.010419883155585979 0 0.001894220356555906 -0.010418943602405677 0 0.001325473952733454 -0.010629781846041369 0 0.0011598621710815307 -0.010839681001090106 0 0.0016230048972039049 -0.010861461073419693 0 0.0015252262360668789 -0.010419883155585979 0 0.0011329517896127277 -0.010915881467724662 0 0.0015252262360668789 -0.010419883155585979 0 0.001915798168693194 -0.0097524023943344838 0 0.0015159850092252682 -0.0099801791053154513 0 0.0015252262360668789 -0.010419883155585979 0 0.0011483870568124368 -0.010176566608252783 0 0.0015159850092252682 -0.0099801791053154513 0 0.0015252262360668789 -0.010419883155585979 0 0.001894220356555906 -0.010418943602405677 0 0.001915798168693194 -0.0097524023943344838 0 0.0022023791262534747 -0.010158885801219238 0 0.001894220356555906 -0.010418943602405677 0 0.001915798168693194 -0.0097524023943344838 0 0.00099595850434068501 -0.010411233552982329 0 0.00070419552537561174 -0.010574814523520024 0 0.00088940112887450878 -0.01080455367715134 0 0.00099595850434068501 -0.010411233552982329 0 0.00088940112887450878 -0.01080455367715134 0 0.0011302534768459116 -0.010745333554189038 0 0.0015252262360668789 -0.010419883155585979 0 0.00099595850434068501 -0.010411233552982329 0 0.0011302534768459116 -0.010745333554189038 0 0.0015252262360668789 -0.010419883155585979 0 0.0011483870568124368 -0.010176566608252783 0 0.00099595850434068501 -0.010411233552982329 0 0.0011483870568124368 -0.010176566608252783 0 0.00099595850434068501 -0.010411233552982329 0 0.00092133788790539791 -0.010163656061223676 0 0.00099595850434068501 -0.010411233552982329 0 0.00076577390533838952 -0.01010101769692693 0 0.00070419552537561174 -0.010574814523520024 0 -0.0034799425837350778 0.0060887202195783856 0 -0.0022334352773297145 0.0028824330785185235 0 0.00099595850434068501 -0.010411233552982329 0 0.00092133788790539791 -0.010163656061223676 0 0.00076577390533838952 -0.01010101769692693 0 -0.0029683229963534041 0.0055402361440764023 0 -0.0019173748702959938 0.005232847467211213 0 -0.0034799425837350778 0.0060887202195783856 0 -0.0019173748702959938 0.005232847467211213 0 -0.0031094327923763794 0.0058747027182355681 0 -0.0031711567296251329 0.0055921717229888025 0 -0.0026491200337095178 0.0057121554685640305 0 0.00092133788790539791 -0.010163656061223676 0 0.00076577390533838952 -0.01010101769692693 0 0.0009666913439881484 -0.010034048863048241 0 -0.0029683229963534041 0.0055402361440764023 0 -0.0034799425837350778 0.0060887202195783856 0 -0.0069029962648962159 0.013214849543812432 0 -0.0067397634309797104 0.01399244166871064 0 -0.0061662110874958652 0.013405084287788836 0 -0.0016325855570414412 -0.0096285162277208389 0 0.0009666913439881484 -0.010034048863048241 0 0.00063369278416804933 -0.0089532858743130734 0 0.0011483870568124368 -0.010176566608252783 0 0.00092133788790539791 -0.010163656061223676 0 0.0009666913439881484 -0.010034048863048241 0 0.0011483870568124368 -0.010176566608252783 0 0.0009666913439881484 -0.010034048863048241 0 0.0015159850092252682 -0.0099801791053154513 0 0.0009666913439881484 -0.010034048863048241 0 0.00063369278416804933 -0.0089532858743130734 0 0.0015788995178095948 -0.0095469238500341964 0 0.0009666913439881484 -0.010034048863048241 0 0.0015159850092252682 -0.0099801791053154513 0 0.0015788995178095948 -0.0095469238500341964 0 0.00063369278416804933 -0.0089532858743130734 0 0.00099282466872584771 -0.0063051803700206197 0 -0.0014056196313793506 -0.0067398710125459562 0 0.00063369278416804933 -0.0089532858743130734 0 0.0020691281544830738 -0.0086764840653077158 0 0.00099282466872584771 -0.0063051803700206197 0 0.00063369278416804933 -0.0089532858743130734 0 0.0015788995178095948 -0.0095469238500341964 0 0.0020691281544830738 -0.0086764840653077158 0 -0.0016325855570414412 -0.0096285162277208389 0 0.00063369278416804933 -0.0089532858743130734 0 -0.0014056196313793506 -0.0067398710125459562 0 -0.0072754539646220813 0.012914281186635181 0 -0.0075908380522232005 0.011527459119895535 0 -0.0065707845395608731 0.011785442848675734 0 -0.0029683229963534041 0.0055402361440764023 0 -0.0033198926007987298 0.0034900421346280987 0 0.001915798168693194 -0.0097524023943344838 0 0.0015159850092252682 -0.0099801791053154513 0 0.0015788995178095948 -0.0095469238500341964 0 0.001915798168693194 -0.0097524023943344838 0 0.0015788995178095948 -0.0095469238500341964 0 0.0020691281544830738 -0.0086764840653077158 0 0.0033968142189962909 -0.0075164460526275095 0 0.0042032338696211874 -0.0070616226883387099 0 0.001915798168693194 -0.0097524023943344838 0 0.0020691281544830738 -0.0086764840653077158 0 0.0020910208749772511 -0.0091963650879148297 0 0.0022781621880036875 -0.0096411880328919342 0 0.001915798168693194 -0.0097524023943344838 0 0.0020910208749772511 -0.0091963650879148297 0 0.006525284733357316 -0.0070902625214503117 0 0.003594679072450071 -0.0048145025271313585 0 0.0064674793736634673 -0.0011562709229820105 0 0.010456450181482254 -0.0055513904974844154 0 0.006525284733357316 -0.0070902625214503117 0 0.0064674793736634673 -0.0011562709229820105 0 0.0035730610913068711 -0.0020754759620338027 0 0.003594679072450071 -0.0048145025271313585 0 0.0064674793736634673 -0.0011562709229820105 0 0.0035730610913068711 -0.0020754759620338027 0 0.0017900465107378674 -0.0034986263654146407 0 0.0017153865469810214 -0.0013422312578352678 0 0.0035730610913068711 -0.0020754759620338027 0 0.003594679072450071 -0.0048145025271313585 0 0.0017900465107378674 -0.0034986263654146407 0 0.003594679072450071 -0.0048145025271313585 0 0.00099282466872584771 -0.0063051803700206197 0 0.0017900465107378674 -0.0034986263654146407 0 0.0020691281544830738 -0.0086764840653077158 0 0.006525284733357316 -0.0070902625214503117 0 0.003594679072450071 -0.0048145025271313585 0 0.0020691281544830738 -0.0086764840653077158 0 0.003594679072450071 -0.0048145025271313585 0 0.00099282466872584771 -0.0063051803700206197 0 0.00099282466872584771 -0.0063051803700206197 0 -0.0014056196313793506 -0.0067398710125459562 0 -0.0001003540274094754 -0.0039482943758083651 0 0.00099282466872584771 -0.0063051803700206197 0 0.0017900465107378674 -0.0034986263654146407 0 -0.0001003540274094754 -0.0039482943758083651 0 -0.0075908380522232005 0.011527459119895535 0 -0.0072641316217034284 0.010565122105485353 0 -0.0079109434750973418 0.010113268914865402 0 -0.0014056196313793506 -0.0067398710125459562 0 -0.00091144018891326103 -0.0029733823228887952 0 -0.0001003540274094754 -0.0039482943758083651 0 -0.0075908380522232005 0.011527459119895535 0 -0.0065831247424149048 0.010689669109031137 0 -0.0065707845395608731 0.011785442848675734 0 -0.0033198926007987298 0.0034900421346280987 0 -0.0029107350731361055 0.0033735321216732481 0 -0.0075908380522232005 0.011527459119895535 0 -0.0072641316217034284 0.010565122105485353 0 -0.0065831247424149048 0.010689669109031137 0 -0.0079109434750973418 0.010113268914865402 0 -0.006969722321509917 0.0099243836884954865 0 -0.0069067771811502244 0.0088504699455390565 0 -0.0072641316217034284 0.010565122105485353 0 -0.006969722321509917 0.0099243836884954865 0 -0.0065831247424149048 0.010689669109031137 0 -0.0072641316217034284 0.010565122105485353 0 -0.0079109434750973418 0.010113268914865402 0 -0.006969722321509917 0.0099243836884954865 0 -0.00098071689485582179 -0.0027434195032434443 0 0.00053681515171970522 -0.0021658817047747895 0 0.00027633525002251696 0.00058004982921783157 0 0.0017900465107378674 -0.0034986263654146407 0 -0.0001003540274094754 -0.0039482943758083651 0 0.00053681515171970522 -0.0021658817047747895 0 -0.00098071689485582179 -0.0027434195032434443 0 -0.0001003540274094754 -0.0039482943758083651 0 0.00053681515171970522 -0.0021658817047747895 0 -0.0029107350731361055 0.0033735321216732481 0 -0.0026220869672653412 0.00294705729116345 0 0.0017900465107378674 -0.0034986263654146407 0 0.00053681515171970522 -0.0021658817047747895 0 0.0017153865469810214 -0.0013422312578352678 0 -0.0029107350731361055 0.0033735321216732481 0 -0.0027871662011091903 0.0022661403607254203 0 0.00027633525002251696 0.00058004982921783157 0 0.00022296763243003967 0.0027397537464804536 0 0.0024062545785518853 0.00031457216411285254 0 0.0017153865469810214 -0.0013422312578352678 0 0.00027633525002251696 0.00058004982921783157 0 0.0024062545785518853 0.00031457216411285254 0 0.00053681515171970522 -0.0021658817047747895 0 0.0017153865469810214 -0.0013422312578352678 0 0.00027633525002251696 0.00058004982921783157 0 -0.00021102035415276711 -0.0016267262593551407 0 0.00027633525002251696 0.00058004982921783157 0 -0.0022555135230064608 0.0010607354023495935 0 -0.0029107350731361055 0.0033735321216732481 0 -0.0041085151004645899 0.0047874513244243432 0 0.00027633525002251696 0.00058004982921783157 0 0.00022296763243003967 0.0027397537464804536 0 -0.0022555135230064608 0.0010607354023495935 0 -0.0020330271407199918 0.005599173017362063 0 -0.00097917351082350878 0.0044189719158585243 0 -0.0025004218758766399 0.006016362363583618 0 0.00022296763243003967 0.0027397537464804536 0 -0.0021998740567200472 0.0035294666971537911 0 0.00022296763243003967 0.0027397537464804536 0 -0.0021998740567200472 0.0035294666971537911 0 -0.0022555135230064608 0.0010607354023495935 0 0.00027601120463504762 0.0055476470478281357 0 0.00022296763243003967 0.0027397537464804536 0 0.00275496878660891 0.002771109015628553 0 0.00022296763243003967 0.0027397537464804536 0 0.00275496878660891 0.002771109015628553 0 0.0024062545785518853 0.00031457216411285254 0 0.0028240055824298419 0.0055161521151842804 0 0.0026287080186282682 0.0028215857075456672 0 0.0057942117723336619 0.0032756912915114919 0 0.0026287080186282682 0.0028215857075456672 0 0.0057942117723336619 0.0032756912915114919 0 0.0051371414764782445 3.2360806192828805e-05 0 0.006838124017885177 0.00028149037864392645 0 0.0057942117723336619 0.0032756912915114919 0 0.0051371414764782445 3.2360806192828805e-05 0 0.00275496878660891 0.002771109015628553 0 0.0064674793736634673 -0.0011562709229820105 0 0.0024062545785518853 0.00031457216411285254 0 0.0035730610913068711 -0.0020754759620338027 0 0.0064674793736634673 -0.0011562709229820105 0 0.0024062545785518853 0.00031457216411285254 0 0.0024732695871369417 0.0018591726294135129 0 0.0045607225566515345 -0.001711682858580262 0 0.0035730610913068711 -0.0020754759620338027 0 0.0017153865469810214 -0.0013422312578352678 0 0.0024062545785518853 0.00031457216411285254 0 -0.0040908011553156586 0.0088643919001338244 0 -0.0047619805321978334 0.0092736185763388559 0 -0.0042624862931032971 0.0099765582749463295 0 -0.0040908011553156586 0.0088643919001338244 0 -0.0047999215922464415 0.008102967546169966 0 -0.0047619805321978334 0.0092736185763388559 0 -0.0040908011553156586 0.0088643919001338244 0 -0.0035751415378863644 0.0094449599029211 0 -0.0042624862931032971 0.0099765582749463295 0 -0.0032152759282935723 0.008637509884651345 0 -0.0028669904620897261 0.0097743905386756709 0 -0.002432105243665383 0.0091160356245122368 0 -0.0035751415378863644 0.0094449599029211 0 -0.0032152759282935723 0.008637509884651345 0 -0.0028669904620897261 0.0097743905386756709 0 -0.0040908011553156586 0.0088643919001338244 0 -0.0035751415378863644 0.0094449599029211 0 -0.0032152759282935723 0.008637509884651345 0 -0.0036542854208819441 0.0074619506433048722 0 -0.0032152759282935723 0.008637509884651345 0 -0.0024199021706385834 0.0077178554192051402 0 -0.0032152759282935723 0.008637509884651345 0 -0.0024199021706385834 0.0077178554192051402 0 -0.002432105243665383 0.0091160356245122368 0 -0.0036542854208819441 0.0074619506433048722 0 -0.0032152759282935723 0.008637509884651345 0 -0.0040784497946030705 0.008135029373107611 0 -0.0036542854208819441 0.0074619506433048722 0 -0.0045006063332109743 0.0073509170685637712 0 -0.0040784497946030705 0.008135029373107611 0 -0.0040908011553156586 0.0088643919001338244 0 -0.0032152759282935723 0.008637509884651345 0 -0.0040784497946030705 0.008135029373107611 0 -0.0040908011553156586 0.0088643919001338244 0 -0.0040784497946030705 0.008135029373107611 0 -0.0047999215922464415 0.008102967546169966 0 -0.0045006063332109743 0.0073509170685637712 0 -0.0050832543421952814 0.0074900837271416167 0 -0.0047999215922464415 0.008102967546169966 0 -0.0045006063332109743 0.0073509170685637712 0 -0.0040784497946030705 0.008135029373107611 0 -0.0047999215922464415 0.008102967546169966 0 -0.0050832543421952814 0.0074900837271416167 0 -0.0047999215922464415 0.008102967546169966 0 -0.0057623451427836888 0.0074973650418587367 0 -0.0047999215922464415 0.008102967546169966 0 -0.0057623451427836888 0.0074973650418587367 0 -0.0055015145751625702 0.0088799417411521593 0 -0.0046934268864518734 0.0056101349576969202 0 -0.0041085151004645899 0.0047874513244243432 0 -0.0057623451427836888 0.0074973650418587367 0 -0.0069067771811502244 0.0088504699455390565 0 -0.0055015145751625702 0.0088799417411521593 0 -0.0021998740567200472 0.0035294666971537911 0 -0.0041785678838657915 0.0042497463955089914 0 -0.0022555135230064608 0.0010607354023495935 0 -0.0025004218758766399 0.006016362363583618 0 -0.0021998740567200472 0.0035294666971537911 0 -0.0041785678838657915 0.0042497463955089914 0 -0.0069067771811502244 0.0088504699455390565 0 -0.0055015145751625702 0.0088799417411521593 0 -0.0062086888837953247 0.0096426439434246104 0 -0.006969722321509917 0.0099243836884954865 0 -0.0069067771811502244 0.0088504699455390565 0 -0.0062086888837953247 0.0096426439434246104 0 -0.0047619805321978334 0.0092736185763388559 0 -0.0055015145751625702 0.0088799417411521593 0 -0.0054131077619587759 0.010150305859289492 0 -0.0047999215922464415 0.008102967546169966 0 -0.0047619805321978334 0.0092736185763388559 0 -0.0055015145751625702 0.0088799417411521593 0 -0.0055015145751625702 0.0088799417411521593 0 -0.0054131077619587759 0.010150305859289492 0 -0.0062086888837953247 0.0096426439434246104 0 -0.0047619805321978334 0.0092736185763388559 0 -0.0054131077619587759 0.010150305859289492 0 -0.0042624862931032971 0.0099765582749463295 0 -0.0054131077619587759 0.010150305859289492 0 -0.0046815057589929448 0.010874276299048205 0 -0.0042624862931032971 0.0099765582749463295 0 -0.0054131077619587759 0.010150305859289492 0 -0.0062086888837953247 0.0096426439434246104 0 -0.0065831247424149048 0.010689669109031137 0 -0.006969722321509917 0.0099243836884954865 0 -0.0062086888837953247 0.0096426439434246104 0 -0.0065831247424149048 0.010689669109031137 0 -0.0054131077619587759 0.010150305859289492 0 -0.0065831247424149048 0.010689669109031137 0 -0.0055973394929729661 0.011365475479543485 0 -0.0065831247424149048 0.010689669109031137 0 -0.0055973394929729661 0.011365475479543485 0 -0.0065707845395608731 0.011785442848675734 0 -0.0055973394929729661 0.011365475479543485 0 -0.0046815057589929448 0.010874276299048205 0 -0.0043296743988692158 0.01195667992907351 0 -0.0054131077619587759 0.010150305859289492 0 -0.0055973394929729661 0.011365475479543485 0 -0.0046815057589929448 0.010874276299048205 0 -0.0046815057589929448 0.010874276299048205 0 -0.0035673779681943316 0.010996084657625667 0 -0.0043296743988692158 0.01195667992907351 0 -0.0042624862931032971 0.0099765582749463295 0 -0.0034655634413924613 0.01015853348419294 0 -0.0035673779681943316 0.010996084657625667 0 -0.0046815057589929448 0.010874276299048205 0 -0.0042624862931032971 0.0099765582749463295 0 -0.0035673779681943316 0.010996084657625667 0 -0.0035751415378863644 0.0094449599029211 0 -0.0042624862931032971 0.0099765582749463295 0 -0.0034655634413924613 0.01015853348419294 0 -0.0028669904620897261 0.0097743905386756709 0 -0.0028221244108771722 0.010428783320426765 0 -0.002171171980753252 0.010077921064616312 0 -0.0028669904620897261 0.0097743905386756709 0 -0.0034655634413924613 0.01015853348419294 0 -0.0028221244108771722 0.010428783320426765 0 -0.0035751415378863644 0.0094449599029211 0 -0.0028669904620897261 0.0097743905386756709 0 -0.0034655634413924613 0.01015853348419294 0 -0.0034655634413924613 0.01015853348419294 0 -0.0028221244108771722 0.010428783320426765 0 -0.0035673779681943316 0.010996084657625667 0 -0.0035673779681943316 0.010996084657625667 0 -0.0026346872576867107 0.011553614891939909 0 -0.0043296743988692158 0.01195667992907351 0 -0.0040214754241718678 0.010355929832922222 0 -0.0046299009815056226 0.010194299844650763 0 -0.0026699281002591315 0.017113482125778699 0 -0.0021754002856839249 0.018385973993723048 0 -0.0035673779681943316 0.010996084657625667 0 -0.0026346872576867107 0.011553614891939909 0 -0.0017872501447362885 0.011143112906043267 0 -0.0028221244108771722 0.010428783320426765 0 -0.0035673779681943316 0.010996084657625667 0 -0.0021364047264164944 0.011026257785499392 0 -0.0026346872576867107 0.011553614891939909 0 -0.0026330836818429784 0.012242070152233143 0 -0.0040427681209904082 0.012187826306898917 0 -0.0026346872576867107 0.011553614891939909 0 -0.0026330836818429784 0.012242070152233143 0 -0.0018680325104575373 0.011987181778840875 0 -0.0026330836818429784 0.012242070152233143 0 -0.0028849459859160509 0.01284120526936568 0 -0.0040427681209904082 0.012187826306898917 0 -0.0026330836818429784 0.012242070152233143 0 -0.0028849459859160509 0.01284120526936568 0 -0.0016067678504453229 0.01266857295480775 0 -0.0028849459859160509 0.01284120526936568 0 -0.0036300159553430121 0.012985909838556676 0 -0.0031416410612901324 0.013402504857007716 0 -0.0040427681209904082 0.012187826306898917 0 -0.0036300159553430121 0.012985909838556676 0 -0.0042261202831923332 0.013637210164871337 0 -0.0028849459859160509 0.01284120526936568 0 -0.0040427681209904082 0.012187826306898917 0 -0.0036300159553430121 0.012985909838556676 0 -0.0036300159553430121 0.012985909838556676 0 -0.0042261202831923332 0.013637210164871337 0 -0.0031416410612901324 0.013402504857007716 0 -0.0042261202831923332 0.013637210164871337 0 -0.0028269216845428868 0.014323232801053134 0 -0.0035750385248963065 0.014284289502905065 0 -0.0034910288031344784 0.014641295226542249 0 -0.0028104171090153358 0.015038273970452321 0 -0.0042261202831923332 0.013637210164871337 0 -0.0048160791550470637 0.014485691160640064 0 -0.0035750385248963065 0.014284289502905065 0 -0.0042261202831923332 0.013637210164871337 0 -0.0026255308679107746 0.0141144815541192 0 -0.0031416410612901324 0.013402504857007716 0 -0.0028849459859160509 0.01284120526936568 0 -0.0031416410612901324 0.013402504857007716 0 -0.0023074991643671204 0.013424765986105936 0 -0.0026255308679107746 0.0141144815541192 0 -0.0031416410612901324 0.013402504857007716 0 -0.0023074991643671204 0.013424765986105936 0 -0.0029683229963534041 0.0055402361440764023 0 -0.0052284611563645344 0.0091148565259044113 0 -0.0072754539646220813 0.012914281186635181 0 -0.0065707845395608731 0.011785442848675734 0 -0.0058078771160044 0.012414806016481197 0 -0.0069029962648962159 0.013214849543812432 0 -0.0054664944480504081 0.012714664523226067 0 -0.0061662110874958652 0.013405084287788836 0 -0.0055973394929729661 0.011365475479543485 0 -0.0065707845395608731 0.011785442848675734 0 -0.0058078771160044 0.012414806016481197 0 -0.0055973394929729661 0.011365475479543485 0 -0.0043296743988692158 0.01195667992907351 0 -0.0058078771160044 0.012414806016481197 0 -0.0046299009815056226 0.010194299844650763 0 -0.0052284611563645344 0.0091148565259044113 0 -0.0040427681209904082 0.012187826306898917 0 -0.0042261202831923332 0.013637210164871337 0 -0.0054664944480504081 0.012714664523226067 0 -0.0042261202831923332 0.013637210164871337 0 -0.0055546264202647553 0.01369908642328707 0 -0.0048160791550470637 0.014485691160640064 0 -0.0042261202831923332 0.013637210164871337 0 -0.0054664944480504081 0.012714664523226067 0 -0.0055546264202647553 0.01369908642328707 0 -0.0067397634309797104 0.01399244166871064 0 -0.0055546264202647553 0.01369908642328707 0 -0.0048160791550470637 0.014485691160640064 0 -0.0067397634309797104 0.01399244166871064 0 -0.0055546264202647553 0.01369908642328707 0 -0.0061662110874958652 0.013405084287788836 0 -0.0054664944480504081 0.012714664523226067 0 -0.0055546264202647553 0.01369908642328707 0 -0.0061662110874958652 0.013405084287788836 0 -0.0031784108578969926 0.014723923244259 0 -0.0031018003814875521 0.014815353892226497 0 -0.0031314061905313873 0.014907657959645939 0 -0.0031784108578969926 0.014723923244259 0 -0.0031018003814875521 0.014815353892226497 0 -0.00300709572683352 0.014805714891387422 0 -0.0034799425837350778 0.0060887202195783856 0 -0.0031428906768252076 0.010602670410596487 0 -0.0031018003814875521 0.014815353892226497 0 -0.00300709572683352 0.014805714891387422 0 -0.003038449602321725 0.014887184120131155 0 -0.00300709572683352 0.014805714891387422 0 -0.003038449602321725 0.014887184120131155 0 -0.0029638782746090075 0.014913149246709608 0 -0.003038449602321725 0.014887184120131155 0 -0.0029638782746090075 0.014913149246709608 0 -0.0030036654389708492 0.014997543578300493 0 -0.003038449602321725 0.014887184120131155 0 -0.0031314061905313873 0.014907657959645939 0 -0.0030036654389708492 0.014997543578300493 0 -0.0031018003814875521 0.014815353892226497 0 -0.003038449602321725 0.014887184120131155 0 -0.0031314061905313873 0.014907657959645939 0 -0.002955973604127068 0.014852263742727138 0 -0.0026699174719870141 0.014799079669272132 0 -0.0027373250778871647 0.014983822587113589 0 -0.0028269216845428868 0.014323232801053134 0 -0.002955973604127068 0.014852263742727138 0 -0.0026699174719870141 0.014799079669272132 0 -0.0028269216845428868 0.014323232801053134 0 -0.002955973604127068 0.014852263742727138 0 -0.0035750385248963065 0.014284289502905065 0 -0.0048160791550470637 0.014485691160640064 0 -0.002955973604127068 0.014852263742727138 0 -0.0035750385248963065 0.014284289502905065 0 -0.0031428906768252076 0.010602670410596487 0 -0.0028391379835030076 0.011849139213175758 0 -0.00300709572683352 0.014805714891387422 0 -0.002955973604127068 0.014852263742727138 0 -0.0029638782746090075 0.014913149246709608 0 -0.002955973604127068 0.014852263742727138 0 -0.0029638782746090075 0.014913149246709608 0 -0.0028864838092095345 0.014959462468619948 0 -0.0029638782746090075 0.014913149246709608 0 -0.0028864838092095345 0.014959462468619948 0 -0.0028916941892411221 0.015037575113258546 0 -0.002955973604127068 0.014852263742727138 0 -0.0028864838092095345 0.014959462468619948 0 -0.0027373250778871647 0.014983822587113589 0 -0.0028864838092095345 0.014959462468619948 0 -0.0027827133924664994 0.015030999797376082 0 -0.0027373250778871647 0.014983822587113589 0 -0.0027827133924664994 0.015030999797376082 0 -0.0028916941892411221 0.015037575113258546 0 -0.002769982777541724 0.015104976478636348 0 -0.0028864838092095345 0.014959462468619948 0 -0.0027827133924664994 0.015030999797376082 0 -0.0028916941892411221 0.015037575113258546 0 -0.0028916941892411221 0.015037575113258546 0 -0.0029234154247513564 0.015093735932454555 0 -0.0030036654389708492 0.014997543578300493 0 -0.0029638782746090075 0.014913149246709608 0 -0.0028916941892411221 0.015037575113258546 0 -0.0030036654389708492 0.014997543578300493 0 -0.0028916941892411221 0.015037575113258546 0 -0.0029234154247513564 0.015093735932454555 0 -0.0028613640899397851 0.015134189380522493 0 -0.0029234154247513564 0.015093735932454555 0 -0.0028613640899397851 0.015134189380522493 0 -0.0029368027254227653 0.01514290234531377 0 -0.0028613640899397851 0.015134189380522493 0 -0.002769982777541724 0.015104976478636348 0 -0.0027849433636423409 0.015213645280694302 0 -0.0028916941892411221 0.015037575113258546 0 -0.0028613640899397851 0.015134189380522493 0 -0.002769982777541724 0.015104976478636348 0 -0.0028613640899397851 0.015134189380522493 0 -0.0027849433636423409 0.015213645280694302 0 -0.0028802811411094524 0.015193440597617977 0 -0.0028613640899397851 0.015134189380522493 0 -0.0028802811411094524 0.015193440597617977 0 -0.0029368027254227653 0.01514290234531377 0 -0.0028802811411094524 0.015193440597617977 0 -0.0029285485462250678 0.015206429891735233 0 -0.0029368027254227653 0.01514290234531377 0 -0.0028802811411094524 0.015193440597617977 0 -0.0028863945303361825 0.015254384778076056 0 -0.0029285485462250678 0.015206429891735233 0 -0.0028863945303361825 0.015254384778076056 0 -0.0029303507839051621 0.015238634650400094 0 -0.0029285485462250678 0.015206429891735233 0 0.0050135424030054113 0.036059617817962783 0 0.0064876084551951686 0.034625710846647589 0 0.0046110191527928591 0.034671209522421052 0 -0.0027849433636423409 0.015213645280694302 0 -0.0028802811411094524 0.015193440597617977 0 -0.0028863945303361825 0.015254384778076056 0 -0.00015973115391251883 0.023746949399207677 0 -0.00046226780219100577 0.02012601557902741 0 0.00076502062668224412 -0.011547752094513402 0 0.00070893510247623751 -0.011552257632718523 0 0.0007510138741471746 -0.0114764097896359 0 0.00083245397762040632 -0.011524512813194868 0 0.00080359665727385888 -0.01157620269616054 0 0.00085971407341219692 -0.011601422648001439 0 0.00076502062668224412 -0.011547752094513402 0 0.00083245397762040632 -0.011524512813194868 0 0.00080359665727385888 -0.01157620269616054 0 0.00076502062668224412 -0.011547752094513402 0 0.0007510138741471746 -0.0114764097896359 0 0.00083245397762040632 -0.011524512813194868 0 0.00080359665727385888 -0.01157620269616054 0 0.00085971407341219692 -0.011601422648001439 0 0.00081474204372176126 -0.011610061029855952 0 0.00076502062668224412 -0.011547752094513402 0 0.00070893510247623751 -0.011552257632718523 0 0.00075943754001447678 -0.011582300169719966 0 0.00080359665727385888 -0.01157620269616054 0 0.00075943754001447678 -0.011582300169719966 0 0.00081474204372176126 -0.011610061029855952 0 0.00076502062668224412 -0.011547752094513402 0 0.00080359665727385888 -0.01157620269616054 0 0.00075943754001447678 -0.011582300169719966 0 -0.0029812889879733992 0.015206199539072339 0 -0.0029303507839051621 0.015238634650400094 0 -0.0029285485462250678 0.015206429891735233 0 -0.0029812889879733992 0.015206199539072339 0 -0.0029285485462250678 0.015206429891735233 0 -0.0029639433131627944 0.01516863589441721 0 -0.0029285485462250678 0.015206429891735233 0 -0.0029639433131627944 0.01516863589441721 0 -0.0029368027254227653 0.01514290234531377 0 -0.0029812889879733992 0.015206199539072339 0 -0.0029639433131627944 0.01516863589441721 0 -0.0029937195042378439 0.015129888819313472 0 -0.0029639433131627944 0.01516863589441721 0 -0.0029368027254227653 0.01514290234531377 0 -0.0029937195042378439 0.015129888819313472 0 -0.0029812889879733992 0.015206199539072339 0 -0.0029937195042378439 0.015129888819313472 0 -0.003065946095959636 0.015070997954975317 0 -0.00038828774111277452 0.0028139622735882351 0 -0.0013488554404322403 0.0022809399952199803 0 0.0007510138741471746 -0.0114764097896359 0 0.00066680280450986896 -0.011035777351440209 0 0.00090251752372850287 -0.011061401124336217 0 0.00081564051607439098 -0.011312775551169536 0 0.00092943193100594387 -0.011149940308193022 0 0.00070893510247623751 -0.011552257632718523 0 0.0007510138741471746 -0.0114764097896359 0 0.00066680280450986896 -0.011035777351440209 0 0.0007510138741471746 -0.0114764097896359 0 0.00083245397762040632 -0.011524512813194868 0 0.00087773977258160123 -0.011302890924305378 0 -0.0029234154247513564 0.015093735932454555 0 -0.0029871289385683471 0.015085244854185302 0 -0.0030036654389708492 0.014997543578300493 0 -0.003065946095959636 0.015070997954975317 0 -0.0029871289385683471 0.015085244854185302 0 -0.0030036654389708492 0.014997543578300493 0 -0.0029368027254227653 0.01514290234531377 0 -0.0029937195042378439 0.015129888819313472 0 -0.0029871289385683471 0.015085244854185302 0 -0.0029234154247513564 0.015093735932454555 0 -0.0029368027254227653 0.01514290234531377 0 -0.0029871289385683471 0.015085244854185302 0 -0.0029937195042378439 0.015129888819313472 0 -0.003065946095959636 0.015070997954975317 0 -0.0029871289385683471 0.015085244854185302 0 0.00070419552537561174 -0.010574814523520024 0 0.00066680280450986896 -0.011035777351440209 0 0.00088940112887450878 -0.01080455367715134 0 -0.0022334352773297145 0.0028824330785185235 0 -0.0013488554404322403 0.0022809399952199803 0 -0.0031314061905313873 0.014907657959645939 0 -0.003065946095959636 0.015070997954975317 0 -0.0030036654389708492 0.014997543578300493 0 0.00088940112887450878 -0.01080455367715134 0 0.0011302534768459116 -0.010745333554189038 0 0.00090251752372850287 -0.011061401124336217 0 0.0011598621710815307 -0.010839681001090106 0 0.00092943193100594387 -0.011149940308193022 0 0.0011329517896127277 -0.010915881467724662 0 0.0011154396889314392 -0.011262193181450266 0 0.0014046708209865032 -0.011198201563029826 0 0.0011154396889314392 -0.011262193181450266 0 0.0014046708209865032 -0.011198201563029826 0 0.0011871951418894696 -0.011423870668688716 0 0.0011329517896127277 -0.010915881467724662 0 0.0011154396889314392 -0.011262193181450266 0 0.00087773977258160123 -0.011302890924305378 0 0.00066680280450986896 -0.011035777351440209 0 0.00088940112887450878 -0.01080455367715134 0 0.00090251752372850287 -0.011061401124336217 0 0.0011154396889314392 -0.011262193181450266 0 0.00087773977258160123 -0.011302890924305378 0 0.0010044105488003485 -0.011425055448885077 0 0.0020734226564878204 -0.010789655820950216 0 0.0016230048972039049 -0.010861461073419693 0 0.0018251202017192615 -0.011171063450606731 0 0.0016230048972039049 -0.010861461073419693 0 0.0018251202017192615 -0.011171063450606731 0 0.0014046708209865032 -0.011198201563029826 0 0.0016230048972039049 -0.010861461073419693 0 0.0011329517896127277 -0.010915881467724662 0 0.0014046708209865032 -0.011198201563029826 0 0.0014046708209865032 -0.011198201563029826 0 0.0015723190992222469 -0.01148858762328603 0 0.0011871951418894696 -0.011423870668688716 0 0.0018251202017192615 -0.011171063450606731 0 0.0015723190992222469 -0.01148858762328603 0 0.001933030193743966 -0.01146539381034537 0 0.0018251202017192615 -0.011171063450606731 0 0.0014046708209865032 -0.011198201563029826 0 0.0015723190992222469 -0.01148858762328603 0 0.0015723190992222469 -0.01148858762328603 0 0.001933030193743966 -0.01146539381034537 0 0.0018978283128262808 -0.011832390585553319 0 0.0015723190992222469 -0.01148858762328603 0 0.0012216850750485615 -0.011604447905433449 0 0.0011871951418894696 -0.011423870668688716 0 0.0014233897522525874 -0.011809162497622795 0 0.0012216850750485615 -0.011604447905433449 0 0.00099198845221993475 -0.011741694470642034 0 0.0014233897522525874 -0.011809162497622795 0 0.00099198845221993475 -0.011741694470642034 0 0.0010489986954096181 -0.012116589739408859 0 0.0015723190992222469 -0.01148858762328603 0 0.0014233897522525874 -0.011809162497622795 0 0.0012216850750485615 -0.011604447905433449 0 0.0015723190992222469 -0.01148858762328603 0 0.0014233897522525874 -0.011809162497622795 0 0.0018978283128262808 -0.011832390585553319 0 0.00083245397762040632 -0.011524512813194868 0 0.00087773977258160123 -0.011302890924305378 0 0.00091139799854170818 -0.011521199511428269 0 0.00087773977258160123 -0.011302890924305378 0 0.00091139799854170818 -0.011521199511428269 0 0.0010044105488003485 -0.011425055448885077 0 0.00091139799854170818 -0.011521199511428269 0 0.0010044105488003485 -0.011425055448885077 0 0.00099998106191105923 -0.011589843137516204 0 0.0011154396889314392 -0.011262193181450266 0 0.0010044105488003485 -0.011425055448885077 0 0.0011871951418894696 -0.011423870668688716 0 0.0012216850750485615 -0.011604447905433449 0 0.0011871951418894696 -0.011423870668688716 0 0.00099998106191105923 -0.011589843137516204 0 0.0010044105488003485 -0.011425055448885077 0 0.0011871951418894696 -0.011423870668688716 0 0.00099998106191105923 -0.011589843137516204 0 0.00099998106191105923 -0.011589843137516204 0 0.00099198845221993475 -0.011741694470642034 0 0.00092639293737422702 -0.011637444043297635 0 0.0012216850750485615 -0.011604447905433449 0 0.00099998106191105923 -0.011589843137516204 0 0.00099198845221993475 -0.011741694470642034 0 0.00099198845221993475 -0.011741694470642034 0 0.00092639293737422702 -0.011637444043297635 0 0.00092982412871310636 -0.011675593387300702 0 0.00092639293737422702 -0.011637444043297635 0 0.00089035449911794217 -0.011644675065327523 0 0.00092982412871310636 -0.011675593387300702 0 0.00091139799854170818 -0.011521199511428269 0 0.00099998106191105923 -0.011589843137516204 0 0.00092639293737422702 -0.011637444043297635 0 0.00091139799854170818 -0.011521199511428269 0 0.00092639293737422702 -0.011637444043297635 0 0.00085971407341219692 -0.011601422648001439 0 0.00083245397762040632 -0.011524512813194868 0 0.00091139799854170818 -0.011521199511428269 0 0.00085971407341219692 -0.011601422648001439 0 0.00092639293737422702 -0.011637444043297635 0 0.00085971407341219692 -0.011601422648001439 0 0.00089035449911794217 -0.011644675065327523 0 0.00085971407341219692 -0.011601422648001439 0 0.00085411665836702749 -0.011632139973088648 0 0.00089035449911794217 -0.011644675065327523 0 0.00085411665836702749 -0.011632139973088648 0 0.00089035449911794217 -0.011644675065327523 0 0.00087969103543466642 -0.011652604076778981 0 0.00085411665836702749 -0.011632139973088648 0 0.00087969103543466642 -0.011652604076778981 0 0.00083839588806020862 -0.011635580728048078 0 0.00087969103543466642 -0.011652604076778981 0 0.00090458687550625503 -0.011661667398116126 0 0.00092982412871310636 -0.011675593387300702 0 0.00089035449911794217 -0.011644675065327523 0 0.00087969103543466642 -0.011652604076778981 0 0.00092982412871310636 -0.011675593387300702 0 0.00013570752646310281 -0.010127807395670901 0 0.00013735188272663226 -0.009143718029397516 0 0.00099198845221993475 -0.011741694470642034 0 0.0010489986954096181 -0.012116589739408859 0 0.00080941642403280147 -0.01231359853666724 0 0.00099198845221993475 -0.011741694470642034 0 0.00092982412871310636 -0.011675593387300702 0 0.00091754409602849652 -0.011665118093827018 0 6.2774286057753134e-05 -0.009347657468406342 0 0.00013735188272663226 -0.009143718029397516 0 0.00090458687550625503 -0.011661667398116126 0 0.00092982412871310636 -0.011675593387300702 0 0.00091754409602849652 -0.011665118093827018 0 0.0010489986954096181 -0.012116589739408859 0 0.00072916790622528814 -0.01239824333541481 0 0.00081820109983802994 -0.012937881064850837 0 0.00072916790622528814 -0.01239824333541481 0 0.00081820109983802994 -0.012937881064850837 0 0.00067601288738795482 -0.013127774359157646 0 0.00069663270229211496 -0.0067810991349687129 0 0.0012128769227250631 -0.0063231593175324084 0 0.00082844431289395457 -0.0059338497998458264 0 0.00013735188272663226 -0.009143718029397516 0 0.00080302368844946013 -0.0089099187976473763 0 0.00088681574831962014 -0.011661374673407039 0 0.0008524563305132238 -0.011662693221370217 0 0.00084805247967033803 -0.011647084539683121 0 0.00083416510756486315 -0.0062410870376363317 0 0.0025783848265231975 -0.0016817690505007373 0 0.00087969103543466642 -0.011652604076778981 0 0.00088681574831962014 -0.011661374673407039 0 0.00084805247967033803 -0.011647084539683121 0 0.00090458687550625503 -0.011661667398116126 0 0.00091754409602849652 -0.011665118093827018 0 0.00088681574831962014 -0.011661374673407039 0 0.00013735188272663226 -0.009143718029397516 0 0.00083416510756486315 -0.0062410870376363317 0 0.00087969103543466642 -0.011652604076778981 0 0.00090458687550625503 -0.011661667398116126 0 0.00088681574831962014 -0.011661374673407039 0 0.0011694698823427893 -0.012563726465536175 0 0.0014676946005613646 -0.012280710905919782 0 0.0014233897522525874 -0.011809162497622795 0 0.0015434943148005919 -0.012242681862408298 0 0.0018978283128262808 -0.011832390585553319 0 0.00086266781890713374 -0.012993194190128676 0 0.00093897659368999203 -0.013104297929906802 0 0.00099496315253955799 -0.012743735686866398 0 0.0014233897522525874 -0.011809162497622795 0 0.0010489986954096181 -0.012116589739408859 0 0.0015434943148005919 -0.012242681862408298 0 0.00081820109983802994 -0.012937881064850837 0 0.00086266781890713374 -0.012993194190128676 0 0.00088706816621398395 -0.013076731829139104 0 0.0010489986954096181 -0.012116589739408859 0 0.00081820109983802994 -0.012937881064850837 0 0.0015434943148005919 -0.012242681862408298 0 0.00098388810079864312 -0.012725910807768883 0 0.0011694698823427893 -0.012563726465536175 0 0.00086266781890713374 -0.012993194190128676 0 0.00088706816621398395 -0.013076731829139104 0 0.00093897659368999203 -0.013104297929906802 0 0.00093897659368999203 -0.013104297929906802 0 0.00098665407218801555 -0.013197840171931792 0 0.0010639101505292539 -0.013183408447324558 0 0.00088706816621398395 -0.013076731829139104 0 0.00098665407218801555 -0.013197840171931792 0 0.00088766505548924682 -0.013204268085414686 0 0.00088706816621398395 -0.013076731829139104 0 0.00093897659368999203 -0.013104297929906802 0 0.00098665407218801555 -0.013197840171931792 0 0.00088706816621398395 -0.013076731829139104 0 0.00088766505548924682 -0.013204268085414686 0 0.00082955677361287229 -0.013123570197249572 0 0.00081820109983802994 -0.012937881064850837 0 0.00088706816621398395 -0.013076731829139104 0 0.00082955677361287229 -0.013123570197249572 0 0.00088766505548924682 -0.013204268085414686 0 0.00082955677361287229 -0.013123570197249572 0 0.00079400592367838798 -0.01321715220978781 0 0.00088766505548924682 -0.013204268085414686 0 0.00086112758901219584 -0.013296410474127465 0 0.00096068812630935264 -0.013290639045696669 0 0.00088766505548924682 -0.013204268085414686 0 0.00086112758901219584 -0.013296410474127465 0 0.00079400592367838798 -0.01321715220978781 0 0.00098665407218801555 -0.013197840171931792 0 0.00096068812630935264 -0.013290639045696669 0 0.0010255718522397294 -0.013284504456890004 0 0.00098665407218801555 -0.013197840171931792 0 0.00088766505548924682 -0.013204268085414686 0 0.00096068812630935264 -0.013290639045696669 0 0.0011798004827595753 -0.0058054317476022533 0 0.00082844431289395457 -0.0059338497998458264 0 0.00095752960405926836 -0.005102117393506923 0 0.0016154765783667863 -0.0075711445924396235 0 0.0025783848265231975 -0.0016817690505007373 0 0.0011798004827595753 -0.0058054317476022533 0 0.00095752960405926836 -0.005102117393506923 0 0.0017208284063937838 -0.0058677048744142438 0 0.0012128769227250631 -0.0063231593175324084 0 0.0011798004827595753 -0.0058054317476022533 0 0.0017208284063937838 -0.0058677048744142438 0 0.0012128769227250631 -0.0063231593175324084 0 0.0011798004827595753 -0.0058054317476022533 0 0.00082844431289395457 -0.0059338497998458264 0 0.00080302368844946013 -0.0089099187976473763 0 0.0016154765783667863 -0.0075711445924396235 0 0.00067601288738795482 -0.013127774359157646 0 0.00079400592367838798 -0.01321715220978781 0 0.00070101843711465944 -0.013262662613770062 0 0.00081820109983802994 -0.012937881064850837 0 0.00067601288738795482 -0.013127774359157646 0 0.00082955677361287229 -0.013123570197249572 0 0.00067601288738795482 -0.013127774359157646 0 0.00082955677361287229 -0.013123570197249572 0 0.00079400592367838798 -0.01321715220978781 0 0.00086112758901219584 -0.013296410474127465 0 0.00079400592367838798 -0.01321715220978781 0 0.00070101843711465944 -0.013262662613770062 0 0.0024026919046798946 -0.0036210796944889738 0 0.0030332353915525074 -0.0036221060492922972 0 0.0030035380710583849 -0.0042245511913397297 0 0.0024026919046798946 -0.0036210796944889738 0 0.0030332353915525074 -0.0036221060492922972 0 0.0027321110206456607 -0.0032934868157345198 0 0.0030332353915525074 -0.0036221060492922972 0 0.0030035380710583849 -0.0042245511913397297 0 0.0034167514246457608 -0.0038649463442198429 0 0.0030332353915525074 -0.0036221060492922972 0 0.0034152127750136283 -0.003466042782868814 0 0.0031876643166162894 -0.0032202784874991426 0 0.0030332353915525074 -0.0036221060492922972 0 0.0034167514246457608 -0.0038649463442198429 0 0.0034152127750136283 -0.003466042782868814 0 0.0025783848265231975 -0.0016817690505007373 0 0.0028632988219812116 1.7680087745048305e-05 0 0.0033590870855689263 0.0022228384442646919 0 0.0032642758291826991 0.0022590601577901302 0 0.0032591436272436333 0.0021351965940187142 0 0.0046357347935920244 0.008133699222322207 0 0.0032874530581969981 0.0078898041317851247 0 0.0050799764013912197 0.010227098588635129 0 0.0032642758291826991 0.0022590601577901302 0 0.0031891518457396978 0.0021969601648454727 0 0.0032161301770934616 0.0023554932115089759 0 0.0032642758291826991 0.0022590601577901302 0 0.0031891518457396978 0.0021969601648454727 0 0.0032591436272436333 0.0021351965940187142 0 0.0028632988219812116 1.7680087745048305e-05 0 0.003182993946203987 0.0020879144680468714 0 0.0031002774180517796 0.0054042536688963345 0 0.003182993946203987 0.0020879144680468714 0 0.0031891518457396978 0.0021969601648454727 0 0.0032591436272436333 0.0021351965940187142 0 0.0031627571147616151 0.0020442438941796082 0 0.0034167514246457608 -0.0038649463442198429 0 0.0034152127750136283 -0.003466042782868814 0 0.0038405364311412545 -0.0034994153933078516 0 0.0041969273416178369 0.0060220750297161878 0 0.0033565831711534913 0.0058494514569913392 0 0.0029445855784531036 0.0065369336423880924 0 0.0041969273416178369 0.0060220750297161878 0 0.0029445855784531036 0.0065369336423880924 0 0.0032874530581969981 0.0078898041317851247 0 0.0029445855784531036 0.0065369336423880924 0 0.0018958688565223394 0.0075630346092154894 0 0.0026114084085662498 0.0048408299132906025 0 0.0046357347935920244 0.008133699222322207 0 0.0041969273416178369 0.0060220750297161878 0 0.0032874530581969981 0.0078898041317851247 0 0.0033565831711534913 0.0058494514569913392 0 0.0029445855784531036 0.0065369336423880924 0 0.0026114084085662498 0.0048408299132906025 0 0.0029445855784531036 0.0065369336423880924 0 0.0018958688565223394 0.0075630346092154894 0 0.0032874530581969981 0.0078898041317851247 0 0.0022139541920120813 0.0057581676946797181 0 0.0025514854139099107 0.0043656722390144048 0 0.0016064559922916407 0.0060632047030788304 0 0.0018958688565223394 0.0075630346092154894 0 0.0025873152956344234 0.0049892526689839312 0 0.001013296080519657 0.0058614345205567717 0 0.0016064559922916407 0.0060632047030788304 0 0.00085086849552057462 0.0070847497330072682 0 0.0016064559922916407 0.0060632047030788304 0 0.00085086849552057462 0.0070847497330072682 0 0.0018958688565223394 0.0075630346092154894 0 0.00085086849552057462 0.0070847497330072682 0 0.0022372227726185864 0.0087673355365142664 0 -0.00053501690548005338 0.0073477571398755208 0 0.00085086849552057462 0.0070847497330072682 0 0.0018958688565223394 0.0075630346092154894 0 0.0022372227726185864 0.0087673355365142664 0 0.0049041936511810633 0.016011508722594648 0 0.0025196537586762891 0.017026483714956797 0 0.0022372227726185864 0.0087673355365142664 0 0.0032874530581969981 0.0078898041317851247 0 0.0050799764013912197 0.010227098588635129 0 0.0018958688565223394 0.0075630346092154894 0 0.0022372227726185864 0.0087673355365142664 0 0.0032874530581969981 0.0078898041317851247 0 0.0059755798664095977 0.032030338956074642 0 0.0067096234602418382 0.033235781975908464 0 0.0078569918632558772 0.032958463705194938 0 0.0049041936511810633 0.016011508722594648 0 0.00276658768879802 0.0088794723022209403 0 0.0059755798664095977 0.032030338956074642 0 0.0053353116202418819 0.033425818471623125 0 0.0045602455217946926 0.032531507157367745 0 0.0059755798664095977 0.032030338956074642 0 0.0067096234602418382 0.033235781975908464 0 0.0053353116202418819 0.033425818471623125 0 0.0064876084551951686 0.034625710846647589 0 0.0053353116202418819 0.033425818471623125 0 0.0046110191527928591 0.034671209522421052 0 -0.00046226780219100577 0.02012601557902741 0 0.0021525238885121045 0.0086876565670807385 0 0.0064876084551951686 0.034625710846647589 0 0.0067096234602418382 0.033235781975908464 0 0.0053353116202418819 0.033425818471623125 0 0.0064876084551951686 0.034625710846647589 0 0.0067096234602418382 0.033235781975908464 0 0.00789807154618365 0.033140540590199115 0 -0.0029812889879733992 0.015206199539072339 0 -0.0029303507839051621 0.015238634650400094 0 -0.0029251010873884808 0.015281419659511174 0 0.00070893510247623751 -0.011552257632718523 0 0.00075943754001447678 -0.011582300169719966 0 0.00081025982595299103 -0.011619744232590639 0 -0.00038828774111277452 0.0028139622735882351 0 0.0021525238885121045 0.0086876565670807385 0 -0.0028863945303361825 0.015254384778076056 0 -0.0029303507839051621 0.015238634650400094 0 -0.0029251010873884808 0.015281419659511174 0 0.00075943754001447678 -0.011582300169719966 0 0.00078830159408506666 -0.011604077302197206 0 0.00081025982595299103 -0.011619744232590639 0 0.00075943754001447678 -0.011582300169719966 0 0.00078830159408506666 -0.011604077302197206 0 0.00081474204372176126 -0.011610061029855952 0 0.00078830159408506666 -0.011604077302197206 0 0.00081474204372176126 -0.011610061029855952 0 0.00081461676659648442 -0.01161887572811369 0 0.00085411665836702749 -0.011632139973088648 0 0.00081461676659648442 -0.01161887572811369 0 0.00083839588806020862 -0.011635580728048078 0 0.00085971407341219692 -0.011601422648001439 0 0.00085411665836702749 -0.011632139973088648 0 0.00081474204372176126 -0.011610061029855952 0 0.00085411665836702749 -0.011632139973088648 0 0.00081474204372176126 -0.011610061029855952 0 0.00081461676659648442 -0.01161887572811369 0 0.00078830159408506666 -0.011604077302197206 0 0.0008094043097840503 -0.011620385635210975 0 0.00081025982595299103 -0.011619744232590639 0 0.00081461676659648442 -0.01161887572811369 0 0.00083839588806020862 -0.011635580728048078 0 0.0008094043097840503 -0.011620385635210975 0 0.00078830159408506666 -0.011604077302197206 0 0.00081461676659648442 -0.01161887572811369 0 0.0008094043097840503 -0.011620385635210975 0 0.00083839588806020862 -0.011635580728048078 0 0.00082449579747143086 -0.011630177701458584 0 0.0008094043097840503 -0.011620385635210975 0 0.00082449579747143086 -0.011630177701458584 0 0.0008094043097840503 -0.011620385635210975 0 0.00081531218061312027 -0.011622321736290233 0 0.0033590870855689263 0.0022228384442646919 0 0.0032642758291826991 0.0022590601577901302 0 0.0032318602090143341 0.0023634688147424711 0 0.00081531218061312027 -0.011622321736290233 0 0.00084805247967033803 -0.011647084539683121 0 0.00080559378283297169 -0.011617771107478079 0 0.0025783848265231975 -0.0016817690505007373 0 0.0022780909202533986 0.0079715207467037884 0 0.00082449579747143086 -0.011630177701458584 0 0.00081531218061312027 -0.011622321736290233 0 0.00084805247967033803 -0.011647084539683121 0 0.0008524563305132238 -0.011662693221370217 0 0.00084805247967033803 -0.011647084539683121 0 0.00080559378283297169 -0.011617771107478079 0 0.00087969103543466642 -0.011652604076778981 0 0.00083839588806020862 -0.011635580728048078 0 0.00084805247967033803 -0.011647084539683121 0 0.00083839588806020862 -0.011635580728048078 0 0.00082449579747143086 -0.011630177701458584 0 0.00084805247967033803 -0.011647084539683121 0 0.0032642758291826991 0.0022590601577901302 0 0.0032161301770934616 0.0023554932115089759 0 0.0032318602090143341 0.0023634688147424711 0 0.0067096234602418382 0.033235781975908464 0 0.00789807154618365 0.033140540590199115 0 0.0078569918632558772 0.032958463705194938 0 0.0031002774180517796 0.0054042536688963345 0 0.00276658768879802 0.0088794723022209403 0 0.0008094043097840503 -0.011620385635210975 0 0.00081531218061312027 -0.011622321736290233 0 0.00081025982595299103 -0.011619744232590639 0 0.0021525238885121045 0.0086876565670807385 0 0.0022780909202533986 0.0079715207467037884 0 0.0018193593857280253 0.0074240366331456351 0 0.0022780909202533986 0.0079715207467037884 0 0.00081531218061312027 -0.011622321736290233 0 0.00081025982595299103 -0.011619744232590639 0 0.00081154558857908098 -0.011617334673557276 0 0.0021525238885121045 0.0086876565670807385 0 0.00276658768879802 0.0088794723022209403 0 0.0015128821668710581 0.0069572491494045855 0 0.0011718275711047554 0.0053790992916470451 0 0.0024359888350203324 0.0060241310815710419 0 0.00276658768879802 0.0088794723022209403 0 0.0022780909202533986 0.0079715207467037884 0 0.0041456167974072474 -0.012505082020424481 0 0.0042707962078913442 -0.013026520820123856 0 0.0038453559708173527 -0.012957797585134247 0 0.0038453559708173527 -0.012957797585134247 0 0.0033208162459469758 -0.012655837034976698 0 0.0033766938009451874 -0.01342407492523468 0 0.0041456167974072474 -0.012505082020424481 0 0.0038453559708173527 -0.012957797585134247 0 0.0033208162459469758 -0.012655837034976698 0 0.0042707962078913442 -0.013026520820123856 0 0.0038453559708173527 -0.012957797585134247 0 0.0040989414434486945 -0.013516762088359925 0 0.0033439751088307364 -0.012282370818560559 0 0.0033011387951730484 -0.011985068981383976 0 0.0033208162459469758 -0.012655837034976698 0 0.0039105117295536573 -0.012167692412947356 0 0.0034541991155599278 -0.012223347354545916 0 0.0033208162459469758 -0.012655837034976698 0 0.0031782542822479751 -0.011787116380179654 0 0.0027590219495229802 -0.012394274319713183 0 0.0041456167974072474 -0.012505082020424481 0 0.0033208162459469758 -0.012655837034976698 0 0.0039105117295536573 -0.012167692412947356 0 0.0039105117295536573 -0.012167692412947356 0 0.0040836460741777852 -0.011905021069757677 0 0.0033817839812330368 -0.011761389602731298 0 0.0033011387951730484 -0.011985068981383976 0 0.0032232130745212919 -0.011481102976659292 0 0.0039105117295536573 -0.012167692412947356 0 0.0034541991155599278 -0.012223347354545916 0 0.0033817839812330368 -0.011761389602731298 0 0.0031782542822479751 -0.011787116380179654 0 0.0030413283562422217 -0.011200524623091882 0 0.0025998610224764298 -0.011787898968796624 0 0.0030413283562422217 -0.011200524623091882 0 0.0024989337211131857 -0.011235194950755515 0 0.0025998610224764298 -0.011787898968796624 0 0.0025998610224764298 -0.011787898968796624 0 0.0027590219495229802 -0.012394274319713183 0 0.0023322646010283158 -0.01256383898974745 0 0.0027590219495229802 -0.012394274319713183 0 0.0023322646010283158 -0.01256383898974745 0 0.0024084136389066241 -0.013458644981554378 0 0.0033208162459469758 -0.012655837034976698 0 0.0027590219495229802 -0.012394274319713183 0 0.0024084136389066241 -0.013458644981554378 0 0.0031782542822479751 -0.011787116380179654 0 0.0025998610224764298 -0.011787898968796624 0 0.0027590219495229802 -0.012394274319713183 0 0.0023322646010283158 -0.01256383898974745 0 0.0018266733991314048 -0.012669402947391375 0 0.0021688804931516972 -0.013090734232446404 0 0.0018266733991314048 -0.012669402947391375 0 0.0013688138834028383 -0.012285957577567017 0 0.0014061628540905475 -0.012960682835636369 0 0.0019503721647090727 -0.011843273670751187 0 0.0017703925070153424 -0.011997670750210758 0 0.0018266733991314048 -0.012669402947391375 0 0.0021326225584474014 -0.011639204301869035 0 0.0013688138834028383 -0.012285957577567017 0 0.0025998610224764298 -0.011787898968796624 0 0.0023322646010283158 -0.01256383898974745 0 0.0021326225584474014 -0.011639204301869035 0 0.0023322646010283158 -0.01256383898974745 0 0.0018266733991314048 -0.012669402947391375 0 0.0021326225584474014 -0.011639204301869035 0 0.0024989337211131857 -0.011235194950755515 0 0.0025998610224764298 -0.011787898968796624 0 0.0021326225584474014 -0.011639204301869035 0 0.0024989337211131857 -0.011235194950755515 0 0.002292913552953039 -0.011204627338154019 0 0.0021326225584474014 -0.011639204301869035 0 0.0023609579890351978 -0.010929407246652124 0 0.002292913552953039 -0.011204627338154019 0 0.0021369779279868297 -0.011313134318814307 0 0.0021326225584474014 -0.011639204301869035 0 0.0021369779279868297 -0.011313134318814307 0 0.0021307831045848866 -0.011578355452609931 0 0.002292913552953039 -0.011204627338154019 0 0.0021326225584474014 -0.011639204301869035 0 0.0021369779279868297 -0.011313134318814307 0 0.0023609579890351978 -0.010929407246652124 0 0.0020734226564878204 -0.010789655820950216 0 0.0021369779279868297 -0.011313134318814307 0 0.0020734226564878204 -0.010789655820950216 0 0.0018251202017192615 -0.011171063450606731 0 0.0021369779279868297 -0.011313134318814307 0 0.0018251202017192615 -0.011171063450606731 0 0.0021369779279868297 -0.011313134318814307 0 0.001933030193743966 -0.01146539381034537 0 0.001933030193743966 -0.01146539381034537 0 0.0021307831045848866 -0.011578355452609931 0 0.0018978283128262808 -0.011832390585553319 0 0.0021369779279868297 -0.011313134318814307 0 0.001933030193743966 -0.01146539381034537 0 0.0021307831045848866 -0.011578355452609931 0 0.0013688138834028383 -0.012285957577567017 0 0.00099496315253955799 -0.012743735686866398 0 0.0014061628540905475 -0.012960682835636369 0 0.0017703925070153424 -0.011997670750210758 0 0.0014676946005613646 -0.012280710905919782 0 0.00093897659368999203 -0.013104297929906802 0 0.00099496315253955799 -0.012743735686866398 0 0.0010639101505292539 -0.013183408447324558 0 0.00099496315253955799 -0.012743735686866398 0 0.0014061628540905475 -0.012960682835636369 0 0.0010639101505292539 -0.013183408447324558 0 0.0014061628540905475 -0.012960682835636369 0 0.0010639101505292539 -0.013183408447324558 0 0.0014836034783113189 -0.013433909451569762 0 7.1560707959759473e-05 -0.01405601727157579 0 -4.8763975431005953e-05 -0.01470479897928326 0 0.00098665407218801555 -0.013197840171931792 0 0.0010639101505292539 -0.013183408447324558 0 0.0010599484688141065 -0.013229027677890918 0 0.00098665407218801555 -0.013197840171931792 0 0.0010599484688141065 -0.013229027677890918 0 0.0010255718522397294 -0.013284504456890004 0 0.0010599484688141065 -0.013229027677890918 0 0.0010255718522397294 -0.013284504456890004 0 0.0011003818028592022 -0.013345074035124652 0 -4.8763975431005953e-05 -0.01470479897928326 0 -0.00025191267666988893 -0.017197401581514022 0 0.0011416142475082047 -0.013765855212864763 0 0.0015291616707413835 -0.013909170061638648 0 0.0012672994098737818 -0.014237639161766163 0 0.00061805243142557767 -0.015974532832106172 0 -0.00025191267666988893 -0.017197401581514022 0 0.0015291616707413835 -0.013909170061638648 0 0.0015824979820815044 -0.014170639296897174 0 0.0012771206958354278 -0.014215773588823557 0 0.0010639101505292539 -0.013183408447324558 0 0.0011416142475082047 -0.013765855212864763 0 0.0014836034783113189 -0.013433909451569762 0 0.0011416142475082047 -0.013765855212864763 0 0.0014836034783113189 -0.013433909451569762 0 0.0015291616707413835 -0.013909170061638648 0 0.0014836034783113189 -0.013433909451569762 0 0.0017464511181218055 -0.013657131031923822 0 0.0015291616707413835 -0.013909170061638648 0 0.0015291616707413835 -0.013909170061638648 0 0.0018604997859853532 -0.014075004270284491 0 0.0015824979820815044 -0.014170639296897174 0 0.0017464511181218055 -0.013657131031923822 0 0.0015291616707413835 -0.013909170061638648 0 0.0018604997859853532 -0.014075004270284491 0 0.0018604997859853532 -0.014075004270284491 0 0.0020825432177680758 -0.013661628524889944 0 0.0022106390916467071 -0.01397400773376974 0 0.0017464511181218055 -0.013657131031923822 0 0.0018604997859853532 -0.014075004270284491 0 0.0020825432177680758 -0.013661628524889944 0 0.0017464511181218055 -0.013657131031923822 0 0.0020825432177680758 -0.013661628524889944 0 0.0018552060275428502 -0.013296757172604994 0 0.0020825432177680758 -0.013661628524889944 0 0.0018552060275428502 -0.013296757172604994 0 0.0022393882292764205 -0.013415834403257611 0 0.0018552060275428502 -0.013296757172604994 0 0.0021688804931516972 -0.013090734232446404 0 0.0022393882292764205 -0.013415834403257611 0 0.0014061628540905475 -0.012960682835636369 0 0.0014836034783113189 -0.013433909451569762 0 0.0018552060275428502 -0.013296757172604994 0 0.0014836034783113189 -0.013433909451569762 0 0.0017464511181218055 -0.013657131031923822 0 0.0018552060275428502 -0.013296757172604994 0 0.0018266733991314048 -0.012669402947391375 0 0.0014061628540905475 -0.012960682835636369 0 0.0018552060275428502 -0.013296757172604994 0 0.0018266733991314048 -0.012669402947391375 0 0.0018552060275428502 -0.013296757172604994 0 0.0021688804931516972 -0.013090734232446404 0 0.0023322646010283158 -0.01256383898974745 0 0.0021688804931516972 -0.013090734232446404 0 0.0024084136389066241 -0.013458644981554378 0 0.0018618602039836198 -0.014462468513937957 0 0.0017363428709436723 -0.015034447745088161 0 0.0024084136389066241 -0.013458644981554378 0 0.0022393882292764205 -0.013415834403257611 0 0.0024713579713924634 -0.013621849290233561 0 0.0024084136389066241 -0.013458644981554378 0 0.0013065541885434373 -0.015110756566975097 0 0.0029615594213829007 -0.014266311815757439 0 0.0021688804931516972 -0.013090734232446404 0 0.0024084136389066241 -0.013458644981554378 0 0.0022393882292764205 -0.013415834403257611 0 0.0020825432177680758 -0.013661628524889944 0 0.0022106390916467071 -0.01397400773376974 0 0.0024713579713924634 -0.013621849290233561 0 0.0020825432177680758 -0.013661628524889944 0 0.0022393882292764205 -0.013415834403257611 0 0.0024713579713924634 -0.013621849290233561 0 0.0022106390916467071 -0.01397400773376974 0 0.0024935335883236914 -0.014069848009274168 0 0.0024713579713924634 -0.013621849290233561 0 0.0014942323807610018 -0.016437886311453785 0 0.0017363428709436723 -0.015034447745088161 0 0.00011871581812016198 -0.017341942937118503 0 0.0013065541885434373 -0.015110756566975097 0 0.0017023627156865931 -0.016556352170933014 0 0.00011871581812016198 -0.017341942937118503 0 0.0017023627156865931 -0.016556352170933014 0 0.001581496225273465 -0.0179367329494802 0 0.0013065541885434373 -0.015110756566975097 0 0.0029274182726251319 -0.015840037431774281 0 0.0029615594213829007 -0.014266311815757439 0 0.0013065541885434373 -0.015110756566975097 0 0.0029274182726251319 -0.015840037431774281 0 0.0017023627156865931 -0.016556352170933014 0 0.0029274182726251319 -0.015840037431774281 0 0.0017023627156865931 -0.016556352170933014 0 0.0025700976217293658 -0.01693152731587954 0 0.0017023627156865931 -0.016556352170933014 0 0.0025700976217293658 -0.01693152731587954 0 0.001581496225273465 -0.0179367329494802 0 0.0029274182726251319 -0.015840037431774281 0 0.0025700976217293658 -0.01693152731587954 0 0.0039734391190731034 -0.017431257965241306 0 0.0043294557733536479 -0.0159174219858252 0 0.0029274182726251319 -0.015840037431774281 0 0.0039734391190731034 -0.017431257965241306 0 0.0029274182726251319 -0.015840037431774281 0 0.0038585116578361226 -0.014802568086904591 0 0.0029615594213829007 -0.014266311815757439 0 0.0043294557733536479 -0.0159174219858252 0 0.0029274182726251319 -0.015840037431774281 0 0.0038585116578361226 -0.014802568086904591 0 0.0044036015855114389 -0.014204340397297781 0 0.0038585116578361226 -0.014802568086904591 0 0.003715524093695769 -0.014014511477811799 0 0.0044036015855114389 -0.014204340397297781 0 0.003715524093695769 -0.014014511477811799 0 0.0040989414434486945 -0.013516762088359925 0 0.0038585116578361226 -0.014802568086904591 0 0.003715524093695769 -0.014014511477811799 0 0.0029615594213829007 -0.014266311815757439 0 0.0024084136389066241 -0.013458644981554378 0 0.0029615594213829007 -0.014266311815757439 0 0.0033766938009451874 -0.01342407492523468 0 0.003715524093695769 -0.014014511477811799 0 0.0029615594213829007 -0.014266311815757439 0 0.0033766938009451874 -0.01342407492523468 0 0.0033208162459469758 -0.012655837034976698 0 0.0024084136389066241 -0.013458644981554378 0 0.0033766938009451874 -0.01342407492523468 0 0.0038453559708173527 -0.012957797585134247 0 0.0033766938009451874 -0.01342407492523468 0 0.0040989414434486945 -0.013516762088359925 0 0.003715524093695769 -0.014014511477811799 0 0.0033766938009451874 -0.01342407492523468 0 0.0040989414434486945 -0.013516762088359925 0 0.0029917194823338676 -0.031828092390178087 0 0.0022025097488143127 -0.031522728298813418 0 0.0084418870688131517 -0.028937044936363458 0 0.0059224160319016235 -0.027113128071964282 0 0.0043920989472673727 -0.029802933290941688 0 0.0059224160319016235 -0.027113128071964282 0 0.0038904322428916652 -0.026964526634980106 0 0.0050423800029619544 -0.025218936491464023 0 0.0084418870688131517 -0.028937044936363458 0 0.0059224160319016235 -0.027113128071964282 0 0.0071830381748184896 -0.026586235998984051 0 0.0059224160319016235 -0.027113128071964282 0 0.0038904322428916652 -0.026964526634980106 0 0.0043920989472673727 -0.029802933290941688 0 0.0024164165266990314 -0.028142151103740881 0 0.0038904322428916652 -0.026964526634980106 0 0.0043920989472673727 -0.029802933290941688 0 0.0024164165266990314 -0.028142151103740881 0 -0.00059461700438116251 -0.030778438024265584 0 0.0043920989472673727 -0.029802933290941688 0 0.0024164165266990314 -0.028142151103740881 0 0.00057131333282990963 -0.028236603771503301 0 -0.00059461700438116251 -0.030778438024265584 0 0.00057131333282990963 -0.028236603771503301 0 0.0020393234735936331 -0.02648008104255695 0 0.00075695697377204632 -0.026484066722621668 0 0.0024164165266990314 -0.028142151103740881 0 0.00057131333282990963 -0.028236603771503301 0 0.0020393234735936331 -0.02648008104255695 0 0.0024164165266990314 -0.028142151103740881 0 0.0020393234735936331 -0.02648008104255695 0 0.0038904322428916652 -0.026964526634980106 0 0.0020393234735936331 -0.02648008104255695 0 0.0038904322428916652 -0.026964526634980106 0 0.0034454343783180963 -0.025268294882394536 0 0.0020393234735936331 -0.02648008104255695 0 0.0034454343783180963 -0.025268294882394536 0 0.0021991285135488526 -0.024219181034984612 0 0.0034454343783180963 -0.025268294882394536 0 0.0038356113744109524 -0.023390602888408968 0 0.0050423800029619544 -0.025218936491464023 0 0.0020393234735936331 -0.02648008104255695 0 0.0021991285135488526 -0.024219181034984612 0 0.00066772982006663487 -0.025164291989239019 0 0.0020393234735936331 -0.02648008104255695 0 0.00066772982006663487 -0.025164291989239019 0 0.00075695697377204632 -0.026484066722621668 0 0.0021991285135488526 -0.024219181034984612 0 0.0038356113744109524 -0.023390602888408968 0 0.0018402967590289993 -0.021755144106814586 0 0.0021991285135488526 -0.024219181034984612 0 0.00054349738733918296 -0.023401677534028519 0 0.00066772982006663487 -0.025164291989239019 0 0.0021991285135488526 -0.024219181034984612 0 0.0018402967590289993 -0.021755144106814586 0 0.00054349738733918296 -0.023401677534028519 0 0.0034454343783180963 -0.025268294882394536 0 0.0021991285135488526 -0.024219181034984612 0 0.0038356113744109524 -0.023390602888408968 0 0.0038356113744109524 -0.023390602888408968 0 0.0055422604975272453 -0.023767182631708579 0 0.0050423800029619544 -0.025218936491464023 0 0.0038904322428916652 -0.026964526634980106 0 0.0034454343783180963 -0.025268294882394536 0 0.0050423800029619544 -0.025218936491464023 0 0.0055422604975272453 -0.023767182631708579 0 0.0050423800029619544 -0.025218936491464023 0 0.0066360390198416386 -0.025092433986492114 0 0.0059224160319016235 -0.027113128071964282 0 0.0071830381748184896 -0.026586235998984051 0 0.0066360390198416386 -0.025092433986492114 0 0.0059224160319016235 -0.027113128071964282 0 0.0050423800029619544 -0.025218936491464023 0 0.0066360390198416386 -0.025092433986492114 0 0.007734209885170951 -0.025205110224494495 0 0.0071830381748184896 -0.026586235998984051 0 0.0066360390198416386 -0.025092433986492114 0 0.0080094453343216871 -0.02460057755144399 0 0.0066360390198416386 -0.025092433986492114 0 0.0068946148015295869 -0.023540897377060221 0 0.0055422604975272453 -0.023767182631708579 0 0.0066360390198416386 -0.025092433986492114 0 0.0068946148015295869 -0.023540897377060221 0 0.0077878759586147046 -0.022369317062987608 0 0.0068946148015295869 -0.023540897377060221 0 0.0054536934112352792 -0.021842065026165598 0 0.0055422604975272453 -0.023767182631708579 0 0.0068946148015295869 -0.023540897377060221 0 0.0054536934112352792 -0.021842065026165598 0 0.0038356113744109524 -0.023390602888408968 0 0.0055422604975272453 -0.023767182631708579 0 0.0054536934112352792 -0.021842065026165598 0 0.0051015393353317133 -0.021760675605561823 0 0.0051390485882636412 -0.02011000060607979 0 0.0035506609550944807 -0.019635907548046436 0 0.0066394991425192439 -0.020688679144236746 0 0.0051015393353317133 -0.021760675605561823 0 0.0051390485882636412 -0.02011000060607979 0 0.0066394991425192439 -0.020688679144236746 0 0.0051390485882636412 -0.02011000060607979 0 0.005769381187095148 -0.018014748598275409 0 0.0051390485882636412 -0.02011000060607979 0 0.005769381187095148 -0.018014748598275409 0 0.0035506609550944807 -0.019635907548046436 0 0.004568333254276506 -0.02141118721889379 0 0.0033078607214675182 -0.020609655528314473 0 0.005769381187095148 -0.018014748598275409 0 0.001581496225273465 -0.0179367329494802 0 0.0035506609550944807 -0.019635907548046436 0 0.0025700976217293658 -0.01693152731587954 0 0.0039734391190731034 -0.017431257965241306 0 0.001581496225273465 -0.0179367329494802 0 0.001581496225273465 -0.0179367329494802 0 0.0035506609550944807 -0.019635907548046436 0 0.0010434998279622329 -0.019642413141129675 0 0.0038356113744109524 -0.023390602888408968 0 0.0054536934112352792 -0.021842065026165598 0 0.0018402967590289993 -0.021755144106814586 0 0.0047639644335635703 -0.025748623917528204 0 0.0039990346520649761 -0.025224340066497528 0 0.0035506609550944807 -0.019635907548046436 0 0.0018402967590289993 -0.021755144106814586 0 0.0010434998279622329 -0.019642413141129675 0 0.0051015393353317133 -0.021760675605561823 0 0.0035506609550944807 -0.019635907548046436 0 0.0018402967590289993 -0.021755144106814586 0 0.0018402967590289993 -0.021755144106814586 0 -0.0011329997173091858 -0.021288993814490686 0 0.00054349738733918296 -0.023401677534028519 0 0.0018402967590289993 -0.021755144106814586 0 -0.0011329997173091858 -0.021288993814490686 0 0.0010434998279622329 -0.019642413141129675 0 -0.0011329997173091858 -0.021288993814490686 0 -0.00049399708247068602 -0.024388919339863015 0 0.00054349738733918296 -0.023401677534028519 0 0.0024935335883236914 -0.014069848009274168 0 0.0024828514905715937 -0.014557761076774192 0 0.0022987302340004359 -0.014273826127525773 0 0.00011871581812016198 -0.017341942937118503 0 -0.0011329997173091858 -0.021288993814490686 0 0.0010434998279622329 -0.019642413141129675 0 0.0014942323807610018 -0.016437886311453785 0 0.0013025162774223803 -0.018618172385146545 0 0.00011871581812016198 -0.017341942937118503 0 0.001581496225273465 -0.0179367329494802 0 0.0010434998279622329 -0.019642413141129675 0 0.0022106390916467071 -0.01397400773376974 0 0.0022987302340004359 -0.014273826127525773 0 0.0021113054005842151 -0.014263749233121115 0 0.0022106390916467071 -0.01397400773376974 0 0.0024935335883236914 -0.014069848009274168 0 0.0022987302340004359 -0.014273826127525773 0 0.0022987302340004359 -0.014273826127525773 0 0.0021996264736185737 -0.014518082549899404 0 0.0021113054005842151 -0.014263749233121115 0 0.0024828514905715937 -0.014557761076774192 0 0.0022987302340004359 -0.014273826127525773 0 0.0021996264736185737 -0.014518082549899404 0 0.0024828514905715937 -0.014557761076774192 0 0.0021996264736185737 -0.014518082549899404 0 0.0022898762376950621 -0.014729821065508301 0 0.0021996264736185737 -0.014518082549899404 0 0.0022898762376950621 -0.014729821065508301 0 0.0020388637649939078 -0.014765328097025609 0 0.0024828514905715937 -0.014557761076774192 0 0.0022898762376950621 -0.014729821065508301 0 0.0024425956798517319 -0.015066508749708343 0 -0.004131426031006755 -0.02574624366712994 0 -0.0033540424870123976 -0.02590819571767564 0 -0.0038627252808018861 -0.026125044320209904 0 0.0013318372394611594 -0.021842488130805433 0 0.00018881949312038582 -0.020415235207116904 0 0.0022898762376950621 -0.014729821065508301 0 0.0024425956798517319 -0.015066508749708343 0 0.0020388637649939078 -0.014765328097025609 0 -0.0011329997173091858 -0.021288993814490686 0 -0.00049399708247068602 -0.024388919339863015 0 -0.0019720564292111677 -0.025883022668041804 0 0.0013025162774223803 -0.018618172385146545 0 0.0013318372394611594 -0.021842488130805433 0 -0.00049399708247068602 -0.024388919339863015 0 0.00054349738733918296 -0.023401677534028519 0 0.00066772982006663487 -0.025164291989239019 0 -0.00049399708247068602 -0.024388919339863015 0 0.00066772982006663487 -0.025164291989239019 0 -0.00023384238200260373 -0.026090786331033917 0 0.00066772982006663487 -0.025164291989239019 0 -0.00023384238200260373 -0.026090786331033917 0 0.00075695697377204632 -0.026484066722621668 0 -0.00049399708247068602 -0.024388919339863015 0 -0.00023384238200260373 -0.026090786331033917 0 -0.0019720564292111677 -0.025883022668041804 0 -0.0029653352414105343 -0.026816932122959516 0 -0.0017613047257560046 -0.028832190390616203 0 -0.0029757250362446191 -0.030476987457124335 0 0.0013318372394611594 -0.021842488130805433 0 0.0012862400531692029 -0.022012823550200421 0 0.00057131333282990963 -0.028236603771503301 0 -0.0028762167109269779 -0.025830965118508572 0 -0.0029653352414105343 -0.026816932122959516 0 0.00057131333282990963 -0.028236603771503301 0 -0.0029653352414105343 -0.026816932122959516 0 -0.0017613047257560046 -0.028832190390616203 0 0.00057131333282990963 -0.028236603771503301 0 -0.00023384238200260373 -0.026090786331033917 0 0.00075695697377204632 -0.026484066722621668 0 0.0015545455398710871 -0.022873244290858932 0 0.0013318372394611594 -0.021842488130805433 0 0.00057131333282990963 -0.028236603771503301 0 -0.00023384238200260373 -0.026090786331033917 0 -0.0019720564292111677 -0.025883022668041804 0 0.00057131333282990963 -0.028236603771503301 0 -0.0017613047257560046 -0.028832190390616203 0 -0.00059461700438116251 -0.030778438024265584 0 -0.0030457829928495187 -0.025925788903645532 0 -0.0026651752911460878 -0.026109827680631494 0 -0.004131426031006755 -0.02574624366712994 0 -0.0034491167678850337 -0.024089400374115982 0 -0.0043763755322374425 -0.023146150478138134 0 -0.004131426031006755 -0.02574624366712994 0 -0.0029653352414105343 -0.026816932122959516 0 -0.0029757250362446191 -0.030476987457124335 0 -0.004131426031006755 -0.02574624366712994 0 -0.0043763755322374425 -0.023146150478138134 0 -0.0059023256767177694 -0.0226790388493107 0 -0.004131426031006755 -0.02574624366712994 0 -0.0033540424870123976 -0.02590819571767564 0 -0.0029653352414105343 -0.026816932122959516 0 -0.002481980851727622 -0.024562844214678633 0 -0.0034491167678850337 -0.024089400374115982 0 -0.0034175956306008782 -0.025437007717161501 0 -0.004131426031006755 -0.02574624366712994 0 -0.0034491167678850337 -0.024089400374115982 0 -0.0034175956306008782 -0.025437007717161501 0 -0.0034491167678850337 -0.024089400374115982 0 -0.0026109153322039329 -0.023460785093711307 0 -0.0035143039666333232 -0.022275732869873503 0 -0.002481980851727622 -0.024562844214678633 0 -0.0034491167678850337 -0.024089400374115982 0 -0.0026109153322039329 -0.023460785093711307 0 -0.002481980851727622 -0.024562844214678633 0 -0.0026109153322039329 -0.023460785093711307 0 -0.0017583857033715772 -0.023815781531191654 0 -0.0026109153322039329 -0.023460785093711307 0 -0.0017583857033715772 -0.023815781531191654 0 -0.0018541199632994782 -0.022415361340874157 0 -0.0017583857033715772 -0.023815781531191654 0 -0.00038928453901355471 -0.02380371510130869 0 -0.0018541199632994782 -0.022415361340874157 0 -0.0017583857033715772 -0.023815781531191654 0 -0.0012826694288615595 -0.024913148510503167 0 -0.00038928453901355471 -0.02380371510130869 0 -0.002481980851727622 -0.024562844214678633 0 -0.0017583857033715772 -0.023815781531191654 0 -0.0012826694288615595 -0.024913148510503167 0 -0.002481980851727622 -0.024562844214678633 0 -0.0012826694288615595 -0.024913148510503167 0 -0.0018977589438744554 -0.025954344977914805 0 -0.0012826694288615595 -0.024913148510503167 0 -0.0018977589438744554 -0.025954344977914805 0 -6.3258057794637594e-06 -0.02644625067385626 0 -0.0018977589438744554 -0.025954344977914805 0 -0.0034175956306008782 -0.025437007717161501 0 -0.0038627252808018861 -0.026125044320209904 0 -0.002481980851727622 -0.024562844214678633 0 -0.0018977589438744554 -0.025954344977914805 0 -0.0034175956306008782 -0.025437007717161501 0 -0.004131426031006755 -0.02574624366712994 0 -0.0034175956306008782 -0.025437007717161501 0 -0.0038627252808018861 -0.026125044320209904 0 0.0021996264736185737 -0.014518082549899404 0 0.0020388637649939078 -0.014765328097025609 0 0.0019523773391697979 -0.014460061876237525 0 0.0020388637649939078 -0.014765328097025609 0 0.0019523773391697979 -0.014460061876237525 0 0.001664990545275765 -0.014484100866916571 0 0.00018881949312038582 -0.020415235207116904 0 0.00039024315673750278 -0.019542591802359892 0 0.0018604997859853532 -0.014075004270284491 0 0.0022106390916467071 -0.01397400773376974 0 0.0021113054005842151 -0.014263749233121115 0 0.0018604997859853532 -0.014075004270284491 0 0.0019523773391697979 -0.014460061876237525 0 0.0021113054005842151 -0.014263749233121115 0 0.0018604997859853532 -0.014075004270284491 0 0.0019523773391697979 -0.014460061876237525 0 0.001664990545275765 -0.014484100866916571 0 0.0021996264736185737 -0.014518082549899404 0 0.0019523773391697979 -0.014460061876237525 0 0.0021113054005842151 -0.014263749233121115 0 0.0018604997859853532 -0.014075004270284491 0 0.0015824979820815044 -0.014170639296897174 0 0.001664990545275765 -0.014484100866916571 0 0.0015824979820815044 -0.014170639296897174 0 0.001664990545275765 -0.014484100866916571 0 0.0012771206958354278 -0.014215773588823557 0 -0.0018977589438744554 -0.025954344977914805 0 -0.0016009535610085729 -0.027797037252931089 0 -6.3258057794637594e-06 -0.02644625067385626 0 -0.0018977589438744554 -0.025954344977914805 0 -0.0038627252808018861 -0.026125044320209904 0 -0.0016009535610085729 -0.027797037252931089 0 -0.0016009535610085729 -0.027797037252931089 0 0.00046046370937946146 -0.029162817459011829 0 -6.3258057794637594e-06 -0.02644625067385626 0 -0.00097209430531816567 -0.018664879041703036 0 -0.0013008344402126936 -0.019078927011647887 0 -0.00085462759083778761 -0.019349547702510878 0 -0.00025191267666988893 -0.017197401581514022 0 -8.3031683837078935e-05 -0.021609564227309946 0 0.00039024315673750278 -0.019542591802359892 0 -0.00025191267666988893 -0.017197401581514022 0 0.0011003818028592022 -0.013345074035124652 0 0.0010194038031210307 -0.013355167628505953 0 0.0010342067290487712 -0.013434885668675038 0 -0.00025191267666988893 -0.017197401581514022 0 3.4160285279238036e-05 -0.015792597204548849 0 0.00096068812630935264 -0.013290639045696669 0 0.0010255718522397294 -0.013284504456890004 0 0.0010194038031210307 -0.013355167628505953 0 0.0010255718522397294 -0.013284504456890004 0 0.0011003818028592022 -0.013345074035124652 0 0.0010194038031210307 -0.013355167628505953 0 0.0010194038031210307 -0.013355167628505953 0 0.0010342067290487712 -0.013434885668675038 0 0.0009544448559981937 -0.013398488541454213 0 -0.0013008344402126936 -0.019078927011647887 0 -0.0013198466244006889 -0.019378155340768075 0 -0.00085462759083778761 -0.019349547702510878 0 -0.0013008344402126936 -0.019078927011647887 0 -0.0013198466244006889 -0.019378155340768075 0 -0.0015949997949347382 -0.019447420267919142 0 3.4160285279238036e-05 -0.015792597204548849 0 0.00065781813618405428 -0.013980128450663147 0 -0.0013198466244006889 -0.019378155340768075 0 -0.0013950630727107686 -0.01965390791011155 0 -0.0015949997949347382 -0.019447420267919142 0 -0.0013950630727107686 -0.01965390791011155 0 -0.0011093981232456747 -0.019560303806470457 0 -0.00099053625058705174 -0.01986395172680628 0 -0.0013198466244006889 -0.019378155340768075 0 -0.0011093981232456747 -0.019560303806470457 0 -0.00085462759083778761 -0.019349547702510878 0 -0.0013198466244006889 -0.019378155340768075 0 -0.0013950630727107686 -0.01965390791011155 0 -0.0011093981232456747 -0.019560303806470457 0 -8.3031683837078935e-05 -0.021609564227309946 0 -0.00037831988160681344 -0.021515369798450062 0 -0.0012826694288615595 -0.024913148510503167 0 -6.3258057794637594e-06 -0.02644625067385626 0 -0.00038928453901355471 -0.02380371510130869 0 -0.0011093981232456747 -0.019560303806470457 0 -0.00085462759083778761 -0.019349547702510878 0 -0.00099053625058705174 -0.01986395172680628 0 -0.00085462759083778761 -0.019349547702510878 0 -0.00099053625058705174 -0.01986395172680628 0 -0.00076596596704045332 -0.019980633283759257 0 -0.00076596596704045332 -0.019980633283759257 0 -0.00098667743837054216 -0.020027349501947341 0 -0.00089520076338901148 -0.020136523158611305 0 -0.00099053625058705174 -0.01986395172680628 0 -0.00076596596704045332 -0.019980633283759257 0 -0.00098667743837054216 -0.020027349501947341 0 0.00078760506752559517 -0.014841197085315918 0 0.0010156146805230947 -0.016308817715769294 0 -0.0013254393463836851 -0.019677046382219419 0 -0.00099053625058705174 -0.01986395172680628 0 -0.00098667743837054216 -0.020027349501947341 0 0.00078760506752559517 -0.014841197085315918 0 0.00068093030406270378 -0.015498015689868938 0 -0.0011730841142346699 -0.019780818796487635 0 -0.00098667743837054216 -0.020027349501947341 0 -0.0010993878678827573 -0.020004517203675409 0 -0.0011730841142346699 -0.019780818796487635 0 -0.0010993878678827573 -0.020004517203675409 0 -0.0013196337861492494 -0.019704180946987591 0 0.0011998431818618686 -0.017625544855492489 0 0.00072962019166635092 -0.01329677550511911 0 0.0001023377560683618 -0.021024605013686241 0 0.00091599835835280241 -0.021136436673566031 0 0.0006477532599014794 -0.020659563264690404 0 0.0001023377560683618 -0.021024605013686241 0 0.00014489622864438412 -0.02027273403029289 0 -0.00086017890489327637 -0.020178524577758258 0 0.00014489622864438412 -0.02027273403029289 0 0.0005407944740205093 -0.019689923568524188 0 0.00088241539374721712 -0.020167011602423141 0 0.00014489622864438412 -0.02027273403029289 0 0.00088241539374721712 -0.020167011602423141 0 0.0006477532599014794 -0.020659563264690404 0 0.0001023377560683618 -0.021024605013686241 0 0.00014489622864438412 -0.02027273403029289 0 0.0006477532599014794 -0.020659563264690404 0 -0.00098667743837054216 -0.020027349501947341 0 -0.0010993878678827573 -0.020004517203675409 0 -0.00086017890489327637 -0.020178524577758258 0 -0.00098667743837054216 -0.020027349501947341 0 -0.00089520076338901148 -0.020136523158611305 0 -0.00086017890489327637 -0.020178524577758258 0 0.00014489622864438412 -0.02027273403029289 0 -0.00086017890489327637 -0.020178524577758258 0 -0.00027640743921648474 -0.019871703707848895 0 0.0011998431818618686 -0.017625544855492489 0 0.00092280105156771538 -0.01839301065881202 0 -0.00089520076338901148 -0.020136523158611305 0 -0.00086017890489327637 -0.020178524577758258 0 -0.0010945107882009667 -0.020307451529536467 0 -0.00086017890489327637 -0.020178524577758258 0 -0.00027640743921648474 -0.019871703707848895 0 -0.00072190704377768605 -0.019265059141118701 0 -0.00086017890489327637 -0.020178524577758258 0 -0.00072190704377768605 -0.019265059141118701 0 -0.0010945107882009667 -0.020307451529536467 0 -0.00027640743921648474 -0.019871703707848895 0 -0.00072190704377768605 -0.019265059141118701 0 -0.0002627767070920533 -0.018814817484825191 0 -0.00027640743921648474 -0.019871703707848895 0 -0.0002627767070920533 -0.018814817484825191 0 0.00032547141118333524 -0.017971655719420242 0 -0.00027640743921648474 -0.019871703707848895 0 0.0005407944740205093 -0.019689923568524188 0 0.00075674916761224887 -0.018632052421590998 0 -0.0010207325901226683 -0.018038426407043229 0 -0.00076304139869392369 -0.016864670126221361 0 0.00014489622864438412 -0.02027273403029289 0 -0.00027640743921648474 -0.019871703707848895 0 0.0005407944740205093 -0.019689923568524188 0 -0.0002627767070920533 -0.018814817484825191 0 -0.00033647529531650121 -0.018366902070582166 0 0.00032547141118333524 -0.017971655719420242 0 -5.8201755219819113e-07 -0.01644239677085798 0 -0.00033647529531650121 -0.018366902070582166 0 -1.5045413153488539e-06 -0.019558251894382171 0 -5.8201755219819113e-07 -0.01644239677085798 0 -0.00033647529531650121 -0.018366902070582166 0 0.00032547141118333524 -0.017971655719420242 0 -0.00033647529531650121 -0.018366902070582166 0 -1.5045413153488539e-06 -0.019558251894382171 0 -0.00038659978617382911 -0.019940620055001156 0 -0.00072190704377768605 -0.019265059141118701 0 -0.0002627767070920533 -0.018814817484825191 0 -0.00033647529531650121 -0.018366902070582166 0 -0.00066773980893126516 -0.020777436129697249 0 -0.0008033815832302134 -0.021157410398792213 0 -0.00072190704377768605 -0.019265059141118701 0 -0.00033647529531650121 -0.018366902070582166 0 -0.0012213149154599091 -0.018528280476460469 0 -0.0012213149154599091 -0.018528280476460469 0 -0.0020361635782110386 -0.019575073665718479 0 -0.0012499354633582365 -0.01938165110091614 0 -0.00072190704377768605 -0.019265059141118701 0 -0.0012213149154599091 -0.018528280476460469 0 -0.0012499354633582365 -0.01938165110091614 0 -0.0012213149154599091 -0.018528280476460469 0 -0.0028095573509594666 -0.018808122839704483 0 -0.0020361635782110386 -0.019575073665718479 0 -0.0008033815832302134 -0.021157410398792213 0 -0.0013440546384869466 -0.022337453998413553 0 -1.5045413153488539e-06 -0.019558251894382171 0 -0.00038659978617382911 -0.019940620055001156 0 2.296419695744083e-06 -0.022664228296151081 0 -0.00038659978617382911 -0.019940620055001156 0 2.296419695744083e-06 -0.022664228296151081 0 0.001170415338376738 -0.019553678251844994 0 -2.2521075164673612e-06 -0.022669669797844159 0 -0.0013440546384869466 -0.022337453998413553 0 2.8285664120998724e-06 -0.022674759091260786 0 0.00061124509260182644 -0.026102196125126473 0 -0.00025474860098402807 -0.02546245848543879 0 -0.0013440546384869466 -0.022337453998413553 0 -0.0015764839455043259 -0.024391449801155013 0 -0.0029499066643579432 -0.018724787691850115 0 -0.0032304916199702538 -0.020506803063978677 0 -0.0049724821085630573 -0.019378645612764357 0 -0.0032378782607710315 -0.020238660458098089 0 -0.0020361635782110386 -0.019575073665718479 0 -0.0022751480481713287 -0.02100449240692431 0 -0.0013440546384869466 -0.022337453998413553 0 -0.0017009532051883529 -0.021602669873584533 0 -0.0028095573509594666 -0.018808122839704483 0 -0.0032378782607710315 -0.020238660458098089 0 -0.0020361635782110386 -0.019575073665718479 0 -0.0020361635782110386 -0.019575073665718479 0 -0.0012499354633582365 -0.01938165110091614 0 -0.0010945107882009667 -0.020307451529536467 0 -0.00072190704377768605 -0.019265059141118701 0 -0.0012499354633582365 -0.01938165110091614 0 -0.0010945107882009667 -0.020307451529536467 0 -0.0020361635782110386 -0.019575073665718479 0 -0.0010945107882009667 -0.020307451529536467 0 -0.0022751480481713287 -0.02100449240692431 0 -0.0010945107882009667 -0.020307451529536467 0 -0.0022751480481713287 -0.02100449240692431 0 -0.0018541199632994782 -0.022415361340874157 0 -0.00038928453901355471 -0.02380371510130869 0 -0.0010945107882009667 -0.020307451529536467 0 -0.0018541199632994782 -0.022415361340874157 0 -0.00037831988160681344 -0.021515369798450062 0 -0.00058474423207128591 -0.020991335942415347 0 -0.00076596596704045332 -0.019980633283759257 0 -0.00089520076338901148 -0.020136523158611305 0 -0.0010945107882009667 -0.020307451529536467 0 -0.0026109153322039329 -0.023460785093711307 0 -0.0018541199632994782 -0.022415361340874157 0 -0.0035143039666333232 -0.022275732869873503 0 -0.0034491167678850337 -0.024089400374115982 0 -0.0035143039666333232 -0.022275732869873503 0 -0.0043763755322374425 -0.023146150478138134 0 -0.0032304916199702538 -0.020506803063978677 0 -0.0035143039666333232 -0.022275732869873503 0 -0.0048454372790891756 -0.021169897638050269 0 -0.0017009532051883529 -0.021602669873584533 0 -0.0018585542599066254 -0.02166252604884044 0 -0.0032378782607710315 -0.020238660458098089 0 -0.0022751480481713287 -0.02100449240692431 0 -0.0035143039666333232 -0.022275732869873503 0 -0.0022751480481713287 -0.02100449240692431 0 -0.0018541199632994782 -0.022415361340874157 0 -0.0035143039666333232 -0.022275732869873503 0 -0.0035143039666333232 -0.022275732869873503 0 -0.0043763755322374425 -0.023146150478138134 0 -0.0048454372790891756 -0.021169897638050269 0 -0.0043763755322374425 -0.023146150478138134 0 -0.0059023256767177694 -0.0226790388493107 0 -0.0048454372790891756 -0.021169897638050269 0 -0.0059023256767177694 -0.0226790388493107 0 -0.007033655533558422 -0.020040920170332599 0 -0.0048454372790891756 -0.021169897638050269 0 -0.0029757250362446191 -0.030476987457124335 0 -0.0012280989694497255 -0.033388623087450074 0 -0.00044320186229382201 -0.032205127278267541 0 -0.0017613047257560046 -0.028832190390616203 0 -0.0029757250362446191 -0.030476987457124335 0 -0.00059461700438116251 -0.030778438024265584 0 -0.0029757250362446191 -0.030476987457124335 0 -0.00059461700438116251 -0.030778438024265584 0 -0.00044320186229382201 -0.032205127278267541 0 -0.0026651752911460878 -0.026109827680631494 0 -0.0011954114701593029 -0.026748695375103347 0 -0.0011954114701593029 -0.026748695375103347 0 -0.0015764839455043259 -0.024391449801155013 0 -0.007033655533558422 -0.020040920170332599 0 -0.0048454372790891756 -0.021169897638050269 0 -0.0049724821085630573 -0.019378645612764357 0 -0.0032304916199702538 -0.020506803063978677 0 -0.0048454372790891756 -0.021169897638050269 0 -0.0049724821085630573 -0.019378645612764357 0 0.00061124509260182644 -0.026102196125126473 0 -0.00024413674698876462 -0.026262151928169344 0 -0.00025474860098402807 -0.02546245848543879 0 -0.00024413674698876462 -0.026262151928169344 0 -0.00025474860098402807 -0.02546245848543879 0 -0.00023403140037821035 -0.026194338327417042 0 -2.7623396430139719e-06 -0.026237118070645951 0 -0.00025474860098402807 -0.02546245848543879 0 -0.00023403140037821035 -0.026194338327417042 0 2.8285664120998724e-06 -0.022674759091260786 0 -2.7623396430139719e-06 -0.026237118070645951 0 -0.00025474860098402807 -0.02546245848543879 0 -2.7623396430139719e-06 -0.026237118070645951 0 -5.9581838334227312e-05 -0.026839364935810885 0 2.6829909856068519e-06 -0.029678573670469329 0 -2.7623396430139719e-06 -0.026237118070645951 0 -0.00023403140037821035 -0.026194338327417042 0 -5.9581838334227312e-05 -0.026839364935810885 0 -0.0011954114701593029 -0.026748695375103347 0 -0.00035457902464041985 -0.02849747935549813 0 -0.00019446350725789774 -0.026233663616806124 0 -0.00023403140037821035 -0.026194338327417042 0 -5.9581838334227312e-05 -0.026839364935810885 0 -0.00019446350725789774 -0.026233663616806124 0 -0.00024413674698876462 -0.026262151928169344 0 -0.00023403140037821035 -0.026194338327417042 0 0.00069361334961364103 -0.032940540346524119 0 0.00094569337610000504 -0.032504636831265463 0 0.00051187243945011315 -0.032862208367839207 0 0.00094569337610000504 -0.032504636831265463 0 0.00011404997535151371 -0.031787351356151003 0 9.9945346089045449e-05 -0.033095668533570648 0 0.00094569337610000504 -0.032504636831265463 0 9.9945346089045449e-05 -0.033095668533570648 0 0.00051187243945011315 -0.032862208367839207 0 0.00094569337610000504 -0.032504636831265463 0 0.00011404997535151371 -0.031787351356151003 0 2.4203883565063896e-06 -0.029690251152936858 0 -0.00035457902464041985 -0.02849747935549813 0 -0.00020993549690823186 -0.028826545950244285 0 0.00011404997535151371 -0.031787351356151003 0 2.4203883565063896e-06 -0.029690251152936858 0 -4.0413658350965893e-05 -0.032622646894429154 0 -7.6082276889620606e-07 -0.033370245177676137 0 2.4203883565063896e-06 -0.029690251152936858 0 -4.0413658350965893e-05 -0.032622646894429154 0 0.00011404997535151371 -0.031787351356151003 0 -4.0413658350965893e-05 -0.032622646894429154 0 9.9945346089045449e-05 -0.033095668533570648 0 0.00026543858574576553 -0.034369589753300116 0 -4.0413658350965893e-05 -0.032622646894429154 0 9.9945346089045449e-05 -0.033095668533570648 0 0.00093774663449022657 -0.03261734876251883 0 9.9945346089045449e-05 -0.033095668533570648 0 0.00062391436279160149 -0.032278144645232883 0 9.9945346089045449e-05 -0.033095668533570648 0 0.00030660745082425469 -0.03264562877105958 0 0.00062391436279160149 -0.032278144645232883 0 0.00069361334961364103 -0.032940540346524119 0 0.00051187243945011315 -0.032862208367839207 0 0.00030660745082425469 -0.03264562877105958 0 -0.0011954114701593029 -0.026748695375103347 0 -0.0011747660930353865 -0.027619161317813324 0 9.9945346089045449e-05 -0.033095668533570648 0 0.00051187243945011315 -0.032862208367839207 0 0.00030660745082425469 -0.03264562877105958 0 -0.0012280989694497255 -0.033388623087450074 0 -0.00044320186229382201 -0.032205127278267541 0 0.00030660745082425469 -0.03264562877105958 0 -0.00044320186229382201 -0.032205127278267541 0 0.00030660745082425469 -0.03264562877105958 0 0.00045508793450558936 -0.03148800347179221 0 0.001347815675033672 -0.031523887238634161 0 0.0022025097488143127 -0.031522728298813418 0 -0.00059461700438116251 -0.030778438024265584 0 -0.00044320186229382201 -0.032205127278267541 0 0.00045508793450558936 -0.03148800347179221 0 0.00030660745082425469 -0.03264562877105958 0 0.00062391436279160149 -0.032278144645232883 0 0.00045508793450558936 -0.03148800347179221 0 0.0011140058905448566 -0.031581320904236591 0 0.00062391436279160149 -0.032278144645232883 0 0.00045508793450558936 -0.03148800347179221 0 0.0036413306842373195 -0.0021871926464571089 0 0.0030845538720941329 -0.0023042098337602191 0 0.0034350708148383545 -0.0018190955145831198 0 0.0036413306842373195 -0.0021871926464571089 0 0.0030845538720941329 -0.0023042098337602191 0 0.0033781405632876175 -0.0026558271229453101 0 0.0036413306842373195 -0.0021871926464571089 0 0.0041078406008337714 -0.0023740925380696287 0 0.0037753208208317224 -0.0026050873531450604 0 0.0030845538720941329 -0.0023042098337602191 0 0.0029620766820617705 -0.0018349045677817128 0 0.0026818073243418125 -0.0021862157059883312 0 0.0030845538720941329 -0.0023042098337602191 0 0.0029620766820617705 -0.0018349045677817128 0 0.0034350708148383545 -0.0018190955145831198 0 0.0029620766820617705 -0.0018349045677817128 0 0.0034350708148383545 -0.0018190955145831198 0 0.0034073221818642159 -0.0012689543767094543 0 0.0029620766820617705 -0.0018349045677817128 0 0.0034073221818642159 -0.0012689543767094543 0 0.0030942902420689777 -0.0011085655523845057 0 0.0036413306842373195 -0.0021871926464571089 0 0.0034350708148383545 -0.0018190955145831198 0 0.0039152069296728743 -0.001619983526636139 0 0.0034350708148383545 -0.0018190955145831198 0 0.0039152069296728743 -0.001619983526636139 0 0.0034073221818642159 -0.0012689543767094543 0 0.0050667334392694311 0.007526875651495334 0 0.0060426659878908568 0.0047185384023463728 0 0.0073740272654636849 0.010126257606486935 0 0.0077344985868505033 0.01233321304090604 0 0.0097216412051300601 0.0080715164831216078 0 0.0035678409427490169 0.00053871984874241251 0 0.0029354196478951124 0.0016177586115198419 0 0.0031703114820703353 -0.00012009722312092405 0 0.0020738120316779844 0.0019281594089604896 0 0.0029354196478951124 0.0016177586115198419 0 0.0031703114820703353 -0.00012009722312092405 0 0.0078200065428862056 0.0083673828119609408 0 0.0073740272654636849 0.010126257606486935 0 0.0097216412051300601 0.0080715164831216078 0 0.0026276426009333416 0.0046896392051568488 0 0.002785704700871602 0.0082038024829109314 0 0.0024710512605975693 0.00082846907886840581 0 0.0023066076000885795 0.00043669464481441492 0 0.0015231579699578502 0.0015422904088416868 0 0.0078200065428862056 0.0083673828119609408 0 0.0073740272654636849 0.010126257606486935 0 0.0052150745348635416 0.010259075930986798 0 0.0049209374938411635 0.0056823579834198671 0 0.002785704700871602 0.0082038024829109314 0 0.0073740272654636849 0.010126257606486935 0 0.0063684916490465357 0.011602772989425641 0 0.0052150745348635416 0.010259075930986798 0 0.0073740272654636849 0.010126257606486935 0 0.0063684916490465357 0.011602772989425641 0 0.0077344985868505033 0.01233321304090604 0 0.0063684916490465357 0.011602772989425641 0 0.0077344985868505033 0.01233321304090604 0 0.0063132236416716513 0.013212190870308099 0 0.0063684916490465357 0.011602772989425641 0 0.0063132236416716513 0.013212190870308099 0 0.0051803823450258402 0.012668092435316554 0 0.0035809997240935729 -2.4043196374468895e-05 0 0.0032302059020402132 0.0013383006234063684 0 0.0036413306842373195 -0.0021871926464571089 0 0.0039152069296728743 -0.001619983526636139 0 0.0041078406008337714 -0.0023740925380696287 0 0.0035678409427490169 0.00053871984874241251 0 0.0029354196478951124 0.0016177586115198419 0 0.0031102735798487682 0.0023740507996846266 0 0.0020738120316779844 0.0019281594089604896 0 0.0029354196478951124 0.0016177586115198419 0 0.0032015272599305224 0.0024778424607756863 0 0.0032336263278088173 0.001409101677409535 0 0.0032302059020402132 0.0013383006234063684 0 0.0032302059020402132 0.0013383006234063684 0 0.0032318489856799481 0.0013213531081124766 0 0.003372111937441938 0.0020924286861810143 0 0.0037953450050478865 0.0040612533619440797 0 0.0026114084085662498 0.0048408299132906025 0 0.0041078406008337714 -0.0023740925380696287 0 0.0039715783117177435 -0.0029430097934247603 0 0.0037753208208317224 -0.0026050873531450604 0 0.0032015272599305224 0.0024778424607756863 0 0.0020817476661980222 0.0036869946945279806 0 0.0025873152956344234 0.0049892526689839312 0 0.0032302059020402132 0.0013383006234063684 0 0.0025514854139099107 0.0043656722390144048 0 0.0020738120316779844 0.0019281594089604896 0 0.0032015272599305224 0.0024778424607756863 0 0.0020817476661980222 0.0036869946945279806 0 0.0077344985868505033 0.01233321304090604 0 0.0063132236416716513 0.013212190870308099 0 0.0057312514762563015 0.016648511433593506 0 0.0020738120316779844 0.0019281594089604896 0 0.0020817476661980222 0.0036869946945279806 0 0.00077000823335815363 0.0045984806608205912 0 0.0050667334392694311 0.007526875651495334 0 0.0038722286707363871 0.011342930097465511 0 0.0063132236416716513 0.013212190870308099 0 0.0057312514762563015 0.016648511433593506 0 0.0055007948939468105 0.014110174159327792 0 0.0020817476661980222 0.0036869946945279806 0 0.0016552742616944248 0.0047844508326603417 0 0.00077000823335815363 0.0045984806608205912 0 0.0020817476661980222 0.0036869946945279806 0 0.0016552742616944248 0.0047844508326603417 0 0.0025873152956344234 0.0049892526689839312 0 0.0016552742616944248 0.0047844508326603417 0 0.001717810168079547 0.0052974067343056876 0 0.0025873152956344234 0.0049892526689839312 0 0.0016064559922916407 0.0060632047030788304 0 0.001717810168079547 0.0052974067343056876 0 0.0025873152956344234 0.0049892526689839312 0 0.001013296080519657 0.0058614345205567717 0 0.0016552742616944248 0.0047844508326603417 0 0.00077000823335815363 0.0045984806608205912 0 0.001013296080519657 0.0058614345205567717 0 0.0016552742616944248 0.0047844508326603417 0 0.001717810168079547 0.0052974067343056876 0 0.001013296080519657 0.0058614345205567717 0 0.0016064559922916407 0.0060632047030788304 0 0.001717810168079547 0.0052974067343056876 0 0.0042096944201788448 0.0060126587834612982 0 0.0037953450050478865 0.0040612533619440797 0 0.0032635148378339801 0.0051796443214181843 0 0.003182993946203987 0.0020879144680468714 0 0.0032318489856799481 0.0013213531081124766 0 0.0037953450050478865 0.0040612533619440797 0 0.0026114084085662498 0.0048408299132906025 0 0.0032635148378339801 0.0051796443214181843 0 0.0033565831711534913 0.0058494514569913392 0 0.0026114084085662498 0.0048408299132906025 0 0.0032635148378339801 0.0051796443214181843 0 0.0041969273416178369 0.0060220750297161878 0 0.0033565831711534913 0.0058494514569913392 0 0.0032635148378339801 0.0051796443214181843 0 0.003182993946203987 0.0020879144680468714 0 0.0034523350907118872 0.0024774179527430147 0 0.0036045448879235375 -0.0031170616353554713 0 0.0033781405632876175 -0.0026558271229453101 0 0.0031876643166162894 -0.0032202784874991426 0 0.0034152127750136283 -0.003466042782868814 0 0.0038405364311412545 -0.0034994153933078516 0 0.0036045448879235375 -0.0031170616353554713 0 0.0038405364311412545 -0.0034994153933078516 0 0.0039715783117177435 -0.0029430097934247603 0 0.0036045448879235375 -0.0031170616353554713 0 0.0034152127750136283 -0.003466042782868814 0 0.0036045448879235375 -0.0031170616353554713 0 0.0031876643166162894 -0.0032202784874991426 0 0.0036045448879235375 -0.0031170616353554713 0 0.0033781405632876175 -0.0026558271229453101 0 0.0037753208208317224 -0.0026050873531450604 0 0.0039715783117177435 -0.0029430097934247603 0 0.0036045448879235375 -0.0031170616353554713 0 0.0037753208208317224 -0.0026050873531450604 0 0.0036413306842373195 -0.0021871926464571089 0 0.0033781405632876175 -0.0026558271229453101 0 0.0037753208208317224 -0.0026050873531450604 0 0.0033781405632876175 -0.0026558271229453101 0 0.0029134544454814401 -0.0027467095920701515 0 0.0031876643166162894 -0.0032202784874991426 0 0.0030845538720941329 -0.0023042098337602191 0 0.0029134544454814401 -0.0027467095920701515 0 0.0027325060060317233 -0.0024651881926475373 0 0.0030845538720941329 -0.0023042098337602191 0 0.0033781405632876175 -0.0026558271229453101 0 0.0029134544454814401 -0.0027467095920701515 0 0.0030332353915525074 -0.0036221060492922972 0 0.0031876643166162894 -0.0032202784874991426 0 0.0027321110206456607 -0.0032934868157345198 0 0.0031876643166162894 -0.0032202784874991426 0 0.0027321110206456607 -0.0032934868157345198 0 0.0025109337108994217 -0.0029001489444290588 0 0.0016154765783667863 -0.0075711445924396235 0 0.0020522128397858891 -0.0067597804212326165 0 0.0029134544454814401 -0.0027467095920701515 0 0.0031876643166162894 -0.0032202784874991426 0 0.0024796270531214758 -0.0028653521243271036 0 0.001963563001640222 -0.0058523426272314577 0 0.0020522128397858891 -0.0067597804212326165 0 0.0024026919046798946 -0.0036210796944889738 0 0.0027321110206456607 -0.0032934868157345198 0 0.0025109337108994217 -0.0029001489444290588 0 -9.3229536905466319e-05 -0.0090953967539995212 0 -0.00027223147168931418 -0.010308574837239732 0 0.00097207378024888151 -0.010183183227919328 0 0.0016154765783667863 -0.0075711445924396235 0 0.0012452619849958164 -0.011243536828821362 0 0.00086112758901219584 -0.013296410474127465 0 0.00070101843711465944 -0.013262662613770062 0 0.0008460363009412244 -0.013394895421996128 0 -0.00027223147168931418 -0.010308574837239732 0 0.00097207378024888151 -0.010183183227919328 0 0.00096929222353012981 -0.010448935091036289 0 0.0020522128397858891 -0.0067597804212326165 0 0.00092109709756584555 -0.0088662670852713392 0 -0.00027223147168931418 -0.010308574837239732 0 0.00096929222353012981 -0.010448935091036289 0 0.00076089966609572165 -0.01083194513841251 0 0.0022239150060580286 -0.0025104371267450245 0 0.0024811103464848368 -0.0028543770107774934 0 0.0018900536802343472 -0.0025143450158930502 0 0.0022239150060580286 -0.0025104371267450245 0 0.0025103173790265473 -0.0026685343985511237 0 0.0024860340902280627 -0.0024131254573169086 0 0.0025103173790265473 -0.0026685343985511237 0 0.0027325060060317233 -0.0024651881926475373 0 0.0024860340902280627 -0.0024131254573169086 0 0.0029134544454814401 -0.0027467095920701515 0 0.0025103173790265473 -0.0026685343985511237 0 0.0027325060060317233 -0.0024651881926475373 0 0.0029134544454814401 -0.0027467095920701515 0 0.0025103173790265473 -0.0026685343985511237 0 0.0024796270531214758 -0.0028653521243271036 0 0.0022239150060580286 -0.0025104371267450245 0 0.0025103173790265473 -0.0026685343985511237 0 0.0024811103464848368 -0.0028543770107774934 0 0.0020842791105083014 -0.0065272150937844275 0 0.0020522128397858891 -0.0067597804212326165 0 0.00096068812630935264 -0.013290639045696669 0 0.0010194038031210307 -0.013355167628505953 0 0.0009544448559981937 -0.013398488541454213 0 0.00086112758901219584 -0.013296410474127465 0 0.00096068812630935264 -0.013290639045696669 0 0.0009544448559981937 -0.013398488541454213 0 0.00086112758901219584 -0.013296410474127465 0 0.0009544448559981937 -0.013398488541454213 0 0.0008460363009412244 -0.013394895421996128 0 0.00096929222353012981 -0.010448935091036289 0 0.00076089966609572165 -0.01083194513841251 0 0.0017717826825637086 -0.011339995921270274 0 0.00097207378024888151 -0.010183183227919328 0 0.00096929222353012981 -0.010448935091036289 0 0.0020731237145914564 -0.011314145050930464 0 0.00048280208358117259 -0.011870344475049796 0 0.00051828779365572272 -0.012398172589086567 0 0.0010342067290487712 -0.013434885668675038 0 0.0009544448559981937 -0.013398488541454213 0 0.00096847645284178243 -0.013519316349976808 0 0.0012452619849958164 -0.011243536828821362 0 0.00065781813618405428 -0.013980128450663147 0 0.0009544448559981937 -0.013398488541454213 0 0.0008460363009412244 -0.013394895421996128 0 0.00096847645284178243 -0.013519316349976808 0 0.00096929222353012981 -0.010448935091036289 0 0.0020731237145914564 -0.011314145050930464 0 0.0018171873668110846 -0.011401137975202093 0 0.00089717468730126379 -0.014198071762584311 0 0.00020449529678161487 -0.013497153346286907 0 -5.4500323978261844e-05 -0.013817828303528462 0 0.00078760506752559517 -0.014841197085315918 0 0.00065781813618405428 -0.013980128450663147 0 0.00078760506752559517 -0.014841197085315918 0 0.00072962019166635092 -0.01329677550511911 0 0.0020731237145914564 -0.011314145050930464 0 0.0018171873668110846 -0.011401137975202093 0 0.0019156327970399761 -0.011509880112172516 0 0.00065781813618405428 -0.013980128450663147 0 0.00072962019166635092 -0.01329677550511911 0 0.00051828779365572272 -0.012398172589086567 0 0.00072962019166635092 -0.01329677550511911 0 0.0016947545990666326 -0.0023203579179924229 0 0.001714123374360225 -0.0023220646446455054 0 0.0017358965639248879 -0.0023139830095008631 0 0.00092109709756584555 -0.0088662670852713392 0 0.00051828779365572272 -0.012398172589086567 0 0.001714123374360225 -0.0023220646446455054 0 0.0017358965639248879 -0.0023139830095008631 0 0.0017360170069637222 -0.0025363817511489858 0 0.0018900536802343472 -0.0025143450158930502 0 0.0016947545990666326 -0.0023203579179924229 0 0.0017358965639248879 -0.0023139830095008631 0 0.0017358965639248879 -0.0023139830095008631 0 0.002022440135064787 -0.0022597786066034208 0 0.0021107364401916806 -0.0017462198154060888 0 0.0018900536802343472 -0.0025143450158930502 0 0.0017358965639248879 -0.0023139830095008631 0 0.002022440135064787 -0.0022597786066034208 0 0.0017360170069637222 -0.0025363817511489858 0 0.0014356676600582154 -0.0025469401940033543 0 0.0015242276975767092 -0.0028955249027476935 0 0.0017358965639248879 -0.0023139830095008631 0 0.0017360170069637222 -0.0025363817511489858 0 0.0014356676600582154 -0.0025469401940033543 0 0.0020054753425911135 -0.0027227537528150135 0 0.0019446913180534932 -0.0029398853257502186 0 0.0010109436451122605 -0.021996788532050178 0 0.0016893243882348324 -0.021185987968062148 0 0.00091599835835280241 -0.021136436673566031 0 0.00072962019166635092 -0.01329677550511911 0 0.0012869630287955787 -0.011969458692149064 0 0.0001023377560683618 -0.021024605013686241 0 0.0010109436451122605 -0.021996788532050178 0 0.00091599835835280241 -0.021136436673566031 0 0.0016893243882348324 -0.021185987968062148 0 0.00091599835835280241 -0.021136436673566031 0 0.0012101235228759433 -0.020690128185689376 0 0.00091599835835280241 -0.021136436673566031 0 0.0006477532599014794 -0.020659563264690404 0 0.0012101235228759433 -0.020690128185689376 0 0.0026818073243418125 -0.0021862157059883312 0 0.0023248845662049763 -0.0021763372419900885 0 0.0025224535406718862 -0.0018414065084322708 0 0.0029620766820617705 -0.0018349045677817128 0 0.0026818073243418125 -0.0021862157059883312 0 0.0025224535406718862 -0.0018414065084322708 0 0.0030845538720941329 -0.0023042098337602191 0 0.0027325060060317233 -0.0024651881926475373 0 0.0026818073243418125 -0.0021862157059883312 0 0.0027325060060317233 -0.0024651881926475373 0 0.0026818073243418125 -0.0021862157059883312 0 0.0024860340902280627 -0.0024131254573169086 0 0.0026818073243418125 -0.0021862157059883312 0 0.0024860340902280627 -0.0024131254573169086 0 0.0023248845662049763 -0.0021763372419900885 0 0.002022440135064787 -0.0022597786066034208 0 0.0023248845662049763 -0.0021763372419900885 0 0.0021107364401916806 -0.0017462198154060888 0 0.0022239150060580286 -0.0025104371267450245 0 0.002022440135064787 -0.0022597786066034208 0 0.0023248845662049763 -0.0021763372419900885 0 0.0022239150060580286 -0.0025104371267450245 0 0.0024860340902280627 -0.0024131254573169086 0 0.0023248845662049763 -0.0021763372419900885 0 0.0022239150060580286 -0.0025104371267450245 0 0.0018900536802343472 -0.0025143450158930502 0 0.002022440135064787 -0.0022597786066034208 0 0.0023248845662049763 -0.0021763372419900885 0 0.0021107364401916806 -0.0017462198154060888 0 0.0025224535406718862 -0.0018414065084322708 0 0.0014055150474719135 -0.003108639498039651 0 0.0013561810075369311 -0.0040726389035880238 0 0.0021107364401916806 -0.0017462198154060888 0 0.0025224535406718862 -0.0018414065084322708 0 0.0026096386051745668 -0.001259457145301739 0 0.0029620766820617705 -0.0018349045677817128 0 0.0025224535406718862 -0.0018414065084322708 0 0.0026096386051745668 -0.001259457145301739 0 0.0013561810075369311 -0.0040726389035880238 0 0.0017502169478946345 -0.0036485521475333755 0 0.0010622964027117317 -0.0028954632380385169 0 0.0015242276975767092 -0.0028955249027476935 0 0.0012522823634198385 -0.0032603218050026427 0 0.0019446913180534932 -0.0029398853257502186 0 0.0013561810075369311 -0.0040726389035880238 0 0.0014356676600582154 -0.0025469401940033543 0 0.0010622964027117317 -0.0028954632380385169 0 0.0015242276975767092 -0.0028955249027476935 0 0.0023955173058833818 -0.020338724958882639 0 0.002417077195301182 -0.019232959904230011 0 0.003099674274503601 -0.019464970140894083 0 0.0014577548182451246 -0.010981569986797925 0 0.0016173841838325632 -0.0095793381239614676 0 0.002417077195301182 -0.019232959904230011 0 0.003099674274503601 -0.019464970140894083 0 0.0026547099672131567 -0.018634719690799512 0 0.00073109179595837897 -0.0069656101156062734 0 0.00031230439710696191 -0.0061881196254890674 0 0.0014194654597431198 -0.0063285293383827518 0 0.00031230439710696191 -0.0061881196254890674 0 0.00082687096416019456 -0.005550950748794233 0 0.0014194654597431198 -0.0063285293383827518 0 0.0016173841838325632 -0.0095793381239614676 0 0.0017582275511932102 -0.0084849701588430946 0 0.0013561810075369311 -0.0040726389035880238 0 0.0016173841838325632 -0.0095793381239614676 0 0.00088241539374721712 -0.020167011602423141 0 0.0006477532599014794 -0.020659563264690404 0 0.0012101235228759433 -0.020690128185689376 0 0.00088241539374721712 -0.020167011602423141 0 0.0012101235228759433 -0.020690128185689376 0 0.0016786023097334565 -0.020185989861688583 0 0.0012869630287955787 -0.011969458692149064 0 0.0014577548182451246 -0.010981569986797925 0 0.0016893243882348324 -0.021185987968062148 0 0.0023955173058833818 -0.020338724958882639 0 0.0016786023097334565 -0.020185989861688583 0 0.0016893243882348324 -0.021185987968062148 0 0.0012101235228759433 -0.020690128185689376 0 0.0016786023097334565 -0.020185989861688583 0 0.0023955173058833818 -0.020338724958882639 0 0.0016786023097334565 -0.020185989861688583 0 0.0018376727859619924 -0.019508829127415837 0 0.0023955173058833818 -0.020338724958882639 0 0.002417077195301182 -0.019232959904230011 0 0.0018376727859619924 -0.019508829127415837 0 0.002417077195301182 -0.019232959904230011 0 0.0018376727859619924 -0.019508829127415837 0 0.0020319981830970021 -0.018974862258187449 0 0.0018376727859619924 -0.019508829127415837 0 0.001197245035374598 -0.019487746913337076 0 0.0016019091688284463 -0.018800769091100487 0 0.0016786023097334565 -0.020185989861688583 0 0.0018376727859619924 -0.019508829127415837 0 0.001197245035374598 -0.019487746913337076 0 0.0005407944740205093 -0.019689923568524188 0 0.001197245035374598 -0.019487746913337076 0 0.00075674916761224887 -0.018632052421590998 0 0.00088241539374721712 -0.020167011602423141 0 0.0016786023097334565 -0.020185989861688583 0 0.001197245035374598 -0.019487746913337076 0 0.0005407944740205093 -0.019689923568524188 0 0.00088241539374721712 -0.020167011602423141 0 0.001197245035374598 -0.019487746913337076 0 0.00075674916761224887 -0.018632052421590998 0 0.0016019091688284463 -0.018800769091100487 0 0.0018906791154746745 -0.018098662865561492 0 0.001197245035374598 -0.019487746913337076 0 0.00075674916761224887 -0.018632052421590998 0 0.0016019091688284463 -0.018800769091100487 0 0.0016019091688284463 -0.018800769091100487 0 0.001961764141653069 -0.018619004347979983 0 0.0018906791154746745 -0.018098662865561492 0 0.0018376727859619924 -0.019508829127415837 0 0.0016019091688284463 -0.018800769091100487 0 0.0020319981830970021 -0.018974862258187449 0 0.002417077195301182 -0.019232959904230011 0 0.0020319981830970021 -0.018974862258187449 0 0.0023224006393916551 -0.018599933252591648 0 0.0016019091688284463 -0.018800769091100487 0 0.0020319981830970021 -0.018974862258187449 0 0.001961764141653069 -0.018619004347979983 0 0.0020319981830970021 -0.018974862258187449 0 0.001961764141653069 -0.018619004347979983 0 0.0023224006393916551 -0.018599933252591648 0 0.001961764141653069 -0.018619004347979983 0 0.0018906791154746745 -0.018098662865561492 0 0.0023224006393916551 -0.018599933252591648 0 0.0018906791154746745 -0.018098662865561492 0 0.0023224006393916551 -0.018599933252591648 0 0.0026594004939843579 -0.018634726935446773 0 0.00075674916761224887 -0.018632052421590998 0 0.0018906791154746745 -0.018098662865561492 0 0.001830278123509204 -0.017429876408687761 0 0.0018906791154746745 -0.018098662865561492 0 0.0020234815721170063 -0.017440749091355585 0 0.0026594004939843579 -0.018634726935446773 0 0.0018906791154746745 -0.018098662865561492 0 0.0020234815721170063 -0.017440749091355585 0 0.001830278123509204 -0.017429876408687761 0 2.5487769657579566e-07 -0.012933153549960764 0 4.5688044710344246e-05 -0.013017631266140176 0 -2.5463829215020965e-07 -0.013269509690788356 0 0.0002275330058284013 -0.012723088572595694 0 0.00017288869251806685 -0.013070845174720831 0 6.662441970757773e-06 -0.01292787514557814 0 0.0002275330058284013 -0.012723088572595694 0 -5.8201755219819113e-07 -0.01644239677085798 0 0.00032547141118333524 -0.017971655719420242 0 2.0592003488759537e-06 -0.013275462033518022 0 -0.00076304139869392369 -0.016864670126221361 0 0.00017288869251806685 -0.013070845174720831 0 0.0011535751272841465 -0.008289746479277077 0 0.0013175363314051006 -0.0083147631329936866 0 0.0012179827771106714 -0.008379955290907716 0 0.0017582275511932102 -0.0084849701588430946 0 0.0015211538813018027 -0.010871208844528297 0 0.0011201023263343812 -0.0083284739223539808 0 0.0012179827771106714 -0.008379955290907716 0 0.0011135077821452929 -0.0084031924867542674 0 0.0011201023263343812 -0.0083284739223539808 0 0.0011535751272841465 -0.008289746479277077 0 0.0012179827771106714 -0.008379955290907716 0 0.0017418444893566201 -0.0084912120928246539 0 0.0017582275511932102 -0.0084849701588430946 0 0.0016173841838325632 -0.0095793381239614676 0 0.0015211538813018027 -0.010871208844528297 0 0.0012287539690497629 -0.009630538892055578 0 0.001231944013683919 -0.0096263302143579574 0 0.0012272418731547122 -0.0096283378018168133 0 0.002417077195301182 -0.019232959904230011 0 0.0023224006393916551 -0.018599933252591648 0 0.0026547099672131567 -0.018634719690799512 0 0.0016098159315030159 -0.010993836442605903 0 0.0015211538813018027 -0.010871208844528297 0 0.0014176163888319595 -0.008511781039182615 0 0.0012153848237367729 -0.008490748426258991 0 0.0012179827771106714 -0.008379955290907716 0 1.6636382522174036e-07 -0.012932155624156257 0 2.4415899505919928e-06 -0.012770796161627839 0 -1.6613994075488937e-07 -0.010143369041660858 0 0.0002275330058284013 -0.012723088572595694 0 5.1297536784125111e-05 -0.0099122541647177244 0 2.4415899505919928e-06 -0.012770796161627839 0 -1.6613994075488937e-07 -0.010143369041660858 0 -7.3141053002014983e-06 -0.0097961604871709893 0 0.0014176163888319595 -0.008511781039182615 0 0.0013175363314051006 -0.0083147631329936866 0 0.0012179827771106714 -0.008379955290907716 0 0.0002275330058284013 -0.012723088572595694 0 0.0015211538813018027 -0.010871208844528297 0 -1.6613994075488937e-07 -0.010143369041660858 0 -7.3141053002014983e-06 -0.0097961604871709893 0 1.6686869283911213e-07 -0.0073569106114772841 0 5.1297536784125111e-05 -0.0099122541647177244 0 0.00046836271482055491 -0.0074880210035415803 0 0.0012153848237367729 -0.008490748426258991 0 0.0011135077821452929 -0.0084031924867542674 0 0.0010124260955884131 -0.0084703097655520233 0 0.0012153848237367729 -0.008490748426258991 0 0.0012179827771106714 -0.008379955290907716 0 0.0011135077821452929 -0.0084031924867542674 0 -7.3141053002014983e-06 -0.0097961604871709893 0 1.6686869283911213e-07 -0.0073569106114772841 0 1.4678378126249534e-05 -0.007058794004258461 0 0.0010124260955884131 -0.0084703097655520233 0 0.00086526880009907942 -0.0082956217102499209 0 0.00099932425612060671 -0.0083458771507412665 0 2.887594466345144e-06 -0.0073549914443206462 0 0.00046836271482055491 -0.0074880210035415803 0 7.610782678237556e-09 -0.0073536226857089503 0 -1.767718722527049e-09 -0.0069643745670529668 0 -1.2871303710573981e-05 -0.0068689637233376889 0 0.0011135077821452929 -0.0084031924867542674 0 0.0010124260955884131 -0.0084703097655520233 0 0.00099932425612060671 -0.0083458771507412665 0 -1.767718722527049e-09 -0.0069643745670529668 0 -1.2871303710573981e-05 -0.0068689637233376889 0 -0.00057175775868356703 -0.0066350839343990867 0 -1.2871303710573981e-05 -0.0068689637233376889 0 -0.00036945679099505406 -0.0064484805707124429 0 -0.00057175775868356703 -0.0066350839343990867 0 5.2173277915938653e-07 -0.0069572494789360353 0 0.00053331070918129057 -0.0036627873410340667 0 7.9443528235967989e-07 -0.0069606676352355085 0 0.0003592808396059057 -0.0019885881169390959 0 9.0897840492317286e-07 -0.0032693891575167567 0 0.00046836271482055491 -0.0074880210035415803 0 0.001365737447062807 -0.0035266223579251037 0 0.001365737447062807 -0.0035266223579251037 0 0.00053331070918129057 -0.0036627873410340667 0 0.00086526880009907942 -0.0082956217102499209 0 0.00091945786381077675 -0.0082467850868203959 0 0.00099932425612060671 -0.0083458771507412665 0 0.001365737447062807 -0.0035266223579251037 0 0.0016561563971191197 -0.0035599548767905366 0 0.001977183935288214 -0.0016141461932051029 0 0.0013156728475476019 -0.0022280058905866707 0 0.002662536511719897 -0.0023788789841569895 0 0.003543827261447351 -0.00063850954623465223 0 0.0035760377282264299 -0.00069783255830280862 0 0.0034104283833392645 -0.00080267481327165897 0 0.0016561563971191197 -0.0035599548767905366 0 0.0018862479880597017 -0.0013312103582445564 0 0.001365737447062807 -0.0035266223579251037 0 0.0018862479880597017 -0.0013312103582445564 0 0.0011862395838878664 -0.0012323435914806016 0 0.0010151594783538033 -0.0010383361933195836 0 0.00097240594143351087 -0.0012301192941926089 0 0.0011201023263343812 -0.0083284739223539808 0 0.001155425689032338 -0.0082852940724518053 0 0.00091945786381077675 -0.0082467850868203959 0 0.0011201023263343812 -0.0083284739223539808 0 0.00091945786381077675 -0.0082467850868203959 0 0.00099932425612060671 -0.0083458771507412665 0 0.0017582275511932102 -0.0084849701588430946 0 0.0016561563971191197 -0.0035599548767905366 0 0.0011201023263343812 -0.0083284739223539808 0 0.0011135077821452929 -0.0084031924867542674 0 0.00099932425612060671 -0.0083458771507412665 0 0.00082687096416019456 -0.005550950748794233 0 0.0021058280498535576 -0.0056895749188360994 0 0.0014194654597431198 -0.0063285293383827518 0 0.0031396449789848702 -0.00071484849346516882 0 0.003419998526057995 -0.00075563949310449463 0 0.0030942902420689777 -0.0011085655523845057 0 0.003543827261447351 -0.00063850954623465223 0 0.0031396449789848702 -0.00071484849346516882 0 0.003419998526057995 -0.00075563949310449463 0 0.0016561563971191197 -0.0035599548767905366 0 0.0017502169478946345 -0.0036485521475333755 0 0.0062030205170300152 0.0028490680125071353 0 0.0061921561125245408 0.0041393662928596352 0 0.0035760377282264299 -0.00069783255830280862 0 0.0036177185537894386 -0.00080058654989974146 0 0.0033775598601898547 -0.00066585435978624779 0 0.0035760377282264299 -0.00069783255830280862 0 0.0033429090535604701 0.00015102687348706619 0 0.0033307522332994555 -0.00050623796985624456 0 0.003543827261447351 -0.00063850954623465223 0 0.0035760377282264299 -0.00069783255830280862 0 0.003419998526057995 -0.00075563949310449463 0 0.0035760377282264299 -0.00069783255830280862 0 0.0033307522332994555 -0.00050623796985624456 0 0.0034104283833392645 -0.00080267481327165897 0 0.0035760377282264299 -0.00069783255830280862 0 0.003419998526057995 -0.00075563949310449463 0 0.0036177185537894386 -0.00080058654989974146 0 0.0035809997240935729 -2.4043196374468895e-05 0 0.0036518364276670883 -0.00035626939346035478 0 0.003419998526057995 -0.00075563949310449463 0 0.0036177185537894386 -0.00080058654989974146 0 0.0034073221818642159 -0.0012689543767094543 0 0.0039152069296728743 -0.001619983526636139 0 0.0036177185537894386 -0.00080058654989974146 0 0.0034073221818642159 -0.0012689543767094543 0 0.003419998526057995 -0.00075563949310449463 0 0.0034073221818642159 -0.0012689543767094543 0 0.0030942902420689777 -0.0011085655523845057 0 0.0029620766820617705 -0.0018349045677817128 0 0.0026233504804050252 -0.0010974612074991304 0 0.0030942902420689777 -0.0011085655523845057 0 0.0026233504804050252 -0.0010974612074991304 0 0.0031396449789848702 -0.00071484849346516882 0 0.0030942902420689777 -0.0011085655523845057 0 0.0037574736265698632 0.0091241550641035247 0 0.0028139543011658054 0.0080710090108061499 0 0.0021470673817173568 0.0088476165555678027 0 0.0037574736265698632 0.0091241550641035247 0 0.0044767832473515375 0.0079489873636631875 0 0.003698597827081135 0.0080214996827635294 0 0.0037574736265698632 0.0091241550641035247 0 0.003698597827081135 0.0080214996827635294 0 0.0028139543011658054 0.0080710090108061499 0 0.0024710512605975693 0.00082846907886840581 0 0.0023066076000885795 0.00043669464481441492 0 0.0033429090535604701 0.00015102687348706619 0 0.0035678409427490169 0.00053871984874241251 0 0.0036177185537894386 -0.00080058654989974146 0 0.0031703114820703353 -0.00012009722312092405 0 0.0023066076000885795 0.00043669464481441492 0 0.0033429090535604701 0.00015102687348706619 0 0.0030278694204478678 -0.00054272928992028075 0 0.0049209374938411635 0.0056823579834198671 0 0.0061921561125245408 0.0041393662928596352 0 0.0078200065428862056 0.0083673828119609408 0 0.0097216412051300601 0.0080715164831216078 0 0.010458420164855421 0.0065006262852272314 0 0.0060426659878908568 0.0047185384023463728 0 0.0061921561125245408 0.0041393662928596352 0 0.0036177185537894386 -0.00080058654989974146 0 0.0031703114820703353 -0.00012009722312092405 0 0.0033775598601898547 -0.00066585435978624779 0 0.0026276426009333416 0.0046896392051568488 0 0.0021539298211821671 0.0013273387399181831 0 0.0049205019777674806 0.0074462167034663176 0 0.0037457423025876848 0.0069491345309206113 0 0.0055500196332730015 0.0067217054939050528 0 0.0037574736265698632 0.0091241550641035247 0 0.0044767832473515375 0.0079489873636631875 0 0.0049209290484167065 0.0074386991307114321 0 0.0020774268923106154 0.0016150421343617597 0 0.0021539298211821671 0.0013273387399181831 0 0.0033429090535604701 0.00015102687348706619 0 0.0033307522332994555 -0.00050623796985624456 0 0.0030278694204478678 -0.00054272928992028075 0 0.0021539298211821671 0.0013273387399181831 0 0.0018862479880597017 -0.0013312103582445564 0 0.0033307522332994555 -0.00050623796985624456 0 0.0030278694204478678 -0.00054272928992028075 0 0.0034104283833392645 -0.00080267481327165897 0 0.0044767832473515375 0.0079489873636631875 0 0.0049205019777674806 0.0074462167034663176 0 0.0037457423025876848 0.0069491345309206113 0 0.0044767832473515375 0.0079489873636631875 0 0.0037457423025876848 0.0069491345309206113 0 0.003698597827081135 0.0080214996827635294 0 0.0037457423025876848 0.0069491345309206113 0 0.003698597827081135 0.0080214996827635294 0 0.0028139543011658054 0.0080710090108061499 0 0.00044985815754064332 -0.00096688712508830163 0 0.00040779786245022251 -0.0011845762981242116 0 -0.00012522873805606043 -0.00089483773536114806 0 0.00044985815754064332 -0.00096688712508830163 0 0.00040779786245022251 -0.0011845762981242116 0 0.00075517709007850715 -0.0011820751467683877 0 0.00040361048280484921 0.0015372408485329321 0 0.00015779216846760813 -0.00025478510207638906 0 0.00015884781356545247 0.0019717332896750936 0 0.00040779786245022251 -0.0011845762981242116 0 0.00075517709007850715 -0.0011820751467683877 0 0.00093231701007187139 -0.0014678586858158575 0 -0.00020690458062343689 -0.00073584210245868445 0 0.00053331070918129057 -0.0036627873410340667 0 0.00044985815754064332 -0.00096688712508830163 0 0.0010151594783538033 -0.0010383361933195836 0 0.00075517709007850715 -0.0011820751467683877 0 0.00040361048280484921 0.0015372408485329321 0 0.0007138249204319268 -0.0014879686607928782 0 0.000364450015725849 -0.0018025064498663947 0 0.0013197739159484486 0.00040589247049581005 0 0.0018862479880597017 -0.0013312103582445564 0 0.0010151594783538033 -0.0010383361933195836 0 0.00075517709007850715 -0.0011820751467683877 0 0.00097240594143351087 -0.0012301192941926089 0 0.00075517709007850715 -0.0011820751467683877 0 0.00097240594143351087 -0.0012301192941926089 0 0.00093231701007187139 -0.0014678586858158575 0 0.0011862395838878664 -0.0012323435914806016 0 0.00097240594143351087 -0.0012301192941926089 0 0.00093231701007187139 -0.0014678586858158575 0 0.0003592808396059057 -0.0019885881169390959 0 0.000364450015725849 -0.0018025064498663947 0 9.0897840492317286e-07 -0.0032693891575167567 0 0.00053331070918129057 -0.0036627873410340667 0 0.00055266619802317907 -0.0036256037605166252 0 0.000364450015725849 -0.0018025064498663947 0 9.0897840492317286e-07 -0.0032693891575167567 0 0.00015779216846760813 -0.00025478510207638906 0 0.00015779216846760813 -0.00025478510207638906 0 -2.0318395420160894e-08 0.00042200062290693817 0 0.00015884781356545247 0.0019717332896750936 0 9.0897840492317286e-07 -0.0032693891575167567 0 0.00015779216846760813 -0.00025478510207638906 0 -2.0318395420160894e-08 0.00042200062290693817 0 0.00040361048280484921 0.0015372408485329321 0 0.000364450015725849 -0.0018025064498663947 0 0.00015779216846760813 -0.00025478510207638906 0 -2.0318395420160894e-08 0.00042200062290693817 0 -5.7277246422120421e-05 0.0028503291830558742 0 0.00015884781356545247 0.0019717332896750936 0 -5.7277246422120421e-05 0.0028503291830558742 0 -0.00015318582019394156 0.0045320157990754884 0 -5.3286280239758866e-07 0.0041131759409913397 0 -2.0318395420160894e-08 0.00042200062290693817 0 -5.7277246422120421e-05 0.0028503291830558742 0 -5.3286280239758866e-07 0.0041131759409913397 0 -5.7277246422120421e-05 0.0028503291830558742 0 -0.00015318582019394156 0.0045320157990754884 0 0.00012084158417439445 0.0036939696179337711 0 -0.00015318582019394156 0.0045320157990754884 0 0.00011222305968490815 0.0044876026365565291 0 0.00012084158417439445 0.0036939696179337711 0 0.00040361048280484921 0.0015372408485329321 0 0.00015884781356545247 0.0019717332896750936 0 0.0003469857958196031 0.0042396814061105527 0 0.00012084158417439445 0.0036939696179337711 0 0.00015884781356545247 0.0019717332896750936 0 0.0003469857958196031 0.0042396814061105527 0 0.00011222305968490815 0.0044876026365565291 0 0.00012084158417439445 0.0036939696179337711 0 0.0003469857958196031 0.0042396814061105527 0 -0.00020690458062343689 -0.00073584210245868445 0 -0.00017612017483841478 0.0013087843053852892 0 -5.7277246422120421e-05 0.0028503291830558742 0 0.00012084158417439445 0.0036939696179337711 0 0.00015884781356545247 0.0019717332896750936 0 -1.8962951313641123e-06 0.0078037715909182025 0 -0.00059740759299558817 0.0059688228915184115 0 -0.00066030484459902528 0.0074494060796229241 0 -0.00015318582019394156 0.0045320157990754884 0 -5.3286280239758866e-07 0.0041131759409913397 0 -0.00059740759299558817 0.0059688228915184115 0 -1.8962951313641123e-06 0.0078037715909182025 0 -5.3286280239758866e-07 0.0041131759409913397 0 -0.00059740759299558817 0.0059688228915184115 0 -0.00015318582019394156 0.0045320157990754884 0 -0.00059740759299558817 0.0059688228915184115 0 -0.00044423886886187818 0.0062032294382228566 0 -0.00059740759299558817 0.0059688228915184115 0 -0.0010108042837030586 0.0069488793737381175 0 -0.00066030484459902528 0.0074494060796229241 0 -0.0010108042837030586 0.0069488793737381175 0 -0.0011578103465591507 0.0069213329468591229 0 -0.00066030484459902528 0.0074494060796229241 0 -0.0010108042837030586 0.0069488793737381175 0 -0.0012075266687531588 0.0097483923655565762 0 -0.0011578103465591507 0.0069213329468591229 0 -0.00059740759299558817 0.0059688228915184115 0 -0.0010108042837030586 0.0069488793737381175 0 -0.00044423886886187818 0.0062032294382228566 0 -0.0010108042837030586 0.0069488793737381175 0 -0.00044423886886187818 0.0062032294382228566 0 -0.0004382064613777566 0.008269450267559127 0 -0.00044423886886187818 0.0062032294382228566 0 -0.0004382064613777566 0.008269450267559127 0 0.00020414557443229357 0.0060868461913590136 0 -0.0014494198176466632 0.0039417624267696662 0 -0.0010713116700696171 0.0032480206686966297 0 -0.0010108042837030586 0.0069488793737381175 0 -0.0004382064613777566 0.008269450267559127 0 -0.0012075266687531588 0.0097483923655565762 0 -0.0004382064613777566 0.008269450267559127 0 -0.00022294064821101213 0.0096721484652125683 0 0.00081166360351294883 0.0089922609555506405 0 -0.0004382064613777566 0.008269450267559127 0 -0.00022294064821101213 0.0096721484652125683 0 -0.0012075266687531588 0.0097483923655565762 0 -0.00022294064821101213 0.0096721484652125683 0 -0.0012075266687531588 0.0097483923655565762 0 -0.00087934170478666171 0.01053766586668691 0 -0.0012075266687531588 0.0097483923655565762 0 -0.0013005561009633538 0.011113582500240592 0 -0.0015452228868911952 0.012558906557236248 0 -0.0012075266687531588 0.0097483923655565762 0 -0.0013005561009633538 0.011113582500240592 0 -0.0012215549911338138 0.010926983488382948 0 -0.00069857648191509411 0.0106090151019246 0 -0.00079051658294086887 0.0106214932463073 0 0.0037457423025876848 0.0069491345309206113 0 0.0028139543011658054 0.0080710090108061499 0 0.0019433758595964747 0.0071827457474113688 0 0.0013197739159484486 0.00040589247049581005 0 -0.00017612017483841478 0.0013087843053852892 0 0.0016094209813190599 0.0080641157030014385 0 0.0028139543011658054 0.0080710090108061499 0 0.0019433758595964747 0.0071827457474113688 0 0.00011222305968490815 0.0044876026365565291 0 0.0003469857958196031 0.0042396814061105527 0 0.00020414557443229357 0.0060868461913590136 0 -0.00017612017483841478 0.0013087843053852892 0 -0.0010713116700696171 0.0032480206686966297 0 -0.00015318582019394156 0.0045320157990754884 0 0.00011222305968490815 0.0044876026365565291 0 0.00020414557443229357 0.0060868461913590136 0 -0.00015318582019394156 0.0045320157990754884 0 -0.00044423886886187818 0.0062032294382228566 0 0.00020414557443229357 0.0060868461913590136 0 0.0016094209813190599 0.0080641157030014385 0 0.0019433758595964747 0.0071827457474113688 0 0.00071487341824657007 0.0078520998592015428 0 0.0016094209813190599 0.0080641157030014385 0 0.00071487341824657007 0.0078520998592015428 0 0.00081166360351294883 0.0089922609555506405 0 -0.0004382064613777566 0.008269450267559127 0 0.00071487341824657007 0.0078520998592015428 0 0.00081166360351294883 0.0089922609555506405 0 -0.00022294064821101213 0.0096721484652125683 0 0.00081166360351294883 0.0089922609555506405 0 0.00051971581269317862 0.0099896692119246563 0 0.00081166360351294883 0.0089922609555506405 0 0.0019017614481850282 0.0098926641089440905 0 0.00051971581269317862 0.0099896692119246563 0 0.0037574736265698632 0.0091241550641035247 0 0.0021470673817173568 0.0088476165555678027 0 0.0019017614481850282 0.0098926641089440905 0 0.00081166360351294883 0.0089922609555506405 0 0.0021470673817173568 0.0088476165555678027 0 0.0019017614481850282 0.0098926641089440905 0 0.0016094209813190599 0.0080641157030014385 0 0.00081166360351294883 0.0089922609555506405 0 0.0021470673817173568 0.0088476165555678027 0 0.0016094209813190599 0.0080641157030014385 0 0.0028139543011658054 0.0080710090108061499 0 0.0021470673817173568 0.0088476165555678027 0 0.0037574736265698632 0.0091241550641035247 0 0.0019017614481850282 0.0098926641089440905 0 0.0025520953736649396 0.010846226975945551 0 0.0025520953736649396 0.010846226975945551 0 0.0012711841327612153 0.011767999190670149 0 0.0010033085040303436 0.010577830755847216 0 0.0019017614481850282 0.0098926641089440905 0 0.0025520953736649396 0.010846226975945551 0 0.0010033085040303436 0.010577830755847216 0 0.0063684916490465357 0.011602772989425641 0 0.0052150745348635416 0.010259075930986798 0 0.0051803823450258402 0.012668092435316554 0 0.0051782330862930864 0.010291210758088663 0 0.0031875062413085492 0.013101847622497317 0 0.0030475562979623322 0.011849924002796585 0 0.0052150745348635416 0.010259075930986798 0 0.0031961029771488841 0.013084836964808918 0 0.0051803823450258402 0.012668092435316554 0 0.002785704700871602 0.0082038024829109314 0 0.0019676226607317762 0.011271513482252018 0 0.002785704700871602 0.0082038024829109314 0 0.0018487093506858823 0.010558239256826647 0 0.0031961029771488841 0.013084836964808918 0 0.0051803823450258402 0.012668092435316554 0 0.0042846966831640906 0.01405455164954556 0 0.0063132236416716513 0.013212190870308099 0 0.0051803823450258402 0.012668092435316554 0 0.0055007948939468105 0.014110174159327792 0 1.7272987511279702e-05 0.012676985433263227 0 0.0012711841327612153 0.011767999190670149 0 0.0010033085040303436 0.010577830755847216 0 0.001139376450227207 0.012422928091874652 0 0.001235590108590085 0.01173636723025686 0 -0.00012990828307549499 0.011612822603293977 0 1.9440635099891352e-05 0.011021143517645821 0 0.0010033085040303436 0.010577830755847216 0 0.0031875062413085492 0.013101847622497317 0 0.00090008252886478884 0.013410579128879985 0 0.0030475562979623322 0.011849924002796585 0 0.001139376450227207 0.012422928091874652 0 0.0018487093506858823 0.010558239256826647 0 1.9440635099891352e-05 0.011021143517645821 0 0.00018854740570903943 0.010562570507271071 0 0.0010033085040303436 0.010577830755847216 0 0.0019017614481850282 0.0098926641089440905 0 0.0010033085040303436 0.010577830755847216 0 0.00051971581269317862 0.0099896692119246563 0 0.00018854740570903943 0.010562570507271071 0 0.0010033085040303436 0.010577830755847216 0 0.00051971581269317862 0.0099896692119246563 0 0.00018854740570903943 0.010562570507271071 0 0.00051971581269317862 0.0099896692119246563 0 -0.00012425303310187116 0.010309840105197513 0 -0.00022294064821101213 0.0096721484652125683 0 -0.00012425303310187116 0.010309840105197513 0 -0.00087934170478666171 0.01053766586668691 0 -0.00012425303310187116 0.010309840105197513 0 -0.00087934170478666171 0.01053766586668691 0 -0.00037750951097526101 0.010811786848801011 0 -0.00022294064821101213 0.0096721484652125683 0 0.00051971581269317862 0.0099896692119246563 0 -0.00012425303310187116 0.010309840105197513 0 -0.00087934170478666171 0.01053766586668691 0 -0.00037750951097526101 0.010811786848801011 0 -0.00079680709685544734 0.011091325298187084 0 0.00018854740570903943 0.010562570507271071 0 -0.00012425303310187116 0.010309840105197513 0 -0.00037750951097526101 0.010811786848801011 0 1.9440635099891352e-05 0.011021143517645821 0 0.00018854740570903943 0.010562570507271071 0 -0.00037750951097526101 0.010811786848801011 0 -0.00087934170478666171 0.01053766586668691 0 -0.0012215549911338138 0.010926983488382948 0 -0.0010200590892825796 0.010953721237918134 0 -0.0012075266687531588 0.0097483923655565762 0 -0.00087934170478666171 0.01053766586668691 0 -0.0012215549911338138 0.010926983488382948 0 -0.00087934170478666171 0.01053766586668691 0 -0.0010200590892825796 0.010953721237918134 0 -0.00079680709685544734 0.011091325298187084 0 -0.0012215549911338138 0.010926983488382948 0 -0.0010651354792613258 0.011185476952322361 0 -0.0011388258947673401 0.011277836843981641 0 -0.0012215549911338138 0.010926983488382948 0 -0.0010200590892825796 0.010953721237918134 0 -0.0010651354792613258 0.011185476952322361 0 -0.0010651354792613258 0.011185476952322361 0 -0.00077264968797414709 0.011397984346542286 0 -0.00091156194305197242 0.011457259307292071 0 -0.0010200590892825796 0.010953721237918134 0 -0.0010651354792613258 0.011185476952322361 0 -0.00079680709685544734 0.011091325298187084 0 -0.0010651354792613258 0.011185476952322361 0 -0.00077264968797414709 0.011397984346542286 0 -0.00079680709685544734 0.011091325298187084 0 1.9440635099891352e-05 0.011021143517645821 0 -0.00037750951097526101 0.010811786848801011 0 -0.00044963036947897543 0.011355111289310403 0 -0.00037750951097526101 0.010811786848801011 0 -0.00079680709685544734 0.011091325298187084 0 -0.00044963036947897543 0.011355111289310403 0 -0.00077264968797414709 0.011397984346542286 0 -0.00044963036947897543 0.011355111289310403 0 -0.0005796491027844731 0.011482727670836274 0 -0.00077264968797414709 0.011397984346542286 0 -0.00079680709685544734 0.011091325298187084 0 -0.00044963036947897543 0.011355111289310403 0 -0.00044963036947897543 0.011355111289310403 0 -0.00042799330158104599 0.011594827472173157 0 -0.0005796491027844731 0.011482727670836274 0 -0.00012990828307549499 0.011612822603293977 0 -0.00044963036947897543 0.011355111289310403 0 -0.00042799330158104599 0.011594827472173157 0 -0.00012990828307549499 0.011612822603293977 0 1.9440635099891352e-05 0.011021143517645821 0 -0.00044963036947897543 0.011355111289310403 0 0.001139376450227207 0.012422928091874652 0 0.0010916009467294356 0.012424229156643544 0 0.001139376450227207 0.012422928091874652 0 0.0010462526264848517 0.016434879336621758 0 0.00090008252886478884 0.013410579128879985 0 -0.00049839612859002515 0.01638249412308402 0 0.0011796526035205818 0.01593346171429922 0 -0.00035011743356882049 0.011581193903834613 0 -0.00042799330158104599 0.011594827472173157 0 -0.00058148162293023237 0.011653159280527575 0 -0.00042799330158104599 0.011594827472173157 0 -0.0005796491027844731 0.011482727670836274 0 -0.0006612403568873078 0.011568286884183175 0 -0.00077264968797414709 0.011397984346542286 0 -0.0005796491027844731 0.011482727670836274 0 -0.0006612403568873078 0.011568286884183175 0 -0.00042799330158104599 0.011594827472173157 0 -0.0006612403568873078 0.011568286884183175 0 -0.00058148162293023237 0.011653159280527575 0 -0.00077264968797414709 0.011397984346542286 0 -0.0006612403568873078 0.011568286884183175 0 -0.00091156194305197242 0.011457259307292071 0 -0.0006612403568873078 0.011568286884183175 0 -0.00091156194305197242 0.011457259307292071 0 -0.0007589466616821504 0.011643973348036301 0 -0.00091156194305197242 0.011457259307292071 0 -0.0007589466616821504 0.011643973348036301 0 -0.00088890000550687184 0.011577982579370788 0 -0.0007589466616821504 0.011643973348036301 0 -0.0007006749279024403 0.011783282984899805 0 -0.00080659028228998776 0.011764730150357755 0 -0.0007589466616821504 0.011643973348036301 0 -0.00088890000550687184 0.011577982579370788 0 -0.00080659028228998776 0.011764730150357755 0 -0.00049839612859002515 0.01638249412308402 0 -0.00039822949832148607 0.018006611600421791 0 -0.0019050052488563849 0.019370229417842808 0 0.0010462526264848517 0.016434879336621758 0 0.00062800071765500745 0.02308070560981311 0 -0.0007589466616821504 0.011643973348036301 0 -0.00058148162293023237 0.011653159280527575 0 -0.0007006749279024403 0.011783282984899805 0 -0.00049839612859002515 0.01638249412308402 0 0.00019966187743125345 0.017273720591444636 0 0.0011796526035205818 0.01593346171429922 0 -0.00049839612859002515 0.01638249412308402 0 0.00019966187743125345 0.017273720591444636 0 -0.00039822949832148607 0.018006611600421791 0 -0.0006612403568873078 0.011568286884183175 0 -0.0007589466616821504 0.011643973348036301 0 -0.00058148162293023237 0.011653159280527575 0 -0.00039822949832148607 0.018006611600421791 0 0.00050148102250705321 0.018373871329181442 0 -0.0019050052488563849 0.019370229417842808 0 0.00019966187743125345 0.017273720591444636 0 0.00050148102250705321 0.018373871329181442 0 0.0011172896067567367 0.017536230860342839 0 0.00019966187743125345 0.017273720591444636 0 -0.00039822949832148607 0.018006611600421791 0 0.00050148102250705321 0.018373871329181442 0 0.00050148102250705321 0.018373871329181442 0 0.0011172896067567367 0.017536230860342839 0 0.0021090007327593243 0.017858618890740238 0 0.0021090007327593243 0.017858618890740238 0 0.0047955242891435977 0.01779542013607226 0 0.0013154278895177668 0.019238746979185532 0 0.00050148102250705321 0.018373871329181442 0 0.0021090007327593243 0.017858618890740238 0 0.0013154278895177668 0.019238746979185532 0 0.0011172896067567367 0.017536230860342839 0 0.0020380229866320521 0.016912052547343126 0 0.0021090007327593243 0.017858618890740238 0 0.0011172896067567367 0.017536230860342839 0 0.0020380229866320521 0.016912052547343126 0 0.0011796526035205818 0.01593346171429922 0 0.00019966187743125345 0.017273720591444636 0 0.0011172896067567367 0.017536230860342839 0 0.0011796526035205818 0.01593346171429922 0 0.0027904021872899826 0.016051497830735131 0 0.0020380229866320521 0.016912052547343126 0 0.0011796526035205818 0.01593346171429922 0 0.0020380229866320521 0.016912052547343126 0 0.0029936889883838821 0.017179844647004471 0 0.0021090007327593243 0.017858618890740238 0 0.0027904021872899826 0.016051497830735131 0 0.0020380229866320521 0.016912052547343126 0 0.0029936889883838821 0.017179844647004471 0 0.0029936889883838821 0.017179844647004471 0 0.0021090007327593243 0.017858618890740238 0 0.0047955242891435977 0.01779542013607226 0 0.0047955242891435977 0.01779542013607226 0 0.0057312514762563015 0.016648511433593506 0 0.003680533802802974 0.02103105926200096 0 0.0047955242891435977 0.01779542013607226 0 0.0057312514762563015 0.016648511433593506 0 0.0047171758195866777 0.016296405204090678 0 0.0057312514762563015 0.016648511433593506 0 0.0047171758195866777 0.016296405204090678 0 0.0048338247215030088 0.015305783597720194 0 0.0047955242891435977 0.01779542013607226 0 0.0047171758195866777 0.016296405204090678 0 0.003804542797558787 0.016559857147877437 0 0.0029936889883838821 0.017179844647004471 0 0.0047955242891435977 0.01779542013607226 0 0.003804542797558787 0.016559857147877437 0 0.0047171758195866777 0.016296405204090678 0 0.003804542797558787 0.016559857147877437 0 0.0039001736092869896 0.015439373574769629 0 0.0027904021872899826 0.016051497830735131 0 0.0029936889883838821 0.017179844647004471 0 0.003804542797558787 0.016559857147877437 0 0.0027904021872899826 0.016051497830735131 0 0.0039001736092869896 0.015439373574769629 0 0.0030701294085026631 0.014912653135207194 0 0.0027904021872899826 0.016051497830735131 0 0.003804542797558787 0.016559857147877437 0 0.0039001736092869896 0.015439373574769629 0 0.0039001736092869896 0.015439373574769629 0 0.0048338247215030088 0.015305783597720194 0 0.0042846966831640906 0.01405455164954556 0 0.0039001736092869896 0.015439373574769629 0 0.0042846966831640906 0.01405455164954556 0 0.0030701294085026631 0.014912653135207194 0 0.0057312514762563015 0.016648511433593506 0 0.0048338247215030088 0.015305783597720194 0 0.0055007948939468105 0.014110174159327792 0 0.0047171758195866777 0.016296405204090678 0 0.0039001736092869896 0.015439373574769629 0 0.0048338247215030088 0.015305783597720194 0 0.0051803823450258402 0.012668092435316554 0 0.0055007948939468105 0.014110174159327792 0 0.0042846966831640906 0.01405455164954556 0 0.0048338247215030088 0.015305783597720194 0 0.0055007948939468105 0.014110174159327792 0 0.0042846966831640906 0.01405455164954556 0 0.0031961029771488841 0.013084836964808918 0 0.0042846966831640906 0.01405455164954556 0 0.0030701294085026631 0.014912653135207194 0 0.0019676226607317762 0.011271513482252018 0 0.001362927056794539 0.012687080617266448 0 0.0031875062413085492 0.013101847622497317 0 0.00090008252886478884 0.013410579128879985 0 0.0011796526035205818 0.01593346171429922 0 0.0031961029771488841 0.013084836964808918 0 0.0011796526035205818 0.01593346171429922 0 0.0030701294085026631 0.014912653135207194 0 0.0027904021872899826 0.016051497830735131 0 0.0011796526035205818 0.01593346171429922 0 0.0030701294085026631 0.014912653135207194 0 0.0027405463633516512 0.034707187055099613 0 0.0034056006815703119 0.034604619370010935 0 0.0027970667923738388 0.034211643750132616 0 0.0027405463633516512 0.034707187055099613 0 0.0031515436975283763 0.035207573757928906 0 0.0034056006815703119 0.034604619370010935 0 0.0023517992290043783 0.031935958639718813 0 0.0027350922563920462 0.033028301810345127 0 0.0029919558299584485 0.035732019456494346 0 0.0021548743412864437 0.03557687981780347 0 0.002376572303575528 0.036061778909971344 0 0.0027092567085485911 0.035062623294479109 0 0.0032407403031848338 0.035780416914110186 0 0.0021548743412864437 0.03557687981780347 0 0.0029779193699373354 0.033816838006944405 0 0.0023517992290043783 0.031935958639718813 0 0.0031515436975283763 0.035207573757928906 0 0.0034056006815703119 0.034604619370010935 0 0.0036260247729554529 0.035282147880977222 0 -0.00095413524057788373 0.011429286930572062 0 -0.00090097544224734913 0.011299969763285296 0 -0.0010197993128357912 0.011644448058169592 0 0.0023517992290043783 0.031935958639718813 0 -1.3056524281014514e-05 0.027675291595339355 0 0.00053299149443224538 0.023985485616858041 0 -1.3056524281014514e-05 0.027675291595339355 0 -0.00088890000550687184 0.011577982579370788 0 -0.00080659028228998776 0.011764730150357755 0 -0.0010197993128357912 0.011644448058169592 0 -0.00088890000550687184 0.011577982579370788 0 -0.00095413524057788373 0.011429286930572062 0 -0.0010197993128357912 0.011644448058169592 0 -0.00091156194305197242 0.011457259307292071 0 -0.00095413524057788373 0.011429286930572062 0 -0.0010282852426155527 0.011317576540242544 0 -0.00091156194305197242 0.011457259307292071 0 -0.00088890000550687184 0.011577982579370788 0 -0.00095413524057788373 0.011429286930572062 0 -0.00095413524057788373 0.011429286930572062 0 -0.00090097544224734913 0.011299969763285296 0 -0.0010282852426155527 0.011317576540242544 0 -0.00090097544224734913 0.011299969763285296 0 -0.0010282852426155527 0.011317576540242544 0 -0.00084291083788872183 0.011537399323102692 0 -0.0010651354792613258 0.011185476952322361 0 -0.0010282852426155527 0.011317576540242544 0 -0.0011388258947673401 0.011277836843981641 0 -0.0010651354792613258 0.011185476952322361 0 -0.00091156194305197242 0.011457259307292071 0 -0.0010282852426155527 0.011317576540242544 0 -0.0011388258947673401 0.011277836843981641 0 -0.00084291083788872183 0.011537399323102692 0 -0.0010792694006729869 0.011834295117155428 0 -0.0010282852426155527 0.011317576540242544 0 -0.0011388258947673401 0.011277836843981641 0 -0.00084291083788872183 0.011537399323102692 0 -0.0013005561009633538 0.011113582500240592 0 -0.0012215549911338138 0.010926983488382948 0 -0.0011388258947673401 0.011277836843981641 0 -0.00084291083788872183 0.011537399323102692 0 -0.000322674150358758 0.011566600534867124 0 -0.00042435707322552123 0.012414578979508154 0 0.0034056006815703119 0.034604619370010935 0 0.0032103344967944866 0.03374970307961371 0 0.0027970667923738388 0.034211643750132616 0 0.00053299149443224538 0.023985485616858041 0 0.0013120144159509963 0.023051631109250639 0 -0.00090097544224734913 0.011299969763285296 0 -0.00084291083788872183 0.011537399323102692 0 -0.000322674150358758 0.011566600534867124 0 0.0027405463633516512 0.034707187055099613 0 0.0027970667923738388 0.034211643750132616 0 0.0021859891564709379 0.034205174303708841 0 0.0029779193699373354 0.033816838006944405 0 0.0028606504568842654 0.033955105833184548 0 0.0027970667923738388 0.034211643750132616 0 0.0025609800889064057 0.033801975783178541 0 0.0021859891564709379 0.034205174303708841 0 0.0032103344967944866 0.03374970307961371 0 0.0027970667923738388 0.034211643750132616 0 0.0025609800889064057 0.033801975783178541 0 0.0032103344967944866 0.03374970307961371 0 0.0025609800889064057 0.033801975783178541 0 0.0025921494028175083 0.033276526909932817 0 0.0025609800889064057 0.033801975783178541 0 0.0025921494028175083 0.033276526909932817 0 0.0020938193256141483 0.033507208343827706 0 0.0025921494028175083 0.033276526909932817 0 0.0029024165079920535 0.032590251949788145 0 0.0021787357032095702 0.032785398740377759 0 0.0032103344967944866 0.03374970307961371 0 0.0025921494028175083 0.033276526909932817 0 0.0029024165079920535 0.032590251949788145 0 0.0021887405785268512 0.022966231525607107 0 0.0022671706850062152 0.023037356385786273 0 -0.000322674150358758 0.011566600534867124 0 0.00013483775957388579 0.013204679084339303 0 -0.00042435707322552123 0.012414578979508154 0 -0.000322674150358758 0.011566600534867124 0 0.00013483775957388579 0.013204679084339303 0 0.00032125581738663022 0.013293769295611803 0 0.0013120144159509963 0.023051631109250639 0 0.0022671706850062152 0.023037356385786273 0 -0.00042435707322552123 0.012414578979508154 0 -0.00042102579296204959 0.012827346426482105 0 -0.00019791860271647593 0.013155549935884343 0 -0.00042435707322552123 0.012414578979508154 0 -0.00042102579296204959 0.012827346426482105 0 -0.0006632126557322164 0.012377762584307712 0 0.00013483775957388579 0.013204679084339303 0 -0.00042435707322552123 0.012414578979508154 0 -0.00019791860271647593 0.013155549935884343 0 0.00013483775957388579 0.013204679084339303 0 -0.00019791860271647593 0.013155549935884343 0 2.6031714540986738e-05 0.013676443794772659 0 -0.00019791860271647593 0.013155549935884343 0 -0.00014443023252323293 0.013787718452238492 0 2.6031714540986738e-05 0.013676443794772659 0 -0.00019791860271647593 0.013155549935884343 0 -0.00014443023252323293 0.013787718452238492 0 -0.00029611820986965459 0.013395537915398579 0 -0.00014443023252323293 0.013787718452238492 0 -2.561911881794715e-05 0.014225828435929474 0 2.6031714540986738e-05 0.013676443794772659 0 -0.00029611820986965459 0.013395537915398579 0 -0.00025952840165317445 0.013899159293207881 0 -0.00050849465759606589 0.013023144517718849 0 -0.00042102579296204959 0.012827346426482105 0 -0.00029611820986965459 0.013395537915398579 0 -0.00050849465759606589 0.013023144517718849 0 -0.00042102579296204959 0.012827346426482105 0 -0.00019791860271647593 0.013155549935884343 0 -0.00029611820986965459 0.013395537915398579 0 -0.00014443023252323293 0.013787718452238492 0 -0.00029611820986965459 0.013395537915398579 0 -0.00025952840165317445 0.013899159293207881 0 -0.00014443023252323293 0.013787718452238492 0 -0.00025952840165317445 0.013899159293207881 0 -0.00013262693059847317 0.014198834722136452 0 -0.00014443023252323293 0.013787718452238492 0 -0.00013262693059847317 0.014198834722136452 0 -2.561911881794715e-05 0.014225828435929474 0 0.0022671706850062152 0.023037356385786273 0 0.0008618608210411012 0.024315461742410796 0 -2.561911881794715e-05 0.014225828435929474 0 9.2665605312766973e-05 0.013920746889228085 0 -6.4808418763576868e-05 0.014866167075883903 0 -0.00013262693059847317 0.014198834722136452 0 -2.561911881794715e-05 0.014225828435929474 0 -0.00010440144582690648 0.014607744913134893 0 -2.561911881794715e-05 0.014225828435929474 0 -6.4808418763576868e-05 0.014866167075883903 0 -0.00010440144582690648 0.014607744913134893 0 9.2665605312766973e-05 0.013920746889228085 0 0.00010573294679494886 0.013746752323779192 0 0.00015509798327256372 0.015280207846454211 0 9.2665605312766973e-05 0.013920746889228085 0 -6.4808418763576868e-05 0.014866167075883903 0 0.00015509798327256372 0.015280207846454211 0 0.00013483775957388579 0.013204679084339303 0 2.6031714540986738e-05 0.013676443794772659 0 0.00020390211705821105 0.013495805998329729 0 9.2665605312766973e-05 0.013920746889228085 0 2.6031714540986738e-05 0.013676443794772659 0 0.00020390211705821105 0.013495805998329729 0 0.0022151506521487182 0.022884438796767655 0 0.0022671706850062152 0.023037356385786273 0 -2.561911881794715e-05 0.014225828435929474 0 9.2665605312766973e-05 0.013920746889228085 0 2.6031714540986738e-05 0.013676443794772659 0 -0.0013005561009633538 0.011113582500240592 0 -0.0010792694006729869 0.011834295117155428 0 -0.0015452228868911952 0.012558906557236248 0 -0.0013005561009633538 0.011113582500240592 0 -0.0011388258947673401 0.011277836843981641 0 -0.0010792694006729869 0.011834295117155428 0 -0.00084291083788872183 0.011537399323102692 0 -0.00042435707322552123 0.012414578979508154 0 -0.0006632126557322164 0.012377762584307712 0 -0.00084291083788872183 0.011537399323102692 0 -0.0010792694006729869 0.011834295117155428 0 -0.0006632126557322164 0.012377762584307712 0 -0.0010792694006729869 0.011834295117155428 0 -0.0006632126557322164 0.012377762584307712 0 -0.00072166199485637985 0.013023095090147723 0 -0.00042102579296204959 0.012827346426482105 0 -0.0006632126557322164 0.012377762584307712 0 -0.00050849465759606589 0.013023144517718849 0 -0.0006632126557322164 0.012377762584307712 0 -0.00050849465759606589 0.013023144517718849 0 -0.00072166199485637985 0.013023095090147723 0 -0.00025952840165317445 0.013899159293207881 0 -0.00050849465759606589 0.013023144517718849 0 -0.00072166199485637985 0.013023095090147723 0 -0.00072166199485637985 0.013023095090147723 0 -0.0015452228868911952 0.012558906557236248 0 -0.0004904436989008928 0.014230471644321089 0 -0.0010792694006729869 0.011834295117155428 0 -0.00072166199485637985 0.013023095090147723 0 -0.0015452228868911952 0.012558906557236248 0 -0.0011578103465591507 0.0069213329468591229 0 -0.00066030484459902528 0.0074494060796229241 0 0.00016214379937973239 0.0084611079099689603 0 -0.00079051658294086887 0.0106214932463073 0 -0.00066900020445971196 0.011013387459410965 0 -0.00025952840165317445 0.013899159293207881 0 -0.00072166199485637985 0.013023095090147723 0 -0.0004904436989008928 0.014230471644321089 0 -0.00066030484459902528 0.0074494060796229241 0 0.00016214379937973239 0.0084611079099689603 0 8.5854042766487536e-07 0.011495380477641003 0 -0.00066900020445971196 0.011013387459410965 0 -0.00054680980447279967 0.01136760343018617 0 0.00016214379937973239 0.0084611079099689603 0 8.5854042766487536e-07 0.011495380477641003 0 7.4439940535616847e-05 0.01332616851960527 0 -1.8962951313641123e-06 0.0078037715909182025 0 -0.00066030484459902528 0.0074494060796229241 0 8.5854042766487536e-07 0.011495380477641003 0 -0.00018060186143362795 0.015027200887180101 0 -0.000181520261019389 0.014724490184196587 0 -0.0001870897119456276 0.016224477689028363 0 -0.00018060186143362795 0.015027200887180101 0 -0.00016318493992329865 0.014520389909105896 0 -0.000181520261019389 0.014724490184196587 0 -0.00018060186143362795 0.015027200887180101 0 -6.4808418763576868e-05 0.014866167075883903 0 -0.0001870897119456276 0.016224477689028363 0 -0.00018060186143362795 0.015027200887180101 0 -0.00010440144582690648 0.014607744913134893 0 -0.00016318493992329865 0.014520389909105896 0 -0.00013262693059847317 0.014198834722136452 0 -0.00010440144582690648 0.014607744913134893 0 -0.00016318493992329865 0.014520389909105896 0 -0.00018060186143362795 0.015027200887180101 0 -6.4808418763576868e-05 0.014866167075883903 0 -0.00010440144582690648 0.014607744913134893 0 -0.00025952840165317445 0.013899159293207881 0 -0.00016318493992329865 0.014520389909105896 0 -0.00019981651869836552 0.014323520882359369 0 -0.00025952840165317445 0.013899159293207881 0 -0.0004904436989008928 0.014230471644321089 0 -0.00019981651869836552 0.014323520882359369 0 -0.00025952840165317445 0.013899159293207881 0 -0.00013262693059847317 0.014198834722136452 0 -0.00016318493992329865 0.014520389909105896 0 -0.00016318493992329865 0.014520389909105896 0 -0.00019981651869836552 0.014323520882359369 0 -0.000181520261019389 0.014724490184196587 0 -0.00019981651869836552 0.014323520882359369 0 7.4439940535616847e-05 0.01332616851960527 0 -0.000181520261019389 0.014724490184196587 0 -0.0004904436989008928 0.014230471644321089 0 -0.00019981651869836552 0.014323520882359369 0 7.4439940535616847e-05 0.01332616851960527 0 8.5854042766487536e-07 0.011495380477641003 0 7.4439940535616847e-05 0.01332616851960527 0 -4.5593823841048424e-07 0.015188202463673823 0 7.4439940535616847e-05 0.01332616851960527 0 -4.5593823841048424e-07 0.015188202463673823 0 -0.000181520261019389 0.014724490184196587 0 -4.5593823841048424e-07 0.015188202463673823 0 -0.000181520261019389 0.014724490184196587 0 -0.0001870897119456276 0.016224477689028363 0 -4.5593823841048424e-07 0.015188202463673823 0 -0.0001870897119456276 0.016224477689028363 0 -9.5181171068182251e-07 0.018880021026030629 0 -6.4808418763576868e-05 0.014866167075883903 0 -0.0001870897119456276 0.016224477689028363 0 0.00015509798327256372 0.015280207846454211 0 -0.0001870897119456276 0.016224477689028363 0 0.00068512304316920448 0.01727387770364058 0 0.00015509798327256372 0.015280207846454211 0 0.00055270013156134346 0.026485471975469632 0 0.0008618608210411012 0.024315461742410796 0 -0.0001870897119456276 0.016224477689028363 0 -9.5181171068182251e-07 0.018880021026030629 0 0.00068512304316920448 0.01727387770364058 0 -9.5181171068182251e-07 0.018880021026030629 0 3.4327352752204127e-06 0.022565433149544886 0 0.00068512304316920448 0.01727387770364058 0 -1.2310805608536317e-06 0.022573495960811013 0 0.00055270013156134346 0.026485471975469632 0 9.2756303260607988e-07 0.022574699520028489 0 -9.1852369872183128e-06 0.023806756587146986 0 0.002643609280198498 0.026492869685896255 0 0.0010557461793084867 0.028349835737631193 0 0.00052588685197187731 0.027792597364429687 0 -0.00013813482354905235 0.024061199363824535 0 9.2756303260607988e-07 0.022574699520028489 0 -9.2566330517788302e-07 0.025061473965543105 0 -0.00013813482354905235 0.024061199363824535 0 -0.0001110120262627103 0.023863450409525366 0 1.2690154846197548e-06 0.024629838130385332 0 -0.00013813482354905235 0.024061199363824535 0 9.2756303260607988e-07 0.022574699520028489 0 -9.1852369872183128e-06 0.023806756587146986 0 0.0010974834780981882 0.027886357749045916 0 0.0010557461793084867 0.028349835737631193 0 -0.00013813482354905235 0.024061199363824535 0 -9.1852369872183128e-06 0.023806756587146986 0 -0.0001110120262627103 0.023863450409525366 0 0.0048962755287684139 0.030723446793896995 0 0.0039786691464763933 0.033716704854343069 0 0.0030074838396232828 0.031953564090729594 0 0.0010557461793084867 0.028349835737631193 0 0.0010283410849269421 0.032315795668977618 0 -9.1852369872183128e-06 0.023806756587146986 0 -0.00031390280493977219 0.025162283218288665 0 0.002643609280198498 0.026492869685896255 0 0.0010557461793084867 0.028349835737631193 0 0.00055270013156134346 0.026485471975469632 0 -5.4762070632218321e-06 0.03105098882276049 0 0.00088408718712231177 0.03147105745522763 0 0.00059501340309916714 0.032326378007578746 0 -5.4762070632218321e-06 0.03105098882276049 0 0.00059501340309916714 0.032326378007578746 0 -0.00030981976989553792 0.032390130861371144 0 -0.00030981976989553792 0.032390130861371144 0 0.00010267122953467982 0.033161127621940838 0 -0.0006100630212958815 0.033715125974413729 0 0.0010283410849269421 0.032315795668977618 0 0.00079856736307472721 0.034104925251455809 0 0.00059501340309916714 0.032326378007578746 0 -0.00030981976989553792 0.032390130861371144 0 0.00010267122953467982 0.033161127621940838 0 0.00059501340309916714 0.032326378007578746 0 0.00010267122953467982 0.033161127621940838 0 0.0008143862095665185 0.033209403194226703 0 0.0008143862095665185 0.033209403194226703 0 0.0014828965067946844 0.033259375402826849 0 0.0015098917136605636 0.032496129063199215 0 0.00059501340309916714 0.032326378007578746 0 0.0008143862095665185 0.033209403194226703 0 0.0015098917136605636 0.032496129063199215 0 0.0020365036376778279 0.030799223542306419 0 0.0023902267787913431 0.031914479937221733 0 0.0025921494028175083 0.033276526909932817 0 0.0021787357032095702 0.032785398740377759 0 0.0020938193256141483 0.033507208343827706 0 0.0014828965067946844 0.033259375402826849 0 0.0015098917136605636 0.032496129063199215 0 0.0020938193256141483 0.033507208343827706 0 0.0021787357032095702 0.032785398740377759 0 0.0014436380273039999 0.032555293790888735 0 0.0020938193256141483 0.033507208343827706 0 0.0029024165079920535 0.032590251949788145 0 0.0021787357032095702 0.032785398740377759 0 0.0018987339370526053 0.032057134367708975 0 0.0021787357032095702 0.032785398740377759 0 0.0018987339370526053 0.032057134367708975 0 0.0014436380273039999 0.032555293790888735 0 0.00088408718712231177 0.03147105745522763 0 0.00059501340309916714 0.032326378007578746 0 0.0015098917136605636 0.032496129063199215 0 0.0008016106063698182 0.031511587990257557 0 0.0018987339370526053 0.032057134367708975 0 0.0014436380273039999 0.032555293790888735 0 0.00055270013156134346 0.026485471975469632 0 0.0020365036376778279 0.030799223542306419 0 -0.00084993356332573706 0.032317747254741971 0 -0.001173326993464299 0.033206178389535088 0 -0.0013306107476100436 0.033734194098038121 0 -0.00083832839752706872 0.032851598409423137 0 -0.001173326993464299 0.033206178389535088 0 -0.0012824210051198437 0.033565612366937787 0 -0.00083832839752706872 0.032851598409423137 0 -0.00084993356332573706 0.032317747254741971 0 -0.001173326993464299 0.033206178389535088 0 -0.00030129426958017759 0.033757089067426554 0 -0.0004949268932923287 0.034495880511934196 0 -2.2093502988430929e-06 0.030953113573156991 0 -0.00027901843564356968 0.03052828723236713 0 -1.6587224680267815e-05 0.033256973490460161 0 -0.00084993356332573706 0.032317747254741971 0 -0.00027901843564356968 0.03052828723236713 0 -0.0013306107476100436 0.033734194098038121 0 -2.2093502988430929e-06 0.030953113573156991 0 -0.00027901843564356968 0.03052828723236713 0 3.8764924178139224e-06 0.027558992870166103 0 -0.00027901843564356968 0.03052828723236713 0 -0.00010146157688595717 0.031720487543731371 0 0.00048778497034169106 0.030284004865186093 0 -0.00084993356332573706 0.032317747254741971 0 -0.00027901843564356968 0.03052828723236713 0 -0.00010146157688595717 0.031720487543731371 0 -0.00083832839752706872 0.032851598409423137 0 -0.00084993356332573706 0.032317747254741971 0 -0.00010146157688595717 0.031720487543731371 0 -0.00083832839752706872 0.032851598409423137 0 -0.00010146157688595717 0.031720487543731371 0 -0.00016443363087504539 0.032849661530759557 0 -0.00010146157688595717 0.031720487543731371 0 0.0010934323887269045 0.032019968719981855 0 -0.00016443363087504539 0.032849661530759557 0 0.0010934323887269045 0.032019968719981855 0 0.00048778497034169106 0.030284004865186093 0 0.003027144186055646 0.029642600593133468 0 -0.00010146157688595717 0.031720487543731371 0 0.0010934323887269045 0.032019968719981855 0 0.00048778497034169106 0.030284004865186093 0 -0.00027901843564356968 0.03052828723236713 0 3.8764924178139224e-06 0.027558992870166103 0 0.00048778497034169106 0.030284004865186093 0 3.8764924178139224e-06 0.027558992870166103 0 0.00048778497034169106 0.030284004865186093 0 0.003027144186055646 0.029642600593133468 0 1.3548120506493857e-07 0.027552987065423768 0 0.00052588685197187731 0.027792597364429687 0 9.2137043565251732e-07 0.027551837248066216 0 -9.2566330517788302e-07 0.025061473965543105 0 1.2690154846197548e-06 0.024629838130385332 0 -0.00013813482354905235 0.024061199363824535 0 -9.2566330517788302e-07 0.025061473965543105 0 1.2690154846197548e-06 0.024629838130385332 0 0.0048962755287684139 0.030723446793896995 0 0.003027144186055646 0.029642600593133468 0 0.0030074838396232828 0.031953564090729594 0 0.0010934323887269045 0.032019968719981855 0 0.003027144186055646 0.029642600593133468 0 0.0030074838396232828 0.031953564090729594 0 0.0010934323887269045 0.032019968719981855 0 0.0030074838396232828 0.031953564090729594 0 0.001787068619369952 0.03348522685113748 0 0.0039786691464763933 0.033716704854343069 0 0.0030074838396232828 0.031953564090729594 0 0.001787068619369952 0.03348522685113748 0 0.0039786691464763933 0.033716704854343069 0 0.0015142004895882881 0.035671303304464823 0 0.00325614841707156 0.036376075058178768 0 0.0039786691464763933 0.033716704854343069 0 0.001787068619369952 0.03348522685113748 0 0.0015142004895882881 0.035671303304464823 0 0.00069831408349813767 0.034483018550039664 0 0.0008758899824596292 0.034461901906454456 0 0.00061650319487973379 0.03416824093640914 0 -0.00010240211088311129 0.034746437753615071 0 0.0015142004895882881 0.035671303304464823 0 0.00061650319487973379 0.03416824093640914 0 0.001787068619369952 0.03348522685113748 0 0.0015142004895882881 0.035671303304464823 0 0.00061650319487973379 0.03416824093640914 0 0.00057897581593643291 0.03326741062123275 0 -0.00023724153296404064 0.033700980820771304 0 0.00061650319487973379 0.03416824093640914 0 0.001787068619369952 0.03348522685113748 0 0.00057897581593643291 0.03326741062123275 0 0.0010934323887269045 0.032019968719981855 0 0.001787068619369952 0.03348522685113748 0 0.00057897581593643291 0.03326741062123275 0 0.0010934323887269045 0.032019968719981855 0 0.00057897581593643291 0.03326741062123275 0 -0.00016443363087504539 0.032849661530759557 0 -0.00083832839752706872 0.032851598409423137 0 -0.00016443363087504539 0.032849661530759557 0 -0.00098420979328192842 0.033527925235812821 0 -0.00016443363087504539 0.032849661530759557 0 -0.00023724153296404064 0.033700980820771304 0 -0.00098420979328192842 0.033527925235812821 0 0.00057897581593643291 0.03326741062123275 0 -0.00016443363087504539 0.032849661530759557 0 -0.00023724153296404064 0.033700980820771304 0 0.00061650319487973379 0.03416824093640914 0 -0.00023724153296404064 0.033700980820771304 0 -0.00010240211088311129 0.034746437753615071 0 -0.00010240211088311129 0.034746437753615071 0 -0.00075185936793810751 0.034762597032955408 0 -0.00039033883987047064 0.034972407075337872 0 -0.00040483321620061395 0.03405189466923618 0 -0.00063718657489600784 0.034309902573045066 0 -0.00023724153296404064 0.033700980820771304 0 -0.00010240211088311129 0.034746437753615071 0 -0.00075185936793810751 0.034762597032955408 0 -0.00099529253843600157 0.033852650747577817 0 -0.001096277586917493 0.033676130859539369 0 -0.0011264415529503614 0.033681523663738694 0 -0.00099529253843600157 0.033852650747577817 0 -0.001096277586917493 0.033676130859539369 0 -0.00098420979328192842 0.033527925235812821 0 -0.00023724153296404064 0.033700980820771304 0 -0.00099529253843600157 0.033852650747577817 0 -0.00098420979328192842 0.033527925235812821 0 -0.001096277586917493 0.033676130859539369 0 -0.00098420979328192842 0.033527925235812821 0 -0.0012119334421642678 0.03359618182540134 0 -0.00098420979328192842 0.033527925235812821 0 -0.0012824210051198437 0.033565612366937787 0 -0.0012119334421642678 0.03359618182540134 0 -0.00083832839752706872 0.032851598409423137 0 -0.00098420979328192842 0.033527925235812821 0 -0.0012824210051198437 0.033565612366937787 0 -0.00058477175786420237 0.035196386669407456 0 -0.00058560245349858207 0.035539041141351431 0 -0.00088594603634091799 0.03546836429237555 0 -0.00058477175786420237 0.035196386669407456 0 -0.00029397494339435538 0.035428024723106757 0 -0.00058560245349858207 0.035539041141351431 0 -0.00075185936793810751 0.034762597032955408 0 -0.00058477175786420237 0.035196386669407456 0 -0.00095116638574291356 0.035098273355860056 0 -0.00075185936793810751 0.034762597032955408 0 -0.00058477175786420237 0.035196386669407456 0 -0.00039033883987047064 0.034972407075337872 0 -0.00058477175786420237 0.035196386669407456 0 -0.00039033883987047064 0.034972407075337872 0 -0.00016292724802114731 0.03510341652453515 0 -0.00010240211088311129 0.034746437753615071 0 -0.00039033883987047064 0.034972407075337872 0 -0.00016292724802114731 0.03510341652453515 0 -0.00058477175786420237 0.035196386669407456 0 -0.00016292724802114731 0.03510341652453515 0 -0.00029397494339435538 0.035428024723106757 0 -0.00016292724802114731 0.03510341652453515 0 1.4369421869912963e-05 0.035367377369332098 0 -0.00029397494339435538 0.035428024723106757 0 -0.00016292724802114731 0.03510341652453515 0 1.4369421869912963e-05 0.035367377369332098 0 0.00013089648771879078 0.035139452808484267 0 -0.00010240211088311129 0.034746437753615071 0 -0.00016292724802114731 0.03510341652453515 0 8.6838380227297467e-05 0.034903292700917174 0 -0.00016292724802114731 0.03510341652453515 0 8.6838380227297467e-05 0.034903292700917174 0 0.00013089648771879078 0.035139452808484267 0 8.6838380227297467e-05 0.034903292700917174 0 0.00033985250012344225 0.035021970493423753 0 0.00013089648771879078 0.035139452808484267 0 0.0008758899824596292 0.034461901906454456 0 0.00079856736307472721 0.034104925251455809 0 0.00079856736307472721 0.034104925251455809 0 0.00053484501709893451 0.034831913692305892 0 0.00033985250012344225 0.035021970493423753 0 0.00013089648771879078 0.035139452808484267 0 0.00025115561207427573 0.035325958654950723 0 1.4369421869912963e-05 0.035367377369332098 0 0.00013089648771879078 0.035139452808484267 0 0.00025115561207427573 0.035325958654950723 0 1.4369421869912963e-05 0.035367377369332098 0 0.00025115561207427573 0.035325958654950723 0 0.00017998444015045097 0.035562940037060682 0 0.00053484501709893451 0.034831913692305892 0 0.00044817481563262787 0.035088456147390944 0 0.00026033791973947346 0.034894098673539028 0 0.00017998444015045097 0.035562940037060682 0 0.00070753610577422817 0.035291157625198542 0 -8.7661064223493033e-05 0.035616288049925129 0 -0.00036021747585014951 0.035804759797344862 0 7.2121501547562467e-06 0.036155648757736844 0 0.00017998444015045097 0.035562940037060682 0 -8.7661064223493033e-05 0.035616288049925129 0 7.2121501547562467e-06 0.036155648757736844 0 1.4369421869912963e-05 0.035367377369332098 0 -8.7661064223493033e-05 0.035616288049925129 0 -0.00029397494339435538 0.035428024723106757 0 1.4369421869912963e-05 0.035367377369332098 0 0.00017998444015045097 0.035562940037060682 0 -8.7661064223493033e-05 0.035616288049925129 0 -0.00029397494339435538 0.035428024723106757 0 -0.00036021747585014951 0.035804759797344862 0 -0.00058560245349858207 0.035539041141351431 0 -8.7661064223493033e-05 0.035616288049925129 0 -0.00029397494339435538 0.035428024723106757 0 -0.00036021747585014951 0.035804759797344862 0 -0.00058147158947749445 0.035988967623045501 0 -0.00074829332829060133 0.035794849518313014 0 -0.00079905885233495571 0.0362604740545922 0 -0.00036021747585014951 0.035804759797344862 0 -0.00058147158947749445 0.035988967623045501 0 -0.00074829332829060133 0.035794849518313014 0 -0.00036021747585014951 0.035804759797344862 0 -0.00074829332829060133 0.035794849518313014 0 -0.00058560245349858207 0.035539041141351431 0 -0.00074829332829060133 0.035794849518313014 0 -0.00058560245349858207 0.035539041141351431 0 -0.00088594603634091799 0.03546836429237555 0 0.0017576340216664493 0.034660952388202271 0 0.0014958124655361053 0.033818070582548168 0 0.00054953829867213804 0.034176288171804126 0 0.0012946735392601676 0.034429491092794973 0 0.00094089392043368017 0.034267398984400642 0 0.0017576340216664493 0.034660952388202271 0 0.0010827289049224768 0.034562271164011227 0 0.0012631750765853486 0.035066498608546492 0 0.0017576340216664493 0.034660952388202271 0 0.0021859891564709379 0.034205174303708841 0 0.0020837391665522167 0.034987133911281526 0 0.0017576340216664493 0.034660952388202271 0 0.0021859891564709379 0.034205174303708841 0 0.0014958124655361053 0.033818070582548168 0 0.0021859891564709379 0.034205174303708841 0 0.0020938193256141483 0.033507208343827706 0 0.0014958124655361053 0.033818070582548168 0 0.0025609800889064057 0.033801975783178541 0 0.0021859891564709379 0.034205174303708841 0 0.0020938193256141483 0.033507208343827706 0 0.0014828965067946844 0.033259375402826849 0 0.0020938193256141483 0.033507208343827706 0 0.0014958124655361053 0.033818070582548168 0 0.0008143862095665185 0.033209403194226703 0 0.0014828965067946844 0.033259375402826849 0 0.0014958124655361053 0.033818070582548168 0 0.0008143862095665185 0.033209403194226703 0 0.0014958124655361053 0.033818070582548168 0 0.00054953829867213804 0.034176288171804126 0 0.00010267122953467982 0.033161127621940838 0 0.0008143862095665185 0.033209403194226703 0 0.00054953829867213804 0.034176288171804126 0 0.00079856736307472721 0.034104925251455809 0 0.00094089392043368017 0.034267398984400642 0 0.00010267122953467982 0.033161127621940838 0 -0.0006100630212958815 0.033715125974413729 0 0.00054953829867213804 0.034176288171804126 0 0.00026033791973947346 0.034894098673539028 0 0.0010827289049224768 0.034562271164011227 0 0.00070753610577422817 0.035291157625198542 0 0.0003847418050164461 0.034314748062665559 0 0.00026033791973947346 0.034894098673539028 0 0.0010827289049224768 0.034562271164011227 0 0.0012631750765853486 0.035066498608546492 0 0.00070753610577422817 0.035291157625198542 0 0.0011586197216185811 0.035554844740138113 0 0.0010827289049224768 0.034562271164011227 0 0.0012631750765853486 0.035066498608546492 0 0.00070753610577422817 0.035291157625198542 0 0.00070753610577422817 0.035291157625198542 0 0.0011586197216185811 0.035554844740138113 0 0.00065592614456343558 0.036134641593059701 0 0.00017998444015045097 0.035562940037060682 0 0.00070753610577422817 0.035291157625198542 0 0.00065592614456343558 0.036134641593059701 0 0.0016711607499582254 0.035275538268568829 0 0.0021548743412864437 0.03557687981780347 0 0.0014860590824021514 0.036112897642216625 0 0.0011586197216185811 0.035554844740138113 0 0.0016711607499582254 0.035275538268568829 0 0.0014860590824021514 0.036112897642216625 0 0.0012631750765853486 0.035066498608546492 0 0.0011586197216185811 0.035554844740138113 0 0.0016711607499582254 0.035275538268568829 0 0.0017576340216664493 0.034660952388202271 0 0.0012631750765853486 0.035066498608546492 0 0.0016711607499582254 0.035275538268568829 0 0.0016711607499582254 0.035275538268568829 0 0.0020837391665522167 0.034987133911281526 0 0.0021548743412864437 0.03557687981780347 0 0.0027092567085485911 0.035062623294479109 0 0.0021859891564709379 0.034205174303708841 0 0.0020837391665522167 0.034987133911281526 0 0.0027092567085485911 0.035062623294479109 0 0.0020837391665522167 0.034987133911281526 0 0.0021548743412864437 0.03557687981780347 0 0.0017576340216664493 0.034660952388202271 0 0.0016711607499582254 0.035275538268568829 0 0.0020837391665522167 0.034987133911281526 0 0.0021548743412864437 0.03557687981780347 0 0.0014860590824021514 0.036112897642216625 0 0.002376572303575528 0.036061778909971344 0 0.0013133273687153618 0.035312602319620599 0 0.0018248202937859925 0.034317030681662565 0 0.0017101049640712892 0.036195260642275552 0 0.0012480629521411722 0.036030012035959291 0 0.0017633998653517457 0.036029607866228358 0 0.0014817050969621621 0.036389366183366682 0 0.0013112032683182209 0.036562666757034179 0 0.0017101049640712892 0.036195260642275552 0 0.0013951652951213083 0.036312012485755309 0 0.0013660335143411584 0.036680610333879954 0 0.0017101049640712892 0.036195260642275552 0 0.0015045270162175265 0.036299866930572758 0 0.0017338989025176181 0.03627521637443832 0 0.0017101049640712892 0.036195260642275552 0 0.0013951652951213083 0.036312012485755309 0 0.0012480629521411722 0.036030012035959291 0 0.0013951652951213083 0.036312012485755309 0 0.0012480629521411722 0.036030012035959291 0 0.00091955826798740821 0.036522977113931494 0 0.0011586197216185811 0.035554844740138113 0 0.0014860590824021514 0.036112897642216625 0 0.00065592614456343558 0.036134641593059701 0 0.0013133273687153618 0.035312602319620599 0 0.00068114369270738044 0.035767201593048428 0 0.00064763762662648416 0.036083771264765876 0 0.00091955826798740821 0.036522977113931494 0 0.00031461607926280458 0.036488507587626555 0 0.0012480629521411722 0.036030012035959291 0 0.00064763762662648416 0.036083771264765876 0 0.00091955826798740821 0.036522977113931494 0 0.00091955826798740821 0.036522977113931494 0 0.00099162661617303079 0.037115779671933677 0 0.0013660335143411584 0.036680610333879954 0 0.00091955826798740821 0.036522977113931494 0 0.00031461607926280458 0.036488507587626555 0 0.0004677290683895249 0.036935292733942457 0 0.00091712634395639092 0.03694675280737509 0 0.00047688880781123085 0.036885513861011687 0 0.00091955826798740821 0.036522977113931494 0 0.00099162661617303079 0.037115779671933677 0 0.0004677290683895249 0.036935292733942457 0 0.00065316701697850082 0.037199469240388208 0 0.00090933089980447818 0.03716640379048889 0 0.000462398245911481 0.036994833782506793 0 0.00065316701697850082 0.037199469240388208 0 0.000462398245911481 0.036994833782506793 0 0.00053584063988118742 0.03724019585502765 0 0.00091712634395639092 0.03694675280737509 0 0.00092086211779141122 0.036946137961172208 0 0.0017005909600587741 0.036656837526486512 0 0.0015045270162175265 0.036299866930572758 0 0.001434322743985452 0.036750673045897936 0 0.0011491977575821158 0.036747320841784503 0 0.0015045270162175265 0.036299866930572758 0 0.001434322743985452 0.036750673045897936 0 0.0010606246561107755 0.036714749674951905 0 0.0011491977575821158 0.036747320841784503 0 0.0015045270162175265 0.036299866930572758 0 0.00091712634395639092 0.03694675280737509 0 0.0013112032683182209 0.036562666757034179 0 0.0017005909600587741 0.036656837526486512 0 0.0017509244014440996 0.036389042058125133 0 0.0015045270162175265 0.036299866930572758 0 0.0017005909600587741 0.036656837526486512 0 0.0017509244014440996 0.036389042058125133 0 0.0018364155108763194 0.036433477900997067 0 0.0017509244014440996 0.036389042058125133 0 0.0015045270162175265 0.036299866930572758 0 0.0017338989025176181 0.03627521637443832 0 0.0013951652951213083 0.036312012485755309 0 0.00091955826798740821 0.036522977113931494 0 0.0013660335143411584 0.036680610333879954 0 -0.00049537275663169892 0.036226459765655993 0 -0.00054419148743782672 0.036627218929406333 0 -0.00079905885233495571 0.0362604740545922 0 -0.00054419148743782672 0.036627218929406333 0 -0.00079905885233495571 0.0362604740545922 0 -0.00094800293152350805 0.036710516310380616 0 -0.00058147158947749445 0.035988967623045501 0 -0.00049537275663169892 0.036226459765655993 0 -0.00079905885233495571 0.0362604740545922 0 -0.00036021747585014951 0.035804759797344862 0 -0.00058147158947749445 0.035988967623045501 0 -0.00049537275663169892 0.036226459765655993 0 -0.00036021747585014951 0.035804759797344862 0 -0.00049537275663169892 0.036226459765655993 0 7.2121501547562467e-06 0.036155648757736844 0 -0.00018760039910004225 0.03604161216730252 0 0.00011156374053329148 0.03597438982479681 0 -0.00049537275663169892 0.036226459765655993 0 -0.00020509092420630004 0.036437859701097516 0 -0.00054419148743782672 0.036627218929406333 0 -0.00049537275663169892 0.036226459765655993 0 -0.00020509092420630004 0.036437859701097516 0 6.8082668439051631e-05 0.036149209924410425 0 -0.00020509092420630004 0.036437859701097516 0 6.8082668439051631e-05 0.036149209924410425 0 0.00031461607926280458 0.036488507587626555 0 0.00068114369270738044 0.035767201593048428 0 0.00011156374053329148 0.03597438982479681 0 0.00017998444015045097 0.035562940037060682 0 0.00065592614456343558 0.036134641593059701 0 7.2121501547562467e-06 0.036155648757736844 0 0.00064763762662648416 0.036083771264765876 0 6.8082668439051631e-05 0.036149209924410425 0 0.00031461607926280458 0.036488507587626555 0 0.00047688880781123085 0.036885513861011687 0 2.3339395051891625e-05 0.036765590055683306 0 0.00031461607926280458 0.036488507587626555 0 0.0004677290683895249 0.036935292733942457 0 -4.2494358413629467e-05 0.036770121392729962 0 0.000462398245911481 0.036994833782506793 0 -2.7778919054044061e-05 0.036809840650143581 0 0.00019503792271336674 0.037249369149429702 0 0.000462398245911481 0.036994833782506793 0 0.00019503792271336674 0.037249369149429702 0 0.00053584063988118742 0.03724019585502765 0 -2.7778919054044061e-05 0.036809840650143581 0 -0.00030221618977874362 0.037101903006965302 0 0.00019503792271336674 0.037249369149429702 0 -0.00020509092420630004 0.036437859701097516 0 0.00031461607926280458 0.036488507587626555 0 -4.2494358413629467e-05 0.036770121392729962 0 -0.00020509092420630004 0.036437859701097516 0 -4.2494358413629467e-05 0.036770121392729962 0 -0.00054419148743782672 0.036627218929406333 0 2.3339395051891625e-05 0.036765590055683306 0 -0.00023184912560663694 0.036687289330671141 0 -2.7778919054044061e-05 0.036809840650143581 0 -0.00030221618977874362 0.037101903006965302 0 -0.00054419148743782672 0.036627218929406333 0 -0.00030221618977874362 0.037101903006965302 0 -0.00075869851580677666 0.037032027334854681 0 -0.00054419148743782672 0.036627218929406333 0 -0.00030221618977874362 0.037101903006965302 0 -0.00075869851580677666 0.037032027334854681 0 -0.00052669590242539026 0.03735562975422145 0 -0.00075869851580677666 0.037032027334854681 0 -0.00054419148743782672 0.036627218929406333 0 -0.00094800293152350805 0.036710516310380616 0 -0.00059548908255001114 0.037692743913107792 0 -0.00052669590242539026 0.03735562975422145 0 -0.00097014008950138545 0.037371729112894388 0 -0.00075869851580677666 0.037032027334854681 0 -0.00052669590242539026 0.03735562975422145 0 -0.00097014008950138545 0.037371729112894388 0 -0.00059548908255001114 0.037692743913107792 0 -0.00052669590242539026 0.03735562975422145 0 -3.3091054748690918e-05 0.037572515870351965 0 -0.00030221618977874362 0.037101903006965302 0 -0.00052669590242539026 0.03735562975422145 0 -3.3091054748690918e-05 0.037572515870351965 0 -0.00059122055581307779 0.037655967828600916 0 -9.8647998069731888e-05 0.037571227299812181 0 -0.00065466948064619751 0.037656231224712594 0 -2.3917876912307178e-05 0.0375342788902671 0 -0.00019764088194508967 0.038073850576389047 0 -2.3917876912307178e-05 0.0375342788902671 0 0.00027529516654410338 0.037645898222262997 0 0.00022938421917453671 0.037961815073570888 0 -0.00030221618977874362 0.037101903006965302 0 -3.3091054748690918e-05 0.037572515870351965 0 0.00019503792271336674 0.037249369149429702 0 -9.8647998069731888e-05 0.037571227299812181 0 0.00017758917798955465 0.037523209990428762 0 -3.3091054748690918e-05 0.037572515870351965 0 0.00019503792271336674 0.037249369149429702 0 0.00049536527310804453 0.037442140761488163 0 0.00019503792271336674 0.037249369149429702 0 0.00053584063988118742 0.03724019585502765 0 0.00049536527310804453 0.037442140761488163 0 0.00027529516654410338 0.037645898222262997 0 0.00049536527310804453 0.037442140761488163 0 0.00051084447324579551 0.037578076958269674 0 -2.3917876912307178e-05 0.0375342788902671 0 0.00027529516654410338 0.037645898222262997 0 0.00049536527310804453 0.037442140761488163 0 0.00027529516654410338 0.037645898222262997 0 0.00045605026760503758 0.037820000551758513 0 0.00051084447324579551 0.037578076958269674 0 0.00045605026760503758 0.037820000551758513 0 0.00022938421917453671 0.037961815073570888 0 0.00061218976774964377 0.038152949688599683 0 0.00027529516654410338 0.037645898222262997 0 0.00045605026760503758 0.037820000551758513 0 0.00022938421917453671 0.037961815073570888 0 0.00022938421917453671 0.037961815073570888 0 0.00017247514713721775 0.038468546468541524 0 0.00061218976774964377 0.038152949688599683 0 0.00017247514713721775 0.038468546468541524 0 0.00061218976774964377 0.038152949688599683 0 0.00065211409799264348 0.038844302243604155 0 0.00022938421917453671 0.037961815073570888 0 0.00017247514713721775 0.038468546468541524 0 -0.00019764088194508967 0.038073850576389047 0 -2.3917876912307178e-05 0.0375342788902671 0 0.00022938421917453671 0.037961815073570888 0 -0.00019764088194508967 0.038073850576389047 0 -0.00065466948064619751 0.037656231224712594 0 -0.00019764088194508967 0.038073850576389047 0 -0.00059739015886331839 0.038219060248860515 0 -0.00019764088194508967 0.038073850576389047 0 -0.00037854819900276515 0.038608303271573274 0 -0.00059739015886331839 0.038219060248860515 0 0.00017247514713721775 0.038468546468541524 0 -0.00019764088194508967 0.038073850576389047 0 -0.00037854819900276515 0.038608303271573274 0 -0.00037854819900276515 0.038608303271573274 0 -0.00078876627423814282 0.038562365964793274 0 -0.00059739015886331839 0.038219060248860515 0 -0.00078876627423814282 0.038562365964793274 0 -0.00059739015886331839 0.038219060248860515 0 -0.00097416295688220844 0.038229488126796989 0 -0.00065466948064619751 0.037656231224712594 0 -0.00059739015886331839 0.038219060248860515 0 -0.00097416295688220844 0.038229488126796989 0 0.0011569157309738415 0.037313186729231035 0 0.00097555424586271149 0.03760665962300816 0 0.0014430884676999523 0.037631859605766427 0 0.0014012969968497152 0.037056774042048914 0 0.0011569157309738415 0.037313186729231035 0 0.0014430884676999523 0.037631859605766427 0 0.001814429485728629 0.037155595302756646 0 0.0014012969968497152 0.037056774042048914 0 0.0014430884676999523 0.037631859605766427 0 0.001814429485728629 0.037155595302756646 0 0.0014430884676999523 0.037631859605766427 0 0.0021333142745908139 0.037511289686972593 0 0.0017005909600587741 0.036656837526486512 0 0.001814429485728629 0.037155595302756646 0 0.0014012969968497152 0.037056774042048914 0 0.0017005909600587741 0.036656837526486512 0 0.001434322743985452 0.036750673045897936 0 0.0014012969968497152 0.037056774042048914 0 0.0011491977575821158 0.036747320841784503 0 0.001434322743985452 0.036750673045897936 0 0.0014012969968497152 0.037056774042048914 0 0.0010355225026569381 0.036709772193471865 0 0.0011491977575821158 0.036747320841784503 0 0.0010022056246130635 0.037014360991046283 0 0.0014012969968497152 0.037056774042048914 0 0.0010022056246130635 0.037014360991046283 0 0.0011569157309738415 0.037313186729231035 0 0.0011491977575821158 0.036747320841784503 0 0.0014012969968497152 0.037056774042048914 0 0.0010022056246130635 0.037014360991046283 0 0.00091712634395639092 0.03694675280737509 0 0.00078356980085397539 0.037125568959235487 0 0.00065316701697850082 0.037199469240388208 0 0.00090933089980447818 0.03716640379048889 0 0.00070341443913245574 0.037390557455974575 0 0.0010355225026569381 0.036709772193471865 0 0.0010022056246130635 0.037014360991046283 0 0.00073787990131901084 0.037116249337874108 0 0.0010022056246130635 0.037014360991046283 0 0.00073787990131901084 0.037116249337874108 0 0.0009281417064386161 0.037286186991645133 0 0.0010022056246130635 0.037014360991046283 0 0.0011569157309738415 0.037313186729231035 0 0.0009281417064386161 0.037286186991645133 0 0.00065316701697850082 0.037199469240388208 0 0.00053584063988118742 0.03724019585502765 0 0.00070341443913245574 0.037390557455974575 0 0.00070341443913245574 0.037390557455974575 0 0.00049536527310804453 0.037442140761488163 0 0.00051084447324579551 0.037578076958269674 0 0.00053584063988118742 0.03724019585502765 0 0.00070341443913245574 0.037390557455974575 0 0.00049536527310804453 0.037442140761488163 0 0.00078356980085397539 0.037125568959235487 0 0.00071130404673996829 0.037219395765311157 0 0.00073787990131901084 0.037116249337874108 0 0.00051084447324579551 0.037578076958269674 0 0.00076574083731758159 0.037484853710406725 0 0.00051084447324579551 0.037578076958269674 0 0.00076574083731758159 0.037484853710406725 0 0.00069412889727686708 0.037789691041563156 0 0.00076574083731758159 0.037484853710406725 0 0.00097555424586271149 0.03760665962300816 0 0.00069412889727686708 0.037789691041563156 0 0.00045605026760503758 0.037820000551758513 0 0.00051084447324579551 0.037578076958269674 0 0.00069412889727686708 0.037789691041563156 0 0.0011569157309738415 0.037313186729231035 0 0.0009281417064386161 0.037286186991645133 0 0.00097555424586271149 0.03760665962300816 0 0.00073787990131901084 0.037116249337874108 0 0.00076574083731758159 0.037484853710406725 0 0.0009281417064386161 0.037286186991645133 0 0.00076574083731758159 0.037484853710406725 0 0.0009281417064386161 0.037286186991645133 0 0.00097555424586271149 0.03760665962300816 0 0.00097555424586271149 0.03760665962300816 0 0.0010343506793221591 0.037996930904999143 0 0.00069412889727686708 0.037789691041563156 0 0.00097555424586271149 0.03760665962300816 0 0.0010343506793221591 0.037996930904999143 0 0.0014430884676999523 0.037631859605766427 0 0.0010343506793221591 0.037996930904999143 0 0.00069412889727686708 0.037789691041563156 0 0.00061218976774964377 0.038152949688599683 0 0.00045605026760503758 0.037820000551758513 0 0.00069412889727686708 0.037789691041563156 0 0.00061218976774964377 0.038152949688599683 0 0.0010343506793221591 0.037996930904999143 0 0.00061218976774964377 0.038152949688599683 0 0.001084464017920354 0.038499091515899864 0 0.0010343506793221591 0.037996930904999143 0 0.0014041610147471266 0.038200966879419984 0 0.001084464017920354 0.038499091515899864 0 0.0010343506793221591 0.037996930904999143 0 0.0014041610147471266 0.038200966879419984 0 0.0014430884676999523 0.037631859605766427 0 0.0014041610147471266 0.038200966879419984 0 0.0014430884676999523 0.037631859605766427 0 0.001923345107730255 0.038142852743408645 0 0.0014430884676999523 0.037631859605766427 0 0.001923345107730255 0.038142852743408645 0 0.0021333142745908139 0.037511289686972593 0 0.0014041610147471266 0.038200966879419984 0 0.001923345107730255 0.038142852743408645 0 0.0015613780814753635 0.03873721622811379 0 0.001923345107730255 0.038142852743408645 0 0.0023266225205266066 0.038323413678303178 0 0.0025536817887324929 0.037890300591174757 0 0.0023266225205266066 0.038323413678303178 0 0.0025536817887324929 0.037890300591174757 0 0.0026845421703613863 0.038508005838933844 0 0.0025536817887324929 0.037890300591174757 0 0.0026299138964184731 0.037355977733988709 0 0.0030533293860389391 0.037597545199128495 0 0.0025536817887324929 0.037890300591174757 0 0.0021333142745908139 0.037511289686972593 0 0.0026299138964184731 0.037355977733988709 0 0.001923345107730255 0.038142852743408645 0 0.0025536817887324929 0.037890300591174757 0 0.0021333142745908139 0.037511289686972593 0 0.001814429485728629 0.037155595302756646 0 0.0021333142745908139 0.037511289686972593 0 0.0024187538575763429 0.036905398846269283 0 0.0021333142745908139 0.037511289686972593 0 0.0026299138964184731 0.037355977733988709 0 0.0024187538575763429 0.036905398846269283 0 0.0026299138964184731 0.037355977733988709 0 0.0024187538575763429 0.036905398846269283 0 0.0030695419105903391 0.037079550157059216 0 0.0021388549219954704 0.036645428932941045 0 0.0024860374620748115 0.036704302508181949 0 0.0017005909600587741 0.036656837526486512 0 0.001814429485728629 0.037155595302756646 0 0.0024187538575763429 0.036905398846269283 0 0.0019189559964515751 0.036604427696592161 0 0.0021388549219954704 0.036645428932941045 0 0.0019857834945136107 0.036305386617498644 0 0.0019977983152051622 0.036305082174082334 0 0.002048582292682176 0.036248781206458684 0 0.0019857834945136107 0.036305386617498644 0 0.0019977983152051622 0.036305082174082334 0 0.001994274394761656 0.036333960174590389 0 0.0018938990246117431 0.036448188818030906 0 0.001994274394761656 0.036333960174590389 0 0.001981434943059703 0.036326481368805313 0 0.0019977983152051622 0.036305082174082334 0 0.001994274394761656 0.036333960174590389 0 0.001981434943059703 0.036326481368805313 0 0.0026299138964184731 0.037355977733988709 0 0.0030695419105903391 0.037079550157059216 0 0.0030533293860389391 0.037597545199128495 0 0.0030695419105903391 0.037079550157059216 0 0.00348081049573378 0.037176871149395427 0 0.0035212737962923681 0.037141577029269637 0 0.0024860374620748115 0.036704302508181949 0 0.0027897775947533245 0.03675226871308996 0 0.0019857834945136107 0.036305386617498644 0 0.001994274394761656 0.036333960174590389 0 0.0019341431621068203 0.036317255539776057 0 0.0030695419105903391 0.037079550157059216 0 0.0030533293860389391 0.037597545199128495 0 0.00348081049573378 0.037176871149395427 0 0.0030533293860389391 0.037597545199128495 0 0.0034677278694096032 0.037952044183157584 0 0.00348081049573378 0.037176871149395427 0 0.0020257467858882166 0.036824641400243614 0 0.0023366615774574871 0.036977904589725677 0 0.0025536817887324929 0.037890300591174757 0 0.0030915134250003424 0.03824726673347744 0 0.0026845421703613863 0.038508005838933844 0 0.0025536817887324929 0.037890300591174757 0 0.0030533293860389391 0.037597545199128495 0 0.0030915134250003424 0.03824726673347744 0 0.0020257467858882166 0.036824641400243614 0 0.0010147792016226296 0.035695524984663121 0 0.0030915134250003424 0.03824726673347744 0 0.0034677278694096032 0.037952044183157584 0 0.0033565396060028542 0.038657122684506377 0 0.0030533293860389391 0.037597545199128495 0 0.0030915134250003424 0.03824726673347744 0 0.0034677278694096032 0.037952044183157584 0 0.0032582970009109985 0.036762478671370814 0 0.0034097079500241302 0.03691995498339741 0 0.0034862073873168577 0.036669151382613327 0 0.0035737034881727801 0.036813247098266291 0 0.0034097079500241302 0.03691995498339741 0 0.0034862073873168577 0.036669151382613327 0 0.0032582970009109985 0.036762478671370814 0 0.0032942903886938137 0.036846984677959715 0 0.0034097079500241302 0.03691995498339741 0 0.0032942903886938137 0.036846984677959715 0 0.0034097079500241302 0.03691995498339741 0 0.0032140698813904402 0.036713405999598818 0 0.0034097079500241302 0.03691995498339741 0 0.0032140698813904402 0.036713405999598818 0 0.0035212737962923681 0.037141577029269637 0 0.0035737034881727801 0.036813247098266291 0 0.0034097079500241302 0.03691995498339741 0 0.00348081049573378 0.037176871149395427 0 -0.0027827133924664994 0.015030999797376082 0 -0.002769982777541724 0.015104976478636348 0 -0.0026367273688244399 0.015047350065296321 0 -0.002769982777541724 0.015104976478636348 0 -0.0026367273688244399 0.015047350065296321 0 -0.0026478648562661055 0.015119981323977632 0 -0.002631432307513855 0.015004259866523064 0 -0.0026367273688244399 0.015047350065296321 0 -0.0026478648562661055 0.015119981323977632 0 0.0032582970009109985 0.036762478671370814 0 0.0032942903886938137 0.036846984677959715 0 0.0035874891155460386 0.03698006561229062 0 0.00030145459942569283 0.02603962739059484 0 0.00010880652848568591 0.025249710083108001 0 0.0035874891155460386 0.03698006561229062 0 0.0037916403515628971 0.036242673671556674 0 0.0032140698813904402 0.036713405999598818 0 0.0032942903886938137 0.036846984677959715 0 0.0035874891155460386 0.03698006561229062 0 0.0032140698813904402 0.036713405999598818 0 -0.002769982777541724 0.015104976478636348 0 -0.0027849433636423409 0.015213645280694302 0 -0.0026478648562661055 0.015119981323977632 0 0.0050135424030054113 0.036059617817962783 0 0.0035874891155460386 0.03698006561229062 0 0.0037916403515628971 0.036242673671556674 0 0.0050135424030054113 0.036059617817962783 0 0.0037916403515628971 0.036242673671556674 0 0.0039764101663495545 0.035521448287455355 0 -0.00015973115391251883 0.023746949399207677 0 0.00010880652848568591 0.025249710083108001 0 0.0037916403515628971 0.036242673671556674 0 0.0033142232388713305 0.035780612655188622 0 0.0039764101663495545 0.035521448287455355 0 0.0037916403515628971 0.036242673671556674 0 0.0032140698813904402 0.036713405999598818 0 0.0033142232388713305 0.035780612655188622 0 0.0032140698813904402 0.036713405999598818 0 0.0033142232388713305 0.035780612655188622 0 0.0028616788149511477 0.036014259151636648 0 0.0033142232388713305 0.035780612655188622 0 0.00345782835935097 0.034860108255282476 0 0.0025868146777551096 0.03524140938165124 0 0.00345782835935097 0.034860108255282476 0 0.0025868146777551096 0.03524140938165124 0 0.0029552520123574152 0.034341951299494744 0 0.0033142232388713305 0.035780612655188622 0 0.00345782835935097 0.034860108255282476 0 0.0039764101663495545 0.035521448287455355 0 0.00345782835935097 0.034860108255282476 0 0.0046110191527928591 0.034671209522421052 0 0.0039764101663495545 0.035521448287455355 0 0.0050135424030054113 0.036059617817962783 0 0.0046110191527928591 0.034671209522421052 0 0.0039764101663495545 0.035521448287455355 0 0.0034097079500241302 0.03691995498339741 0 0.00348081049573378 0.037176871149395427 0 0.0035212737962923681 0.037141577029269637 0 0.0019341431621068203 0.036317255539776057 0 0.0023159067835109362 0.036270844574333522 0 0.0021295032692464793 0.036231132778288287 0 0.0019341431621068203 0.036317255539776057 0 0.0021295032692464793 0.036231132778288287 0 0.0020216273735320384 0.03626655890081943 0 0.0019857834945136107 0.036305386617498644 0 0.0019341431621068203 0.036317255539776057 0 0.0020216273735320384 0.03626655890081943 0 0.0032140698813904402 0.036713405999598818 0 0.0019341431621068203 0.036317255539776057 0 0.0023159067835109362 0.036270844574333522 0 0.0029982510332896852 0.03678774608606282 0 0.0027897775947533245 0.03675226871308996 0 0.0032140698813904402 0.036713405999598818 0 0.0028616788149511477 0.036014259151636648 0 0.0023159067835109362 0.036270844574333522 0 0.0028616788149511477 0.036014259151636648 0 0.0023159067835109362 0.036270844574333522 0 0.0025868146777551096 0.03524140938165124 0 0.0023159067835109362 0.036270844574333522 0 0.0021377157192937336 0.036222772105443557 0 0.0021295032692464793 0.036231132778288287 0 0.0013126605110390145 0.034444540739124771 0 0.0013757070073741858 0.033879088550615367 0 0.0033142232388713305 0.035780612655188622 0 0.0028616788149511477 0.036014259151636648 0 0.0025868146777551096 0.03524140938165124 0 0.0021377157192937336 0.036222772105443557 0 0.0020761324982662408 0.036243029820948632 0 0.0021036499875276482 0.036219943452556531 0 0.0019857834945136107 0.036305386617498644 0 0.0020761324982662408 0.036243029820948632 0 0.002048582292682176 0.036248781206458684 0 0.0021377157192937336 0.036222772105443557 0 0.0020761324982662408 0.036243029820948632 0 0.0021295032692464793 0.036231132778288287 0 0.0020761324982662408 0.036243029820948632 0 0.0021295032692464793 0.036231132778288287 0 0.0020216273735320384 0.03626655890081943 0 0.0019857834945136107 0.036305386617498644 0 0.0020761324982662408 0.036243029820948632 0 0.0020216273735320384 0.03626655890081943 0 0.0020821936344603774 0.036214452589325048 0 0.0021036499875276482 0.036219943452556531 0 0.002101513765137722 0.036191196327721983 0 0.002048582292682176 0.036248781206458684 0 0.0020821936344603774 0.036214452589325048 0 0.0021036499875276482 0.036219943452556531 0 0.0020761324982662408 0.036243029820948632 0 0.002048582292682176 0.036248781206458684 0 0.0021036499875276482 0.036219943452556531 0 0.002048582292682176 0.036248781206458684 0 0.0020577854388710505 0.036219714261676403 0 0.0020821936344603774 0.036214452589325048 0 0.0021036499875276482 0.036219943452556531 0 0.0021246318696681353 0.036210035969092377 0 0.002101513765137722 0.036191196327721983 0 0.0021377157192937336 0.036222772105443557 0 0.0021036499875276482 0.036219943452556531 0 0.0021246318696681353 0.036210035969092377 0 0.0013757070073741858 0.033879088550615367 0 0.0016351265909839376 0.031989202333018614 0 0.0016351265909839376 0.031989202333018614 0 0.00089825314347614991 0.030079998826176565 0 -0.0015692369944333285 0.025391495148802703 0 0.0020968163668670754 0.024356968987743546 0 -0.00036527807701843316 0.022925736731911395 0 0.00053764257329531233 0.027665392316668307 0 -0.0015692369944333285 0.025391495148802703 0 0.0020968163668670754 0.024356968987743546 0 -0.0015692369944333285 0.025391495148802703 0 -0.0019362530914697341 0.023272922125648191 0 -0.00036527807701843316 0.022925736731911395 0 -0.0015692369944333285 0.025391495148802703 0 -0.003666694644720248 0.023126604445528647 0 -0.0019362530914697341 0.023272922125648191 0 0.00089825314347614991 0.030079998826176565 0 0.00028254903443041115 0.027884263367456929 0 0.002101513765137722 0.036191196327721983 0 0.002075661956716109 0.036192053248231312 0 0.0020702541884967379 0.036142153919253406 0 0.002062890648576488 0.036169894279610849 0 0.002075661956716109 0.036192053248231312 0 0.0020497875812072767 0.036204458970713248 0 0.002062890648576488 0.036169894279610849 0 0.002075661956716109 0.036192053248231312 0 0.0020702541884967379 0.036142153919253406 0 0.0020577854388710505 0.036219714261676403 0 0.002075661956716109 0.036192053248231312 0 0.0020497875812072767 0.036204458970713248 0 0.0020577854388710505 0.036219714261676403 0 0.0020821936344603774 0.036214452589325048 0 0.002075661956716109 0.036192053248231312 0 0.0020821936344603774 0.036214452589325048 0 0.002101513765137722 0.036191196327721983 0 0.002075661956716109 0.036192053248231312 0 0.00345782835935097 0.034860108255282476 0 0.0046110191527928591 0.034671209522421052 0 0.0040025143772068009 0.033623316650567434 0 0.0053353116202418819 0.033425818471623125 0 0.0046110191527928591 0.034671209522421052 0 0.0040025143772068009 0.033623316650567434 0 0.00345782835935097 0.034860108255282476 0 0.0027030397458810925 0.034069074099576914 0 0.0040025143772068009 0.033623316650567434 0 0.0021175297923777892 0.03257311019875074 0 0.0016351265909839376 0.031989202333018614 0 0.0016351265909839376 0.031989202333018614 0 0.001713074750376002 0.026214358536895851 0 0.0027030397458810925 0.034069074099576914 0 0.0040025143772068009 0.033623316650567434 0 0.0033873707978322259 0.032537753334785049 0 0.0040025143772068009 0.033623316650567434 0 0.0033873707978322259 0.032537753334785049 0 0.0045602455217946926 0.032531507157367745 0 0.0053353116202418819 0.033425818471623125 0 0.0040025143772068009 0.033623316650567434 0 0.0045602455217946926 0.032531507157367745 0 0.0033873707978322259 0.032537753334785049 0 0.0045602455217946926 0.032531507157367745 0 0.0040796502805327079 0.031042497062967134 0 0.0059755798664095977 0.032030338956074642 0 0.0045602455217946926 0.032531507157367745 0 0.0040796502805327079 0.031042497062967134 0 0.001713074750376002 0.026214358536895851 0 0.0025196537586762891 0.017026483714956797 0 0.0020968163668670754 0.024356968987743546 0 0.0012661790748135294 0.021643925850541448 0 -0.00036527807701843316 0.022925736731911395 0 0.0020968163668670754 0.024356968987743546 0 0.0012661790748135294 0.021643925850541448 0 0.0036679771882359093 0.021034141170211323 0 0.0012661790748135294 0.021643925850541448 0 0.00083251080554617638 0.020881827726189343 0 -8.2391619476189832e-05 0.02125240294498407 0 0.0047955242891435977 0.01779542013607226 0 0.00086199442653696573 0.019866426339029193 0 0.0013154278895177668 0.019238746979185532 0 0.0047955242891435977 0.01779542013607226 0 0.00079552944107214919 0.019934215035561125 0 0.0024132898416145479 0.020390805931813853 0 0.0035328360399718905 0.02095515135810154 0 0.0019629058091541695 0.022595085189173268 0 0.0013514500820177462 0.020697085228322951 0 0.00079552944107214919 0.019934215035561125 0 0.0024132898416145479 0.020390805931813853 0 0.0012661790748135294 0.021643925850541448 0 0.00083251080554617638 0.020881827726189343 0 0.0013514500820177462 0.020697085228322951 0 0.0012661790748135294 0.021643925850541448 0 0.0013514500820177462 0.020697085228322951 0 0.0024132898416145479 0.020390805931813853 0 0.00083251080554617638 0.020881827726189343 0 0.0013514500820177462 0.020697085228322951 0 0.00079552944107214919 0.019934215035561125 0 0.0012661790748135294 0.021643925850541448 0 0.0024132898416145479 0.020390805931813853 0 0.0036679771882359093 0.021034141170211323 0 0.0026643988829933465 0.017198984660038896 0 0.0025196537586762891 0.017026483714956797 0 0.0047955242891435977 0.01779542013607226 0 0.0024132898416145479 0.020390805931813853 0 0.003680533802802974 0.02103105926200096 0 0.0038722286707363871 0.011342930097465511 0 0.0025196537586762891 0.017026483714956797 0 0.001013296080519657 0.0058614345205567717 0 0.00077000823335815363 0.0045984806608205912 0 -0.00053501690548005338 0.0073477571398755208 0 0.001013296080519657 0.0058614345205567717 0 0.00085086849552057462 0.0070847497330072682 0 -0.00053501690548005338 0.0073477571398755208 0 -0.003149009082760838 0.022028838697679784 0 -0.0019362530914697341 0.023272922125648191 0 -0.0012922731838405214 0.021829427528456548 0 -0.00030957565339742392 0.025792349978802021 0 -4.0709460897593378e-05 0.025653650804880673 0 -5.7941693132644277e-05 0.026106202429922933 0 0.00037450747153816035 0.026415526457427226 0 0.00037254344992138658 0.027757989896806445 0 -0.00094424212736999842 0.027741299049843675 0 -0.00032814560094357659 0.026440883684273435 0 0.00028656727928247269 0.027101618793883814 0 0.00037450747153816035 0.026415526457427226 0 0.00028254903443041115 0.027884263367456929 0 0.0020938392137006879 0.036110797069928154 0 0.0020710400756542894 0.036085478868838873 0 0.0020475380441478674 0.036141432643924935 0 0.00028254903443041115 0.027884263367456929 0 0.00037254344992138658 0.027757989896806445 0 0.00012098947131635686 0.028536315046729214 0 0.00028254903443041115 0.027884263367456929 0 0.002062890648576488 0.036169894279610849 0 0.0020938392137006879 0.036110797069928154 0 0.0020475380441478674 0.036141432643924935 0 -0.003149009082760838 0.022028838697679784 0 -0.003666694644720248 0.023126604445528647 0 -0.0019362530914697341 0.023272922125648191 0 -0.0019362530914697341 0.023272922125648191 0 -0.00036527807701843316 0.022925736731911395 0 -0.0012922731838405214 0.021829427528456548 0 0.00079552944107214919 0.019934215035561125 0 -0.003149009082760838 0.022028838697679784 0 -0.0012922731838405214 0.021829427528456548 0 0.0012661790748135294 0.021643925850541448 0 -0.00036527807701843316 0.022925736731911395 0 -8.2391619476189832e-05 0.02125240294498407 0 -0.00036527807701843316 0.022925736731911395 0 -0.0012922731838405214 0.021829427528456548 0 -8.2391619476189832e-05 0.02125240294498407 0 0.00086199442653696573 0.019866426339029193 0 -0.0029433199708657227 0.021888134862961758 0 -0.00093078353380967433 0.019978492328609581 0 0.00051850529376299879 0.022554184690672364 0 0.00062800071765500745 0.02308070560981311 0 0.0019629058091541695 0.022595085189173268 0 0.00037450747153816035 0.026415526457427226 0 0.0013154278895177668 0.019238746979185532 0 -0.00093078353380967433 0.019978492328609581 0 -0.001780513198199973 0.019404829497748473 0 0.00050148102250705321 0.018373871329181442 0 0.0013154278895177668 0.019238746979185532 0 -0.0019050052488563849 0.019370229417842808 0 0.00083251080554617638 0.020881827726189343 0 0.00079552944107214919 0.019934215035561125 0 -8.2391619476189832e-05 0.02125240294498407 0 0.00079552944107214919 0.019934215035561125 0 -0.0012922731838405214 0.021829427528456548 0 -8.2391619476189832e-05 0.02125240294498407 0 0.00086199442653696573 0.019866426339029193 0 0.0013154278895177668 0.019238746979185532 0 -0.00093078353380967433 0.019978492328609581 0 -0.00093078353380967433 0.019978492328609581 0 -0.001780513198199973 0.019404829497748473 0 -0.0019611052975905814 0.019788910218719917 0 0.00027868749845756712 0.023813020094908492 0 0.00042781165950770024 0.023905667833934552 0 0.00062800071765500745 0.02308070560981311 0 0.00019159640018814232 0.024793565751308665 0 0.00042781165950770024 0.023905667833934552 0 0.00019159640018814232 0.024793565751308665 0 -0.00086567360890883228 0.024192830915471596 0 -0.00068543339556748604 0.023812461108660029 0 0.0009386785085910191 0.024124928465052601 0 0.00062800071765500745 0.02308070560981311 0 0.00042781165950770024 0.023905667833934552 0 0.00037450747153816035 0.026415526457427226 0 0.00042781165950770024 0.023905667833934552 0 -0.00030957565339742392 0.025792349978802021 0 -0.00057370114302921914 0.02634797755373653 0 -5.7941693132644277e-05 0.026106202429922933 0 -0.0029433199708657227 0.021888134862961758 0 -0.00093078353380967433 0.019978492328609581 0 -0.001959272243931119 0.01978788619842306 0 -0.00057370114302921914 0.02634797755373653 0 -5.7941693132644277e-05 0.026106202429922933 0 -0.00013437986585203751 0.026433825419245969 0 0.00037254344992138658 0.027757989896806445 0 0.000626009790621687 0.028179765809887358 0 -5.7941693132644277e-05 0.026106202429922933 0 -0.00013437986585203751 0.026433825419245969 0 0.000657724866258589 0.026406359396256195 0 -0.00031040159929580387 0.026603071178933523 0 0.0010945654005926923 0.026552692548619125 0 0.0012008308158554008 0.02666721505410018 0 0.00071724576585236453 0.02884016508756963 0 0.0005359115908741914 0.028000563521745268 0 0.00085121103720147155 0.02883507162619104 0 -0.00031040159929580387 0.026603071178933523 0 0.0012008308158554008 0.02666721505410018 0 0.0015350011964857559 0.026960933968111424 0 -4.0709460897593378e-05 0.025653650804880673 0 -5.7941693132644277e-05 0.026106202429922933 0 0.000657724866258589 0.026406359396256195 0 0.00019159640018814232 0.024793565751308665 0 -1.3056524281014514e-05 0.027675291595339355 0 0.00019159640018814232 0.024793565751308665 0 0.000626009790621687 0.028179765809887358 0 0.000626009790621687 0.028179765809887358 0 0.00062422760948559566 0.028174152196353559 0 0.0021275424909103511 0.036196351155185866 0 0.0019794164779185449 0.036152430180229331 0 0.0019363645197942713 0.035579325805836184 0 -3.8833546674772844e-06 0.030277105494309727 0 0.00065304995472493621 0.029021908475442629 0 0.00013094311680851892 0.028210279201782641 0 0.00071724576585236453 0.02884016508756963 0 0.0005359115908741914 0.028000563521745268 0 0.0020489325036628972 0.036208099129303908 0 0.0019794164779185449 0.036152430180229331 0 0.0019923899046598772 0.0362090146890343 0 0.0020489325036628972 0.036208099129303908 0 0.0021275424909103511 0.036196351155185866 0 0.0019794164779185449 0.036152430180229331 0 -4.3870970887112387e-06 0.030304309082797791 0 -3.8833546674772844e-06 0.030277105494309727 0 0.0020710400756542894 0.036085478868838873 0 0.001990147910604141 0.036134388222111041 0 0.0020475380441478674 0.036141432643924935 0 0.00037254344992138658 0.027757989896806445 0 -3.8833546674772844e-06 0.030277105494309727 0 0.0025333807068782846 0.034064839379828973 0 0.0017078335585552723 0.032100559979536931 0 0.0019794164779185449 0.036152430180229331 0 0.0019431227744529204 0.036082892937175891 0 0.0019365804284759817 0.036159925488022493 0 0.0019607841551869763 0.036191390192346941 0 0.0019794164779185449 0.036152430180229331 0 0.0019365804284759817 0.036159925488022493 0 0.0019607841551869763 0.036191390192346941 0 0.0019365804284759817 0.036159925488022493 0 0.0019362252682926062 0.036206434171852077 0 0.0019607841551869763 0.036191390192346941 0 0.0019794164779185449 0.036152430180229331 0 0.0019923899046598772 0.0362090146890343 0 0.0020777138721365471 0.03034257139798233 0 0.00029510146649729308 0.030001895427127872 0 0.0013965768879939935 0.029419924937946228 0 0.0019794164779185449 0.036152430180229331 0 0.0019363645197942713 0.035579325805836184 0 0.0015739237855159315 0.035587441030593601 0 0.0010943175026879792 0.026553180584241911 0 0.0012008308158554008 0.02666721505410018 0 0.0013783567156673325 0.026541854069266409 0 0.000626009790621687 0.028179765809887358 0 0.00065304995472493621 0.029021908475442629 0 0.00065304995472493621 0.029021908475442629 0 -1.3056524281014514e-05 0.027675291595339355 0 0.0012008308158554008 0.02666721505410018 0 0.0013783567156673325 0.026541854069266409 0 0.0015350011964857559 0.026960933968111424 0 9.4468590470508213e-05 0.029469855494643243 0 0.00029510146649729308 0.030001895427127872 0 0.0013965768879939935 0.029419924937946228 0 0.00065304995472493621 0.029021908475442629 0 0.0017078335585552723 0.032100559979536931 0 0.0017078335585552723 0.032100559979536931 0 0.0018248202937859925 0.034317030681662565 0 0.0023517992290043783 0.031935958639718813 0 0.0017078335585552723 0.032100559979536931 0 0.0019431227744529204 0.036082892937175891 0 0.0018612539657558321 0.036120400821346717 0 0.0019365804284759817 0.036159925488022493 0 0.0019431227744529204 0.036082892937175891 0 0.0018612539657558321 0.036120400821346717 0 0.0017633998653517457 0.036029607866228358 0 0.0029919558299584485 0.035732019456494346 0 0.00319738413447187 0.036008812800630167 0 0.002376572303575528 0.036061778909971344 0 0.0018612539657558321 0.036120400821346717 0 0.0017633998653517457 0.036029607866228358 0 0.001790689708680606 0.036138403883911464 0 0.0017101049640712892 0.036195260642275552 0 0.0017633998653517457 0.036029607866228358 0 0.001790689708680606 0.036138403883911464 0 0.0017101049640712892 0.036195260642275552 0 0.001790689708680606 0.036138403883911464 0 0.001809776492230353 0.036198972731905192 0 0.0018612539657558321 0.036120400821346717 0 0.001790689708680606 0.036138403883911464 0 0.001809776492230353 0.036198972731905192 0 0.001809776492230353 0.036198972731905192 0 0.0018861634735346804 0.036217308186003924 0 0.0018444944872082441 0.036301990902563017 0 0.0017101049640712892 0.036195260642275552 0 0.001809776492230353 0.036198972731905192 0 0.0017338989025176181 0.03627521637443832 0 0.0018612539657558321 0.036120400821346717 0 0.0019365804284759817 0.036159925488022493 0 0.0018861634735346804 0.036217308186003924 0 0.0018612539657558321 0.036120400821346717 0 0.001809776492230353 0.036198972731905192 0 0.0018861634735346804 0.036217308186003924 0 0.0019365804284759817 0.036159925488022493 0 0.0018861634735346804 0.036217308186003924 0 0.0019362252682926062 0.036206434171852077 0 0.0018861634735346804 0.036217308186003924 0 0.0019362252682926062 0.036206434171852077 0 0.0019244118355001337 0.036270559377267995 0 0.0018861634735346804 0.036217308186003924 0 0.0019244118355001337 0.036270559377267995 0 0.0018444944872082441 0.036301990902563017 0 0.0019244118355001337 0.036270559377267995 0 0.0018444944872082441 0.036301990902563017 0 0.001894429203223975 0.036362070968817599 0 0.001809776492230353 0.036198972731905192 0 0.0017338989025176181 0.03627521637443832 0 0.0018444944872082441 0.036301990902563017 0 0.0017509244014440996 0.036389042058125133 0 0.0018444944872082441 0.036301990902563017 0 0.0018364155108763194 0.036433477900997067 0 0.0017509244014440996 0.036389042058125133 0 0.0017338989025176181 0.03627521637443832 0 0.0018444944872082441 0.036301990902563017 0 0.0017005909600587741 0.036656837526486512 0 0.0018938990246117431 0.036448188818030906 0 0.0018364155108763194 0.036433477900997067 0 0.0018938990246117431 0.036448188818030906 0 0.0018364155108763194 0.036433477900997067 0 0.001894429203223975 0.036362070968817599 0 0.0018444944872082441 0.036301990902563017 0 0.0018364155108763194 0.036433477900997067 0 0.001894429203223975 0.036362070968817599 0 0.0018938990246117431 0.036448188818030906 0 0.001894429203223975 0.036362070968817599 0 0.0019560815420805642 0.036310345911353695 0 0.0018938990246117431 0.036448188818030906 0 0.0019560815420805642 0.036310345911353695 0 0.001981434943059703 0.036326481368805313 0 0.0019244118355001337 0.036270559377267995 0 0.001894429203223975 0.036362070968817599 0 0.0019560815420805642 0.036310345911353695 0 0.0019560815420805642 0.036310345911353695 0 0.0019942827022734369 0.036269679873708972 0 0.001981434943059703 0.036326481368805313 0 0.0019942827022734369 0.036269679873708972 0 0.001981434943059703 0.036326481368805313 0 0.0020098863396918938 0.036274760900286016 0 0.0019977983152051622 0.036305082174082334 0 0.001981434943059703 0.036326481368805313 0 0.0020098863396918938 0.036274760900286016 0 0.0019977983152051622 0.036305082174082334 0 0.002048582292682176 0.036248781206458684 0 0.0020098863396918938 0.036274760900286016 0 0.002048582292682176 0.036248781206458684 0 0.0020098863396918938 0.036274760900286016 0 0.0020277723688624507 0.036236312008907895 0 0.002048582292682176 0.036248781206458684 0 0.0020577854388710505 0.036219714261676403 0 0.0020277723688624507 0.036236312008907895 0 0.0019942827022734369 0.036269679873708972 0 0.0020098863396918938 0.036274760900286016 0 0.0020277723688624507 0.036236312008907895 0 0.0020277723688624507 0.036236312008907895 0 0.0020253224700440857 0.036201646092240719 0 0.0020130464833121031 0.036225747133292303 0 0.0019942827022734369 0.036269679873708972 0 0.0020277723688624507 0.036236312008907895 0 0.0020130464833121031 0.036225747133292303 0 0.0020497875812072767 0.036204458970713248 0 0.0020277723688624507 0.036236312008907895 0 0.0020253224700440857 0.036201646092240719 0 0.0020577854388710505 0.036219714261676403 0 0.0020497875812072767 0.036204458970713248 0 0.0020277723688624507 0.036236312008907895 0 0.002062890648576488 0.036169894279610849 0 0.0020497875812072767 0.036204458970713248 0 0.0020253224700440857 0.036201646092240719 0 0.002062890648576488 0.036169894279610849 0 0.0020475380441478674 0.036141432643924935 0 0.0020253224700440857 0.036201646092240719 0 0.001990147910604141 0.036134388222111041 0 0.0020475380441478674 0.036141432643924935 0 0.0020253224700440857 0.036201646092240719 0 0.0020489325036628972 0.036208099129303908 0 0.0020253224700440857 0.036201646092240719 0 0.0020130464833121031 0.036225747133292303 0 0.0020489325036628972 0.036208099129303908 0 0.0020410263567338994 0.036210496536330405 0 0.0020253224700440857 0.036201646092240719 0 -3.8833546674772844e-06 0.030277105494309727 0 0.00021887552150935409 0.030883867314105341 0 0.0020489325036628972 0.036208099129303908 0 0.0020130464833121031 0.036225747133292303 0 0.0019923899046598772 0.0362090146890343 0 0.0020130464833121031 0.036225747133292303 0 0.0019923899046598772 0.0362090146890343 0 0.0019706519422046558 0.036237760724744592 0 0.0019607841551869763 0.036191390192346941 0 0.0019923899046598772 0.0362090146890343 0 0.0019706519422046558 0.036237760724744592 0 0.0019607841551869763 0.036191390192346941 0 0.0019362252682926062 0.036206434171852077 0 0.0019706519422046558 0.036237760724744592 0 0.0019362252682926062 0.036206434171852077 0 0.0019244118355001337 0.036270559377267995 0 0.0019706519422046558 0.036237760724744592 0 0.0019244118355001337 0.036270559377267995 0 0.0019560815420805642 0.036310345911353695 0 0.0019706519422046558 0.036237760724744592 0 0.0019560815420805642 0.036310345911353695 0 0.0019942827022734369 0.036269679873708972 0 0.0019706519422046558 0.036237760724744592 0 0.0019942827022734369 0.036269679873708972 0 0.0020130464833121031 0.036225747133292303 0 0.0019706519422046558 0.036237760724744592 0 5.3914584074567831e-05 0.064945833750209528 0 2.2724964455561558e-07 0.065000208435403897 0 1.305166089606734e-08 0.064999824669791026 0 5.3914584074567831e-05 0.064945833750209528 0 3.6809359301749221e-05 0.064797816042508116 0 2.9362333873235443e-05 0.064920746895328577 0 -0.00016743146813861097 0.063841482189371704 0 -0.00015181778806053458 0.064257461882047964 0 5.3914584074567831e-05 0.064945833750209528 0 0.00012637328996228719 0.064930948147561521 0 3.6809359301749221e-05 0.064797816042508116 0 0.00043575896603710899 0.064279170110697365 0 -9.8554940147841134e-05 0.063574674068235276 0 3.6809359301749221e-05 0.064797816042508116 0 0.00043575896603710899 0.064279170110697365 0 -9.8554940147841134e-05 0.063574674068235276 0 0.00087961585876906274 0.063149497806817528 0 5.3914584074567831e-05 0.064945833750209528 0 0.00012637328996228719 0.064930948147561521 0 9.2812977024814112e-05 0.064861960630383589 0 0.00012637328996228719 0.064930948147561521 0 0.00032261331275924967 0.064757896738609669 0 9.2812977024814112e-05 0.064861960630383589 0 -9.56724071006589e-06 0.062161330694745713 0 0.00081521803914664072 0.062031978702465927 0 0.00087961585876906274 0.063149497806817528 0 -0.00016743146813861097 0.063841482189371704 0 -0.0002216126754910185 0.062511686836710836 0 -9.8554940147841134e-05 0.063574674068235276 0 -9.56724071006589e-06 0.062161330694745713 0 0.00087961585876906274 0.063149497806817528 0 0.00032261331275924967 0.064757896738609669 0 0.00022177034614584553 0.064558274273718727 0 0.00048391750535424922 0.064286450082454899 0 -0.0002216126754910185 0.062511686836710836 0 -0.00021786629412274647 0.058333462248148026 0 -9.56724071006589e-06 0.062161330694745713 0 0.00052587949535233699 0.061441772161967272 0 0.00017621872494811913 0.060750461771578612 0 -9.56724071006589e-06 0.062161330694745713 0 0.00052587949535233699 0.061441772161967272 0 0.00081521803914664072 0.062031978702465927 0 0.00032261331275924967 0.064757896738609669 0 0.00022177034614584553 0.064558274273718727 0 9.2812977024814112e-05 0.064861960630383589 0 9.2812977024814112e-05 0.064861960630383589 0 2.2724964455561558e-07 0.065000208435403897 0 4.1875894858302924e-05 0.064521788783212089 0 0.00022177034614584553 0.064558274273718727 0 9.2812977024814112e-05 0.064861960630383589 0 4.1875894858302924e-05 0.064521788783212089 0 5.3914584074567831e-05 0.064945833750209528 0 9.2812977024814112e-05 0.064861960630383589 0 2.2724964455561558e-07 0.065000208435403897 0 2.2724964455561558e-07 0.065000208435403897 0 4.1875894858302924e-05 0.064521788783212089 0 -0.00036471579353907949 0.06363365167187314 0 2.2724964455561558e-07 0.065000208435403897 0 -2.6535599704768039e-06 0.064993326084850173 0 -0.00036471579353907949 0.06363365167187314 0 4.1875894858302924e-05 0.064521788783212089 0 -0.00036471579353907949 0.06363365167187314 0 0.00022476553237493746 0.064253092937882145 0 -2.6535599704768039e-06 0.064993326084850173 0 -0.00036471579353907949 0.06363365167187314 0 4.7687544419244672e-06 0.057313122377907151 0 -0.00036471579353907949 0.06363365167187314 0 0.0011244936221808145 0.062300448836006446 0 0.00055148692751710415 0.063486288555958337 0 -0.00036471579353907949 0.06363365167187314 0 4.7687544419244672e-06 0.057313122377907151 0 0.0011244936221808145 0.062300448836006446 0 1.9360962038298601e-06 0.057295064289400344 0 0.00063589445385745218 0.054809565028227071 0 -0.000252948199541381 0.055078067612296083 0 2.9270490297165104e-07 0.057301654209204918 0 3.9701506643928977e-05 0.058295449416562506 0 0.0011244936221808145 0.062300448836006446 0 0.00055148692751710415 0.063486288555958337 0 0.0010883085964905523 0.064421452104937243 0 3.9701506643928977e-05 0.058295449416562506 0 -0.00021786629412274647 0.058333462248148026 0 0.00063589445385745218 0.054809565028227071 0 0.00065909382400668529 0.053920645105115982 0 0.00024961557643424128 0.054435931735636864 0 0.00065909382400668529 0.053920645105115982 0 0.00023278301041466614 0.053911089220844491 0 0.00024961557643424128 0.054435931735636864 0 -0.00036471579353907949 0.06363365167187314 0 0.00055148692751710415 0.063486288555958337 0 0.00022476553237493746 0.064253092937882145 0 0.00055148692751710415 0.063486288555958337 0 0.00022476553237493746 0.064253092937882145 0 0.0010883085964905523 0.064421452104937243 0 -2.7265404666547966e-05 0.058816128662759669 0 -0.00021786629412274647 0.058333462248148026 0 0.00022177034614584553 0.064558274273718727 0 0.00022476553237493746 0.064253092937882145 0 0.00048391750535424922 0.064286450082454899 0 0.00022177034614584553 0.064558274273718727 0 4.1875894858302924e-05 0.064521788783212089 0 0.00022476553237493746 0.064253092937882145 0 0.00017621872494811913 0.060750461771578612 0 0.00066883269449369385 0.060958375711346324 0 0.00083273721478641213 0.060748715637404832 0 -0.00021786629412274647 0.058333462248148026 0 0.00018485543124011091 0.055817990971637955 0 0.00052587949535233699 0.061441772161967272 0 0.00017621872494811913 0.060750461771578612 0 0.00066883269449369385 0.060958375711346324 0 0.0012021917502800113 0.060905183229086661 0 0.00087919795140671672 0.060783427430294551 0 0.0014073452400786971 0.060846460697002912 0 0.00018485543124011091 0.055817990971637955 0 0.001187011452616448 0.054540578049928734 0 0.00095132702107904202 0.061308996232416396 0 0.0012021917502800113 0.060905183229086661 0 0.00087919795140671672 0.060783427430294551 0 0.00052587949535233699 0.061441772161967272 0 0.00066883269449369385 0.060958375711346324 0 0.00095132702107904202 0.061308996232416396 0 0.00066883269449369385 0.060958375711346324 0 0.00095132702107904202 0.061308996232416396 0 0.00087919795140671672 0.060783427430294551 0 0.00012952994548696314 0.055939013884996024 0 0.00018485543124011091 0.055817990971637955 0 0.0012021917502800113 0.060905183229086661 0 0.0014073452400786971 0.060846460697002912 0 0.0013447551045526237 0.060964641175196316 0 0.0020874096975359506 0.046328136819508862 0 0.0027007865690220362 0.04755617697546629 0 0.0011178810530701208 0.047375609989450222 0 0.00018485543124011091 0.055817990971637955 0 0.0011251564800256924 0.052660474923382376 0 0.0036412028090509747 0.046347338531997698 0 0.0020874096975359506 0.046328136819508862 0 0.0027007865690220362 0.04755617697546629 0 0.00023278301041466614 0.053911089220844491 0 -0.00025425601906217969 0.054647980379444364 0 0.00024961557643424128 0.054435931735636864 0 0.00063589445385745218 0.054809565028227071 0 0.00024961557643424128 0.054435931735636864 0 -0.000252948199541381 0.055078067612296083 0 -0.00025425601906217969 0.054647980379444364 0 0.00024961557643424128 0.054435931735636864 0 -0.000252948199541381 0.055078067612296083 0 0.0027007865690220362 0.04755617697546629 0 0.001816859406340062 0.048894534489354068 0 0.0011178810530701208 0.047375609989450222 0 0.0011251564800256924 0.052660474923382376 0 0.00061885721378999656 0.051907792233037327 0 -0.00025425601906217969 0.054647980379444364 0 -0.000252948199541381 0.055078067612296083 0 -2.6257152051232725e-05 0.054469238052255682 0 -2.6257152051232725e-05 0.054469238052255682 0 -1.9559421715985105e-06 0.054327885935475183 0 1.9759200725207711e-06 0.051357228514102508 0 -0.000252948199541381 0.055078067612296083 0 -2.6257152051232725e-05 0.054469238052255682 0 -1.9559421715985105e-06 0.054327885935475183 0 1.9360962038298601e-06 0.057295064289400344 0 -0.000252948199541381 0.055078067612296083 0 -1.9559421715985105e-06 0.054327885935475183 0 -0.00032345734021970026 0.048497189648495406 0 3.0499734163556282e-06 0.051347848122738404 0 -8.2824560680555578e-05 0.048189449759368626 0 -0.00032345734021970026 0.048497189648495406 0 3.0499734163556282e-06 0.051347848122738404 0 -2.654560058459784e-06 0.04795493165252912 0 0.001816859406340062 0.048894534489354068 0 3.0499734163556282e-06 0.051347848122738404 0 -8.2824560680555578e-05 0.048189449759368626 0 0.00061885721378999656 0.051907792233037327 0 1.2161774465686033e-06 0.051355325588873783 0 0.001816859406340062 0.048894534489354068 0 -8.2824560680555578e-05 0.048189449759368626 0 0.0011178810530701208 0.047375609989450222 0 -0.00032345734021970026 0.048497189648495406 0 -8.2824560680555578e-05 0.048189449759368626 0 -0.00065405856304889668 0.047531068826410443 0 -8.2824560680555578e-05 0.048189449759368626 0 -6.5368006575853308e-05 0.047158712547397029 0 0.0011178810530701208 0.047375609989450222 0 -8.2824560680555578e-05 0.048189449759368626 0 -6.5368006575853308e-05 0.047158712547397029 0 -0.00071362205056141814 0.047406950564171095 0 0.0020874096975359506 0.046328136819508862 0 0.0011178810530701208 0.047375609989450222 0 0.00055693802828653066 0.046402158566925762 0 -6.5368006575853308e-05 0.047158712547397029 0 0.0011178810530701208 0.047375609989450222 0 0.00055693802828653066 0.046402158566925762 0 0.0014073452400786971 0.060846460697002912 0 0.0014484731703958626 0.060846342335823159 0 0.0014210590567384268 0.060877240002836723 0 0.001187011452616448 0.054540578049928734 0 0.001182445548256859 0.053634140961971825 0 0.0014484731703958626 0.060846342335823159 0 0.0014257620250136855 0.060851563508088846 0 0.0014210590567384268 0.060877240002836723 0 0.0014484731703958626 0.060846342335823159 0 0.0014257620250136855 0.060851563508088846 0 0.0013122525525523514 0.060786891501188392 0 0.001182445548256859 0.053634140961971825 0 0.0014349722844677784 0.05273085341593059 0 0.0014484731703958626 0.060846342335823159 0 0.0013122525525523514 0.060786891501188392 0 0.0012514011884974842 0.060791050669532075 0 0.0014257620250136855 0.060851563508088846 0 0.0013122525525523514 0.060786891501188392 0 0.0014620653500580804 0.060909530098636325 0 -6.5368006575853308e-05 0.047158712547397029 0 0.00055693802828653066 0.046402158566925762 0 -0.00064915814938886558 0.046546214194283349 0 0.0013122525525523514 0.060786891501188392 0 0.0012803861720101111 0.059978769074190169 0 0.001821718888076643 0.059958217998144075 0 0.0015317420805149853 0.060793295285511133 0 0.0016048156525355084 0.060788385268228641 0 0.0012803861720101111 0.059978769074190169 0 0.0015984177380749421 0.059588637631575084 0 0.0015000743218585258 0.059178655743648508 0 0.00098261230511852301 0.057563844194375526 0 0.00096856448558379181 0.058427041637234167 0 0.0012803861720101111 0.059978769074190169 0 0.0015984177380749421 0.059588637631575084 0 0.001821718888076643 0.059958217998144075 0 0.0015556708392987029 0.058369605485499111 0 0.0015000743218585258 0.059178655743648508 0 0.0015875562332182539 0.059184841097009319 0 0.0015984177380749421 0.059588637631575084 0 0.0018065756297706312 0.059427089442216738 0 0.0016637208011293272 0.059344131655065371 0 0.0015984177380749421 0.059588637631575084 0 0.0015000743218585258 0.059178655743648508 0 0.0016637208011293272 0.059344131655065371 0 0.0018065756297706312 0.059427089442216738 0 0.001821718888076643 0.059958217998144075 0 0.0021756937360735344 0.059271857933239011 0 0.0016048156525355084 0.060788385268228641 0 0.0011973564080370253 0.06168690256528666 0 0.0015984177380749421 0.059588637631575084 0 0.0018065756297706312 0.059427089442216738 0 0.001821718888076643 0.059958217998144075 0 0.0014620653500580804 0.060909530098636325 0 0.0014210590567384268 0.060877240002836723 0 0.0013447551045526237 0.060964641175196316 0 0.0014257620250136855 0.060851563508088846 0 0.0014620653500580804 0.060909530098636325 0 0.0014210590567384268 0.060877240002836723 0 0.0014073452400786971 0.060846460697002912 0 0.0014210590567384268 0.060877240002836723 0 0.0013447551045526237 0.060964641175196316 0 0.0012409165034741796 0.061332166210934083 0 0.0012868360246874226 0.061547739667478889 0 0.00095132702107904202 0.061308996232416396 0 0.0012021917502800113 0.060905183229086661 0 0.0017327582936650305 0.062093852108170214 0 0.00095132702107904202 0.061308996232416396 0 0.0017327582936650305 0.062093852108170214 0 0.00081521803914664072 0.062031978702465927 0 0.00052587949535233699 0.061441772161967272 0 0.00095132702107904202 0.061308996232416396 0 0.00081521803914664072 0.062031978702465927 0 0.0017327582936650305 0.062093852108170214 0 0.00081521803914664072 0.062031978702465927 0 0.00087961585876906274 0.063149497806817528 0 0.0014620653500580804 0.060909530098636325 0 0.0013447551045526237 0.060964641175196316 0 0.0013827366422623235 0.061058586407797592 0 0.0017327582936650305 0.062093852108170214 0 0.0021111758598277817 0.063236960634008701 0 0.00087961585876906274 0.063149497806817528 0 0.0012868360246874226 0.061547739667478889 0 0.0011973564080370253 0.06168690256528666 0 0.0011973564080370253 0.06168690256528666 0 0.00054234064830817482 0.063708000355330752 0 0.0021111758598277817 0.063236960634008701 0 0.00087961585876906274 0.063149497806817528 0 0.0011586284324067021 0.064414471473481963 0 0.00043575896603710899 0.064279170110697365 0 0.00087961585876906274 0.063149497806817528 0 0.0011586284324067021 0.064414471473481963 0 0.00045206409600049576 0.064266893995107988 0 0.00046424282879652947 0.06426160468149085 0 0.00043941432735814233 0.064257540026418841 0 0.0019003986715748556 0.058786283968702224 0 0.0017710591082359998 0.059009096763626173 0 0.0015545262517919138 0.058790528433594634 0 0.0021756937360735344 0.059271857933239011 0 0.0019003986715748556 0.058786283968702224 0 0.0017710591082359998 0.059009096763626173 0 0.0011973564080370253 0.06168690256528666 0 0.00092307779386975651 0.061214709218245678 0 0.0015545262517919138 0.058790528433594634 0 0.0016047191592328744 0.059076105716982921 0 0.0015875562332182539 0.059184841097009319 0 0.0017710591082359998 0.059009096763626173 0 0.0015545262517919138 0.058790528433594634 0 0.0016047191592328744 0.059076105716982921 0 0.0002670816698879098 0.055311746000776416 0 0.00048391866880760458 0.053290149233720621 0 -0.0030597035102197427 0.049862697997585331 0 -0.0019974791811600478 0.046867807773684884 0 -0.0015471199396710539 0.048179511571855779 0 0.0016047191592328744 0.059076105716982921 0 0.0015000743218585258 0.059178655743648508 0 0.0017337714676556261 0.059202136020074916 0 0.0017710591082359998 0.059009096763626173 0 0.0016047191592328744 0.059076105716982921 0 0.0017337714676556261 0.059202136020074916 0 0.0016047191592328744 0.059076105716982921 0 0.0015000743218585258 0.059178655743648508 0 0.0015875562332182539 0.059184841097009319 0 0.0015000743218585258 0.059178655743648508 0 0.0016637208011293272 0.059344131655065371 0 0.0017337714676556261 0.059202136020074916 0 0.0018065756297706312 0.059427089442216738 0 0.0016637208011293272 0.059344131655065371 0 0.0017337714676556261 0.059202136020074916 0 0.0021756937360735344 0.059271857933239011 0 0.0017710591082359998 0.059009096763626173 0 0.0017337714676556261 0.059202136020074916 0 0.0018065756297706312 0.059427089442216738 0 0.0021756937360735344 0.059271857933239011 0 0.0017337714676556261 0.059202136020074916 0 0.0003790846625871089 0.047863021769302364 0 0.0013983560976114431 0.046816015052230375 0 0.0022507161438341107 0.046206026728711408 0 0.00011197237596004896 0.048039348890463129 0 0.0014433930463738272 0.047877171637070871 0 0.0019646782484090131 0.046500350513423182 0 -0.0012552279419494462 0.044835892830333832 0 -0.00030217708759511854 0.041786350579983776 0 0.0003790846625871089 0.047863021769302364 0 0.00011297915366950989 0.047002099719167002 0 -0.00073643412705268598 0.047784325401593164 0 0.0003790846625871089 0.047863021769302364 0 0.0013983560976114431 0.046816015052230375 0 0.00011297915366950989 0.047002099719167002 0 0.00011197237596004896 0.048039348890463129 0 0.0014433930463738272 0.047877171637070871 0 0.00092028517531083721 0.048874630715863301 0 0.0013983560976114431 0.046816015052230375 0 0.00050152230541271607 0.046332391415789355 0 0.0010640598682072257 0.045900866272840096 0 0.0013983560976114431 0.046816015052230375 0 0.0017189111044213414 0.045994876719931868 0 0.0010640598682072257 0.045900866272840096 0 0.0013983560976114431 0.046816015052230375 0 0.00050152230541271607 0.046332391415789355 0 0.00011297915366950989 0.047002099719167002 0 0.00050152230541271607 0.046332391415789355 0 0.00011297915366950989 0.047002099719167002 0 -0.00021412488412881969 0.04630399920006497 0 -0.00021412488412881969 0.04630399920006497 0 -0.00091443239987057368 0.04632274419291095 0 -0.00071876278374222733 0.046945640726783998 0 -0.00091443239987057368 0.04632274419291095 0 -0.00071876278374222733 0.046945640726783998 0 -0.0012330596314169822 0.047254239568138665 0 0.00011297915366950989 0.047002099719167002 0 -0.00021412488412881969 0.04630399920006497 0 -0.00071876278374222733 0.046945640726783998 0 -0.00091443239987057368 0.04632274419291095 0 -0.0019974791811600478 0.046867807773684884 0 -0.0012330596314169822 0.047254239568138665 0 -0.0019974791811600478 0.046867807773684884 0 -0.0012330596314169822 0.047254239568138665 0 -0.0015471199396710539 0.048179511571855779 0 -0.0012330596314169822 0.047254239568138665 0 -0.00073643412705268598 0.047784325401593164 0 -0.0015471199396710539 0.048179511571855779 0 0.00011297915366950989 0.047002099719167002 0 -0.00071876278374222733 0.046945640726783998 0 -0.00073643412705268598 0.047784325401593164 0 -0.00071876278374222733 0.046945640726783998 0 -0.0012330596314169822 0.047254239568138665 0 -0.00073643412705268598 0.047784325401593164 0 0.0003790846625871089 0.047863021769302364 0 -0.00073643412705268598 0.047784325401593164 0 -0.0016976240340416066 0.049542089652683731 0 -0.0016976240340416066 0.049542089652683731 0 0.00010807953561909268 0.049698382953343244 0 -0.0010289752000949444 0.050632450925639283 0 0.00011197237596004896 0.048039348890463129 0 -0.0016976240340416066 0.049542089652683731 0 0.00010807953561909268 0.049698382953343244 0 -0.0012552279419494462 0.044835892830333832 0 -0.001833135182992398 0.045984048743171781 0 -0.00073643412705268598 0.047784325401593164 0 -0.0015471199396710539 0.048179511571855779 0 -0.0016976240340416066 0.049542089652683731 0 -0.0030597035102197427 0.049862697997585331 0 -0.0015471199396710539 0.048179511571855779 0 -0.0016976240340416066 0.049542089652683731 0 0.00010807953561909268 0.049698382953343244 0 0.00092028517531083721 0.048874630715863301 0 0.0019921357883687591 0.049645662483631718 0 0.00011197237596004896 0.048039348890463129 0 0.00010807953561909268 0.049698382953343244 0 0.00092028517531083721 0.048874630715863301 0 -0.00195840911899912 0.036726844186216578 0 -0.0019663352304562002 0.036736155689625946 0 -0.0019698667711931773 0.036751320091782953 0 0.0014433930463738272 0.047877171637070871 0 0.00092028517531083721 0.048874630715863301 0 0.0019921357883687591 0.049645662483631718 0 -0.0012909966912042835 0.038020536164317345 0 -0.001519615251159798 0.037507926224245709 0 -0.0019663352304562002 0.036736155689625946 0 -0.0019698667711931773 0.036751320091782953 0 -0.0019206593715044974 0.036754020109459974 0 -0.0018592253929834628 0.036748434559016038 0 -0.0018793490877518156 0.036741501814475164 0 -0.0019206593715044974 0.036754020109459974 0 -0.0018592253929834628 0.036748434559016038 0 -0.0019206593715044974 0.036754020109459974 0 -0.0018753134493891034 0.036778621847048582 0 -0.0018793490877518156 0.036741501814475164 0 -0.0018431760262179111 0.036685831212401397 0 -0.0019173007123761646 0.036662517077848893 0 -0.0018592253929834628 0.036748434559016038 0 -0.0018074638615801285 0.036713240807750437 0 -0.0018793490877518156 0.036741501814475164 0 -0.0018074638615801285 0.036713240807750437 0 -0.0018793490877518156 0.036741501814475164 0 -0.0018431760262179111 0.036685831212401397 0 -0.0018074638615801285 0.036713240807750437 0 -0.0018431760262179111 0.036685831212401397 0 -0.001791878357879385 0.036662485139025203 0 -0.00013556020265793715 0.043221807272477146 0 -0.00015727684001103315 0.041038952790679137 0 -0.0012909966912042835 0.038020536164317345 0 -0.00023622176966568641 0.040418956929913194 0 -0.0019698667711931773 0.036751320091782953 0 -0.0019321450317726489 0.03680621959109634 0 -0.0019377169429938166 0.036811836056595451 0 -0.00195840911899912 0.036726844186216578 0 -0.0019698667711931773 0.036751320091782953 0 -0.0019321450317726489 0.03680621959109634 0 0.0014433930463738272 0.047877171637070871 0 0.0019921357883687591 0.049645662483631718 0 0.0022335049454695294 0.046279451818594983 0 0.0014433930463738272 0.047877171637070871 0 0.0019646782484090131 0.046500350513423182 0 0.0022335049454695294 0.046279451818594983 0 -0.00031158381094392403 0.041977300962855048 0 -0.00030217708759511854 0.041786350579983776 0 0.0013983560976114431 0.046816015052230375 0 0.0022193654060881579 0.046243259578973336 0 0.0017189111044213414 0.045994876719931868 0 0.0017189111044213414 0.045994876719931868 0 0.0019790088732706819 0.045622773937896217 0 0.0021858894742042036 0.045887540228754728 0 0.0022193654060881579 0.046243259578973336 0 0.0017189111044213414 0.045994876719931868 0 0.0021858894742042036 0.045887540228754728 0 0.0017189111044213414 0.045994876719931868 0 0.0019790088732706819 0.045622773937896217 0 0.0014723314509685692 0.045346187425300097 0 0.0019790088732706819 0.045622773937896217 0 0.0025233464651062492 0.04544306635374136 0 0.0019480759189707641 0.045269654642846741 0 0.0019790088732706819 0.045622773937896217 0 0.0019480759189707641 0.045269654642846741 0 0.0014723314509685692 0.045346187425300097 0 0.0019790088732706819 0.045622773937896217 0 0.0025233464651062492 0.04544306635374136 0 0.0021858894742042036 0.045887540228754728 0 -5.3978766178683327e-05 0.040787130676345297 0 -0.00015727684001103315 0.041038952790679137 0 0.0025233464651062492 0.04544306635374136 0 0.0021858894742042036 0.045887540228754728 0 0.0024855202630863446 0.046023574028047243 0 0.00065677276183714807 0.040577278858106934 0 0.00069531459929437394 0.040016467759003957 0 0.00049015022768693307 0.040184472566095211 0 -0.00015727684001103315 0.041038952790679137 0 -0.00023622176966568641 0.040418956929913194 0 0.0022193654060881579 0.046243259578973336 0 0.0021858894742042036 0.045887540228754728 0 0.0024855202630863446 0.046023574028047243 0 -0.00030217708759511854 0.041786350579983776 0 -0.00015727684001103315 0.041038952790679137 0 -5.3978766178683327e-05 0.040787130676345297 0 -0.00023622176966568641 0.040418956929913194 0 -0.00023622176966568641 0.040418956929913194 0 -0.00026434353884589932 0.038999823403415741 0 0.00056213222438601272 0.036539189065170959 0 0.00039262060481227924 0.037052806491317321 0 -4.5252352909626726e-05 0.037030941370602082 0 0.00062707596311433736 0.036694605902137314 0 0.00056213222438601272 0.036539189065170959 0 0.00039262060481227924 0.037052806491317321 0 0.0025233464651062492 0.04544306635374136 0 0.001743165411798542 0.044640518959314111 0 0.0019480759189707641 0.045269654642846741 0 0.001743165411798542 0.044640518959314111 0 0.0019480759189707641 0.045269654642846741 0 0.0014723314509685692 0.045346187425300097 0 -0.0019173007123761646 0.036662517077848893 0 -0.0018213140702624244 0.036597075900651442 0 -0.0018111447718611774 0.036581777436280515 0 -0.0019173007123761646 0.036662517077848893 0 -0.001833324779752257 0.036644791448306839 0 -0.0018213140702624244 0.036597075900651442 0 -0.00023622176966568641 0.040418956929913194 0 -0.00081527557741508814 0.038388886057967017 0 -0.00078713810828669401 0.039402527031422961 0 -0.0004376394397261159 0.039105904424082606 0 -0.0002792373332468496 0.039072810349731132 0 -0.001833324779752257 0.036644791448306839 0 -0.001791878357879385 0.036662485139025203 0 -0.0017777687854145931 0.036611698775967511 0 -0.0018431760262179111 0.036685831212401397 0 -0.001833324779752257 0.036644791448306839 0 -0.001791878357879385 0.036662485139025203 0 -0.0018431760262179111 0.036685831212401397 0 -0.0019173007123761646 0.036662517077848893 0 -0.001833324779752257 0.036644791448306839 0 -0.001833324779752257 0.036644791448306839 0 -0.0018213140702624244 0.036597075900651442 0 -0.0017777687854145931 0.036611698775967511 0 -0.00081335441741169578 0.038374237407662395 0 -0.00081527557741508814 0.038388886057967017 0 -0.0018213140702624244 0.036597075900651442 0 -0.0018091480959345318 0.036575788566187185 0 -0.0017777687854145931 0.036611698775967511 0 -4.5252352909626726e-05 0.037030941370602082 0 -9.9487963895306553e-05 0.037830371712107978 0 -0.0006772907223426901 0.037559527224331798 0 -4.5252352909626726e-05 0.037030941370602082 0 0.00020774997553857778 0.03744300470461101 0 -9.9487963895306553e-05 0.037830371712107978 0 -0.0004376394397261159 0.039105904424082606 0 -0.0002792373332468496 0.039072810349731132 0 -8.7981999815505774e-05 0.03881029887037353 0 -0.00026434353884589932 0.038999823403415741 0 -0.00071952689115245376 0.038158503214766964 0 0.00039262060481227924 0.037052806491317321 0 -4.5252352909626726e-05 0.037030941370602082 0 0.00020774997553857778 0.03744300470461101 0 0.00020774997553857778 0.03744300470461101 0 0.00058202500104645514 0.037778272329527456 0 -9.9487963895306553e-05 0.037830371712107978 0 -9.9487963895306553e-05 0.037830371712107978 0 -0.00047041983576311217 0.037960168091835653 0 -0.0006772907223426901 0.037559527224331798 0 -5.3978766178683327e-05 0.040787130676345297 0 0.00021846919891460153 0.040019091890244482 0 0.00039262060481227924 0.037052806491317321 0 0.00020774997553857778 0.03744300470461101 0 0.00058202500104645514 0.037778272329527456 0 0.0025233464651062492 0.04544306635374136 0 0.001743165411798542 0.044640518959314111 0 0.0013973967746128864 0.04309103389550388 0 0.00062707596311433736 0.036694605902137314 0 0.00039262060481227924 0.037052806491317321 0 0.00058202500104645514 0.037778272329527456 0 -5.3978766178683327e-05 0.040787130676345297 0 0.0005703023225684127 0.04190428175398437 0 0.00048266694289523111 0.041181029980551516 0 0.00047803306658727134 0.041361534152095099 0 0.00055271735051395541 0.041336680339484982 0 0.0013973967746128864 0.04309103389550388 0 0.00069641348330878048 0.043515526451493723 0 0.001063203750671152 0.043991430037659381 0 0.0013973967746128864 0.04309103389550388 0 0.00027159072587930121 0.043051326802573932 0 0.00031793243487309748 0.042530771369686436 0 0.00027159072587930121 0.043051326802573932 0 0.00069641348330878048 0.043515526451493723 0 9.0775732180427396e-05 0.043802771270330394 0 0.0013973967746128864 0.04309103389550388 0 0.00027159072587930121 0.043051326802573932 0 0.00069641348330878048 0.043515526451493723 0 0.00069641348330878048 0.043515526451493723 0 0.0004677017629806112 0.044093263071973761 0 0.001063203750671152 0.043991430037659381 0 0.00069641348330878048 0.043515526451493723 0 9.0775732180427396e-05 0.043802771270330394 0 0.0004677017629806112 0.044093263071973761 0 9.0775732180427396e-05 0.043802771270330394 0 0.0004677017629806112 0.044093263071973761 0 -0.00014496593420258673 0.044399438201963064 0 0.001743165411798542 0.044640518959314111 0 0.0013973967746128864 0.04309103389550388 0 0.001063203750671152 0.043991430037659381 0 0.0004677017629806112 0.044093263071973761 0 0.001063203750671152 0.043991430037659381 0 0.001034923064875018 0.044646053793311768 0 0.001743165411798542 0.044640518959314111 0 0.001063203750671152 0.043991430037659381 0 0.001034923064875018 0.044646053793311768 0 0.001743165411798542 0.044640518959314111 0 0.001034923064875018 0.044646053793311768 0 0.0014723314509685692 0.045346187425300097 0 0.001034923064875018 0.044646053793311768 0 0.0014723314509685692 0.045346187425300097 0 0.00091055338780552341 0.045303851596250222 0 0.0004677017629806112 0.044093263071973761 0 0.001034923064875018 0.044646053793311768 0 0.00023391299441325155 0.044899593336441605 0 0.0004677017629806112 0.044093263071973761 0 0.00023391299441325155 0.044899593336441605 0 -0.00014496593420258673 0.044399438201963064 0 0.001034923064875018 0.044646053793311768 0 0.00023391299441325155 0.044899593336441605 0 0.00091055338780552341 0.045303851596250222 0 0.00023391299441325155 0.044899593336441605 0 0.00037979987090431064 0.045627840515365926 0 0.00091055338780552341 0.045303851596250222 0 0.00037979987090431064 0.045627840515365926 0 0.0010640598682072257 0.045900866272840096 0 0.00091055338780552341 0.045303851596250222 0 0.00023391299441325155 0.044899593336441605 0 0.00037979987090431064 0.045627840515365926 0 -0.00035335223147736931 0.045612165948318836 0 -0.00021412488412881969 0.04630399920006497 0 0.00037979987090431064 0.045627840515365926 0 -0.00035335223147736931 0.045612165948318836 0 0.00050152230541271607 0.046332391415789355 0 -0.00021412488412881969 0.04630399920006497 0 0.00037979987090431064 0.045627840515365926 0 0.00050152230541271607 0.046332391415789355 0 0.00037979987090431064 0.045627840515365926 0 0.0010640598682072257 0.045900866272840096 0 0.0017189111044213414 0.045994876719931868 0 0.0010640598682072257 0.045900866272840096 0 0.0014723314509685692 0.045346187425300097 0 0.0010640598682072257 0.045900866272840096 0 0.0014723314509685692 0.045346187425300097 0 0.00091055338780552341 0.045303851596250222 0 0.0015556708392987029 0.058369605485499111 0 0.0015875562332182539 0.059184841097009319 0 0.0019263548227865981 0.058367846908080764 0 0.00048391866880760458 0.053290149233720621 0 0.00097484525785854323 0.05174080603951503 0 -0.0019974791811600478 0.046867807773684884 0 -0.00065658893642330061 0.045340186724947808 0 -0.00082218162774037678 0.04405093641892989 0 -0.00091443239987057368 0.04632274419291095 0 -0.0019974791811600478 0.046867807773684884 0 -0.00065658893642330061 0.045340186724947808 0 -0.00091443239987057368 0.04632274419291095 0 -0.00035335223147736931 0.045612165948318836 0 -0.00065658893642330061 0.045340186724947808 0 -0.00021412488412881969 0.04630399920006497 0 -0.00091443239987057368 0.04632274419291095 0 -0.00035335223147736931 0.045612165948318836 0 0.00023391299441325155 0.044899593336441605 0 -0.00065658893642330061 0.045340186724947808 0 -0.00014496593420258673 0.044399438201963064 0 -0.00065658893642330061 0.045340186724947808 0 -0.00082218162774037678 0.04405093641892989 0 -0.00014496593420258673 0.044399438201963064 0 0.00023391299441325155 0.044899593336441605 0 -0.00035335223147736931 0.045612165948318836 0 -0.00065658893642330061 0.045340186724947808 0 0.00098261230511852301 0.057563844194375526 0 0.0014349722844677784 0.05273085341593059 0 0.0015556708392987029 0.058369605485499111 0 0.0019263548227865981 0.058367846908080764 0 0.0017459324807950858 0.057349997600420193 0 0.00097484525785854323 0.05174080603951503 0 0.0014955756222199881 0.051107338385949178 0 0.00027159072587930121 0.043051326802573932 0 -0.00082218162774037678 0.04405093641892989 0 0.00031793243487309748 0.042530771369686436 0 0.00027159072587930121 0.043051326802573932 0 9.0775732180427396e-05 0.043802771270330394 0 -0.00082218162774037678 0.04405093641892989 0 9.0775732180427396e-05 0.043802771270330394 0 -0.00082218162774037678 0.04405093641892989 0 -0.00014496593420258673 0.044399438201963064 0 0.0019263548227865981 0.058367846908080764 0 0.0017459324807950858 0.057349997600420193 0 0.0022734604300663009 0.057341871106014297 0 0.0013122525525523514 0.060786891501188392 0 0.0012803861720101111 0.059978769074190169 0 0.0012514011884974842 0.060791050669532075 0 -0.00082218162774037678 0.04405093641892989 0 0.00031793243487309748 0.042530771369686436 0 0.00027399117780355374 0.041827021239449855 0 0.0014349722844677784 0.05273085341593059 0 0.0014955756222199881 0.051107338385949178 0 -0.0013246695176433536 0.050728324060635509 0 -0.00016178546074548 0.050724963095082502 0 -0.00074624022841565186 0.050026103384640759 0 0.00055271735051395541 0.041336680339484982 0 0.0005695424641831338 0.041574813521016434 0 0.00052296417621789802 0.041445066700265751 0 0.0005703023225684127 0.04190428175398437 0 0.00059294689373912482 0.04187776904082003 0 0.0013973967746128864 0.04309103389550388 0 0.00046897330325958126 0.04185499826313957 0 0.0005695424641831338 0.041574813521016434 0 0.0013973967746128864 0.04309103389550388 0 0.00031793243487309748 0.042530771369686436 0 0.00046897330325958126 0.04185499826313957 0 0.00031793243487309748 0.042530771369686436 0 0.00046897330325958126 0.04185499826313957 0 0.00027399117780355374 0.041827021239449855 0 0.001491198208147875 0.051091375277728453 0 0.0014955756222199881 0.051107338385949178 0 0.00046897330325958126 0.04185499826313957 0 0.00040672592724307728 0.041686503937560258 0 0.0005695424641831338 0.041574813521016434 0 0.00040672592724307728 0.041686503937560258 0 0.0005695424641831338 0.041574813521016434 0 0.00085208963258317572 0.041550054545732087 0 0.0014955756222199881 0.051107338385949178 0 0.001601428443616489 0.047001482009637628 0 -0.00016178546074548 0.050724963095082502 0 -0.00074624022841565186 0.050026103384640759 0 0.0005465263211887442 0.04857034700249404 0 0.00059930876254526359 0.041499635612971361 0 0.0005695424641831338 0.041574813521016434 0 0.00085208963258317572 0.041550054545732087 0 0.00059930876254526359 0.041499635612971361 0 0.0005695424641831338 0.041574813521016434 0 0.00052296417621789802 0.041445066700265751 0 -0.00099312999724955283 0.049145933626203488 0 -0.00074624022841565186 0.050026103384640759 0 0.0005465263211887442 0.04857034700249404 0 -6.5368006575853308e-05 0.047158712547397029 0 -0.00064915814938886558 0.046546214194283349 0 -0.00071362205056141814 0.047406950564171095 0 0.0014349722844677784 0.05273085341593059 0 0.0011324773230893237 0.050162649901170857 0 -0.0013246695176433536 0.050728324060635509 0 -0.00099312999724955283 0.049145933626203488 0 -0.00074624022841565186 0.050026103384640759 0 -8.2824560680555578e-05 0.048189449759368626 0 -0.00071362205056141814 0.047406950564171095 0 -0.00065405856304889668 0.047531068826410443 0 -0.00099312999724955283 0.049145933626203488 0 -0.00065405856304889668 0.047531068826410443 0 0.0005465263211887442 0.04857034700249404 0 0.0011324773230893237 0.050162649901170857 0 0.0010330514364428832 0.049411464015328414 0 0.001601428443616489 0.047001482009637628 0 0.0015018107264885656 0.046108099478252479 0 0.0005465263211887442 0.04857034700249404 0 2.7264481745609403e-05 0.046650549926309008 0 0.00031949616599063812 0.044388403208099649 0 -0.00065405856304889668 0.047531068826410443 0 0.0005465263211887442 0.04857034700249404 0 2.7264481745609403e-05 0.046650549926309008 0 -0.00065405856304889668 0.047531068826410443 0 -4.3668804040671285e-05 0.046152920825592067 0 2.7264481745609403e-05 0.046650549926309008 0 -4.3668804040671285e-05 0.046152920825592067 0 -2.654560058459784e-06 0.04795493165252912 0 2.6384892506973864e-06 0.044552545163237457 0 -4.3668804040671285e-05 0.046152920825592067 0 2.7264481745609403e-05 0.046650549926309008 0 0.00031949616599063812 0.044388403208099649 0 -4.3668804040671285e-05 0.046152920825592067 0 0.00031949616599063812 0.044388403208099649 0 2.6384892506973864e-06 0.044552545163237457 0 -0.00032345734021970026 0.048497189648495406 0 -0.00065405856304889668 0.047531068826410443 0 -2.654560058459784e-06 0.04795493165252912 0 -0.00065405856304889668 0.047531068826410443 0 -4.3668804040671285e-05 0.046152920825592067 0 -2.654560058459784e-06 0.04795493165252912 0 -0.00021555542446691814 0.040737996752091707 0 -1.6361987963376008e-06 0.041153130397280691 0 2.6586103791339312e-05 0.041976226778488106 0 -0.00021555542446691814 0.040737996752091707 0 -1.6361987963376008e-06 0.041153130397280691 0 -0.00049509571069803848 0.039768432029423657 0 -1.6361987963376008e-06 0.041153130397280691 0 2.6384892506973864e-06 0.044552545163237457 0 2.6586103791339312e-05 0.041976226778488106 0 0.00031949616599063812 0.044388403208099649 0 2.6384892506973864e-06 0.044552545163237457 0 2.6586103791339312e-05 0.041976226778488106 0 0.00022699716376315597 0.040962516812581264 0 0.00026727379153225982 0.040429551300874972 0 0.00085208963258317572 0.041550054545732087 0 0.00031949616599063812 0.044388403208099649 0 2.6586103791339312e-05 0.041976226778488106 0 0.00085208963258317572 0.041550054545732087 0 2.6586103791339312e-05 0.041976226778488106 0 0.00038636086743507508 0.041459433980617438 0 2.6586103791339312e-05 0.041976226778488106 0 -0.00040972826880680791 0.039821732975856283 0 0.00062967981486511328 0.038888898149129228 0 -0.00021555542446691814 0.040737996752091707 0 2.6586103791339312e-05 0.041976226778488106 0 -0.00040972826880680791 0.039821732975856283 0 -0.00021555542446691814 0.040737996752091707 0 -0.00040972826880680791 0.039821732975856283 0 -0.00049509571069803848 0.039768432029423657 0 -0.00040972826880680791 0.039821732975856283 0 -0.00058835391785845386 0.038963729548199662 0 0.00062967981486511328 0.038888898149129228 0 -0.00058835391785845386 0.038963729548199662 0 0.00062967981486511328 0.038888898149129228 0 -0.00038646228584507896 0.038418661822430276 0 0.00059930876254526359 0.041499635612971361 0 0.00085208963258317572 0.041550054545732087 0 0.00038636086743507508 0.041459433980617438 0 0.00059930876254526359 0.041499635612971361 0 0.00038636086743507508 0.041459433980617438 0 0.00052296417621789802 0.041445066700265751 0 0.00021846919891460153 0.040019091890244482 0 0.00026727379153225982 0.040429551300874972 0 0.00047803306658727134 0.041361534152095099 0 0.00038636086743507508 0.041459433980617438 0 0.00052296417621789802 0.041445066700265751 0 0.00058202500104645514 0.037778272329527456 0 0.00062967981486511328 0.038888898149129228 0 -9.9487963895306553e-05 0.037830371712107978 0 0.00047803306658727134 0.041361534152095099 0 0.00055271735051395541 0.041336680339484982 0 0.00052296417621789802 0.041445066700265751 0 0.00062967981486511328 0.038888898149129228 0 -0.00038646228584507896 0.038418661822430276 0 -9.9487963895306553e-05 0.037830371712107978 0 -0.00038646228584507896 0.038418661822430276 0 -9.9487963895306553e-05 0.037830371712107978 0 -0.00047041983576311217 0.037960168091835653 0 -0.00083970580905172215 0.037871183739069066 0 -0.00071952689115245376 0.038158503214766964 0 -0.00091958709417343004 0.037649655111811009 0 -0.00071952689115245376 0.038158503214766964 0 -0.00072406522276712037 0.038137317147849431 0 -0.0010616421744202946 0.038410002884839221 0 -0.0006772907223426901 0.037559527224331798 0 -0.00047041983576311217 0.037960168091835653 0 -0.00072406522276712037 0.038137317147849431 0 -0.0006772907223426901 0.037559527224331798 0 -0.0016679250961490085 0.036459183168994908 0 -0.0017470891934371967 0.036381128301599279 0 -0.0020174752215350788 0.036762923447443814 0 -0.00038646228584507896 0.038418661822430276 0 -0.00047041983576311217 0.037960168091835653 0 -0.00072406522276712037 0.038137317147849431 0 -0.00072406522276712037 0.038137317147849431 0 -0.00090014545079176761 0.038393521938248611 0 -0.00083373575346000245 0.038561327971914722 0 -0.00072406522276712037 0.038137317147849431 0 -0.00090014545079176761 0.038393521938248611 0 -0.0010616421744202946 0.038410002884839221 0 -0.00095303157059190816 0.038461296978470109 0 -0.00090014545079176761 0.038393521938248611 0 -0.0010616421744202946 0.038410002884839221 0 -0.00095303157059190816 0.038461296978470109 0 -0.00090014545079176761 0.038393521938248611 0 -0.00083373575346000245 0.038561327971914722 0 -0.00038646228584507896 0.038418661822430276 0 -0.00072406522276712037 0.038137317147849431 0 -0.00083373575346000245 0.038561327971914722 0 -0.0010569852611202802 0.037335905396130929 0 -0.0010630340026306485 0.03760976296738356 0 -0.0016679250961490085 0.036459183168994908 0 -0.0013318538647819412 0.036372881033029554 0 -0.0017547358171056155 0.03669769324826961 0 -0.0013318538647819412 0.036372881033029554 0 -0.0014865425347813197 0.036498356787550125 0 -0.0016319164177977521 0.036468309921976687 0 -0.0017470891934371967 0.036381128301599279 0 -0.0016013866330516701 0.03634579798363869 0 -0.0015260974054169194 0.036241390555837957 0 -0.0016679250961490085 0.036459183168994908 0 -0.0017470891934371967 0.036381128301599279 0 -0.0016013866330516701 0.03634579798363869 0 -0.0016679250961490085 0.036459183168994908 0 -0.0016013866330516701 0.03634579798363869 0 -0.0013318538647819412 0.036372881033029554 0 -0.0016013866330516701 0.03634579798363869 0 -0.0015260974054169194 0.036241390555837957 0 -0.0013318538647819412 0.036372881033029554 0 -0.0017470891934371967 0.036381128301599279 0 -0.0015260974054169194 0.036241390555837957 0 -0.0014726181626724337 0.035956425755166964 0 -0.0010616421744202946 0.038410002884839221 0 -0.00098857113772449039 0.03847537527433479 0 -0.00084491316282160861 0.038353885059677781 0 -0.00091958709417343004 0.037649655111811009 0 -0.0010253039056741203 0.037360475709594658 0 -0.00095303157059190816 0.038461296978470109 0 -0.0010616421744202946 0.038410002884839221 0 -0.00098857113772449039 0.03847537527433479 0 -0.00098857113772449039 0.03847537527433479 0 -0.0010002965375605502 0.03845070131350601 0 -0.00084491316282160861 0.038353885059677781 0 -0.00058835391785845386 0.038963729548199662 0 -0.00038646228584507896 0.038418661822430276 0 -0.00083373575346000245 0.038561327971914722 0 -0.00095303157059190816 0.038461296978470109 0 -0.00098857113772449039 0.03847537527433479 0 -0.00083373575346000245 0.038561327971914722 0 -0.00098857113772449039 0.03847537527433479 0 -0.00083373575346000245 0.038561327971914722 0 -0.00085246061149768504 0.03878735730319504 0 -0.00098857113772449039 0.03847537527433479 0 -0.0010002965375605502 0.03845070131350601 0 -0.00085246061149768504 0.03878735730319504 0 -0.00040972826880680791 0.039821732975856283 0 -0.00058835391785845386 0.038963729548199662 0 -0.00085246061149768504 0.03878735730319504 0 -0.00058835391785845386 0.038963729548199662 0 -0.00083373575346000245 0.038561327971914722 0 -0.00085246061149768504 0.03878735730319504 0 -0.00079684149235654178 0.038935263738653095 0 -0.00099247275275423557 0.038030466628731094 0 -0.00049509571069803848 0.039768432029423657 0 -0.00040972826880680791 0.039821732975856283 0 -0.00085246061149768504 0.03878735730319504 0 -0.00079684149235654178 0.038935263738653095 0 -0.00040972826880680791 0.039821732975856283 0 -0.00079684149235654178 0.038935263738653095 0 -0.00049509571069803848 0.039768432029423657 0 -0.0010002965375605502 0.03845070131350601 0 -0.00085246061149768504 0.03878735730319504 0 -0.00079684149235654178 0.038935263738653095 0 -0.0010002965375605502 0.03845070131350601 0 -0.00084491316282160861 0.038353885059677781 0 -0.00099247275275423557 0.038030466628731094 0 -0.00099247275275423557 0.038030466628731094 0 -0.00096071185611533059 0.036893281531376339 0 -0.00049509571069803848 0.039768432029423657 0 -0.0010002965375605502 0.03845070131350601 0 -0.00079684149235654178 0.038935263738653095 0 -0.00099247275275423557 0.038030466628731094 0 -0.00084491316282160861 0.038353885059677781 0 -0.00095442777221196884 0.037145756740095334 0 -0.00099247275275423557 0.038030466628731094 0 -0.00095442777221196884 0.037145756740095334 0 -0.00099247275275423557 0.038030466628731094 0 -0.00096071185611533059 0.036893281531376339 0 -3.8469786275250394e-07 0.037753284301404337 0 9.7711774449334503e-06 0.036803092132494351 0 -0.00049509571069803848 0.039768432029423657 0 -0.00058780591387231241 0.03583667285372958 0 -0.00060549291339286385 0.036562064715405587 0 -1.6361987963376008e-06 0.041153130397280691 0 -3.8469786275250394e-07 0.037753284301404337 0 -0.00049509571069803848 0.039768432029423657 0 -2.2093502988430929e-06 0.030953113573156991 0 6.2547053554819531e-07 0.0343536478667913 0 -1.6587224680267815e-05 0.033256973490460161 0 -0.00096071185611533059 0.036893281531376339 0 -0.0013306107476100436 0.033734194098038121 0 -0.0010420576554016159 0.035177842930746009 0 9.7711774449334503e-06 0.036803092132494351 0 6.2547053554819531e-07 0.0343536478667913 0 -1.6587224680267815e-05 0.033256973490460161 0 -0.00058780591387231241 0.03583667285372958 0 -0.0004949268932923287 0.034495880511934196 0 -3.8469786275250394e-07 0.037753284301404337 0 9.7711774449334503e-06 0.036803092132494351 0 6.2547053554819531e-07 0.0343536478667913 0 -0.0010253039056741203 0.037360475709594658 0 -0.001005670770529505 0.037136312823870345 0 -0.00084491316282160861 0.038353885059677781 0 -0.00095442777221196884 0.037145756740095334 0 -0.00098040138670513807 0.035626726690933398 0 -0.0011675405612605208 0.035076885689924509 0 -0.0011932419549506783 0.035027275922471936 0 -0.00096071185611533059 0.036893281531376339 0 -0.0010420576554016159 0.035177842930746009 0 -0.00098040138670513807 0.035626726690933398 0 -0.0010420576554016159 0.035177842930746009 0 -0.00098040138670513807 0.035626726690933398 0 -0.0011675934004315225 0.035750714906743621 0 -0.0014726181626724337 0.035956425755166964 0 -0.00098040138670513807 0.035626726690933398 0 -0.0011675934004315225 0.035750714906743621 0 -0.0010420576554016159 0.035177842930746009 0 -0.0012991400170425851 0.033850701041520728 0 -0.0010147022805161059 0.033463616454936153 0 -0.0010420576554016159 0.035177842930746009 0 -0.0011675934004315225 0.035750714906743621 0 -0.0011162737372191651 0.036224402687752524 0 -0.00095442777221196884 0.037145756740095334 0 -0.00096071185611533059 0.036893281531376339 0 -0.00098040138670513807 0.035626726690933398 0 -0.0013306107476100436 0.033734194098038121 0 -0.0010420576554016159 0.035177842930746009 0 -0.0013294137588052888 0.033928553597498655 0 -0.0010420576554016159 0.035177842930746009 0 -0.0012991400170425851 0.033850701041520728 0 -0.0013294137588052888 0.033928553597498655 0 -0.001173326993464299 0.033206178389535088 0 -0.0013306107476100436 0.033734194098038121 0 -0.0013294137588052888 0.033928553597498655 0 -0.001173326993464299 0.033206178389535088 0 -0.0013294137588052888 0.033928553597498655 0 -0.0012824210051198437 0.033565612366937787 0 -0.0012991400170425851 0.033850701041520728 0 -0.0013294137588052888 0.033928553597498655 0 -0.0012824210051198437 0.033565612366937787 0 -0.0012991400170425851 0.033850701041520728 0 -0.0012824210051198437 0.033565612366937787 0 -0.0012119334421642678 0.03359618182540134 0 -0.0012991400170425851 0.033850701041520728 0 -0.0012119334421642678 0.03359618182540134 0 -0.0010147022805161059 0.033463616454936153 0 -0.0012119334421642678 0.03359618182540134 0 -0.0010147022805161059 0.033463616454936153 0 -0.0011264415529503614 0.033681523663738694 0 -0.0015260974054169194 0.036241390555837957 0 -0.0014726181626724337 0.035956425755166964 0 -0.0011162737372191651 0.036224402687752524 0 -0.0015260974054169194 0.036241390555837957 0 -0.0011162737372191651 0.036224402687752524 0 -0.0013318538647819412 0.036372881033029554 0 -0.0014726181626724337 0.035956425755166964 0 -0.0011675934004315225 0.035750714906743621 0 -0.0011162737372191651 0.036224402687752524 0 -0.0011932419549506783 0.035027275922471936 0 -0.0012853290490290013 0.035162333076417994 0 -0.0010147022805161059 0.033463616454936153 0 -0.0011264415529503614 0.033681523663738694 0 -0.0012422234198491387 0.033772109090844465 0 -0.0011162737372191651 0.036224402687752524 0 -0.0013318538647819412 0.036372881033029554 0 -0.0013642957738942689 0.036501399846547357 0 -0.0013318538647819412 0.036372881033029554 0 -0.0013642957738942689 0.036501399846547357 0 -0.0014865425347813197 0.036498356787550125 0 -0.001096277586917493 0.033676130859539369 0 -0.0012119334421642678 0.03359618182540134 0 -0.0011264415529503614 0.033681523663738694 0 -0.00099529253843600157 0.033852650747577817 0 -0.0011264415529503614 0.033681523663738694 0 -0.0011227274699396968 0.033863762995468755 0 -0.00063718657489600784 0.034309902573045066 0 -0.00094740092730139544 0.034739724886047769 0 -0.0011264415529503614 0.033681523663738694 0 -0.0011227274699396968 0.033863762995468755 0 -0.0012422234198491387 0.033772109090844465 0 -0.00095116638574291356 0.035098273355860056 0 -0.0012373342235716157 0.035413528230824852 0 -0.00088594603634091799 0.03546836429237555 0 -0.00058477175786420237 0.035196386669407456 0 -0.00095116638574291356 0.035098273355860056 0 -0.00088594603634091799 0.03546836429237555 0 -0.0013988583325840311 0.035454545821711855 0 -0.0012853290490290013 0.035162333076417994 0 -0.00094740092730139544 0.034739724886047769 0 -0.0013988583325840311 0.035454545821711855 0 -0.0011227274699396968 0.033863762995468755 0 -0.0012766841378770535 0.034010647100864454 0 -0.0012422234198491387 0.033772109090844465 0 -0.0014657051662784856 0.036672897391790034 0 -0.0013642957738942689 0.036501399846547357 0 -0.0015086157908988571 0.03657380789382992 0 -0.0013642957738942689 0.036501399846547357 0 -0.0014865425347813197 0.036498356787550125 0 -0.0015086157908988571 0.03657380789382992 0 -0.0014865425347813197 0.036498356787550125 0 -0.0016319164177977521 0.036468309921976687 0 -0.0015976390319916232 0.036552432668386758 0 -0.0014865425347813197 0.036498356787550125 0 -0.0015976390319916232 0.036552432668386758 0 -0.0015086157908988571 0.03657380789382992 0 -0.00081527557741508814 0.038388886057967017 0 -0.0010630340026306485 0.03760976296738356 0 -0.0018091480959345318 0.036575788566187185 0 -0.0016319164177977521 0.036468309921976687 0 -0.0016926180281023162 0.03656876676434849 0 -0.0016679250961490085 0.036459183168994908 0 -0.0017547358171056155 0.03669769324826961 0 -0.0020240171173074701 0.036771237743304715 0 -0.0021860083565427122 0.036998069308002882 0 -0.0017547358171056155 0.03669769324826961 0 -0.0020240171173074701 0.036771237743304715 0 -0.0016319164177977521 0.036468309921976687 0 -0.0015976390319916232 0.036552432668386758 0 -0.0016926180281023162 0.03656876676434849 0 -0.00081527557741508814 0.038388886057967017 0 -0.00071952689115245376 0.038158503214766964 0 -0.0016926180281023162 0.03656876676434849 0 -0.0017777687854145931 0.036611698775967511 0 -0.0017185411084165408 0.036666258118837308 0 -0.0018091480959345318 0.036575788566187185 0 -0.0016926180281023162 0.03656876676434849 0 -0.0017777687854145931 0.036611698775967511 0 -0.0016926180281023162 0.03656876676434849 0 -0.0017185411084165408 0.036666258118837308 0 -0.0016026277216097478 0.036643437263684978 0 -0.001791878357879385 0.036662485139025203 0 -0.0017777687854145931 0.036611698775967511 0 -0.0017185411084165408 0.036666258118837308 0 -0.0014657051662784856 0.036672897391790034 0 -0.0015086157908988571 0.03657380789382992 0 -0.0016026277216097478 0.036643437263684978 0 -0.0015976390319916232 0.036552432668386758 0 -0.0015086157908988571 0.03657380789382992 0 -0.0016026277216097478 0.036643437263684978 0 -0.0015976390319916232 0.036552432668386758 0 -0.0016926180281023162 0.03656876676434849 0 -0.0016026277216097478 0.036643437263684978 0 -0.0012215593584794715 0.035484710957840594 0 -0.0015305098893955409 0.035812493939101624 0 -0.0012514990048075804 0.035751877521891018 0 -0.0013988583325840311 0.035454545821711855 0 -0.0016741649850512334 0.036033042602119883 0 -0.0017185411084165408 0.036666258118837308 0 -0.0016026277216097478 0.036643437263684978 0 -0.0016774867485397397 0.036768288027784916 0 -0.0014657051662784856 0.036672897391790034 0 -0.0016026277216097478 0.036643437263684978 0 -0.0016774867485397397 0.036768288027784916 0 -0.0018592253929834628 0.036748434559016038 0 -0.0018074638615801285 0.036713240807750437 0 -0.0016774867485397397 0.036768288027784916 0 -0.0018074638615801285 0.036713240807750437 0 -0.0017185411084165408 0.036666258118837308 0 -0.0016774867485397397 0.036768288027784916 0 -0.0018074638615801285 0.036713240807750437 0 -0.001791878357879385 0.036662485139025203 0 -0.0017185411084165408 0.036666258118837308 0 -0.0015305098893955409 0.035812493939101624 0 -0.0015915432857054226 0.036093558516355449 0 -0.0018318952639558364 0.036205839585547218 0 -0.0018592253929834628 0.036748434559016038 0 -0.0016774867485397397 0.036768288027784916 0 -0.0018753134493891034 0.036778621847048582 0 -0.0016741649850512334 0.036033042602119883 0 -0.0018391820304054383 0.036318066613637873 0 -0.0015305098893955409 0.035812493939101624 0 -0.0015915432857054226 0.036093558516355449 0 -0.0013083424241284161 0.036044141636728068 0 -0.0015305098893955409 0.035812493939101624 0 -0.0013083424241284161 0.036044141636728068 0 -0.0012514990048075804 0.035751877521891018 0 -0.0013083424241284161 0.036044141636728068 0 -0.0010497416277912698 0.03604930028907552 0 -0.0012514990048075804 0.035751877521891018 0 -0.0010497416277912698 0.03604930028907552 0 -0.0010035856626805506 0.035722417164851368 0 -0.0012514990048075804 0.035751877521891018 0 -0.00074829332829060133 0.035794849518313014 0 -0.0010497416277912698 0.03604930028907552 0 -0.0010035856626805506 0.035722417164851368 0 -0.00074829332829060133 0.035794849518313014 0 -0.0010497416277912698 0.03604930028907552 0 -0.00079905885233495571 0.0362604740545922 0 -0.0012373342235716157 0.035413528230824852 0 -0.00088594603634091799 0.03546836429237555 0 -0.0010035856626805506 0.035722417164851368 0 -0.00074829332829060133 0.035794849518313014 0 -0.00088594603634091799 0.03546836429237555 0 -0.0010035856626805506 0.035722417164851368 0 -0.0012373342235716157 0.035413528230824852 0 -0.0010035856626805506 0.035722417164851368 0 -0.0012514990048075804 0.035751877521891018 0 -0.0013988583325840311 0.035454545821711855 0 -0.0013882466618886293 0.035510456990795615 0 -0.0012038116749253332 0.036455379016243586 0 -0.00079905885233495571 0.0362604740545922 0 -0.00094800293152350805 0.036710516310380616 0 -0.0010497416277912698 0.03604930028907552 0 -0.0012038116749253332 0.036455379016243586 0 -0.00079905885233495571 0.0362604740545922 0 -0.0013083424241284161 0.036044141636728068 0 -0.0010497416277912698 0.03604930028907552 0 -0.0012038116749253332 0.036455379016243586 0 -0.0015915432857054226 0.036093558516355449 0 -0.0013083424241284161 0.036044141636728068 0 -0.0014794312298476971 0.036281810806485237 0 -0.0013083424241284161 0.036044141636728068 0 -0.0012038116749253332 0.036455379016243586 0 -0.0014794312298476971 0.036281810806485237 0 -0.0015915432857054226 0.036093558516355449 0 -0.0016689865532179438 0.036290508097028676 0 -0.0018318952639558364 0.036205839585547218 0 -0.0016689865532179438 0.036290508097028676 0 -0.0018213000159486058 0.036450044182298524 0 -0.0018318952639558364 0.036205839585547218 0 -0.0015915432857054226 0.036093558516355449 0 -0.0014794312298476971 0.036281810806485237 0 -0.0016689865532179438 0.036290508097028676 0 -0.0014794312298476971 0.036281810806485237 0 -0.0016689865532179438 0.036290508097028676 0 -0.0016572520409836372 0.036478536852581782 0 -0.0014794312298476971 0.036281810806485237 0 -0.0016572520409836372 0.036478536852581782 0 -0.0014911673316327205 0.036564336860733682 0 -0.0016689865532179438 0.036290508097028676 0 -0.0016572520409836372 0.036478536852581782 0 -0.0018213000159486058 0.036450044182298524 0 -0.0016572520409836372 0.036478536852581782 0 -0.0014911673316327205 0.036564336860733682 0 -0.0016627077893468058 0.036762131270359613 0 -0.0016572520409836372 0.036478536852581782 0 -0.0016627077893468058 0.036762131270359613 0 -0.0018523022803524369 0.036606653950757573 0 -0.0016572520409836372 0.036478536852581782 0 -0.0018523022803524369 0.036606653950757573 0 -0.0018213000159486058 0.036450044182298524 0 -0.0012038116749253332 0.036455379016243586 0 -0.0014794312298476971 0.036281810806485237 0 -0.0014911673316327205 0.036564336860733682 0 -0.0012038116749253332 0.036455379016243586 0 -0.0014911673316327205 0.036564336860733682 0 -0.0014321775631402631 0.036812285448458722 0 -0.0014911673316327205 0.036564336860733682 0 -0.0014321775631402631 0.036812285448458722 0 -0.0016627077893468058 0.036762131270359613 0 -0.0014321775631402631 0.036812285448458722 0 -0.0013429782082961144 0.037040610190566495 0 -0.0012011957717351417 0.036834265509540526 0 -0.0014499025717215157 0.037392919810489381 0 -0.001393468857832742 0.038181595585553715 0 -0.0016627077893468058 0.036762131270359613 0 -0.0015583830849500223 0.037384775029916523 0 -0.0019058900644523472 0.03697849294351746 0 -0.0014321775631402631 0.036812285448458722 0 -0.0016627077893468058 0.036762131270359613 0 -0.0016775014094819515 0.037092723495348534 0 -0.0014321775631402631 0.036812285448458722 0 -0.0016775014094819515 0.037092723495348534 0 -0.0013429782082961144 0.037040610190566495 0 -0.0016775014094819515 0.037092723495348534 0 -0.0013429782082961144 0.037040610190566495 0 -0.0013953855122903654 0.037260484565211568 0 -0.0013429782082961144 0.037040610190566495 0 -0.0011276327911818379 0.037067231346895178 0 -0.0012011957717351417 0.036834265509540526 0 -0.0013429782082961144 0.037040610190566495 0 -0.0011276327911818379 0.037067231346895178 0 -0.0013953855122903654 0.037260484565211568 0 -0.0012038116749253332 0.036455379016243586 0 -0.0014321775631402631 0.036812285448458722 0 -0.0012011957717351417 0.036834265509540526 0 -0.0012038116749253332 0.036455379016243586 0 -0.0012011957717351417 0.036834265509540526 0 -0.00094800293152350805 0.036710516310380616 0 -0.0011276327911818379 0.037067231346895178 0 -0.0012011957717351417 0.036834265509540526 0 -0.00094800293152350805 0.036710516310380616 0 -0.00075869851580677666 0.037032027334854681 0 -0.0011276327911818379 0.037067231346895178 0 -0.00094800293152350805 0.036710516310380616 0 -0.00075869851580677666 0.037032027334854681 0 -0.0011276327911818379 0.037067231346895178 0 -0.00097014008950138545 0.037371729112894388 0 -0.0011276327911818379 0.037067231346895178 0 -0.00097014008950138545 0.037371729112894388 0 -0.001371616473919392 0.0375596283240534 0 -0.0011276327911818379 0.037067231346895178 0 -0.001371616473919392 0.0375596283240534 0 -0.0018017678164621257 0.037449941307560665 0 -0.00051917991533613917 0.03887760205105014 0 -0.00064301898990529031 0.039589908288769848 0 -0.001371616473919392 0.0375596283240534 0 -0.0016118734527413212 0.0378112726673656 0 -0.0018017678164621257 0.037449941307560665 0 -0.001371616473919392 0.0375596283240534 0 -0.0016118734527413212 0.0378112726673656 0 -0.0013582729479619127 0.038166111282812519 0 -0.00097014008950138545 0.037371729112894388 0 -0.001371616473919392 0.0375596283240534 0 -0.0013582729479619127 0.038166111282812519 0 -0.00097014008950138545 0.037371729112894388 0 -0.0014350200908268508 0.03791118954466946 0 -0.0012984463137663152 0.03778780561878408 0 -0.0014350200908268508 0.03791118954466946 0 -0.0012984463137663152 0.03778780561878408 0 -0.0011441748147369743 0.037982201163182884 0 -0.0016118734527413212 0.0378112726673656 0 -0.0013582729479619127 0.038166111282812519 0 -0.001681448150332283 0.038093592905111828 0 -0.0012430000285145973 0.037766644450163575 0 -0.0014530008933794031 0.038111342063429067 0 -0.00059548908255001114 0.037692743913107792 0 -0.00097014008950138545 0.037371729112894388 0 -0.0012984463137663152 0.03778780561878408 0 -0.00065466948064619751 0.037656231224712594 0 -0.0012984463137663152 0.03778780561878408 0 -0.0011441748147369743 0.037982201163182884 0 -0.00059122055581307779 0.037655967828600916 0 -0.00090810060573941035 0.037708116031456809 0 -0.00065466948064619751 0.037656231224712594 0 -0.00097416295688220844 0.038229488126796989 0 -0.0011441748147369743 0.037982201163182884 0 -0.00097416295688220844 0.038229488126796989 0 -0.0011441748147369743 0.037982201163182884 0 -0.0014021823231440966 0.038362585087026342 0 -0.0014530008933794031 0.038111342063429067 0 -0.0018075871833495643 0.038692585441937072 0 -0.0014350200908268508 0.03791118954466946 0 -0.0014021823231440966 0.038362585087026342 0 -0.0018955322643672864 0.038615093030471274 0 -0.0014350200908268508 0.03791118954466946 0 -0.0011441748147369743 0.037982201163182884 0 -0.0014021823231440966 0.038362585087026342 0 -0.0013582729479619127 0.038166111282812519 0 -0.001824004696230422 0.038376069833507602 0 -0.001681448150332283 0.038093592905111828 0 -0.0014021823231440966 0.038362585087026342 0 -0.0011869370122451722 0.03870061172659308 0 -0.0018955322643672864 0.038615093030471274 0 -0.00097416295688220844 0.038229488126796989 0 -0.0014021823231440966 0.038362585087026342 0 -0.0011869370122451722 0.03870061172659308 0 -0.00078876627423814282 0.038562365964793274 0 -0.00097416295688220844 0.038229488126796989 0 -0.0011869370122451722 0.03870061172659308 0 -0.0023072681760762672 0.038938140167504041 0 -0.0020954517068206744 0.038625017098046319 0 -0.0024272397098638221 0.038622707733046255 0 -0.0023072681760762672 0.038938140167504041 0 -0.0024272397098638221 0.038622707733046255 0 -0.0025566218305425295 0.038834012358922268 0 -0.0024272397098638221 0.038622707733046255 0 -0.0025566218305425295 0.038834012358922268 0 -0.0025803986491465618 0.038675196605688904 0 -0.0023072681760762672 0.038938140167504041 0 -0.0025566218305425295 0.038834012358922268 0 -0.0026360442360305893 0.039108075100698025 0 -0.0023072681760762672 0.038938140167504041 0 -0.0018499106015829666 0.038903293753263811 0 -0.0020954517068206744 0.038625017098046319 0 -0.0020954517068206744 0.038625017098046319 0 -0.0020432920708386743 0.038353839359147421 0 -0.0022147671415980669 0.038434071988192708 0 -0.0013582729479619127 0.038166111282812519 0 -0.0018499106015829666 0.038903293753263811 0 -0.001824004696230422 0.038376069833507602 0 -0.0020954517068206744 0.038625017098046319 0 -0.001824004696230422 0.038376069833507602 0 -0.0020432920708386743 0.038353839359147421 0 -0.0018499106015829666 0.038903293753263811 0 -0.0020954517068206744 0.038625017098046319 0 -0.001824004696230422 0.038376069833507602 0 -0.001824004696230422 0.038376069833507602 0 -0.001681448150332283 0.038093592905111828 0 -0.0019298586939327433 0.038125961497130004 0 -0.001824004696230422 0.038376069833507602 0 -0.0020432920708386743 0.038353839359147421 0 -0.0019298586939327433 0.038125961497130004 0 -0.0020432920708386743 0.038353839359147421 0 -0.0021517640374822183 0.038200571217317583 0 -0.0019298586939327433 0.038125961497130004 0 -0.0021517640374822183 0.038200571217317583 0 -0.002306436986205195 0.038306020846580024 0 -0.0022938827638896062 0.038145586915068537 0 -0.002306436986205195 0.038306020846580024 0 -0.0024426860520042814 0.038381134575062995 0 -0.0022938827638896062 0.038145586915068537 0 -0.002306436986205195 0.038306020846580024 0 -0.0022147671415980669 0.038434071988192708 0 -0.0024003374051376255 0.038432665960203304 0 -0.0021517640374822183 0.038200571217317583 0 -0.002306436986205195 0.038306020846580024 0 -0.0022147671415980669 0.038434071988192708 0 -0.0020432920708386743 0.038353839359147421 0 -0.0021517640374822183 0.038200571217317583 0 -0.0022147671415980669 0.038434071988192708 0 -0.0020954517068206744 0.038625017098046319 0 -0.0022147671415980669 0.038434071988192708 0 -0.0024272397098638221 0.038622707733046255 0 -0.0024272397098638221 0.038622707733046255 0 -0.0024364963341478125 0.038465295797456833 0 -0.0026063614172629392 0.03854409750148783 0 -0.0024272397098638221 0.038622707733046255 0 -0.0024003374051376255 0.038432665960203304 0 -0.0024409182940417933 0.038383150778029174 0 -0.0022585836785276405 0.042489123246032053 0 -0.0022564232532358594 0.04289940796978544 0 -0.0022147671415980669 0.038434071988192708 0 -0.0024272397098638221 0.038622707733046255 0 -0.0024003374051376255 0.038432665960203304 0 -0.0022564232532358594 0.04289940796978544 0 -0.0018431882159666659 0.045831787838412838 0 -0.002306436986205195 0.038306020846580024 0 -0.0024003374051376255 0.038432665960203304 0 -0.0024426860520042814 0.038381134575062995 0 -0.002268326422743893 0.042876293215710029 0 -0.0022564232532358594 0.04289940796978544 0 -0.0022564232532358594 0.04289940796978544 0 -0.0012143341975750259 0.042224457618995723 0 -0.0025710709911412298 0.044167350272821773 0 -0.0025758536581104163 0.045480666316391381 0 -0.0019158695029162134 0.045024698456444648 0 -0.0021169160776197599 0.037930519959534212 0 -0.0024488536741182252 0.037906375363138421 0 -0.0018017678164621257 0.037449941307560665 0 -0.0024426860520042814 0.038381134575062995 0 -0.0022938827638896062 0.038145586915068537 0 -0.0024488536741182252 0.037906375363138421 0 -0.0012143341975750259 0.042224457618995723 0 -0.0018431882159666659 0.045831787838412838 0 -0.0022938827638896062 0.038145586915068537 0 -0.0021169160776197599 0.037930519959534212 0 -0.0024488536741182252 0.037906375363138421 0 -0.0021517640374822183 0.038200571217317583 0 -0.0022938827638896062 0.038145586915068537 0 -0.0021169160776197599 0.037930519959534212 0 -0.001681448150332283 0.038093592905111828 0 -0.0019298586939327433 0.038125961497130004 0 -0.0018284100238645242 0.037882221375732314 0 -0.0021517640374822183 0.038200571217317583 0 -0.0021169160776197599 0.037930519959534212 0 -0.0019298586939327433 0.038125961497130004 0 -0.0021169160776197599 0.037930519959534212 0 -0.0019298586939327433 0.038125961497130004 0 -0.0018284100238645242 0.037882221375732314 0 -0.0021169160776197599 0.037930519959534212 0 -0.0018284100238645242 0.037882221375732314 0 -0.0018017678164621257 0.037449941307560665 0 -0.0016118734527413212 0.0378112726673656 0 -0.0018284100238645242 0.037882221375732314 0 -0.0018017678164621257 0.037449941307560665 0 -0.0016118734527413212 0.0378112726673656 0 -0.001681448150332283 0.038093592905111828 0 -0.0018284100238645242 0.037882221375732314 0 -0.0015583830849500223 0.037384775029916523 0 -0.0015300923863463749 0.038086937124353938 0 -0.0017951533718644536 0.037681773829529239 0 -0.001393468857832742 0.038181595585553715 0 -0.0012143341975750259 0.042224457618995723 0 -0.0012143341975750259 0.042224457618995723 0 -0.00064301898990529031 0.039589908288769848 0 -0.0016775014094819515 0.037092723495348534 0 -0.0016823541876739121 0.03747457193569486 0 -0.0013953855122903654 0.037260484565211568 0 -0.00085473066723401646 0.048788182808339284 0 -0.001253863263893606 0.04752067719458445 0 -0.0017951533718644536 0.037681773829529239 0 -0.0021061231120629554 0.037682243041317669 0 -0.0019596881311249128 0.037364349186638182 0 -0.0017951533718644536 0.037681773829529239 0 -0.0021061231120629554 0.037682243041317669 0 -0.0017602774091911154 0.038001599746217148 0 0.0013017634099111155 0.058736538624651426 0 0.0004026550508774981 0.058984244615814051 0 0.00048895344604002358 0.057626637460095394 0 0.0013017634099111155 0.058736538624651426 0 0.00092624729815143014 0.059703974577972677 0 0.0004026550508774981 0.058984244615814051 0 0.0013017634099111155 0.058736538624651426 0 0.00092624729815143014 0.059703974577972677 0 0.001442556749951248 0.059835603728566639 0 0.00092624729815143014 0.059703974577972677 0 0.0004403106643956815 0.060282721574581283 0 0.0004026550508774981 0.058984244615814051 0 0.001442556749951248 0.059835603728566639 0 0.0010075043917160149 0.060290573039312886 0 0.0016891806533378044 0.060444390990484181 0 0.00092624729815143014 0.059703974577972677 0 0.001442556749951248 0.059835603728566639 0 0.0010075043917160149 0.060290573039312886 0 0.00092624729815143014 0.059703974577972677 0 0.0010075043917160149 0.060290573039312886 0 0.0004403106643956815 0.060282721574581283 0 0.0013017634099111155 0.058736538624651426 0 0.001442556749951248 0.059835603728566639 0 0.0020567507872066328 0.059771176194276986 0 -0.0021061231120629554 0.037682243041317669 0 -0.0018221828869047884 0.038119604356542311 0 -0.0017602774091911154 0.038001599746217148 0 -0.001830331430263669 0.038127248827884617 0 -0.0017602774091911154 0.038001599746217148 0 -0.001741116858208009 0.038244809422584888 0 -0.0015300923863463749 0.038086937124353938 0 -0.0017951533718644536 0.037681773829529239 0 -0.0017602774091911154 0.038001599746217148 0 -0.0015300923863463749 0.038086937124353938 0 -0.0017602774091911154 0.038001599746217148 0 -0.001741116858208009 0.038244809422584888 0 -0.001253863263893606 0.04752067719458445 0 -0.0011490963392661682 0.047226123050650902 0 0.001442556749951248 0.059835603728566639 0 0.0020567507872066328 0.059771176194276986 0 0.0016891806533378044 0.060444390990484181 0 -0.001253863263893606 0.04752067719458445 0 -0.0015995946484789042 0.048511111549122889 0 -0.0018431882159666659 0.045831787838412838 0 -0.0015995946484789042 0.048511111549122889 0 -0.00047431509643731159 0.045379768968609735 0 0.00027915580277445347 0.046368395347340323 0 -0.0017936585245952807 0.047802906133574068 0 -0.001253863263893606 0.04752067719458445 0 -0.0018431882159666659 0.045831787838412838 0 -0.0024364963341478125 0.038465295797456833 0 -0.0025990292587042777 0.038268437191637007 0 -0.002619493818020683 0.03842964853786969 0 -0.0025990292587042777 0.038268437191637007 0 -0.002619493818020683 0.03842964853786969 0 -0.0027826996072612144 0.038393448295886812 0 -0.0024364963341478125 0.038465295797456833 0 -0.002619493818020683 0.03842964853786969 0 -0.0026063614172629392 0.03854409750148783 0 -0.0027594644842361591 0.038565753772877701 0 -0.0027826996072612144 0.038393448295886812 0 -0.0030755494692004544 0.038747693250364035 0 -0.0024272397098638221 0.038622707733046255 0 -0.0026063614172629392 0.03854409750148783 0 -0.0025803986491465618 0.038675196605688904 0 -0.002619493818020683 0.03842964853786969 0 -0.0026063614172629392 0.03854409750148783 0 -0.0027594644842361591 0.038565753772877701 0 -0.0026063614172629392 0.03854409750148783 0 -0.0025803986491465618 0.038675196605688904 0 -0.0027280376233607914 0.038707118749477749 0 -0.0026063614172629392 0.03854409750148783 0 -0.0027594644842361591 0.038565753772877701 0 -0.0027280376233607914 0.038707118749477749 0 -0.002619493818020683 0.03842964853786969 0 -0.0027594644842361591 0.038565753772877701 0 -0.0027826996072612144 0.038393448295886812 0 -0.0015995946484789042 0.048511111549122889 0 -0.0015269383103264738 0.049740274436424856 0 -0.0015995946484789042 0.048511111549122889 0 -0.0024695956974726371 0.050965679471117145 0 0.0010075043917160149 0.060290573039312886 0 0.0016891806533378044 0.060444390990484181 0 0.00052872868231859974 0.061094284403912825 0 0.00085009695884713228 0.060832796862128717 0 0.00052872868231859974 0.061094284403912825 0 0.00051042957057706245 0.061303085338077372 0 0.0010075043917160149 0.060290573039312886 0 0.00052872868231859974 0.061094284403912825 0 0.0004403106643956815 0.060282721574581283 0 0.00051042957057706245 0.061303085338077372 0 0.00014091109018208754 0.061342787977966308 0 6.5773167588470033e-05 0.061263687890926094 0 0.00051042957057706245 0.061303085338077372 0 0.00014091109018208754 0.061342787977966308 0 0.0002787830706122263 0.061282372701415948 0 0.00052872868231859974 0.061094284403912825 0 0.00051042957057706245 0.061303085338077372 0 0.0002787830706122263 0.061282372701415948 0 -0.0030755494692004544 0.038747693250364035 0 -0.0028239376800181706 0.038950124923482564 0 -0.0031981344955288645 0.039272681086765335 0 -0.0028239376800181706 0.038950124923482564 0 -0.0025566218305425295 0.038834012358922268 0 -0.0026360442360305893 0.039108075100698025 0 -0.0028239376800181706 0.038950124923482564 0 -0.0025566218305425295 0.038834012358922268 0 -0.0027280376233607914 0.038707118749477749 0 -0.0025566218305425295 0.038834012358922268 0 -0.0025803986491465618 0.038675196605688904 0 -0.0027280376233607914 0.038707118749477749 0 -0.0027594644842361591 0.038565753772877701 0 -0.0030755494692004544 0.038747693250364035 0 -0.0027280376233607914 0.038707118749477749 0 -0.0030755494692004544 0.038747693250364035 0 -0.0028239376800181706 0.038950124923482564 0 -0.0027280376233607914 0.038707118749477749 0 0.00023317886961411887 0.061569930712482082 0 6.3359148089653144e-05 0.061350425117742004 0 -0.00016999055305114391 0.06140141397856623 0 0.00023317886961411887 0.061569930712482082 0 0.00031353118215993962 0.061341757541377127 0 6.3359148089653144e-05 0.061350425117742004 0 0.00031353118215993962 0.061341757541377127 0 6.3359148089653144e-05 0.061350425117742004 0 0.00012580537131610549 0.06123856154079188 0 6.3359148089653144e-05 0.061350425117742004 0 0.00014091109018208754 0.061342787977966308 0 0.00012580537131610549 0.06123856154079188 0 0.00014091109018208754 0.061342787977966308 0 0.0002787830706122263 0.061282372701415948 0 -0.00016999055305114391 0.06140141397856623 0 6.3359148089653144e-05 0.061350425117742004 0 0.00014091109018208754 0.061342787977966308 0 -0.00016999055305114391 0.06140141397856623 0 -0.00016999055305114391 0.06140141397856623 0 0.00011080619123298794 0.060709002453222458 0 -0.0011798307545935853 0.059761690521857529 0 0.0002787830706122263 0.061282372701415948 0 -0.00016999055305114391 0.06140141397856623 0 0.00011080619123298794 0.060709002453222458 0 0.00052872868231859974 0.061094284403912825 0 0.0002787830706122263 0.061282372701415948 0 0.00011080619123298794 0.060709002453222458 0 0.00052872868231859974 0.061094284403912825 0 0.00011080619123298794 0.060709002453222458 0 0.0004403106643956815 0.060282721574581283 0 -0.00037815243263637278 0.061098327771546154 0 -0.00046387029416237763 0.060851729304198028 0 -0.00016999055305114391 0.06140141397856623 0 -7.3186320038588716e-05 0.06259500061752421 0 0.00033573006435881365 0.062066587472381994 0 0.00023317886961411887 0.061569930712482082 0 -0.00016999055305114391 0.06140141397856623 0 0.00033573006435881365 0.062066587472381994 0 -7.3186320038588716e-05 0.06259500061752421 0 0.00029879436736660368 0.062514029730678877 0 0.00033573006435881365 0.062066587472381994 0 -0.0011798307545935853 0.059761690521857529 0 -4.6551071854980904e-05 0.059634990989875382 0 -0.00065095860305810702 0.058332444334478338 0 -7.3186320038588716e-05 0.06259500061752421 0 0.00028347629152558254 0.063068377047234461 0 0.00029879436736660368 0.062514029730678877 0 -0.00028437623187286989 0.05753818774838481 0 -0.00032790254361681929 0.05597078071851206 0 0.0004403106643956815 0.060282721574581283 0 -4.6551071854980904e-05 0.059634990989875382 0 0.0008937300897054447 0.05845992029811535 0 0.00011080619123298794 0.060709002453222458 0 0.0004403106643956815 0.060282721574581283 0 -4.6551071854980904e-05 0.059634990989875382 0 0.00011080619123298794 0.060709002453222458 0 -0.0011798307545935853 0.059761690521857529 0 -4.6551071854980904e-05 0.059634990989875382 0 0.0008937300897054447 0.05845992029811535 0 3.1731925454106264e-05 0.057389524067103098 0 -0.00065095860305810702 0.058332444334478338 0 -4.6551071854980904e-05 0.059634990989875382 0 0.0008937300897054447 0.05845992029811535 0 -0.00065095860305810702 0.058332444334478338 0 -0.00032790254361681929 0.05597078071851206 0 -0.00046918835127956977 0.050438150922690946 0 0.0008937300897054447 0.05845992029811535 0 3.1731925454106264e-05 0.057389524067103098 0 0.0011792163128880716 0.056377062061708248 0 3.1731925454106264e-05 0.057389524067103098 0 -0.00065095860305810702 0.058332444334478338 0 -0.0010128398771670954 0.057230912111875198 0 -0.0011798307545935853 0.059761690521857529 0 -0.00065095860305810702 0.058332444334478338 0 -0.0021204710917800611 0.057622140960768425 0 -0.00046387029416237763 0.060851729304198028 0 -0.00059229214136704948 0.060210536541697578 0 -7.3186320038588716e-05 0.06259500061752421 0 0.00026758254598308609 0.063428536126159604 0 0.00028347629152558254 0.063068377047234461 0 -0.00065095860305810702 0.058332444334478338 0 -0.0021204710917800611 0.057622140960768425 0 -0.0010128398771670954 0.057230912111875198 0 -0.0021204710917800611 0.057622140960768425 0 -0.0010128398771670954 0.057230912111875198 0 -0.0016406505170117802 0.056330318941787659 0 -0.0010128398771670954 0.057230912111875198 0 -0.00054900350067588145 0.056248652397885471 0 -0.0016406505170117802 0.056330318941787659 0 -0.00054900350067588145 0.056248652397885471 0 -0.0016406505170117802 0.056330318941787659 0 -0.0015013419051220736 0.05525566255158141 0 -0.0016406505170117802 0.056330318941787659 0 -0.0015013419051220736 0.05525566255158141 0 -0.0030653690597956481 0.055259814363415906 0 -0.00054900350067588145 0.056248652397885471 0 -0.0015013419051220736 0.05525566255158141 0 -0.00023372489676375504 0.054301997019094488 0 -0.0015013419051220736 0.05525566255158141 0 -0.0019059375912404497 0.053900883341140189 0 -0.0030653690597956481 0.055259814363415906 0 -0.0015013419051220736 0.05525566255158141 0 -0.0019059375912404497 0.053900883341140189 0 -0.00023372489676375504 0.054301997019094488 0 0.00014952193616161885 0.052573937439289384 0 -0.00046918835127956977 0.050438150922690946 0 -9.1565720489140579e-05 0.05405893568664949 0 0.0014566852640630491 0.056079752530058383 0 0.0017134998795978779 0.052932985671638511 0 -0.00054900350067588145 0.056248652397885471 0 -0.00023372489676375504 0.054301997019094488 0 0.0011792163128880716 0.056377062061708248 0 3.1731925454106264e-05 0.057389524067103098 0 -0.00054900350067588145 0.056248652397885471 0 0.0011792163128880716 0.056377062061708248 0 3.1731925454106264e-05 0.057389524067103098 0 -0.0010128398771670954 0.057230912111875198 0 -0.00054900350067588145 0.056248652397885471 0 -0.00085473066723401646 0.048788182808339284 0 -0.00046918835127956977 0.050438150922690946 0 -0.0021061231120629554 0.037682243041317669 0 -0.0023287888285851719 0.037284301911182267 0 -0.0019596881311249128 0.037364349186638182 0 -0.0023287888285851719 0.037284301911182267 0 -0.0019596881311249128 0.037364349186638182 0 -0.0019058900644523472 0.03697849294351746 0 -0.0015583830849500223 0.037384775029916523 0 -0.0017951533718644536 0.037681773829529239 0 -0.0019596881311249128 0.037364349186638182 0 -0.0015583830849500223 0.037384775029916523 0 -0.0019596881311249128 0.037364349186638182 0 -0.0019058900644523472 0.03697849294351746 0 -0.0023287888285851719 0.037284301911182267 0 -0.002050755375205104 0.036826779623664062 0 -0.0021530067735999487 0.036717126881379424 0 -0.0023287888285851719 0.037284301911182267 0 -0.0019058900644523472 0.03697849294351746 0 -0.002050755375205104 0.036826779623664062 0 -0.00046918835127956977 0.050438150922690946 0 -0.00022060266338067288 0.045466968736514325 0 -0.0021530067735999487 0.036717126881379424 0 -0.0020702361968224624 0.036681221595064324 0 -0.0020036557814658022 0.036713834319107484 0 -0.002050755375205104 0.036826779623664062 0 -0.0021530067735999487 0.036717126881379424 0 -0.0020702361968224624 0.036681221595064324 0 -0.0019058900644523472 0.03697849294351746 0 -0.002050755375205104 0.036826779623664062 0 -0.0018523022803524369 0.036606653950757573 0 -0.0016627077893468058 0.036762131270359613 0 -0.0019058900644523472 0.03697849294351746 0 -0.0018523022803524369 0.036606653950757573 0 -0.0020702361968224624 0.036681221595064324 0 -0.0018523022803524369 0.036606653950757573 0 -0.0018213000159486058 0.036450044182298524 0 -0.002050755375205104 0.036826779623664062 0 -0.0020702361968224624 0.036681221595064324 0 -0.0018523022803524369 0.036606653950757573 0 -0.0020702361968224624 0.036681221595064324 0 -0.0018213000159486058 0.036450044182298524 0 -0.0018318952639558364 0.036205839585547218 0 -0.0019261041617120254 0.036433569452600331 0 -0.0018391820304054383 0.036318066613637873 0 -0.0020702361968224624 0.036681221595064324 0 -0.0019206593715044974 0.036754020109459974 0 -0.0018753134493891034 0.036778621847048582 0 -0.0019663352304562002 0.036736155689625946 0 -0.0019206593715044974 0.036754020109459974 0 -0.0020036557814658022 0.036713834319107484 0 -0.00195840911899912 0.036726844186216578 0 -0.0021530067735999487 0.036717126881379424 0 -0.0020036557814658022 0.036713834319107484 0 -0.0020702361968224624 0.036681221595064324 0 -0.0019206593715044974 0.036754020109459974 0 -0.0020036557814658022 0.036713834319107484 0 -0.00013556020265793715 0.043221807272477146 0 -0.00022060266338067288 0.045466968736514325 0 -0.00195840911899912 0.036726844186216578 0 -0.0019663352304562002 0.036736155689625946 0 -0.0020036557814658022 0.036713834319107484 0 0.0019921357883687591 0.049645662483631718 0 0.0017134998795978779 0.052932985671638511 0 0.00031100471788122238 0.051229010192457049 0 0.00010807953561909268 0.049698382953343244 0 0.0019921357883687591 0.049645662483631718 0 0.00031100471788122238 0.051229010192457049 0 0.00010807953561909268 0.049698382953343244 0 0.00031100471788122238 0.051229010192457049 0 -0.0010289752000949444 0.050632450925639283 0 0.00031100471788122238 0.051229010192457049 0 -0.0010289752000949444 0.050632450925639283 0 -0.0017387237495375581 0.052045392725102717 0 -0.0016976240340416066 0.049542089652683731 0 -0.0010289752000949444 0.050632450925639283 0 -0.0023084317456782961 0.050966790320745047 0 -0.0010289752000949444 0.050632450925639283 0 -0.0017387237495375581 0.052045392725102717 0 -0.0023084317456782961 0.050966790320745047 0 0.00031100471788122238 0.051229010192457049 0 -0.0017387237495375581 0.052045392725102717 0 5.4066418475898289e-05 0.052570736585385469 0 -0.0019059375912404497 0.053900883341140189 0 -0.00023372489676375504 0.054301997019094488 0 -0.0017387237495375581 0.052045392725102717 0 -9.1565720489140579e-05 0.05405893568664949 0 -0.0017387237495375581 0.052045392725102717 0 5.4066418475898289e-05 0.052570736585385469 0 0.00014952193616161885 0.052573937439289384 0 -0.00028177877773275596 0.052382872158542967 0 -9.1565720489140579e-05 0.05405893568664949 0 0.0017134998795978779 0.052932985671638511 0 5.4066418475898289e-05 0.052570736585385469 0 0.0017134998795978779 0.052932985671638511 0 0.00031100471788122238 0.051229010192457049 0 5.4066418475898289e-05 0.052570736585385469 0 0.00041134449422005758 0.064246730262107504 0 0.00044078486554582994 0.064250762083478533 0 0.00042217727411091168 0.06424511628113494 0 -0.0019059375912404497 0.053900883341140189 0 -0.0017387237495375581 0.052045392725102717 0 -0.0040143099625742319 0.052740109092565386 0 0.0002670816698879098 0.055311746000776416 0 8.7176820553236734e-05 0.059470912713954022 0 -0.0030597035102197427 0.049862697997585331 0 -0.0040143099625742319 0.052740109092565386 0 -0.0023084317456782961 0.050966790320745047 0 -0.0017387237495375581 0.052045392725102717 0 -0.0040143099625742319 0.052740109092565386 0 -0.0023084317456782961 0.050966790320745047 0 -0.0030597035102197427 0.049862697997585331 0 -0.0016976240340416066 0.049542089652683731 0 -0.0023084317456782961 0.050966790320745047 0 0.00092307779386975651 0.061214709218245678 0 8.7176820553236734e-05 0.059470912713954022 0 0.0019003986715748556 0.058786283968702224 0 0.0015545262517919138 0.058790528433594634 0 0.0017013042904051878 0.058306985631834868 0 0.00043941432735814233 0.064257540026418841 0 0.00041134449422005758 0.064246730262107504 0 0.00044078486554582994 0.064250762083478533 0 0.00046424282879652947 0.06426160468149085 0 0.00043941432735814233 0.064257540026418841 0 0.00044078486554582994 0.064250762083478533 0 0.00046424282879652947 0.06426160468149085 0 0.00044078486554582994 0.064250762083478533 0 0.00046856742574055742 0.064240510368604259 0 0.00046424282879652947 0.06426160468149085 0 0.00046856742574055742 0.064240510368604259 0 0.00048761045158182242 0.064214765313289499 0 0.00054234064830817482 0.063708000355330752 0 0.000329069600845673 0.064361536030528965 0 0.00047441898508013714 0.064244559173368035 0 0.00052758261108399164 0.064248687650644037 0 0.00048761045158182242 0.064214765313289499 0 0.00046856742574055742 0.064240510368604259 0 0.00047441898508013714 0.064244559173368035 0 0.00048761045158182242 0.064214765313289499 0 0.00044078486554582994 0.064250762083478533 0 0.00047441898508013714 0.064244559173368035 0 0.00042217727411091168 0.06424511628113494 0 0.00044078486554582994 0.064250762083478533 0 0.00046856742574055742 0.064240510368604259 0 0.00047441898508013714 0.064244559173368035 0 0.00042217727411091168 0.06424511628113494 0 0.0004755782094856711 0.064217271547430482 0 0.00033339482581814074 0.064212799005869764 0 0.00047441898508013714 0.064244559173368035 0 0.00042217727411091168 0.06424511628113494 0 0.0004755782094856711 0.064217271547430482 0 0.00047441898508013714 0.064244559173368035 0 0.0004755782094856711 0.064217271547430482 0 0.00052758261108399164 0.064248687650644037 0 0.0004755782094856711 0.064217271547430482 0 0.00052758261108399164 0.064248687650644037 0 0.0006224907467850592 0.064200151450786822 0 0.0004755782094856711 0.064217271547430482 0 0.00044144494421890005 0.06407957300170429 0 0.00033339482581814074 0.064212799005869764 0 0.0004755782094856711 0.064217271547430482 0 0.00044144494421890005 0.06407957300170429 0 0.0006224907467850592 0.064200151450786822 0 0.00027270545697994129 0.063349095084764703 0 0.0003357850958740644 0.063428560104833498 0 0.00032526464813975326 0.063508106837153425 0 0.00027270545697994129 0.063349095084764703 0 0.00032675328067361309 0.063404634738615989 0 0.0003357850958740644 0.063428560104833498 0 0.00031482411859295198 0.063225682461917287 0 0.00027270545697994129 0.063349095084764703 0 0.0003492284459880104 0.063340012835996343 0 0.00041134449422005758 0.064246730262107504 0 0.00042217727411091168 0.06424511628113494 0 0.00033339482581814074 0.064212799005869764 0 8.7176820553236734e-05 0.059470912713954022 0 -0.00020793640873077566 0.062919567067038759 0 8.7176820553236734e-05 0.059470912713954022 0 -0.00057692072524854197 0.059422736048677365 0 -0.0019059375912404497 0.053900883341140189 0 -0.0040143099625742319 0.052740109092565386 0 -0.0030653690597956481 0.055259814363415906 0 -0.0021204710917800611 0.057622140960768425 0 -0.0016406505170117802 0.056330318941787659 0 -0.0030653690597956481 0.055259814363415906 0 -0.00059229214136704948 0.060210536541697578 0 -0.00057692072524854197 0.059422736048677365 0 0.00027270545697994129 0.063349095084764703 0 0.0003492284459880104 0.063340012835996343 0 0.00032675328067361309 0.063404634738615989 0 0.00026758254598308609 0.063428536126159604 0 0.0003492284459880104 0.063340012835996343 0 0.00032675328067361309 0.063404634738615989 0 0.00026758254598308609 0.063428536126159604 0 0.00032675328067361309 0.063404634738615989 0 0.00034365482577520211 0.063370765884149693 0 0.00026758254598308609 0.063428536126159604 0 0.00034365482577520211 0.063370765884149693 0 0.00028347629152558254 0.063068377047234461 0 0.00034365482577520211 0.063370765884149693 0 0.00028347629152558254 0.063068377047234461 0 0.00029887984200518356 0.063632214095596495 0 0.00032675328067361309 0.063404634738615989 0 0.00034365482577520211 0.063370765884149693 0 0.0003357850958740644 0.063428560104833498 0 0.00027270545697994129 0.063349095084764703 0 0.00032526464813975326 0.063508106837153425 0 0.00032043344940846645 0.063704108490913153 0 -0.00020793640873077566 0.062919567067038759 0 -0.00012937504676453009 0.063349747655082958 0 0.00034365482577520211 0.063370765884149693 0 0.00032526464813975326 0.063508106837153425 0 0.00029887984200518356 0.063632214095596495 0 0.00034365482577520211 0.063370765884149693 0 0.0003357850958740644 0.063428560104833498 0 0.00032526464813975326 0.063508106837153425 0 0.00032526464813975326 0.063508106837153425 0 0.00029887984200518356 0.063632214095596495 0 0.00032043344940846645 0.063704108490913153 0 0.0011924473614011079 0.062516338644774863 0 0.00079463532451965434 0.062493224597267534 0 0.0010221266138301863 0.062152082980872776 0 0.00062983659605836406 0.062337823892803672 0 0.00079463532451965434 0.062493224597267534 0 0.0010221266138301863 0.062152082980872776 0 0.0011924473614011079 0.062516338644774863 0 0.0010221266138301863 0.062152082980872776 0 0.0013912745910804494 0.062161413010807201 0 0.00040922698704192725 0.063197468866087486 0 0.0007023897876375783 0.063163950664171423 0 0.00028347629152558254 0.063068377047234461 0 0.0011924473614011079 0.062516338644774863 0 0.00079463532451965434 0.062493224597267534 0 0.00028347629152558254 0.063068377047234461 0 0.00062983659605836406 0.062337823892803672 0 0.00029879436736660368 0.062514029730678877 0 0.00028347629152558254 0.063068377047234461 0 0.00062983659605836406 0.062337823892803672 0 0.00079463532451965434 0.062493224597267534 0 0.00062983659605836406 0.062337823892803672 0 0.00029879436736660368 0.062514029730678877 0 0.00033573006435881365 0.062066587472381994 0 0.00062983659605836406 0.062337823892803672 0 0.00033573006435881365 0.062066587472381994 0 0.00061489752456464605 0.061761289239116106 0 0.00062983659605836406 0.062337823892803672 0 0.00061489752456464605 0.061761289239116106 0 0.0010221266138301863 0.062152082980872776 0 0.00023317886961411887 0.061569930712482082 0 0.00033573006435881365 0.062066587472381994 0 0.00061489752456464605 0.061761289239116106 0 0.0010221266138301863 0.062152082980872776 0 0.00096703936063743717 0.061685210940553591 0 0.0012883164008205676 0.061837581744882235 0 0.00061489752456464605 0.061761289239116106 0 0.0010221266138301863 0.062152082980872776 0 0.00096703936063743717 0.061685210940553591 0 0.00096703936063743717 0.061685210940553591 0 0.00072135005871673096 0.061382844123807991 0 0.0011926332064503759 0.061354675428029075 0 0.00096703936063743717 0.061685210940553591 0 0.0012883164008205676 0.061837581744882235 0 0.0011926332064503759 0.061354675428029075 0 0.00031353118215993962 0.061341757541377127 0 0.00061489752456464605 0.061761289239116106 0 0.00072135005871673096 0.061382844123807991 0 0.00061489752456464605 0.061761289239116106 0 0.00096703936063743717 0.061685210940553591 0 0.00072135005871673096 0.061382844123807991 0 0.00023317886961411887 0.061569930712482082 0 0.00031353118215993962 0.061341757541377127 0 0.00061489752456464605 0.061761289239116106 0 0.001587863544644541 0.061576515908970661 0 0.0020347131581192708 0.061732810948872487 0 0.0018554301930964806 0.061172436547682368 0 0.001587863544644541 0.061576515908970661 0 0.0016169296954887059 0.061946035705707683 0 0.0020347131581192708 0.061732810948872487 0 0.001587863544644541 0.061576515908970661 0 0.0012883164008205676 0.061837581744882235 0 0.0011926332064503759 0.061354675428029075 0 0.001587863544644541 0.061576515908970661 0 0.0012883164008205676 0.061837581744882235 0 0.0016169296954887059 0.061946035705707683 0 0.0013912745910804494 0.062161413010807201 0 0.0016169296954887059 0.061946035705707683 0 0.0018208433915498782 0.062250269029308518 0 0.0012883164008205676 0.061837581744882235 0 0.0013912745910804494 0.062161413010807201 0 0.0016169296954887059 0.061946035705707683 0 0.0010221266138301863 0.062152082980872776 0 0.0012883164008205676 0.061837581744882235 0 0.0013912745910804494 0.062161413010807201 0 0.0016169296954887059 0.061946035705707683 0 0.0018208433915498782 0.062250269029308518 0 0.0020347131581192708 0.061732810948872487 0 0.00061831812806469998 0.063622205775071786 0 0.00054810464344104306 0.063879097981258806 0 0.00087084654332312249 0.063723112718995265 0 0.0007023897876375783 0.063163950664171423 0 0.0011876236410432884 0.063154236824932666 0 0.0011924473614011079 0.062516338644774863 0 0.0013912745910804494 0.062161413010807201 0 0.0018208433915498782 0.062250269029308518 0 0.00061831812806469998 0.063622205775071786 0 0.00032043344940846645 0.063704108490913153 0 0.00054810464344104306 0.063879097981258806 0 0.00029887984200518356 0.063632214095596495 0 0.00061831812806469998 0.063622205775071786 0 0.00032043344940846645 0.063704108490913153 0 0.00044144494421890005 0.06407957300170429 0 0.00033339482581814074 0.064212799005869764 0 0.00032043344940846645 0.063704108490913153 0 0.00044144494421890005 0.06407957300170429 0 0.00032043344940846645 0.063704108490913153 0 0.00054810464344104306 0.063879097981258806 0 0.00044144494421890005 0.06407957300170429 0 0.00054810464344104306 0.063879097981258806 0 0.0006224907467850592 0.064200151450786822 0 0.00054810464344104306 0.063879097981258806 0 0.0006224907467850592 0.064200151450786822 0 0.00087084654332312249 0.063723112718995265 0 0.0006224907467850592 0.064200151450786822 0 0.00041309009000341457 0.06473564218124489 0 0.00045721611159175448 0.064413639493732466 0 0.00061610151843069678 0.064391113714384982 0 0.00063935348992734202 0.064407194087918229 0 0.0006224907467850592 0.064200151450786822 0 0.0010457325831201257 0.063955211041196364 0 0.00087084654332312249 0.063723112718995265 0 0.00041309009000341457 0.06473564218124489 0 0.00010022373444460804 0.064995222369849961 0 4.4031163605172906e-05 0.064892657868457937 0 0.00041309009000341457 0.06473564218124489 0 4.4031163605172906e-05 0.064892657868457937 0 0.00045721611159175448 0.064413639493732466 0 0.0011319341770735496 0.063647283816691755 0 0.0012761595778152481 0.063592488217581608 0 0.0014039632340577732 0.063748667626176134 0 0.00063935348992734202 0.064407194087918229 0 0.00060265891580508493 0.064473086361591284 0 0.0010457325831201257 0.063955211041196364 0 0.0011319341770735496 0.063647283816691755 0 0.0014039632340577732 0.063748667626176134 0 0.0011319341770735496 0.063647283816691755 0 0.0012761595778152481 0.063592488217581608 0 0.0011493723261789606 0.063508344620639978 0 0.00061831812806469998 0.063622205775071786 0 0.00087084654332312249 0.063723112718995265 0 0.0011464157719826588 0.063485053530075858 0 0.0010457325831201257 0.063955211041196364 0 0.0011319341770735496 0.063647283816691755 0 0.00087084654332312249 0.063723112718995265 0 0.0011319341770735496 0.063647283816691755 0 0.00087084654332312249 0.063723112718995265 0 0.0011464157719826588 0.063485053530075858 0 0.0011876236410432884 0.063154236824932666 0 0.0013234239564161308 0.063388999167134571 0 0.0018208433915498782 0.062250269029308518 0 0.0024783712388119928 0.062065374102936777 0 0.0020347131581192708 0.061732810948872487 0 0.001316511570443626 0.063412639165125045 0 0.0013234239564161308 0.063388999167134571 0 0.0012761595778152481 0.063592488217581608 0 0.0011493723261789606 0.063508344620639978 0 0.0014096879963018715 0.06353686159206505 0 0.0013234239564161308 0.063388999167134571 0 0.0012189754441597094 0.06321353432070885 0 3.5280349131727585e-05 0.064945744252841678 0 2.3226258326775685e-05 0.064983992822145772 0 1.2951528508968525e-05 0.064965668495006054 0 2.3226258326775685e-05 0.064983992822145772 0 6.0833739542330969e-06 0.064988910593057558 0 1.2951528508968525e-05 0.064965668495006054 0 0.0025284957280978728 0.061488723746414745 0 0.0020347131581192708 0.061732810948872487 0 0.0022566898872574633 0.061184854516257908 0 0.0024783712388119928 0.062065374102936777 0 0.0025284957280978728 0.061488723746414745 0 0.0020347131581192708 0.061732810948872487 0 1.5553250116409915e-06 0.064997645004409854 0 1.6276097672048603e-09 0.064999990287340825 0 1.0346002211579654e-06 0.064998676786893764 0 1.5553250116409915e-06 0.064997645004409854 0 2.4435508832630622e-06 0.064994977712662591 0 1.460430441662424e-06 0.064997180515766848 0 1.5553250116409915e-06 0.064997645004409854 0 1.6276097672048603e-09 0.064999990287340825 0 2.4435508832630622e-06 0.064994977712662591 0 0.00033054868067354206 0.064677265439045589 0 0.00035063660999697842 0.064616382289627697 0 6.0833739542330969e-06 0.064988910593057558 0 -1.0082070683255314e-05 0.064964037096345642 0 1.2951528508968525e-05 0.064965668495006054 0 2.4435508832630622e-06 0.064994977712662591 0 6.0833739542330969e-06 0.064988910593057558 0 1.460430441662424e-06 0.064997180515766848 0 3.5280349131727585e-05 0.064945744252841678 0 1.2951528508968525e-05 0.064965668495006054 0 -1.2923964334339837e-05 0.064959793125019816 0 0.0013234239564161308 0.063388999167134571 0 0.00035871035910682477 0.064590346031998092 0 0.0011493723261789606 0.063508344620639978 0 0.0014096879963018715 0.06353686159206505 0 0.0016144341985004354 0.063392760140470142 0 -1.0082070683255314e-05 0.064964037096345642 0 1.2951528508968525e-05 0.064965668495006054 0 -1.2923964334339837e-05 0.064959793125019816 0 0.0012761595778152481 0.063592488217581608 0 0.0014096879963018715 0.06353686159206505 0 0.0014233526581268398 0.063614539629466935 0 0.0014096879963018715 0.06353686159206505 0 0.0015622961030767855 0.063564177410074751 0 0.0014233526581268398 0.063614539629466935 0 0.0014096879963018715 0.06353686159206505 0 0.0015622961030767855 0.063564177410074751 0 0.0016144341985004354 0.063392760140470142 0 0.00035871035910682477 0.064590346031998092 0 0.00018190621925315612 0.064746018122187152 0 1.2368476455554801e-06 0.06499784916069426 0 1.0346002211579654e-06 0.064998676786893764 0 7.5413418000024216e-07 0.064999335366581368 0 0.0015622961030767855 0.063564177410074751 0 0.0016144341985004354 0.063392760140470142 0 0.0017355341052036771 0.063576458702336816 0 1.6276097672048603e-09 0.064999990287340825 0 1.0346002211579654e-06 0.064998676786893764 0 2.5947371534146698e-09 0.064999997865902506 0 1.460430441662424e-06 0.064997180515766848 0 1.2368476455554801e-06 0.06499784916069426 0 1.0346002211579654e-06 0.064998676786893764 0 1.5553250116409915e-06 0.064997645004409854 0 1.460430441662424e-06 0.064997180515766848 0 1.0346002211579654e-06 0.064998676786893764 0 0.00035063660999697842 0.064616382289627697 0 0.00035871035910682477 0.064590346031998092 0 1.0346002211579654e-06 0.064998676786893764 0 7.5413418000024216e-07 0.064999335366581368 0 2.5947371534146698e-09 0.064999997865902506 0 0.00018190621925315612 0.064746018122187152 0 3.8526315177757862e-07 0.064998689228061776 0 8.6953853937159207e-08 0.064999754670990798 0 -1.6374113080906739e-10 0.064999999075622927 0 2.7785626340693975e-10 0.065000000042369638 0 2.3985503142649101e-05 0.065034006677971004 0 3.0777576323042421e-08 0.064999710686830248 0 0.00010022373444460804 0.064995222369849961 0 0.00018190621925315612 0.064746018122187152 0 9.1026739665153583e-07 0.064999125682503878 0 3.0777576323042421e-08 0.064999710686830248 0 0.00010022373444460804 0.064995222369849961 0 4.4031163605172906e-05 0.064892657868457937 0 0.00018190621925315612 0.064746018122187152 0 0.00060265891580508493 0.064473086361591284 0 0.0015622961030767855 0.063564177410074751 0 0.0017355341052036771 0.063576458702336816 0 0.0014039632340577732 0.063748667626176134 0 0.0012761595778152481 0.063592488217581608 0 0.0014233526581268398 0.063614539629466935 0 0.0014039632340577732 0.063748667626176134 0 0.0015622961030767855 0.063564177410074751 0 0.0014233526581268398 0.063614539629466935 0 0.0014039632340577732 0.063748667626176134 0 3.0777576323042421e-08 0.064999710686830248 0 4.4031163605172906e-05 0.064892657868457937 0 1.305166089606734e-08 0.064999824669791026 0 4.4031163605172906e-05 0.064892657868457937 0 3.5611655502618855e-05 0.064988251402774394 0 1.305166089606734e-08 0.064999824669791026 0 0.00013144377679643238 0.064714771818065994 0 0.00020671314764879157 0.064596788926184159 0 4.4031163605172906e-05 0.064892657868457937 0 0.00045721611159175448 0.064413639493732466 0 0.00034766796677409423 0.064252102768136907 0 0.00052758261108399164 0.064248687650644037 0 0.0006224907467850592 0.064200151450786822 0 0.00045721611159175448 0.064413639493732466 0 0.00052758261108399164 0.064248687650644037 0 0.00045721611159175448 0.064413639493732466 0 0.00034766796677409423 0.064252102768136907 0 0.00020671314764879157 0.064596788926184159 0 0.000329069600845673 0.064361536030528965 0 0.00052758261108399164 0.064248687650644037 0 0.00034766796677409423 0.064252102768136907 0 0.00048761045158182242 0.064214765313289499 0 3.5611655502618855e-05 0.064988251402774394 0 3.9566720670740336e-05 0.064982407295833086 0 0.00030856248532595539 0.065090027243137491 0 0.00043575896603710899 0.064279170110697365 0 0.00030856248532595539 0.065090027243137491 0 3.6809359301749221e-05 0.064797816042508116 0 0.00043575896603710899 0.064279170110697365 0 0.0011586284324067021 0.064414471473481963 0 0.00030856248532595539 0.065090027243137491 0 3.9566720670740336e-05 0.064982407295833086 0 0.00030856248532595539 0.065090027243137491 0 3.6809359301749221e-05 0.064797816042508116 0 3.9566720670740336e-05 0.064982407295833086 0 3.6809359301749221e-05 0.064797816042508116 0 2.9362333873235443e-05 0.064920746895328577 0 3.5611655502618855e-05 0.064988251402774394 0 3.9566720670740336e-05 0.064982407295833086 0 1.305166089606734e-08 0.064999824669791026 0 5.3914584074567831e-05 0.064945833750209528 0 2.9362333873235443e-05 0.064920746895328577 0 1.305166089606734e-08 0.064999824669791026 0 3.9566720670740336e-05 0.064982407295833086 0 2.9362333873235443e-05 0.064920746895328577 0 1.305166089606734e-08 0.064999824669791026 0 -3.1338216893688804e-05 0.064975163396958857 0 -2.1107400289640118e-05 0.064991595514396844 0 -2.5200843725216743e-05 0.065001055131171728 0 0.00010346763676990085 0.064661222431735429 0 0.00013154273682551912 0.06449808826070709 0 -1.855078914302142e-05 0.064984752136813095 0 -1.2049920283418709e-05 0.06499196313545022 0 -1.1666737095733181e-05 0.064978538662797361 0 -1.2049920283418709e-05 0.06499196313545022 0 -1.7400326860815446e-06 0.064989985401774406 0 -1.1666737095733181e-05 0.064978538662797361 0 -1.855078914302142e-05 0.064984752136813095 0 -3.1338216893688804e-05 0.064975163396958857 0 -2.1107400289640118e-05 0.064991595514396844 0 -1.855078914302142e-05 0.064984752136813095 0 -3.1338216893688804e-05 0.064975163396958857 0 -1.1666737095733181e-05 0.064978538662797361 0 -2.1107400289640118e-05 0.064991595514396844 0 -1.6790704691412601e-05 0.064999538191452655 0 -2.5200843725216743e-05 0.065001055131171728 0 -2.1107400289640118e-05 0.064991595514396844 0 -1.2049920283418709e-05 0.06499196313545022 0 -1.6790704691412601e-05 0.064999538191452655 0 -1.855078914302142e-05 0.064984752136813095 0 -2.1107400289640118e-05 0.064991595514396844 0 -1.2049920283418709e-05 0.06499196313545022 0 -1.2049920283418709e-05 0.06499196313545022 0 -1.031289512286147e-05 0.064998688160687101 0 -1.6790704691412601e-05 0.064999538191452655 0 -1.2049920283418709e-05 0.06499196313545022 0 -1.031289512286147e-05 0.064998688160687101 0 -5.7752385271481053e-06 0.064994910500900324 0 -1.031289512286147e-05 0.064998688160687101 0 -5.7752385271481053e-06 0.064994910500900324 0 -1.0794985583744534e-06 0.064998748711681154 0 -1.2049920283418709e-05 0.06499196313545022 0 -5.7752385271481053e-06 0.064994910500900324 0 -1.7400326860815446e-06 0.064989985401774406 0 -5.7752385271481053e-06 0.064994910500900324 0 -1.0794985583744534e-06 0.064998748711681154 0 -1.7400326860815446e-06 0.064989985401774406 0 -9.1632675528448158e-10 0.065000004140299078 0 -1.7400326860815446e-06 0.064989985401774406 0 5.2300051899145949e-09 0.064999920116511289 0 -9.1632675528448158e-10 0.065000004140299078 0 -1.0794985583744534e-06 0.064998748711681154 0 -1.7400326860815446e-06 0.064989985401774406 0 -1.7400326860815446e-06 0.064989985401774406 0 5.2300051899145949e-09 0.064999920116511289 0 -4.4179709957830758e-06 0.064975098526886724 0 -1.7400326860815446e-06 0.064989985401774406 0 -4.4179709957830758e-06 0.064975098526886724 0 -1.1666737095733181e-05 0.064978538662797361 0 -4.4179709957830758e-06 0.064975098526886724 0 -1.5981562354752827e-05 0.064953951648610161 0 -5.3858818549607844e-06 0.064945599420177205 0 -1.5981562354752827e-05 0.064953951648610161 0 -2.9754660184484097e-05 0.06497840795504195 0 -3.6554419514891239e-05 0.064889596312543471 0 -4.4179709957830758e-06 0.064975098526886724 0 -1.1666737095733181e-05 0.064978538662797361 0 -1.5981562354752827e-05 0.064953951648610161 0 -3.1338216893688804e-05 0.064975163396958857 0 -1.1666737095733181e-05 0.064978538662797361 0 -1.5981562354752827e-05 0.064953951648610161 0 -3.1338216893688804e-05 0.064975163396958857 0 -1.5981562354752827e-05 0.064953951648610161 0 -2.9754660184484097e-05 0.06497840795504195 0 -1.190393431911242e-05 0.064819309421094068 0 -6.4599717078632959e-05 0.064710114266524052 0 -3.6554419514891239e-05 0.064889596312543471 0 0.00020398655931889171 0.064672774031230437 0 0.00015737597080794409 0.064766172558500576 0 -1.190393431911242e-05 0.064819309421094068 0 -1.9181956801399779e-05 0.064741353949853642 0 5.3078804439708521e-06 0.064744094826538756 0 -1.9181956801399779e-05 0.064741353949853642 0 5.3078804439708521e-06 0.064744094826538756 0 -1.0561845017456523e-05 0.064697065869529655 0 -1.9181956801399779e-05 0.064741353949853642 0 -6.4599717078632959e-05 0.064710114266524052 0 -1.0561845017456523e-05 0.064697065869529655 0 -1.190393431911242e-05 0.064819309421094068 0 -1.9181956801399779e-05 0.064741353949853642 0 -6.4599717078632959e-05 0.064710114266524052 0 -1.190393431911242e-05 0.064819309421094068 0 5.3078804439708521e-06 0.064744094826538756 0 3.0151344801772403e-05 0.064771060502305605 0 5.3078804439708521e-06 0.064744094826538756 0 3.8692005681303682e-05 0.064697475314162201 0 1.416079602288254e-05 0.064700234055128217 0 5.3078804439708521e-06 0.064744094826538756 0 1.416079602288254e-05 0.064700234055128217 0 -1.0561845017456523e-05 0.064697065869529655 0 3.8692005681303682e-05 0.064697475314162201 0 6.6042163977467647e-05 0.064697389588698168 0 3.0151344801772403e-05 0.064771060502305605 0 5.3078804439708521e-06 0.064744094826538756 0 3.8692005681303682e-05 0.064697475314162201 0 3.0151344801772403e-05 0.064771060502305605 0 3.8692005681303682e-05 0.064697475314162201 0 1.9012503292033676e-05 0.064664712816731071 0 4.6317181036327948e-05 0.064652685848648875 0 1.9012503292033676e-05 0.064664712816731071 0 -1.0561845017456523e-05 0.064697065869529655 0 -1.0808373352675751e-05 0.064650817819825762 0 3.8692005681303682e-05 0.064697475314162201 0 1.416079602288254e-05 0.064700234055128217 0 1.9012503292033676e-05 0.064664712816731071 0 1.416079602288254e-05 0.064700234055128217 0 1.9012503292033676e-05 0.064664712816731071 0 -1.0561845017456523e-05 0.064697065869529655 0 1.9012503292033676e-05 0.064664712816731071 0 -1.0808373352675751e-05 0.064650817819825762 0 2.2181144561632559e-05 0.064625285836715701 0 4.6317181036327948e-05 0.064652685848648875 0 2.2181144561632559e-05 0.064625285836715701 0 5.9922398242767817e-05 0.064615849296816505 0 1.9012503292033676e-05 0.064664712816731071 0 4.6317181036327948e-05 0.064652685848648875 0 2.2181144561632559e-05 0.064625285836715701 0 -2.9754660184484097e-05 0.06497840795504195 0 4.7780937047097925e-06 0.064883892897893689 0 -3.7244460686827619e-05 0.06490347088282819 0 -3.1338216893688804e-05 0.064975163396958857 0 -2.9754660184484097e-05 0.06497840795504195 0 -3.7244460686827619e-05 0.06490347088282819 0 0.00020398655931889171 0.064672774031230437 0 0.00037598144697571762 0.064271927696440856 0 -6.4599717078632959e-05 0.064710114266524052 0 -1.0808373352675751e-05 0.064650817819825762 0 -3.7482110811937322e-05 0.064611380808478613 0 -6.4599717078632959e-05 0.064710114266524052 0 -1.0561845017456523e-05 0.064697065869529655 0 -1.0808373352675751e-05 0.064650817819825762 0 -3.7482110811937322e-05 0.064611380808478613 0 1.7611566876954514e-05 0.064583863437114558 0 -1.7937718560819337e-05 0.064541419399699054 0 0.00037598144697571762 0.064271927696440856 0 0.00079896422538567355 0.062979363674520644 0 4.7780937047097925e-06 0.064883892897893689 0 -3.1416389213377279e-05 0.06479332916833308 0 -3.7244460686827619e-05 0.06490347088282819 0 -1.0808373352675751e-05 0.064650817819825762 0 -3.7482110811937322e-05 0.064611380808478613 0 -1.7046001320834389e-06 0.06461702864327 0 -3.7482110811937322e-05 0.064611380808478613 0 -1.7046001320834389e-06 0.06461702864327 0 1.7611566876954514e-05 0.064583863437114558 0 2.2181144561632559e-05 0.064625285836715701 0 1.7611566876954514e-05 0.064583863437114558 0 5.9922398242767817e-05 0.064615849296816505 0 -1.0808373352675751e-05 0.064650817819825762 0 -1.7046001320834389e-06 0.06461702864327 0 2.2181144561632559e-05 0.064625285836715701 0 -1.7046001320834389e-06 0.06461702864327 0 2.2181144561632559e-05 0.064625285836715701 0 1.7611566876954514e-05 0.064583863437114558 0 0.00094158350577280099 0.062727352237115633 0 0.00087455140653628803 0.062163550380878362 0 0.0024419154707523748 0.059739829234565965 0 0.0020478535409730035 0.060037390150060613 0 0.0018300841249202166 0.05971412032057824 0 1.7611566876954514e-05 0.064583863437114558 0 -1.090763360819616e-05 0.06453672081244842 0 7.0559159580932222e-05 0.064547513525169548 0 4.7780937047097925e-06 0.064883892897893689 0 -3.1416389213377279e-05 0.06479332916833308 0 3.0863727569577684e-05 0.06474442572274057 0 0.00023408649911742271 0.063851787184032699 0 0.00079896422538567355 0.062979363674520644 0 0.00023408649911742271 0.063851787184032699 0 0.00037030944060099079 0.063427236264341949 0 1.7611566876954514e-05 0.064583863437114558 0 -1.7937718560819337e-05 0.064541419399699054 0 -1.090763360819616e-05 0.06453672081244842 0 0.00079896422538567355 0.062979363674520644 0 0.00094158350577280099 0.062727352237115633 0 0.0016524532722294344 0.061707446216139543 0 0.0014431334865290986 0.063079601486597262 0 -0.00010290293995439328 0.063054978507617099 0 0.00079896422538567355 0.062979363674520644 0 0.00086439249032000027 0.062795892692833422 0 0.00086439249032000027 0.062795892692833422 0 0.00094158350577280099 0.062727352237115633 0 0.00069207150157098293 0.062702352871314385 0 -0.00022643058484995957 0.063407104904295908 0 0.00060814785557613833 0.063578929257460684 0 0.00086439249032000027 0.062795892692833422 0 0.00037030944060099079 0.063427236264341949 0 -0.00022643058484995957 0.063407104904295908 0 -0.0002504361598370881 0.063564828781645766 0 0.00060814785557613833 0.063578929257460684 0 4.4574439973571101e-06 0.064996017198674233 0 3.0751497281295621e-06 0.064998578303941734 0 4.0980726586903271e-06 0.064997483426726899 0 0.00037030944060099079 0.063427236264341949 0 0.00012664440677374942 0.064291068069820892 0 1.2484253568879034e-06 0.064994431389181997 0 1.466576240617495e-07 0.06499709684480319 0 3.6223592447782932e-07 0.064996843192247994 0 1.1587006244748367e-06 0.064995528129158667 0 1.2484253568879034e-06 0.064994431389181997 0 3.6223592447782932e-07 0.064996843192247994 0 0.00023408649911742271 0.063851787184032699 0 0.00013154273682551912 0.06449808826070709 0 0.00023408649911742271 0.063851787184032699 0 -4.6840245759072115e-05 0.064287525377830293 0 -2.4766969420013684e-05 0.065012563879343774 0 -1.4012682467176853e-05 0.065006725837543994 0 -2.5200843725216743e-05 0.065001055131171728 0 1.1587006244748367e-06 0.064995528129158667 0 3.6223592447782932e-07 0.064996843192247994 0 7.7888766202057713e-08 0.064997810470649356 0 3.6223592447782932e-07 0.064996843192247994 0 7.7888766202057713e-08 0.064997810470649356 0 -2.8715600607654166e-07 0.064999101754985758 0 -1.031289512286147e-05 0.064998688160687101 0 -1.4012682467176853e-05 0.065006725837543994 0 -1.6790704691412601e-05 0.064999538191452655 0 -1.4012682467176853e-05 0.065006725837543994 0 -1.6790704691412601e-05 0.064999538191452655 0 -2.5200843725216743e-05 0.065001055131171728 0 -9.1632675528448158e-10 0.065000004140299078 0 -2.8715600607654166e-07 0.064999101754985758 0 -4.7129510587219291e-10 0.064999991742550542 0 -9.1632675528448158e-10 0.065000004140299078 0 -1.0794985583744534e-06 0.064998748711681154 0 -2.8715600607654166e-07 0.064999101754985758 0 -1.0794985583744534e-06 0.064998748711681154 0 7.7888766202057713e-08 0.064997810470649356 0 -2.8715600607654166e-07 0.064999101754985758 0 -0.00011201492054541859 0.064406317668723428 0 -4.6840245759072115e-05 0.064287525377830293 0 -1.031289512286147e-05 0.064998688160687101 0 -1.0794985583744534e-06 0.064998748711681154 0 -1.4012682467176853e-05 0.065006725837543994 0 0.00012664440677374942 0.064291068069820892 0 1.8355123173767169e-07 0.064997924285085065 0 1.466576240617495e-07 0.06499709684480319 0 -2.8715600607654166e-07 0.064999101754985758 0 -4.7129510587219291e-10 0.064999991742550542 0 1.466576240617495e-07 0.06499709684480319 0 3.6223592447782932e-07 0.064996843192247994 0 -2.8715600607654166e-07 0.064999101754985758 0 3.0751497281295621e-06 0.064998578303941734 0 2.0574937463507741e-09 0.064999999891696497 0 2.4381381456225427e-06 0.064998708992872051 0 2.0574937463507741e-09 0.064999999891696497 0 2.4381381456225427e-06 0.064998708992872051 0 2.4266601457148467e-09 0.064999997468795714 0 4.4574439973571101e-06 0.064996017198674233 0 4.0980726586903271e-06 0.064997483426726899 0 5.788940435855433e-06 0.064996149956163971 0 3.0751497281295621e-06 0.064998578303941734 0 2.4381381456225427e-06 0.064998708992872051 0 4.0980726586903271e-06 0.064997483426726899 0 2.4381381456225427e-06 0.064998708992872051 0 4.0980726586903271e-06 0.064997483426726899 0 4.4760438271579249e-06 0.064997758214533186 0 4.0980726586903271e-06 0.064997483426726899 0 4.4760438271579249e-06 0.064997758214533186 0 5.788940435855433e-06 0.064996149956163971 0 2.4381381456225427e-06 0.064998708992872051 0 4.4760438271579249e-06 0.064997758214533186 0 2.5883970855073435e-06 0.064998718223896301 0 4.4760438271579249e-06 0.064997758214533186 0 6.3898930111793835e-06 0.064997478847951901 0 5.788940435855433e-06 0.064996149956163971 0 4.4760438271579249e-06 0.064997758214533186 0 6.3898930111793835e-06 0.064997478847951901 0 2.5883970855073435e-06 0.064998718223896301 0 2.4266601457148467e-09 0.064999997468795714 0 2.5883970855073435e-06 0.064998718223896301 0 1.5378143737513494e-09 0.06499999680111089 0 2.4381381456225427e-06 0.064998708992872051 0 2.4266601457148467e-09 0.064999997468795714 0 2.5883970855073435e-06 0.064998718223896301 0 2.5883970855073435e-06 0.064998718223896301 0 1.5378143737513494e-09 0.06499999680111089 0 2.9274616001903448e-06 0.06499640914942717 0 6.3898930111793835e-06 0.064997478847951901 0 2.9274616001903448e-06 0.06499640914942717 0 1.1796076542361859e-05 0.06499594681565446 0 6.3898930111793835e-06 0.064997478847951901 0 2.5883970855073435e-06 0.064998718223896301 0 2.9274616001903448e-06 0.06499640914942717 0 2.4435508832630622e-06 0.064994977712662591 0 6.0833739542330969e-06 0.064988910593057558 0 2.9274616001903448e-06 0.06499640914942717 0 6.0833739542330969e-06 0.064988910593057558 0 2.9274616001903448e-06 0.06499640914942717 0 1.1796076542361859e-05 0.06499594681565446 0 1.6276097672048603e-09 0.064999990287340825 0 1.5378143737513494e-09 0.06499999680111089 0 2.9274616001903448e-06 0.06499640914942717 0 1.6276097672048603e-09 0.064999990287340825 0 2.4435508832630622e-06 0.064994977712662591 0 2.9274616001903448e-06 0.06499640914942717 0 0.0020347131581192708 0.061732810948872487 0 0.0022566898872574633 0.061184854516257908 0 0.0018554301930964806 0.061172436547682368 0 0.0022566898872574633 0.061184854516257908 0 0.0020808855995518168 0.060767531227799272 0 0.0018554301930964806 0.061172436547682368 0 0.0012189754441597094 0.06321353432070885 0 0.0010909734933235618 0.0629957024507284 0 0.0025284957280978728 0.061488723746414745 0 0.0022566898872574633 0.061184854516257908 0 0.0025637420835342506 0.060907903326833879 0 2.3226258326775685e-05 0.064983992822145772 0 6.0833739542330969e-06 0.064988910593057558 0 1.1796076542361859e-05 0.06499594681565446 0 0.0022566898872574633 0.061184854516257908 0 0.0025637420835342506 0.060907903326833879 0 0.0020808855995518168 0.060767531227799272 0 0.0025637420835342506 0.060907903326833879 0 0.0020808855995518168 0.060767531227799272 0 0.0023451629054690539 0.060541162566859097 0 0.0020808855995518168 0.060767531227799272 0 0.0021016967215159443 0.060403295466146312 0 0.0023451629054690539 0.060541162566859097 0 0.0021016967215159443 0.060403295466146312 0 0.0023451629054690539 0.060541162566859097 0 0.0023826438594125891 0.060310886487446654 0 0.0025637420835342506 0.060907903326833879 0 0.0023451629054690539 0.060541162566859097 0 0.0025765891522976014 0.060363238905504372 0 6.3898930111793835e-06 0.064997478847951901 0 1.1796076542361859e-05 0.06499594681565446 0 5.788940435855433e-06 0.064996149956163971 0 0.0010909734933235618 0.0629957024507284 0 0.0008589380123108334 0.062905818251027867 0 0.0023451629054690539 0.060541162566859097 0 0.0023826438594125891 0.060310886487446654 0 0.0025765891522976014 0.060363238905504372 0 0.0024514970393753679 0.059824631667294154 0 0.0024116246572055255 0.059823633103507849 0 0.0023826438594125891 0.060310886487446654 0 0.00086439249032000027 0.062795892692833422 0 0.0012567456607583099 0.061444425763681712 0 0.002599926556263601 0.059924874851780857 0 0.0023826438594125891 0.060310886487446654 0 0.0025765891522976014 0.060363238905504372 0 0.0024429236619479744 0.05992330147951587 0 0.002599926556263601 0.059924874851780857 0 0.0023826438594125891 0.060310886487446654 0 0.00037030944060099079 0.063427236264341949 0 0.0008589380123108334 0.062905818251027867 0 0.00094158350577280099 0.062727352237115633 0 0.0019662878740983559 0.061320547103785421 0 0.0024116246572055255 0.059823633103507849 0 0.0023826438594125891 0.060310886487446654 0 0.0020348468083947607 0.060103287463809683 0 0.0021016967215159443 0.060403295466146312 0 0.0023826438594125891 0.060310886487446654 0 0.0020348468083947607 0.060103287463809683 0 0.0019662878740983559 0.061320547103785421 0 0.0020549533241536514 0.061067210170233172 0 0.0020478535409730035 0.060037390150060613 0 0.0015794869943770683 0.059996723982797991 0 0.0018300841249202166 0.05971412032057824 0 0.0020478535409730035 0.060037390150060613 0 0.0015794869943770683 0.059996723982797991 0 0.0016406030790063106 0.060362940117249873 0 0.0015794869943770683 0.059996723982797991 0 0.0016406030790063106 0.060362940117249873 0 0.0011733407609159144 0.060193344963753899 0 0.0015794869943770683 0.059996723982797991 0 0.0011733407609159144 0.060193344963753899 0 0.0011924962190281013 0.059676080365974674 0 0.0016406030790063106 0.060362940117249873 0 0.0011874023032983304 0.06075042920007856 0 0.0011733407609159144 0.060193344963753899 0 0.0021016967215159443 0.060403295466146312 0 0.0020348468083947607 0.060103287463809683 0 0.0016406030790063106 0.060362940117249873 0 0.0020808855995518168 0.060767531227799272 0 0.0021016967215159443 0.060403295466146312 0 0.0016406030790063106 0.060362940117249873 0 0.0020808855995518168 0.060767531227799272 0 0.0016406030790063106 0.060362940117249873 0 0.0016622197318785505 0.060802994743933747 0 0.0020808855995518168 0.060767531227799272 0 0.0016622197318785505 0.060802994743933747 0 0.0018554301930964806 0.061172436547682368 0 0.0016406030790063106 0.060362940117249873 0 0.0016622197318785505 0.060802994743933747 0 0.0011874023032983304 0.06075042920007856 0 0.0016622197318785505 0.060802994743933747 0 0.0011874023032983304 0.06075042920007856 0 0.001477863180125692 0.06109981155280432 0 0.001587863544644541 0.061576515908970661 0 0.001477863180125692 0.06109981155280432 0 0.0011926332064503759 0.061354675428029075 0 0.0011874023032983304 0.06075042920007856 0 0.001477863180125692 0.06109981155280432 0 0.0011926332064503759 0.061354675428029075 0 0.001587863544644541 0.061576515908970661 0 0.001477863180125692 0.06109981155280432 0 0.0018554301930964806 0.061172436547682368 0 0.0016622197318785505 0.060802994743933747 0 0.001477863180125692 0.06109981155280432 0 0.0018554301930964806 0.061172436547682368 0 0.00044100806626471762 0.061143266256968774 0 0.00085727656025959319 0.061086651795919572 0 0.00065428947430565504 0.060803231859768499 0 0.00072135005871673096 0.061382844123807991 0 0.00044100806626471762 0.061143266256968774 0 0.00085727656025959319 0.061086651795919572 0 0.00031353118215993962 0.061341757541377127 0 0.00072135005871673096 0.061382844123807991 0 0.00044100806626471762 0.061143266256968774 0 0.00072135005871673096 0.061382844123807991 0 0.0011926332064503759 0.061354675428029075 0 0.00085727656025959319 0.061086651795919572 0 0.0011874023032983304 0.06075042920007856 0 0.0011926332064503759 0.061354675428029075 0 0.00085727656025959319 0.061086651795919572 0 0.0011874023032983304 0.06075042920007856 0 0.00065428947430565504 0.060803231859768499 0 0.00073226722041768463 0.06039132609289688 0 0.0011874023032983304 0.06075042920007856 0 0.00085727656025959319 0.061086651795919572 0 0.00065428947430565504 0.060803231859768499 0 0.00065428947430565504 0.060803231859768499 0 0.0004161169856198704 0.060597078311743421 0 0.00022856457009802364 0.060996053755666399 0 0.00044100806626471762 0.061143266256968774 0 0.00065428947430565504 0.060803231859768499 0 0.00022856457009802364 0.060996053755666399 0 0.00065428947430565504 0.060803231859768499 0 0.0004161169856198704 0.060597078311743421 0 0.00073226722041768463 0.06039132609289688 0 0.0004161169856198704 0.060597078311743421 0 0.00073226722041768463 0.06039132609289688 0 0.00024428834058120685 0.060333827681429926 0 0.00073226722041768463 0.06039132609289688 0 0.00032579351253431474 0.059989630030315245 0 0.00024428834058120685 0.060333827681429926 0 0.0011874023032983304 0.06075042920007856 0 0.00073226722041768463 0.06039132609289688 0 0.0011733407609159144 0.060193344963753899 0 0.0011733407609159144 0.060193344963753899 0 0.00079531903792585457 0.059973987476094462 0 0.0011924962190281013 0.059676080365974674 0 0.00073226722041768463 0.06039132609289688 0 0.0011733407609159144 0.060193344963753899 0 0.00079531903792585457 0.059973987476094462 0 0.00073226722041768463 0.06039132609289688 0 0.00079531903792585457 0.059973987476094462 0 0.00032579351253431474 0.059989630030315245 0 0.00079531903792585457 0.059973987476094462 0 0.0005336543177250167 0.059622669582895645 0 0.00032579351253431474 0.059989630030315245 0 0.00012001351052374099 0.064583304280742368 0 0.0001255114340401966 0.064586781912512978 0 0.00010855863098125259 0.064579683086013639 0 0.0001255114340401966 0.064586781912512978 0 0.00011316158325676044 0.064581833661930918 0 0.00012714467325846736 0.064592870595692575 0 0.0001255114340401966 0.064586781912512978 0 0.00011316158325676044 0.064581833661930918 0 0.00010855863098125259 0.064579683086013639 0 0.0001255114340401966 0.064586781912512978 0 0.00011684718177048246 0.064588827205405014 0 0.00012581148298578917 0.064600052998928223 0 0.0001255114340401966 0.064586781912512978 0 0.00012142472899464782 0.064568234226661914 0 0.00011684718177048246 0.064588827205405014 0 0.0001255114340401966 0.064586781912512978 0 0.00012714467325846736 0.064592870595692575 0 0.00012581148298578917 0.064600052998928223 0 0.00012001351052374099 0.064583304280742368 0 0.0001255114340401966 0.064586781912512978 0 0.00012142472899464782 0.064568234226661914 0 0.00027471526924909928 0.060785257983277496 0 0.0006169375789604626 0.06161574055911475 0 0.00079531903792585457 0.059973987476094462 0 0.0005336543177250167 0.059622669582895645 0 0.0011924962190281013 0.059676080365974674 0 0.0006169375789604626 0.06161574055911475 0 0.00087455140653628803 0.062163550380878362 0 0.00012142472899464782 0.064568234226661914 0 8.7743976833358671e-05 0.064583476511806501 0 0.00011684718177048246 0.064588827205405014 0 0.0015794869943770683 0.059996723982797991 0 0.0011924962190281013 0.059676080365974674 0 0.0018300841249202166 0.05971412032057824 0 0.00012142472899464782 0.064568234226661914 0 7.0559159580932222e-05 0.064547513525169548 0 8.7743976833358671e-05 0.064583476511806501 0 1.7611566876954514e-05 0.064583863437114558 0 7.0559159580932222e-05 0.064547513525169548 0 8.7743976833358671e-05 0.064583476511806501 0 1.7611566876954514e-05 0.064583863437114558 0 8.7743976833358671e-05 0.064583476511806501 0 5.9922398242767817e-05 0.064615849296816505 0 8.7743976833358671e-05 0.064583476511806501 0 5.9922398242767817e-05 0.064615849296816505 0 0.00010326143713209089 0.064611942638765157 0 8.7743976833358671e-05 0.064583476511806501 0 0.00011684718177048246 0.064588827205405014 0 0.00010326143713209089 0.064611942638765157 0 0.00011684718177048246 0.064588827205405014 0 0.00010326143713209089 0.064611942638765157 0 0.00012581148298578917 0.064600052998928223 0 0.00010326143713209089 0.064611942638765157 0 0.00011975493087399044 0.064617621577700166 0 0.00012581148298578917 0.064600052998928223 0 0.00010326143713209089 0.064611942638765157 0 0.00010384641534145538 0.064634853767006326 0 7.5920059883576821e-05 0.064652929435707537 0 0.00010326143713209089 0.064611942638765157 0 0.00010384641534145538 0.064634853767006326 0 0.00011975493087399044 0.064617621577700166 0 0.00010384641534145538 0.064634853767006326 0 0.00011975493087399044 0.064617621577700166 0 0.00012061312445918708 0.0646352461269947 0 5.9922398242767817e-05 0.064615849296816505 0 0.00010326143713209089 0.064611942638765157 0 7.5920059883576821e-05 0.064652929435707537 0 4.6317181036327948e-05 0.064652685848648875 0 5.9922398242767817e-05 0.064615849296816505 0 7.5920059883576821e-05 0.064652929435707537 0 0.00010384641534145538 0.064634853767006326 0 7.5920059883576821e-05 0.064652929435707537 0 9.3780832932941884e-05 0.06467022160592252 0 3.8692005681303682e-05 0.064697475314162201 0 4.6317181036327948e-05 0.064652685848648875 0 7.5920059883576821e-05 0.064652929435707537 0 6.6042163977467647e-05 0.064697389588698168 0 7.4236011631310971e-05 0.064727401656122077 0 3.0151344801772403e-05 0.064771060502305605 0 3.8692005681303682e-05 0.064697475314162201 0 7.5920059883576821e-05 0.064652929435707537 0 6.6042163977467647e-05 0.064697389588698168 0 7.5920059883576821e-05 0.064652929435707537 0 6.6042163977467647e-05 0.064697389588698168 0 9.3780832932941884e-05 0.06467022160592252 0 6.6042163977467647e-05 0.064697389588698168 0 9.3780832932941884e-05 0.06467022160592252 0 7.4236011631310971e-05 0.064727401656122077 0 0.00012061312445918708 0.0646352461269947 0 9.3780832932941884e-05 0.06467022160592252 0 0.00011724755247573707 0.064677416016615932 0 0.00010384641534145538 0.064634853767006326 0 0.00012061312445918708 0.0646352461269947 0 9.3780832932941884e-05 0.06467022160592252 0 9.3780832932941884e-05 0.06467022160592252 0 0.00011724755247573707 0.064677416016615932 0 7.4236011631310971e-05 0.064727401656122077 0 0.00012061312445918708 0.0646352461269947 0 0.00011724755247573707 0.064677416016615932 0 0.0001356985360554076 0.064619888250208632 0 0.0001533896424845333 0.064577994285416052 0 0.00012100357035019259 0.064583029631494607 0 0.00013771533921907571 0.064604375490199498 0 0.00011724755247573707 0.064677416016615932 0 0.0001356985360554076 0.064619888250208632 0 0.0001533896424845333 0.064577994285416052 0 0.0001356985360554076 0.064619888250208632 0 0.0001533896424845333 0.064577994285416052 0 0.00013771533921907571 0.064604375490199498 0 0.00012061312445918708 0.0646352461269947 0 0.0001356985360554076 0.064619888250208632 0 0.00013771533921907571 0.064604375490199498 0 0.0001533896424845333 0.064577994285416052 0 0.00012100357035019259 0.064583029631494607 0 9.3812859906273441e-05 0.06454885193924674 0 0.0001533896424845333 0.064577994285416052 0 9.3812859906273441e-05 0.06454885193924674 0 0.00014524150349433677 0.064508907552565872 0 0.00012100357035019259 0.064583029631494607 0 0.00012714467325846736 0.064592870595692575 0 0.00013771533921907571 0.064604375490199498 0 0.00012100357035019259 0.064583029631494607 0 0.00011316158325676044 0.064581833661930918 0 0.00012714467325846736 0.064592870595692575 0 0.00012714467325846736 0.064592870595692575 0 0.00012581148298578917 0.064600052998928223 0 0.00013771533921907571 0.064604375490199498 0 0.00011975493087399044 0.064617621577700166 0 0.00012581148298578917 0.064600052998928223 0 0.00013771533921907571 0.064604375490199498 0 0.00011975493087399044 0.064617621577700166 0 0.00012061312445918708 0.0646352461269947 0 0.00013771533921907571 0.064604375490199498 0 7.8430158871399183e-05 0.064559265146956396 0 8.8841976558664065e-05 0.064568907213682816 0 9.3310540342520822e-05 0.064565350843653627 0 7.8430158871399183e-05 0.064559265146956396 0 8.8841976558664065e-05 0.064568907213682816 0 7.60219881653901e-05 0.06456364945883504 0 0.00012100357035019259 0.064583029631494607 0 0.00011316158325676044 0.064581833661930918 0 9.3310540342520822e-05 0.064565350843653627 0 0.00011316158325676044 0.064581833661930918 0 8.8841976558664065e-05 0.064568907213682816 0 9.3310540342520822e-05 0.064565350843653627 0 9.3310540342520822e-05 0.064565350843653627 0 9.3812859906273441e-05 0.06454885193924674 0 8.0897750686009158e-05 0.06455087645816121 0 5.0737469578930298e-05 0.06411566588295646 0 -7.6157493888740299e-05 0.06390960927041317 0 0.00012100357035019259 0.064583029631494607 0 9.3310540342520822e-05 0.064565350843653627 0 9.3812859906273441e-05 0.06454885193924674 0 7.8430158871399183e-05 0.064559265146956396 0 9.3310540342520822e-05 0.064565350843653627 0 8.0897750686009158e-05 0.06455087645816121 0 -7.6157493888740299e-05 0.06390960927041317 0 -0.00038806323105101557 0.063504436263268127 0 7.8430158871399183e-05 0.064559265146956396 0 8.0897750686009158e-05 0.06455087645816121 0 6.4528047163855411e-05 0.064549467231587165 0 4.3298377179806923e-05 0.064265067763109418 0 -0.00018798659879675278 0.064174676822759485 0 1.0216953618818239e-06 0.064145290769227162 0 -0.00018461536115956613 0.063678888423646843 0 -0.00042126242236990781 0.063482036035987746 0 -0.00015186117524758355 0.063304711579085154 0 -0.00018461536115956613 0.063678888423646843 0 -0.00015186117524758355 0.063304711579085154 0 2.3523152739826007e-05 0.063780125919743913 0 -0.00018461536115956613 0.063678888423646843 0 -0.00042126242236990781 0.063482036035987746 0 -0.00023843901680152473 0.063976842176345264 0 -0.00038806323105101557 0.063504436263268127 0 -0.00037581462636464708 0.063576505123157753 0 -0.0010613333095176379 0.063452186593343868 0 -0.00015186117524758355 0.063304711579085154 0 -0.00068779087941012878 0.062761803514597717 0 -0.00038806323105101557 0.063504436263268127 0 -0.00035879507994705264 0.063489955772122741 0 -0.00068779087941012878 0.062761803514597717 0 -0.00081079203469415137 0.06195621860414581 0 0.00044126236924607051 0.062902613482386655 0 -0.0010613333095176379 0.063452186593343868 0 -0.00068779087941012878 0.062761803514597717 0 -0.0011730165757936253 0.061671402439791995 0 -0.00038806323105101557 0.063504436263268127 0 -0.00067913941565880777 0.061715326266418909 0 -0.00068779087941012878 0.062761803514597717 0 -0.00081079203469415137 0.06195621860414581 0 -0.0011730165757936253 0.061671402439791995 0 -0.00081079203469415137 0.06195621860414581 0 -0.00066120068790881555 0.061556660109159653 0 -0.00050813697080469549 0.061579183898201321 0 7.8430158871399183e-05 0.064559265146956396 0 6.4528047163855411e-05 0.064549467231587165 0 7.1251117635398058e-05 0.064558369134696994 0 6.4528047163855411e-05 0.064549467231587165 0 7.1251117635398058e-05 0.064558369134696994 0 6.6125958990089441e-05 0.064561306110856337 0 7.1251117635398058e-05 0.064558369134696994 0 7.60219881653901e-05 0.06456364945883504 0 6.6125958990089441e-05 0.064561306110856337 0 7.8430158871399183e-05 0.064559265146956396 0 7.1251117635398058e-05 0.064558369134696994 0 7.60219881653901e-05 0.06456364945883504 0 -0.00067913941565880777 0.061715326266418909 0 -0.0013575235800700604 0.056051704613326106 0 7.60219881653901e-05 0.06456364945883504 0 6.6125958990089441e-05 0.064561306110856337 0 7.737568127761311e-05 0.06456846134216182 0 6.6125958990089441e-05 0.064561306110856337 0 7.737568127761311e-05 0.06456846134216182 0 6.5606313810682011e-05 0.064566514345619608 0 -0.0011730165757936253 0.061671402439791995 0 -0.00090222593882321024 0.061196907486580701 0 -0.0011895820338751295 0.060814548734781503 0 -0.00066120068790881555 0.061556660109159653 0 -0.00070671180095442231 0.061377638272022986 0 -0.00053001408747454311 0.061379546683082091 0 -0.00081079203469415137 0.06195621860414581 0 -0.00066120068790881555 0.061556660109159653 0 -0.0008433056547287966 0.061552467067635411 0 -0.00066120068790881555 0.061556660109159653 0 -0.0008433056547287966 0.061552467067635411 0 -0.00070671180095442231 0.061377638272022986 0 -0.0011730165757936253 0.061671402439791995 0 -0.0008433056547287966 0.061552467067635411 0 -0.00090222593882321024 0.061196907486580701 0 -0.00081079203469415137 0.06195621860414581 0 -0.0011730165757936253 0.061671402439791995 0 -0.0008433056547287966 0.061552467067635411 0 -0.00070671180095442231 0.061377638272022986 0 -0.00053961626060672568 0.061154237731017261 0 -0.00053001408747454311 0.061379546683082091 0 -0.00090222593882321024 0.061196907486580701 0 -0.00070671180095442231 0.061377638272022986 0 -0.00053961626060672568 0.061154237731017261 0 -0.0008433056547287966 0.061552467067635411 0 -0.00090222593882321024 0.061196907486580701 0 -0.00070671180095442231 0.061377638272022986 0 -0.0015869392572761428 0.053685964187288729 0 -0.0010075891342584335 0.054577716434772466 0 -0.00090222593882321024 0.061196907486580701 0 -0.00078829350259459791 0.060846707723739971 0 -0.00053961626060672568 0.061154237731017261 0 -0.00090222593882321024 0.061196907486580701 0 -0.00078829350259459791 0.060846707723739971 0 -0.0011895820338751295 0.060814548734781503 0 -0.0015869392572761428 0.053685964187288729 0 -0.0021353652134610667 0.049612410196091992 0 -0.0015869392572761428 0.053685964187288729 0 -0.0013575235800700604 0.056051704613326106 0 -0.0013532539974785078 0.052531824142697442 0 0.00024499864254351976 0.052554555746781216 0 0.0003880839536915417 0.054274474862678203 0 -0.0013575235800700604 0.056051704613326106 0 -0.00022184433529018595 0.059218625554408079 0 -0.00092403884913410219 0.05951619219092661 0 -0.0001726662194466351 0.059560579411756936 0 -0.00075359831153491111 0.059862089708781888 0 7.737568127761311e-05 0.06456846134216182 0 6.5606313810682011e-05 0.064566514345619608 0 9.1825050758661105e-05 0.064579988137038857 0 -0.0013575235800700604 0.056051704613326106 0 -0.0021353652134610667 0.049612410196091992 0 8.8841976558664065e-05 0.064568907213682816 0 7.737568127761311e-05 0.06456846134216182 0 9.1825050758661105e-05 0.064579988137038857 0 8.8841976558664065e-05 0.064568907213682816 0 7.60219881653901e-05 0.06456364945883504 0 7.737568127761311e-05 0.06456846134216182 0 0.00011316158325676044 0.064581833661930918 0 8.8841976558664065e-05 0.064568907213682816 0 0.00010855863098125259 0.064579683086013639 0 8.8841976558664065e-05 0.064568907213682816 0 9.1825050758661105e-05 0.064579988137038857 0 0.00010855863098125259 0.064579683086013639 0 0.00027471526924909928 0.060785257983277496 0 -0.00022184433529018595 0.059218625554408079 0 0.0005336543177250167 0.059622669582895645 0 -0.0001726662194466351 0.059560579411756936 0 0.00032579351253431474 0.059989630030315245 0 0.00012001351052374099 0.064583304280742368 0 9.1825050758661105e-05 0.064579988137038857 0 0.00010855863098125259 0.064579683086013639 0 -0.0001726662194466351 0.059560579411756936 0 0.00032579351253431474 0.059989630030315245 0 -9.7960664936628535e-05 0.060094982209001759 0 0.00032579351253431474 0.059989630030315245 0 -9.7960664936628535e-05 0.060094982209001759 0 0.00024428834058120685 0.060333827681429926 0 -0.0001726662194466351 0.059560579411756936 0 -0.00038253824779496183 0.059948163855528973 0 -0.00075359831153491111 0.059862089708781888 0 -0.0001726662194466351 0.059560579411756936 0 -0.00038253824779496183 0.059948163855528973 0 -9.7960664936628535e-05 0.060094982209001759 0 -0.00038253824779496183 0.059948163855528973 0 -9.7960664936628535e-05 0.060094982209001759 0 -0.00050760983665684603 0.060274508016659539 0 -0.00050760983665684603 0.060274508016659539 0 -3.0457775415416348e-05 0.06043022715820999 0 -0.00014385646072422685 0.060626995616429841 0 -9.7960664936628535e-05 0.060094982209001759 0 -0.00050760983665684603 0.060274508016659539 0 -3.0457775415416348e-05 0.06043022715820999 0 -0.0014469884306650654 0.052327680915608375 0 -0.0012213536754515049 0.051622305878324753 0 -0.0036243035282788193 0.042434572682247568 0 -0.004594226479594463 0.041414246979053722 0 -0.0036959532803548163 0.041216750462060164 0 -0.0016697052914414032 0.050764147100920691 0 -0.0012213536754515049 0.051622305878324753 0 -9.7960664936628535e-05 0.060094982209001759 0 0.00024428834058120685 0.060333827681429926 0 -3.0457775415416348e-05 0.06043022715820999 0 -3.0457775415416348e-05 0.06043022715820999 0 0.00016172221173763596 0.060670025589718166 0 -0.00015027716378168411 0.060640836682462847 0 0.00024428834058120685 0.060333827681429926 0 -3.0457775415416348e-05 0.06043022715820999 0 0.00016172221173763596 0.060670025589718166 0 0.0004161169856198704 0.060597078311743421 0 0.00024428834058120685 0.060333827681429926 0 0.00016172221173763596 0.060670025589718166 0 0.0004161169856198704 0.060597078311743421 0 0.00022856457009802364 0.060996053755666399 0 0.00016172221173763596 0.060670025589718166 0 0.00022856457009802364 0.060996053755666399 0 8.5966312068773271e-05 0.060905753401940904 0 0.00011896589265162701 0.06110372276715318 0 0.00022856457009802364 0.060996053755666399 0 0.00016172221173763596 0.060670025589718166 0 -0.00015027716378168411 0.060640836682462847 0 0.00010873144753540359 0.05371814613021033 0 -0.0012213536754515049 0.051622305878324753 0 -0.004594226479594463 0.041414246979053722 0 -0.0036959532803548163 0.041216750462060164 0 -0.0037098165433484226 0.039858408772340398 0 -0.0012213536754515049 0.051622305878324753 0 -0.0014527709983251445 0.050662686535777886 0 8.5966312068773271e-05 0.060905753401940904 0 0.00011896589265162701 0.06110372276715318 0 6.5773167588470033e-05 0.061263687890926094 0 0.00011896589265162701 0.06110372276715318 0 6.5773167588470033e-05 0.061263687890926094 0 0.00012580537131610549 0.06123856154079188 0 0.00014091109018208754 0.061342787977966308 0 6.5773167588470033e-05 0.061263687890926094 0 0.00012580537131610549 0.06123856154079188 0 0.00031353118215993962 0.061341757541377127 0 0.00044100806626471762 0.061143266256968774 0 0.00012580537131610549 0.06123856154079188 0 0.00044100806626471762 0.061143266256968774 0 0.00022856457009802364 0.060996053755666399 0 0.00012580537131610549 0.06123856154079188 0 0.00022856457009802364 0.060996053755666399 0 0.00011896589265162701 0.06110372276715318 0 0.00012580537131610549 0.06123856154079188 0 -0.0028923002515113512 0.039458601390611775 0 -0.0026360442360305893 0.039108075100698025 0 -0.0022719251875469469 0.039449701898737102 0 -0.0028923002515113512 0.039458601390611775 0 -0.0026360442360305893 0.039108075100698025 0 -0.0028983314111650144 0.039224575114107992 0 -0.0028239376800181706 0.038950124923482564 0 -0.0026360442360305893 0.039108075100698025 0 -0.0028983314111650144 0.039224575114107992 0 -0.003049964489768442 0.040471666649795117 0 -0.0028971402774169747 0.042018522587384359 0 -0.0028239376800181706 0.038950124923482564 0 -0.0028983314111650144 0.039224575114107992 0 -0.0031981344955288645 0.039272681086765335 0 -0.0015269383103264738 0.049740274436424856 0 -0.0014527709983251445 0.050662686535777886 0 -0.0028923002515113512 0.039458601390611775 0 -0.0028983314111650144 0.039224575114107992 0 -0.0031981344955288645 0.039272681086765335 0 -0.0030755494692004544 0.038747693250364035 0 -0.0037098165433484226 0.039858408772340398 0 -0.0031981344955288645 0.039272681086765335 0 -0.0028923002515113512 0.039458601390611775 0 -0.0031981344955288645 0.039272681086765335 0 -0.0030490925514413563 0.039752296940241336 0 -0.0037098165433484226 0.039858408772340398 0 -0.0031981344955288645 0.039272681086765335 0 -0.0028509020451123342 0.041214614177292649 0 -0.0036959532803548163 0.041216750462060164 0 -0.0037098165433484226 0.039858408772340398 0 -0.0028509020451123342 0.041214614177292649 0 -0.0028923002515113512 0.039458601390611775 0 -0.0026873180707360088 0.039784017410236044 0 -0.0022719251875469469 0.039449701898737102 0 -0.0028923002515113512 0.039458601390611775 0 -0.0030490925514413563 0.039752296940241336 0 -0.0026873180707360088 0.039784017410236044 0 -0.0026873180707360088 0.039784017410236044 0 -0.0027844623076091583 0.040134524597329357 0 -0.0024297020538335385 0.040236863200792838 0 -0.0030490925514413563 0.039752296940241336 0 -0.0026873180707360088 0.039784017410236044 0 -0.0027844623076091583 0.040134524597329357 0 -0.0030490925514413563 0.039752296940241336 0 -0.0027844623076091583 0.040134524597329357 0 -0.0029927738337617465 0.040401527550487065 0 -0.0028971402774169747 0.042018522587384359 0 -0.0021353652134610667 0.049612410196091992 0 -0.0036243035282788193 0.042434572682247568 0 -0.0028509020451123342 0.041214614177292649 0 -0.0025688785680727188 0.043517284863113639 0 -0.0036243035282788193 0.042434572682247568 0 -0.0036959532803548163 0.041216750462060164 0 -0.0028509020451123342 0.041214614177292649 0 -0.00050760983665684603 0.060274508016659539 0 -0.00088929375553186286 0.059895521612374394 0 -0.00075359831153491111 0.059862089708781888 0 -0.0016697052914414032 0.050764147100920691 0 -0.0021353652134610667 0.049612410196091992 0 -0.00038253824779496183 0.059948163855528973 0 -0.00050760983665684603 0.060274508016659539 0 -0.00075359831153491111 0.059862089708781888 0 -0.00092403884913410219 0.05951619219092661 0 -0.00089362178080378777 0.05989712661476386 0 -0.00075359831153491111 0.059862089708781888 0 -0.0021353652134610667 0.049612410196091992 0 -0.0021607302264592355 0.049714953015377865 0 -0.0029862316274356401 0.040999842624590596 0 -0.0033652363150081981 0.040622691169890597 0 -0.0026636864090970888 0.040391276176518477 0 -0.0027844623076091583 0.040134524597329357 0 -0.0029927738337617465 0.040401527550487065 0 -0.0024297020538335385 0.040236863200792838 0 -0.0021353652134610667 0.049612410196091992 0 -0.0016059060539498889 0.044793718491698359 0 -0.0024297020538335385 0.040236863200792838 0 -0.0018233897516685405 0.040048271944810913 0 -0.0022719251875469469 0.039449701898737102 0 -0.0026873180707360088 0.039784017410236044 0 -0.0024297020538335385 0.040236863200792838 0 -0.0022719251875469469 0.039449701898737102 0 -0.0026636864090970888 0.040391276176518477 0 -0.0019392715404707838 0.040136474262584751 0 -0.0021906699194590941 0.040993759609014115 0 -0.0019392715404707838 0.040136474262584751 0 -0.0016099379167522508 0.040551173908675166 0 -0.0021906699194590941 0.040993759609014115 0 -0.0016059060539498889 0.044793718491698359 0 -0.0013124555267101177 0.042640313751132392 0 -0.0018233897516685405 0.040048271944810913 0 -0.0022719251875469469 0.039449701898737102 0 -0.0015955171919139657 0.039584438285848261 0 -0.0022719251875469469 0.039449701898737102 0 -0.0018219818370891839 0.0392050952202068 0 -0.0015955171919139657 0.039584438285848261 0 -0.0018955322643672864 0.038615093030471274 0 -0.0022719251875469469 0.039449701898737102 0 -0.0018219818370891839 0.0392050952202068 0 -0.0018075871833495643 0.038692585441937072 0 -0.0020166249998148323 0.039042619161952716 0 -0.0023072681760762672 0.038938140167504041 0 -0.0018499106015829666 0.038903293753263811 0 -0.0022719251875469469 0.039449701898737102 0 -0.0023072681760762672 0.038938140167504041 0 -0.0026360442360305893 0.039108075100698025 0 -0.0022719251875469469 0.039449701898737102 0 -0.0011869370122451722 0.03870061172659308 0 -0.0013957112955748936 0.039131371527326542 0 -0.0008271851011036409 0.039049747615775801 0 -0.0013957112955748936 0.039131371527326542 0 -0.0011286625417661128 0.039422202254837363 0 -0.0008271851011036409 0.039049747615775801 0 -0.00078876627423814282 0.038562365964793274 0 -0.0011869370122451722 0.03870061172659308 0 -0.0008271851011036409 0.039049747615775801 0 -0.0018955322643672864 0.038615093030471274 0 -0.0018219818370891839 0.0392050952202068 0 -0.0013957112955748936 0.039131371527326542 0 -0.0011869370122451722 0.03870061172659308 0 -0.0018955322643672864 0.038615093030471274 0 -0.0013957112955748936 0.039131371527326542 0 -0.0013957112955748936 0.039131371527326542 0 -0.0015955171919139657 0.039584438285848261 0 -0.0011286625417661128 0.039422202254837363 0 -0.0018219818370891839 0.0392050952202068 0 -0.0013957112955748936 0.039131371527326542 0 -0.0015955171919139657 0.039584438285848261 0 -0.0011286625417661128 0.039422202254837363 0 -0.00078680414762469393 0.03952919089725377 0 -0.0008271851011036409 0.039049747615775801 0 -0.0015955171919139657 0.039584438285848261 0 -0.0011286625417661128 0.039422202254837363 0 -0.0011721350373627461 0.039852520274676402 0 -0.0011286625417661128 0.039422202254837363 0 -0.0011721350373627461 0.039852520274676402 0 -0.00078680414762469393 0.03952919089725377 0 -0.0011721350373627461 0.039852520274676402 0 -0.0011220277303091717 0.040346464301495605 0 -0.0006484317641536157 0.04007688801214928 0 -0.0011721350373627461 0.039852520274676402 0 -0.0013890240777501772 0.040283165967721676 0 -0.0011220277303091717 0.040346464301495605 0 -0.0013124555267101177 0.042640313751132392 0 -0.0010886301620108118 0.041989783459618596 0 -0.0018233897516685405 0.040048271944810913 0 -0.0015955171919139657 0.039584438285848261 0 -0.0011721350373627461 0.039852520274676402 0 -0.0019392715404707838 0.040136474262584751 0 -0.0011721350373627461 0.039852520274676402 0 -0.0013890240777501772 0.040283165967721676 0 -0.0019392715404707838 0.040136474262584751 0 -0.0013890240777501772 0.040283165967721676 0 -0.0016099379167522508 0.040551173908675166 0 -0.0013890240777501772 0.040283165967721676 0 -0.0016099379167522508 0.040551173908675166 0 -0.0013338136063917544 0.040611067694443004 0 -0.0016099379167522508 0.040551173908675166 0 -0.0013338136063917544 0.040611067694443004 0 -0.0013489477056335601 0.040994286423326809 0 -0.0011220277303091717 0.040346464301495605 0 -0.0012109723276257033 0.04090753099593699 0 -0.0006484317641536157 0.04007688801214928 0 -0.00068522733480869417 0.045089869495560923 0 -0.00013239550958819201 0.042393848792507731 0 -0.0011220277303091717 0.040346464301495605 0 -0.0013338136063917544 0.040611067694443004 0 -0.0012109723276257033 0.04090753099593699 0 -0.00068522733480869417 0.045089869495560923 0 9.2471129259149489e-05 0.040996413853854469 0 -0.0013890240777501772 0.040283165967721676 0 -0.0011220277303091717 0.040346464301495605 0 -0.0013338136063917544 0.040611067694443004 0 -0.0012934874718508683 0.04705725112312633 0 -0.00067090804682753903 0.048767311157270891 0 -0.00014718937523668235 0.061116235295075177 0 -0.00014579161770648794 0.061132116375886537 0 -0.00015021439241176646 0.061073231862597589 0 -0.0017232693892011927 0.040316811478093649 0 -0.0018432045836701044 0.0403997288616166 0 -0.0011088166225450605 0.040383443315891644 0 -0.0013338136063917544 0.040611067694443004 0 -0.0012109723276257033 0.04090753099593699 0 -0.0013489477056335601 0.040994286423326809 0 -0.00068522733480869417 0.045089869495560923 0 -0.0012934874718508683 0.04705725112312633 0 -0.00014718937523668235 0.061116235295075177 0 -0.00014579161770648794 0.061132116375886537 0 -0.00014532272557794631 0.061119003190777205 0 -0.00014579161770648794 0.061132116375886537 0 -0.00015886187629446689 0.061185111346553134 0 -0.00014467841678045449 0.061143482099214254 0 -0.00014579161770648794 0.061132116375886537 0 -0.00014467841678045449 0.061143482099214254 0 -0.00015021439241176646 0.061073231862597589 0 -0.00015886187629446689 0.061185111346553134 0 -0.00020826066999727488 0.061246554888480714 0 -0.00017227162376368186 0.061245683744325673 0 -0.00014579161770648794 0.061132116375886537 0 -0.00015886187629446689 0.061185111346553134 0 -0.00015472828444317409 0.061152224307708017 0 -0.00015886187629446689 0.061185111346553134 0 -0.00015472828444317409 0.061152224307708017 0 -0.00017692199261057579 0.061175087542739717 0 -0.00015886187629446689 0.061185111346553134 0 -0.00017692199261057579 0.061175087542739717 0 -0.00020826066999727488 0.061246554888480714 0 -0.00017692199261057579 0.061175087542739717 0 -0.00022340852594161404 0.061174361938164772 0 -0.00020826066999727488 0.061246554888480714 0 -0.0012934874718508683 0.04705725112312633 0 -0.0013172809458667481 0.050534387120655749 0 -0.0001199645374625118 0.061100909165962586 0 -0.00014532272557794631 0.061119003190777205 0 -0.00027799764349508869 0.06107956130794464 0 -0.00017692199261057579 0.061175087542739717 0 -0.00014532272557794631 0.061119003190777205 0 -0.00022340852594161404 0.061174361938164772 0 -0.0016099379167522508 0.040551173908675166 0 -0.0013489477056335601 0.040994286423326809 0 -0.0021906699194590941 0.040993759609014115 0 -0.00014579161770648794 0.061132116375886537 0 -0.00015472828444317409 0.061152224307708017 0 -0.00014532272557794631 0.061119003190777205 0 -0.00015472828444317409 0.061152224307708017 0 -0.00017692199261057579 0.061175087542739717 0 -0.00014532272557794631 0.061119003190777205 0 -0.0012934874718508683 0.04705725112312633 0 -0.0014500970758049017 0.047311082034732277 0 -0.00014532272557794631 0.061119003190777205 0 -0.00027799764349508869 0.06107956130794464 0 -0.00022340852594161404 0.061174361938164772 0 -0.00027799764349508869 0.06107956130794464 0 -0.00033825341064918057 0.061288047517112594 0 -0.00022340852594161404 0.061174361938164772 0 -0.0015869392572761428 0.053685964187288729 0 -0.0013172809458667481 0.050534387120655749 0 -0.00064983415044481217 0.061030447748662488 0 -0.00027799764349508869 0.06107956130794464 0 -0.00053961626060672568 0.061154237731017261 0 -0.00027799764349508869 0.06107956130794464 0 -0.00053961626060672568 0.061154237731017261 0 -0.00033825341064918057 0.061288047517112594 0 -0.0029862316274356401 0.040999842624590596 0 -0.0026636864090970888 0.040391276176518477 0 -0.0021906699194590941 0.040993759609014115 0 -0.00033825341064918057 0.061288047517112594 0 -0.00024774766855651422 0.06135889021906539 0 -0.00050813697080469549 0.061579183898201321 0 -0.00053961626060672568 0.061154237731017261 0 -0.00033825341064918057 0.061288047517112594 0 -0.00053001408747454311 0.061379546683082091 0 -0.00033825341064918057 0.061288047517112594 0 -0.00053001408747454311 0.061379546683082091 0 -0.00050813697080469549 0.061579183898201321 0 -0.00066120068790881555 0.061556660109159653 0 -0.00053001408747454311 0.061379546683082091 0 -0.00050813697080469549 0.061579183898201321 0 -0.00033825341064918057 0.061288047517112594 0 -0.00022340852594161404 0.061174361938164772 0 -0.00020826066999727488 0.061246554888480714 0 -0.00033825341064918057 0.061288047517112594 0 -0.00020826066999727488 0.061246554888480714 0 -0.00024774766855651422 0.06135889021906539 0 -7.6309662570109391e-05 0.061579758894879384 0 0.00041109970586984419 0.061269996452221358 0 -0.00020826066999727488 0.061246554888480714 0 -0.00024774766855651422 0.06135889021906539 0 -0.00017227162376368186 0.061245683744325673 0 -0.00024774766855651422 0.06135889021906539 0 -0.00031888805953021976 0.061480921779263453 0 -0.00016368987805038 0.061255350472137295 0 -0.00024774766855651422 0.06135889021906539 0 -0.00031888805953021976 0.061480921779263453 0 -0.00050813697080469549 0.061579183898201321 0 -0.00045574683096612288 0.061599797038248236 0 -7.6309662570109391e-05 0.061579758894879384 0 -0.00015186117524758355 0.063304711579085154 0 -0.00068779087941012878 0.062761803514597717 0 0.00044126236924607051 0.062902613482386655 0 -0.00081079203469415137 0.06195621860414581 0 -0.00031888805953021976 0.061480921779263453 0 -0.00050813697080469549 0.061579183898201321 0 -0.00015186117524758355 0.063304711579085154 0 0.00042292749326703369 0.063569447990142275 0 2.3523152739826007e-05 0.063780125919743913 0 -0.00015186117524758355 0.063304711579085154 0 0.00044126236924607051 0.062902613482386655 0 0.00042292749326703369 0.063569447990142275 0 0.00044126236924607051 0.062902613482386655 0 0.00042292749326703369 0.063569447990142275 0 0.00086998098209231059 0.063270828334691817 0 0.00042292749326703369 0.063569447990142275 0 0.00086998098209231059 0.063270828334691817 0 0.00073249056782850191 0.063711492616378027 0 0.00041109970586984419 0.061269996452221358 0 0.00073249078574202334 0.060352041735559081 0 0.00086998098209231059 0.063270828334691817 0 0.0011085017813826006 0.06372803641611853 0 0.0012353494746022789 0.063459978458916044 0 -0.00016368987805038 0.061255350472137295 0 -0.00014467841678045449 0.061143482099214254 0 -0.00014516129517439061 0.061112431534799096 0 -0.00015886187629446689 0.061185111346553134 0 -0.00014467841678045449 0.061143482099214254 0 -0.00017227162376368186 0.061245683744325673 0 -0.00016368987805038 0.061255350472137295 0 -0.00014467841678045449 0.061143482099214254 0 -0.00017227162376368186 0.061245683744325673 0 -0.00024774766855651422 0.06135889021906539 0 -0.00016368987805038 0.061255350472137295 0 -0.00017227162376368186 0.061245683744325673 0 0.00091074639824079216 0.063931609038373263 0 0.00065990810703992625 0.064075940650010418 0 0.00073249056782850191 0.063711492616378027 0 0.00091074639824079216 0.063931609038373263 0 0.00065990810703992625 0.064075940650010418 0 0.00089336552296883102 0.06418600222977501 0 0.00091074639824079216 0.063931609038373263 0 0.0011079056827201848 0.064017423663609949 0 0.0011085017813826006 0.06372803641611853 0 0.00091074639824079216 0.063931609038373263 0 0.0011079056827201848 0.064017423663609949 0 0.00089336552296883102 0.06418600222977501 0 0.0011079056827201848 0.064017423663609949 0 0.0011085017813826006 0.06372803641611853 0 0.0012993176764180907 0.063916278260656809 0 0.00086998098209231059 0.063270828334691817 0 0.0011085017813826006 0.06372803641611853 0 0.00073249056782850191 0.063711492616378027 0 0.00091074639824079216 0.063931609038373263 0 0.0011085017813826006 0.06372803641611853 0 0.00073249056782850191 0.063711492616378027 0 0.00042292749326703369 0.063569447990142275 0 0.00020654650029828801 0.063911946762553851 0 0.00043965036602175949 0.063939713237651047 0 0.00042292749326703369 0.063569447990142275 0 0.00073249056782850191 0.063711492616378027 0 0.00043965036602175949 0.063939713237651047 0 0.00042292749326703369 0.063569447990142275 0 2.3523152739826007e-05 0.063780125919743913 0 0.00020654650029828801 0.063911946762553851 0 2.3523152739826007e-05 0.063780125919743913 0 0.00020654650029828801 0.063911946762553851 0 -1.5004887448104521e-05 0.064068714360982465 0 0.00020654650029828801 0.063911946762553851 0 -1.5004887448104521e-05 0.064068714360982465 0 0.00020074202354080503 0.064133647475758476 0 0.00020654650029828801 0.063911946762553851 0 0.00020074202354080503 0.064133647475758476 0 0.00043965036602175949 0.063939713237651047 0 0.00020074202354080503 0.064133647475758476 0 0.00039413747406660322 0.064216911651770611 0 0.00019115810596504257 0.064334010250863535 0 -1.5004887448104521e-05 0.064068714360982465 0 0.00020074202354080503 0.064133647475758476 0 2.2038428335314884e-05 0.0643021361307798 0 0.00065990810703992625 0.064075940650010418 0 0.00073249056782850191 0.063711492616378027 0 0.00043965036602175949 0.063939713237651047 0 0.00020074202354080503 0.064133647475758476 0 0.00043965036602175949 0.063939713237651047 0 0.00039413747406660322 0.064216911651770611 0 0.00065990810703992625 0.064075940650010418 0 0.00043965036602175949 0.063939713237651047 0 0.00039413747406660322 0.064216911651770611 0 0.00065990810703992625 0.064075940650010418 0 0.00039413747406660322 0.064216911651770611 0 0.00059650048782989716 0.064352036499485607 0 0.00039413747406660322 0.064216911651770611 0 0.00059650048782989716 0.064352036499485607 0 0.00028744697619706271 0.064474476660085905 0 0.00039413747406660322 0.064216911651770611 0 0.00028744697619706271 0.064474476660085905 0 0.00019115810596504257 0.064334010250863535 0 0.00059650048782989716 0.064352036499485607 0 0.00028744697619706271 0.064474476660085905 0 0.00035070844541192542 0.064713345356626983 0 2.2038428335314884e-05 0.0643021361307798 0 7.501970171784363e-05 0.064542599299006964 0 -6.3550416930250971e-05 0.064639242992312107 0 2.2038428335314884e-05 0.0643021361307798 0 0.00019115810596504257 0.064334010250863535 0 7.501970171784363e-05 0.064542599299006964 0 0.00020074202354080503 0.064133647475758476 0 2.2038428335314884e-05 0.0643021361307798 0 0.00019115810596504257 0.064334010250863535 0 0.00028744697619706271 0.064474476660085905 0 0.00019115810596504257 0.064334010250863535 0 7.501970171784363e-05 0.064542599299006964 0 -1.8462359624055948e-05 0.064398751651192507 0 2.4155536308393808e-05 0.064434516275046261 0 7.501970171784363e-05 0.064542599299006964 0 6.8440901682432877e-05 0.064767128399184803 0 -6.3550416930250971e-05 0.064639242992312107 0 6.8440901682432877e-05 0.064767128399184803 0 7.1796036310984454e-05 0.06468753393581779 0 -6.3550416930250971e-05 0.064639242992312107 0 0.00028744697619706271 0.064474476660085905 0 7.501970171784363e-05 0.064542599299006964 0 6.8440901682432877e-05 0.064767128399184803 0 -0.0001771019091172069 0.064966613427343278 0 -0.0007743576343316762 0.065031444340232752 0 -0.00038821652758697035 0.064608876174497759 0 0.00028744697619706271 0.064474476660085905 0 6.8440901682432877e-05 0.064767128399184803 0 0.00035070844541192542 0.064713345356626983 0 -0.00069048547116563387 0.059790396221006958 0 -0.00065803361206796893 0.059616214259227231 0 6.8440901682432877e-05 0.064767128399184803 0 -0.0001771019091172069 0.064966613427343278 0 -0.00013948772932571984 0.064726902362554933 0 0.00059650048782989716 0.064352036499485607 0 0.00035070844541192542 0.064713345356626983 0 0.00090857372429207833 0.064495154335558871 0 -0.00065803361206796893 0.059616214259227231 0 -0.0010617283599172345 0.059249686120262074 0 -0.00065803361206796893 0.059616214259227231 0 -0.00067524410075226469 0.059104024675996181 0 -0.00055137702847278904 0.057012578414165523 0 -0.001240713896633488 0.056893427181955621 0 -0.001353867154948771 0.057202473820665005 0 0.00059650048782989716 0.064352036499485607 0 0.00090857372429207833 0.064495154335558871 0 0.00089336552296883102 0.06418600222977501 0 0.00065990810703992625 0.064075940650010418 0 0.00059650048782989716 0.064352036499485607 0 0.00089336552296883102 0.06418600222977501 0 0.00090857372429207833 0.064495154335558871 0 0.0011381601579026365 0.064263788128441163 0 0.0013903583285406729 0.064282767851885123 0 -0.00067524410075226469 0.059104024675996181 0 -0.00091488996456143843 0.057534210425184758 0 0.0011079056827201848 0.064017423663609949 0 0.0011381601579026365 0.064263788128441163 0 0.0012692594760779622 0.064083460650881149 0 0.0011079056827201848 0.064017423663609949 0 0.00089336552296883102 0.06418600222977501 0 0.0011381601579026365 0.064263788128441163 0 0.00090857372429207833 0.064495154335558871 0 0.00089336552296883102 0.06418600222977501 0 0.0011381601579026365 0.064263788128441163 0 -0.001353867154948771 0.057202473820665005 0 -0.0019338965207634324 0.056774287775837227 0 -0.0021605523661754581 0.057393305381467682 0 -0.001240713896633488 0.056893427181955621 0 -0.001353867154948771 0.057202473820665005 0 -0.0019338965207634324 0.056774287775837227 0 -0.0010617283599172345 0.059249686120262074 0 -0.0019162946298240729 0.058110285133717757 0 -0.0007743576343316762 0.065031444340232752 0 -0.00089315509704236803 0.064502152282094619 0 -0.0014103965653266156 0.065047993473331775 0 -0.00089315509704236803 0.064502152282094619 0 -0.0014103965653266156 0.065047993473331775 0 -0.0015551863245210173 0.064586720310055731 0 -0.0007743576343316762 0.065031444340232752 0 -0.00089315509704236803 0.064502152282094619 0 -0.00038821652758697035 0.064608876174497759 0 -0.00089315509704236803 0.064502152282094619 0 -0.00024154316657604591 0.064135178865072043 0 -0.00038821652758697035 0.064608876174497759 0 -0.00089315509704236803 0.064502152282094619 0 -0.0007631404465879573 0.063898288425226449 0 -0.00024154316657604591 0.064135178865072043 0 -0.00089315509704236803 0.064502152282094619 0 -0.0012741249725558175 0.064126456523881104 0 -0.0007631404465879573 0.063898288425226449 0 -0.00089315509704236803 0.064502152282094619 0 -0.0012741249725558175 0.064126456523881104 0 -0.0015551863245210173 0.064586720310055731 0 -0.0012741249725558175 0.064126456523881104 0 -0.0007631404465879573 0.063898288425226449 0 -0.001213071502303371 0.063591022343577427 0 -0.0007631404465879573 0.063898288425226449 0 -0.00027835752664257332 0.063721967372371416 0 -0.00074969872115384641 0.063366594790699671 0 -0.0007631404465879573 0.063898288425226449 0 -0.001213071502303371 0.063591022343577427 0 -0.00074969872115384641 0.063366594790699671 0 -0.001213071502303371 0.063591022343577427 0 -0.0011883992336621729 0.063190887231381318 0 -0.00074969872115384641 0.063366594790699671 0 9.1098023973848339e-05 0.06358787670752826 0 -0.00027835752664257332 0.063721967372371416 0 -0.00026280313701390373 0.063192064441642659 0 -0.00027835752664257332 0.063721967372371416 0 -0.00026280313701390373 0.063192064441642659 0 -0.00074969872115384641 0.063366594790699671 0 -0.0007631404465879573 0.063898288425226449 0 -0.00027835752664257332 0.063721967372371416 0 -0.00024154316657604591 0.064135178865072043 0 9.1098023973848339e-05 0.06358787670752826 0 -0.00027835752664257332 0.063721967372371416 0 0.00011271027954595841 0.064112123998519871 0 -0.00027835752664257332 0.063721967372371416 0 -0.00024154316657604591 0.064135178865072043 0 0.00011271027954595841 0.064112123998519871 0 -8.6433801461784868e-05 0.064301385056243998 0 -1.8462359624055948e-05 0.064398751651192507 0 -0.00024154316657604591 0.064135178865072043 0 1.1401038599794088e-05 0.064362758069174783 0 0.00011271027954595841 0.064112123998519871 0 -0.00024154316657604591 0.064135178865072043 0 -0.00038821652758697035 0.064608876174497759 0 7.1796036310984454e-05 0.06468753393581779 0 -0.00038821652758697035 0.064608876174497759 0 -0.00013948772932571984 0.064726902362554933 0 7.1796036310984454e-05 0.06468753393581779 0 -0.0001771019091172069 0.064966613427343278 0 -0.00038821652758697035 0.064608876174497759 0 -0.00013948772932571984 0.064726902362554933 0 6.8440901682432877e-05 0.064767128399184803 0 -0.00013948772932571984 0.064726902362554933 0 7.1796036310984454e-05 0.06468753393581779 0 0.00019119613631595094 0.064385797708392256 0 0.00034462303346384081 0.064262693652809261 0 0.00018826022494067407 0.064467544707474359 0 1.1401038599794088e-05 0.064362758069174783 0 0.00019119613631595094 0.064385797708392256 0 0.00011271027954595841 0.064112123998519871 0 7.2082156897126712e-05 0.064436295377290745 0 0.00017299601513833928 0.064475359722853648 0 0.00018826022494067407 0.064467544707474359 0 0.00019353460806406864 0.064190594755932334 0 0.00019475475992264103 0.064306645194409373 0 0.00019353460806406864 0.064190594755932334 0 0.00018316288871927323 0.063859100095773627 0 0.00034462303346384081 0.064262693652809261 0 0.00011271027954595841 0.064112123998519871 0 0.00045538317642910902 0.063796522701421027 0 0.00019119613631595094 0.064385797708392256 0 0.00034462303346384081 0.064262693652809261 0 0.00011271027954595841 0.064112123998519871 0 9.1098023973848339e-05 0.06358787670752826 0 0.00011271027954595841 0.064112123998519871 0 0.00045538317642910902 0.063796522701421027 0 -4.9375115964916564e-05 0.064110068864104544 0 0.00018477042632358251 0.06382150414358595 0 0.00023082952944283614 0.064290284367988157 0 7.2082156897126712e-05 0.064436295377290745 0 -4.9375115964916564e-05 0.064110068864104544 0 0.00023082952944283614 0.064290284367988157 0 -4.9375115964916564e-05 0.064110068864104544 0 0.00018477042632358251 0.06382150414358595 0 5.2246381366545827e-05 0.063566262577914229 0 0.00018316288871927323 0.063859100095773627 0 0.00015484196956876939 0.063401032771324792 0 -4.9375115964916564e-05 0.064110068864104544 0 5.2246381366545827e-05 0.063566262577914229 0 -3.974805977525417e-05 0.063517213415796081 0 0.00045538317642910902 0.063796522701421027 0 0.00030231549181398396 0.06346939581518013 0 0.00049854971559207283 0.063213761972671104 0 9.1098023973848339e-05 0.06358787670752826 0 0.00045538317642910902 0.063796522701421027 0 0.00030231549181398396 0.06346939581518013 0 9.1098023973848339e-05 0.06358787670752826 0 0.00030231549181398396 0.06346939581518013 0 0.00016051441830690225 0.063270187751376619 0 0.00042621731381007987 0.064250962242086623 0 0.0004022272695506309 0.064372293115839238 0 0.00036486047896179552 0.063833388968113774 0 0.00044212506587448477 0.064367327158874443 0 0.00082884850440045096 0.06387848790225735 0 0.00036486047896179552 0.063833388968113774 0 0.00065618360611388561 0.06364613492690499 0 0.00053549933593783087 0.063522053795188008 0 0.00036486047896179552 0.063833388968113774 0 0.00018477042632358251 0.06382150414358595 0 0.00032208061970849739 0.063580192733619825 0 0.00036486047896179552 0.063833388968113774 0 0.00018477042632358251 0.06382150414358595 0 0.00023082952944283614 0.064290284367988157 0 0.00023082952944283614 0.064290284367988157 0 0.00044212506587448477 0.064367327158874443 0 0.00031776849181526273 0.064445688609995763 0 0.00036486047896179552 0.063833388968113774 0 0.00023082952944283614 0.064290284367988157 0 0.00044212506587448477 0.064367327158874443 0 0.00023082952944283614 0.064290284367988157 0 0.00031776849181526273 0.064445688609995763 0 0.00022094671035438279 0.064461173486692086 0 7.2082156897126712e-05 0.064436295377290745 0 0.00023082952944283614 0.064290284367988157 0 0.00022094671035438279 0.064461173486692086 0 7.2082156897126712e-05 0.064436295377290745 0 0.00022094671035438279 0.064461173486692086 0 0.00017299601513833928 0.064475359722853648 0 0.00031776849181526273 0.064445688609995763 0 0.00022094671035438279 0.064461173486692086 0 0.0002500087109785798 0.064480137610060134 0 0.00022094671035438279 0.064461173486692086 0 0.00019003349785584698 0.064469504158337868 0 0.0002500087109785798 0.064480137610060134 0 0.00019003349785584698 0.064469504158337868 0 0.00015705667397999018 0.064441722304656876 0 0.00020282685551130831 0.064478449462120668 0 0.00019003349785584698 0.064469504158337868 0 0.00020282685551130831 0.064478449462120668 0 0.0002500087109785798 0.064480137610060134 0 0.00019003349785584698 0.064469504158337868 0 0.00015705667397999018 0.064441722304656876 0 0.00013929870725565302 0.064427769908942167 0 0.00015705667397999018 0.064441722304656876 0 0.00013929870725565302 0.064427769908942167 0 0.00010188788796627487 0.064366016457345798 0 0.00013929870725565302 0.064427769908942167 0 0.00017299601513833928 0.064475359722853648 0 0.00015408708154273433 0.064422589439486519 0 0.00013929870725565302 0.064427769908942167 0 0.00015408708154273433 0.064422589439486519 0 8.1532789582721611e-05 0.064331596922267739 0 0.00019003349785584698 0.064469504158337868 0 0.00013929870725565302 0.064427769908942167 0 0.00017299601513833928 0.064475359722853648 0 0.00022094671035438279 0.064461173486692086 0 0.00019003349785584698 0.064469504158337868 0 0.00017299601513833928 0.064475359722853648 0 0.00017299601513833928 0.064475359722853648 0 0.00018826022494067407 0.064467544707474359 0 0.00015408708154273433 0.064422589439486519 0 0.00019119613631595094 0.064385797708392256 0 0.00018826022494067407 0.064467544707474359 0 0.0001811439266117006 0.064470817707827574 0 1.1401038599794088e-05 0.064362758069174783 0 0.00019119613631595094 0.064385797708392256 0 0.0001811439266117006 0.064470817707827574 0 0.00018826022494067407 0.064467544707474359 0 0.0001811439266117006 0.064470817707827574 0 0.00020708209663069862 0.064383050836445785 0 2.2038428335314884e-05 0.0643021361307798 0 -6.3550416930250971e-05 0.064639242992312107 0 -0.0002278990700794839 0.064165901076286211 0 2.4155536308393808e-05 0.064434516275046261 0 8.3082020323658726e-06 0.064356083912267881 0 0.00018826022494067407 0.064467544707474359 0 0.00015408708154273433 0.064422589439486519 0 0.00020708209663069862 0.064383050836445785 0 0.00015408708154273433 0.064422589439486519 0 0.00020708209663069862 0.064383050836445785 0 8.1532789582721611e-05 0.064331596922267739 0 8.3082020323658726e-06 0.064356083912267881 0 -2.1168160423648808e-06 0.064309685518906229 0 -0.0002278990700794839 0.064165901076286211 0 -0.00017232582433662584 0.064058353136502794 0 1.0216953618818239e-06 0.064145290769227162 0 0.00020708209663069862 0.064383050836445785 0 1.0216953618818239e-06 0.064145290769227162 0 8.1532789582721611e-05 0.064331596922267739 0 -1.5004887448104521e-05 0.064068714360982465 0 2.2038428335314884e-05 0.0643021361307798 0 -0.0002278990700794839 0.064165901076286211 0 -1.5004887448104521e-05 0.064068714360982465 0 -0.0002278990700794839 0.064165901076286211 0 -0.00017232582433662584 0.064058353136502794 0 -1.5004887448104521e-05 0.064068714360982465 0 -0.00011475989117644673 0.06396475162258905 0 -0.00017232582433662584 0.064058353136502794 0 2.3523152739826007e-05 0.063780125919743913 0 -1.5004887448104521e-05 0.064068714360982465 0 -0.00011475989117644673 0.06396475162258905 0 -0.00011475989117644673 0.06396475162258905 0 -0.00017232582433662584 0.064058353136502794 0 -0.00023843901680152473 0.063976842176345264 0 -0.00018461536115956613 0.063678888423646843 0 -0.00011475989117644673 0.06396475162258905 0 -0.00023843901680152473 0.063976842176345264 0 -0.00018461536115956613 0.063678888423646843 0 2.3523152739826007e-05 0.063780125919743913 0 -0.00011475989117644673 0.06396475162258905 0 -0.00017232582433662584 0.064058353136502794 0 -0.00023843901680152473 0.063976842176345264 0 1.0216953618818239e-06 0.064145290769227162 0 -0.00018798659879675278 0.064174676822759485 0 -0.00023843901680152473 0.063976842176345264 0 1.0216953618818239e-06 0.064145290769227162 0 0.00010384519705334958 0.064372822918615916 0 4.3298377179806923e-05 0.064265067763109418 0 6.8078422832239472e-05 0.064276601267270875 0 1.0216953618818239e-06 0.064145290769227162 0 6.8078422832239472e-05 0.064276601267270875 0 8.1532789582721611e-05 0.064331596922267739 0 4.3298377179806923e-05 0.064265067763109418 0 1.0216953618818239e-06 0.064145290769227162 0 6.8078422832239472e-05 0.064276601267270875 0 0.00010384519705334958 0.064372822918615916 0 6.8078422832239472e-05 0.064276601267270875 0 0.00010129542505742295 0.064365074595392868 0 0.00010384519705334958 0.064372822918615916 0 0.00010129542505742295 0.064365074595392868 0 0.0001224292832851617 0.064423828658340718 0 0.00010129542505742295 0.064365074595392868 0 0.00010188788796627487 0.064366016457345798 0 0.00013492417617876699 0.064417746183936295 0 6.8078422832239472e-05 0.064276601267270875 0 0.00010129542505742295 0.064365074595392868 0 0.00010188788796627487 0.064366016457345798 0 0.00015705667397999018 0.064441722304656876 0 0.00010188788796627487 0.064366016457345798 0 0.00013492417617876699 0.064417746183936295 0 0.00013929870725565302 0.064427769908942167 0 0.00010188788796627487 0.064366016457345798 0 8.1532789582721611e-05 0.064331596922267739 0 6.8078422832239472e-05 0.064276601267270875 0 0.00010188788796627487 0.064366016457345798 0 8.1532789582721611e-05 0.064331596922267739 0 0.00016035144455817254 0.06445100116895694 0 0.00017693319844820922 0.064458111429968393 0 0.00016920008124210979 0.064490122237437011 0 0.00016035144455817254 0.06445100116895694 0 0.00013492417617876699 0.064417746183936295 0 0.0001224292832851617 0.064423828658340718 0 0.00016035144455817254 0.06445100116895694 0 0.00013492417617876699 0.064417746183936295 0 0.00018185973470893424 0.064475576070699814 0 0.00010129542505742295 0.064365074595392868 0 0.00013492417617876699 0.064417746183936295 0 0.0001224292832851617 0.064423828658340718 0 0.00010384519705334958 0.064372822918615916 0 0.0001224292832851617 0.064423828658340718 0 0.00014524150349433677 0.064508907552565872 0 0.00016035144455817254 0.06445100116895694 0 0.0001224292832851617 0.064423828658340718 0 0.00014524150349433677 0.064508907552565872 0 5.0737469578930298e-05 0.06411566588295646 0 9.2700143986164033e-05 0.06417944895964775 0 0.00016035144455817254 0.06445100116895694 0 0.00014524150349433677 0.064508907552565872 0 0.00017693319844820922 0.064458111429968393 0 0.00012235543213143604 0.064632865002121911 0 0.00011425472570119283 0.064645025835132097 0 0.0001533896424845333 0.064577994285416052 0 0.00014524150349433677 0.064508907552565872 0 0.00017693319844820922 0.064458111429968393 0 0.00011724755247573707 0.064677416016615932 0 0.00011418293391311875 0.064784963868799228 0 7.4236011631310971e-05 0.064727401656122077 0 0.00011724755247573707 0.064677416016615932 0 0.0001533896424845333 0.064577994285416052 0 0.00011418293391311875 0.064784963868799228 0 0.00011418293391311875 0.064784963868799228 0 4.1763988969716009e-05 0.064805980452233528 0 7.4236011631310971e-05 0.064727401656122077 0 4.1763988969716009e-05 0.064805980452233528 0 7.4236011631310971e-05 0.064727401656122077 0 3.0151344801772403e-05 0.064771060502305605 0 0.00011425472570119283 0.064645025835132097 0 8.4102908723887061e-05 0.064680049497428629 0 0.00011418293391311875 0.064784963868799228 0 4.1763988969716009e-05 0.064805980452233528 0 1.7219046366731061e-05 0.06485113350089243 0 0.00017693319844820922 0.064458111429968393 0 0.00016920008124210979 0.064490122237437011 0 0.00010023907437526498 0.064530969189531176 0 0.00016920008124210979 0.064490122237437011 0 0.00010023907437526498 0.064530969189531176 0 0.0001693467947408131 0.064557627863713177 0 0.00010023907437526498 0.064530969189531176 0 0.00011145496243792262 0.06465911011855266 0 0.0001693467947408131 0.064557627863713177 0 0.00011145496243792262 0.06465911011855266 0 0.0001693467947408131 0.064557627863713177 0 0.00017671941635154573 0.064607880552483787 0 0.0001693467947408131 0.064557627863713177 0 0.00021411317845840264 0.064520722968074415 0 0.00018185973470893424 0.064475576070699814 0 0.00016920008124210979 0.064490122237437011 0 0.0001693467947408131 0.064557627863713177 0 0.00018185973470893424 0.064475576070699814 0 0.00016035144455817254 0.06445100116895694 0 0.00016920008124210979 0.064490122237437011 0 0.00018185973470893424 0.064475576070699814 0 0.00015705667397999018 0.064441722304656876 0 0.00013492417617876699 0.064417746183936295 0 0.00018185973470893424 0.064475576070699814 0 0.00015705667397999018 0.064441722304656876 0 0.00018185973470893424 0.064475576070699814 0 0.00020282685551130831 0.064478449462120668 0 0.00021411317845840264 0.064520722968074415 0 0.00018185973470893424 0.064475576070699814 0 0.00020282685551130831 0.064478449462120668 0 0.00021411317845840264 0.064520722968074415 0 0.00020282685551130831 0.064478449462120668 0 0.0002500087109785798 0.064480137610060134 0 0.00031776849181526273 0.064445688609995763 0 0.0002500087109785798 0.064480137610060134 0 0.00027823161135452726 0.064501874835318371 0 0.00021411317845840264 0.064520722968074415 0 0.0002500087109785798 0.064480137610060134 0 0.00027823161135452726 0.064501874835318371 0 0.00021411317845840264 0.064520722968074415 0 0.00027823161135452726 0.064501874835318371 0 0.00017671941635154573 0.064607880552483787 0 0.00027823161135452726 0.064501874835318371 0 0.00023386330030875584 0.064594675372615415 0 0.00017671941635154573 0.064607880552483787 0 0.00044212506587448477 0.064367327158874443 0 0.00031776849181526273 0.064445688609995763 0 0.00027823161135452726 0.064501874835318371 0 0.00044212506587448477 0.064367327158874443 0 0.00027823161135452726 0.064501874835318371 0 0.00023386330030875584 0.064594675372615415 0 0.00044212506587448477 0.064367327158874443 0 0.00023386330030875584 0.064594675372615415 0 0.00033096073437305042 0.064698635961297213 0 0.00023386330030875584 0.064594675372615415 0 0.00033096073437305042 0.064698635961297213 0 0.00017365955189798358 0.064761097435407936 0 0.0004022272695506309 0.064372293115839238 0 0.00018758185540986507 0.064636362466336861 0 0.00042992312554577047 0.064350897548666824 0 0.0004022272695506309 0.064372293115839238 0 8.9559959779216187e-05 0.06483703310369246 0 0.00017365955189798358 0.064761097435407936 0 0.0001151853926838293 0.064732654348001531 0 9.1969693845419365e-05 0.0647766130728437 0 0.00018758185540986507 0.064636362466336861 0 0.00023386330030875584 0.064594675372615415 0 0.00017365955189798358 0.064761097435407936 0 0.0001151853926838293 0.064732654348001531 0 0.0001151853926838293 0.064732654348001531 0 0.00017671941635154573 0.064607880552483787 0 9.1690120152932767e-05 0.064718068958669245 0 0.00023386330030875584 0.064594675372615415 0 0.0001151853926838293 0.064732654348001531 0 0.00017671941635154573 0.064607880552483787 0 0.0001693467947408131 0.064557627863713177 0 0.00021411317845840264 0.064520722968074415 0 0.00017671941635154573 0.064607880552483787 0 0.00011145496243792262 0.06465911011855266 0 0.00017671941635154573 0.064607880552483787 0 9.1690120152932767e-05 0.064718068958669245 0 0.00011145496243792262 0.06465911011855266 0 9.1690120152932767e-05 0.064718068958669245 0 1.9122159721632138e-05 0.06478819452872206 0 4.8843609639399706e-05 0.064804557371725066 0 1.284082930124861e-05 0.064891899042997761 0 1.9122159721632138e-05 0.06478819452872206 0 9.1690120152932767e-05 0.064718068958669245 0 4.8843609639399706e-05 0.064804557371725066 0 1.9122159721632138e-05 0.06478819452872206 0 4.8843609639399706e-05 0.064804557371725066 0 1.6954739463336369e-05 0.064900489695924574 0 1.284082930124861e-05 0.064891899042997761 0 0.0001151853926838293 0.064732654348001531 0 9.1690120152932767e-05 0.064718068958669245 0 4.8843609639399706e-05 0.064804557371725066 0 8.9559959779216187e-05 0.06483703310369246 0 0.0001151853926838293 0.064732654348001531 0 4.7189255597931084e-05 0.064849298470386063 0 0.0001151853926838293 0.064732654348001531 0 4.8843609639399706e-05 0.064804557371725066 0 4.7189255597931084e-05 0.064849298470386063 0 4.8843609639399706e-05 0.064804557371725066 0 4.7189255597931084e-05 0.064849298470386063 0 1.6954739463336369e-05 0.064900489695924574 0 4.7189255597931084e-05 0.064849298470386063 0 1.9940566331797477e-05 0.064917648000393832 0 1.6954739463336369e-05 0.064900489695924574 0 4.7189255597931084e-05 0.064849298470386063 0 3.3177915050640685e-05 0.064907994423677659 0 1.9940566331797477e-05 0.064917648000393832 0 8.9559959779216187e-05 0.06483703310369246 0 4.7189255597931084e-05 0.064849298470386063 0 3.3177915050640685e-05 0.064907994423677659 0 9.1969693845419365e-05 0.0647766130728437 0 3.7637621850035839e-05 0.064850109834241887 0 -1.1129320424352505e-09 0.064999931610509556 0 3.2465828958207502e-06 0.064979783156163845 0 4.4204899036774177e-06 0.064959035593442183 0 3.2465828958207502e-06 0.064979783156163845 0 1.9940566331797477e-05 0.064917648000393832 0 4.4204899036774177e-06 0.064959035593442183 0 3.3177915050640685e-05 0.064907994423677659 0 3.2465828958207502e-06 0.064979783156163845 0 1.9940566331797477e-05 0.064917648000393832 0 3.7637621850035839e-05 0.064850109834241887 0 1.4889845213948814e-05 0.064875295534635738 0 4.9910691206299867e-05 0.064964190774199168 0 3.2465828958207502e-06 0.064979783156163845 0 2.5430670319949022e-05 0.064981246154438357 0 1.9940566331797477e-05 0.064917648000393832 0 1.6954739463336369e-05 0.064900489695924574 0 4.4204899036774177e-06 0.064959035593442183 0 1.6954739463336369e-05 0.064900489695924574 0 4.4204899036774177e-06 0.064959035593442183 0 -1.6840283825193041e-09 0.064999886070485402 0 -1.1129320424352505e-09 0.064999931610509556 0 4.4204899036774177e-06 0.064959035593442183 0 -1.6840283825193041e-09 0.064999886070485402 0 1.6954739463336369e-05 0.064900489695924574 0 -1.6840283825193041e-09 0.064999886070485402 0 1.284082930124861e-05 0.064891899042997761 0 -1.6840283825193041e-09 0.064999886070485402 0 1.284082930124861e-05 0.064891899042997761 0 1.0183118224152055e-08 0.064999871936150991 0 1.284082930124861e-05 0.064891899042997761 0 1.0183118224152055e-08 0.064999871936150991 0 9.2087813200605644e-06 0.064913180462803519 0 1.0183118224152055e-08 0.064999871936150991 0 9.2087813200605644e-06 0.064913180462803519 0 1.8718254612484672e-09 0.064999893542848478 0 9.2087813200605644e-06 0.064913180462803519 0 1.8718254612484672e-09 0.064999893542848478 0 4.2861742814052561e-06 0.064905650393242337 0 1.284082930124861e-05 0.064891899042997761 0 9.2087813200605644e-06 0.064913180462803519 0 1.9122159721632138e-05 0.06478819452872206 0 1.9122159721632138e-05 0.06478819452872206 0 1.7332373357217285e-08 0.064872341311104795 0 4.2861742814052561e-06 0.064905650393242337 0 1.7219046366731061e-05 0.06485113350089243 0 1.9122159721632138e-05 0.06478819452872206 0 1.7332373357217285e-08 0.064872341311104795 0 0.00010023907437526498 0.064530969189531176 0 0.00011145496243792262 0.06465911011855266 0 1.9122159721632138e-05 0.06478819452872206 0 8.4102908723887061e-05 0.064680049497428629 0 6.2015354327954288e-05 0.064708351136086098 0 9.2087813200605644e-06 0.064913180462803519 0 1.9122159721632138e-05 0.06478819452872206 0 4.2861742814052561e-06 0.064905650393242337 0 1.7332373357217285e-08 0.064872341311104795 0 -3.6554419514891239e-05 0.064889596312543471 0 4.2861742814052561e-06 0.064905650393242337 0 4.1763988969716009e-05 0.064805980452233528 0 1.7219046366731061e-05 0.06485113350089243 0 1.7332373357217285e-08 0.064872341311104795 0 -1.190393431911242e-05 0.064819309421094068 0 1.7332373357217285e-08 0.064872341311104795 0 3.0151344801772403e-05 0.064771060502305605 0 4.1763988969716009e-05 0.064805980452233528 0 1.7332373357217285e-08 0.064872341311104795 0 3.0151344801772403e-05 0.064771060502305605 0 -1.190393431911242e-05 0.064819309421094068 0 1.7332373357217285e-08 0.064872341311104795 0 -3.6554419514891239e-05 0.064889596312543471 0 -1.5981562354752827e-05 0.064953951648610161 0 -3.6554419514891239e-05 0.064889596312543471 0 -5.3858818549607844e-06 0.064945599420177205 0 -3.6554419514891239e-05 0.064889596312543471 0 -5.3858818549607844e-06 0.064945599420177205 0 4.2861742814052561e-06 0.064905650393242337 0 5.2300051899145949e-09 0.064999920116511289 0 -5.3858818549607844e-06 0.064945599420177205 0 1.8718254612484672e-09 0.064999893542848478 0 5.2300051899145949e-09 0.064999920116511289 0 -4.4179709957830758e-06 0.064975098526886724 0 -5.3858818549607844e-06 0.064945599420177205 0 -5.3858818549607844e-06 0.064945599420177205 0 1.8718254612484672e-09 0.064999893542848478 0 4.2861742814052561e-06 0.064905650393242337 0 -0.0055459745291350244 0.038633488247720227 0 -0.0057412691461538323 0.038625931158919276 0 -0.0055468512880595148 0.038792128914088758 0 -0.0057412691461538323 0.038625931158919276 0 -0.0055468512880595148 0.038792128914088758 0 -0.0058526035541208539 0.038795812067494898 0 -0.0055468512880595148 0.038792128914088758 0 -0.0058526035541208539 0.038795812067494898 0 -0.0056402119855489714 0.039101436804438817 0 -0.0055468512880595148 0.038792128914088758 0 -0.0053899694743885706 0.038693621695866966 0 -0.0053464462883500603 0.038923148086523515 0 -0.0053899694743885706 0.038693621695866966 0 -0.0053464462883500603 0.038923148086523515 0 -0.0052103142423406993 0.038726759352214514 0 -0.0053899694743885706 0.038693621695866966 0 -0.0052530309222253609 0.038547037555330309 0 -0.0052103142423406993 0.038726759352214514 0 -0.0054444602852102711 0.038588093375993053 0 -0.0053899694743885706 0.038693621695866966 0 -0.0052530309222253609 0.038547037555330309 0 -0.0055459745291350244 0.038633488247720227 0 -0.0054444602852102711 0.038588093375993053 0 -0.0053899694743885706 0.038693621695866966 0 -0.0055459745291350244 0.038633488247720227 0 -0.0055468512880595148 0.038792128914088758 0 -0.0053899694743885706 0.038693621695866966 0 -0.0052530309222253609 0.038547037555330309 0 -0.0055883807896260611 0.038478391069791201 0 -0.0050451126852233937 0.038484638767123082 0 -0.0046654207683987283 0.02443581873509269 0 -0.0073593204947939566 0.025210878252363435 0 -0.0019742448738972141 0.025460149555719489 0 -0.0055268690385981856 0.03367376330402283 0 -0.0042816697032347579 0.028399823030004649 0 -0.0054444602852102711 0.038588093375993053 0 -0.0052530309222253609 0.038547037555330309 0 -0.0055883807896260611 0.038478391069791201 0 -0.0046654207683987283 0.02443581873509269 0 -0.0030999674971595569 0.023793381742471274 0 -0.0041856894912177794 0.023110098070900115 0 -0.0046654207683987283 0.02443581873509269 0 -0.0056337986417116601 0.022834415720201579 0 -0.0041856894912177794 0.023110098070900115 0 -0.0046654207683987283 0.02443581873509269 0 -0.0061310501294773185 0.024513076612807553 0 -0.0073593204947939566 0.025210878252363435 0 -0.0046654207683987283 0.02443581873509269 0 -0.0061310501294773185 0.024513076612807553 0 -0.0056337986417116601 0.022834415720201579 0 -0.0061310501294773185 0.024513076612807553 0 -0.0065962201942691267 0.023585279565835587 0 -0.0056337986417116601 0.022834415720201579 0 -0.0061310501294773185 0.024513076612807553 0 -0.0065962201942691267 0.023585279565835587 0 -0.0068925769075149522 0.024478826352005399 0 -0.0074548214095099003 0.024478431077266428 0 -0.0073593204947939566 0.025210878252363435 0 -0.010645279226544858 0.025128767733543392 0 -0.0065962201942691267 0.023585279565835587 0 -0.0074548214095099003 0.024478431077266428 0 -0.0068925769075149522 0.024478826352005399 0 -0.0061310501294773185 0.024513076612807553 0 -0.0068925769075149522 0.024478826352005399 0 -0.0073593204947939566 0.025210878252363435 0 -0.0074548214095099003 0.024478431077266428 0 -0.0068925769075149522 0.024478826352005399 0 -0.0073593204947939566 0.025210878252363435 0 -0.0055459745291350244 0.038633488247720227 0 -0.0057412691461538323 0.038625931158919276 0 -0.0055883807896260611 0.038478391069791201 0 -0.0055459745291350244 0.038633488247720227 0 -0.0054444602852102711 0.038588093375993053 0 -0.0055883807896260611 0.038478391069791201 0 -0.0055268690385981856 0.03367376330402283 0 -0.0027778479867277784 0.040412914361528343 0 -0.0057412691461538323 0.038625931158919276 0 -0.0055883807896260611 0.038478391069791201 0 -0.0062084300751159317 0.03839944985811599 0 -0.0027778479867277784 0.040412914361528343 0 -0.0015031413624808302 0.033977104173177466 0 -0.0074548214095099003 0.024478431077266428 0 -0.010645279226544858 0.025128767733543392 0 -0.008656930027149198 0.023134226631996064 0 0.0022984216341021923 0.040285513549096465 0 0.0019647465346157816 0.039925871067785536 0 0.001643651913517319 0.040294825253427702 0 -0.0027778479867277784 0.040412914361528343 0 5.1909822124188897e-05 0.045680732570462838 0 -0.0027778479867277784 0.040412914361528343 0 -0.0045803439228105812 0.046394245387361061 0 -0.0062084300751159317 0.03839944985811599 0 -0.006158234738973839 0.039046224926163803 0 -0.0066623474422938742 0.038736161600730339 0 -0.0062084300751159317 0.03839944985811599 0 -0.0058526035541208539 0.038795812067494898 0 -0.006158234738973839 0.039046224926163803 0 -0.0057412691461538323 0.038625931158919276 0 -0.0062084300751159317 0.03839944985811599 0 -0.0058526035541208539 0.038795812067494898 0 -0.0058526035541208539 0.038795812067494898 0 -0.006158234738973839 0.039046224926163803 0 -0.0056402119855489714 0.039101436804438817 0 -0.006158234738973839 0.039046224926163803 0 -0.005866772073714545 0.03941276539868642 0 -0.0056402119855489714 0.039101436804438817 0 -0.006158234738973839 0.039046224926163803 0 -0.0061391313836104341 0.039606091802579554 0 -0.0066135314691741628 0.039281806451536123 0 -0.006158234738973839 0.039046224926163803 0 -0.0066623474422938742 0.038736161600730339 0 -0.0066135314691741628 0.039281806451536123 0 -0.0061391313836104341 0.039606091802579554 0 -0.0066135314691741628 0.039281806451536123 0 -0.0069030004410892956 0.039994138706115699 0 -0.0061391313836104341 0.039606091802579554 0 -0.005866772073714545 0.03941276539868642 0 -0.0058376588976841136 0.039639968330897293 0 -0.006158234738973839 0.039046224926163803 0 -0.0061391313836104341 0.039606091802579554 0 -0.005866772073714545 0.03941276539868642 0 -0.005866772073714545 0.03941276539868642 0 -0.0055445093771286048 0.039502633809531715 0 -0.0058376588976841136 0.039639968330897293 0 -0.005866772073714545 0.03941276539868642 0 -0.0055445093771286048 0.039502633809531715 0 -0.0056402119855489714 0.039101436804438817 0 -0.0055468512880595148 0.038792128914088758 0 -0.0056402119855489714 0.039101436804438817 0 -0.0053464462883500603 0.038923148086523515 0 -0.0056402119855489714 0.039101436804438817 0 -0.0053464462883500603 0.038923148086523515 0 -0.0052856313708923384 0.039212526253587558 0 -0.0055445093771286048 0.039502633809531715 0 -0.0056402119855489714 0.039101436804438817 0 -0.0052856313708923384 0.039212526253587558 0 -0.0055445093771286048 0.039502633809531715 0 -0.0052856313708923384 0.039212526253587558 0 -0.0052340072654645147 0.039474304877120232 0 -0.0052856313708923384 0.039212526253587558 0 -0.0049164458020061752 0.03927027159840623 0 -0.0052340072654645147 0.039474304877120232 0 -0.0047022141403025462 0.036706160322765385 0 -0.0034187627761848201 0.036832090539966118 0 -0.0039220562088478229 0.037911353953920104 0 -0.0047022141403025462 0.036706160322765385 0 -0.0034187627761848201 0.036832090539966118 0 -0.0043682003145868176 0.035226197486672522 0 -0.0049164458020061752 0.03927027159840623 0 -0.0050924283512277574 0.038944587530664862 0 -0.0047849273995977208 0.038815989149807793 0 -0.0044379033565415194 0.036879473543517276 0 -0.0033102302791341901 0.032287375001329464 0 -0.0052856313708923384 0.039212526253587558 0 -0.0049164458020061752 0.03927027159840623 0 -0.0050924283512277574 0.038944587530664862 0 -0.0053464462883500603 0.038923148086523515 0 -0.0052856313708923384 0.039212526253587558 0 -0.0050924283512277574 0.038944587530664862 0 -0.0023408424655065063 0.022527077906459494 0 -0.0022028413986187518 0.022446237248002814 0 -0.0021918019217349372 0.037294946391197334 0 -0.0034187627761848201 0.036832090539966118 0 -0.0029738007851733326 0.035415887139098663 0 -0.0021918019217349372 0.037294946391197334 0 -0.0034187627761848201 0.036832090539966118 0 -0.0030537513974878108 0.037882258744745434 0 -0.0034187627761848201 0.036832090539966118 0 -0.0029738007851733326 0.035415887139098663 0 -0.0046709361644096834 0.034748283179268015 0 -0.0027389835133507312 0.034620271453693424 0 -0.0033102302791341901 0.032287375001329464 0 -0.0024199021706385834 0.0077178554192051402 0 -0.001491667249444391 0.0093875875468210496 0 -0.002432105243665383 0.0091160356245122368 0 -0.001491667249444391 0.0093875875468210496 0 -0.002432105243665383 0.0091160356245122368 0 -0.002171171980753252 0.010077921064616312 0 -0.0028669904620897261 0.0097743905386756709 0 -0.002432105243665383 0.0091160356245122368 0 -0.002171171980753252 0.010077921064616312 0 -0.001491667249444391 0.0093875875468210496 0 -0.002171171980753252 0.010077921064616312 0 -0.0015404329425804395 0.010476094006018864 0 -0.0028221244108771722 0.010428783320426765 0 -0.002171171980753252 0.010077921064616312 0 -0.0021364047264164944 0.011026257785499392 0 -0.002171171980753252 0.010077921064616312 0 -0.0015404329425804395 0.010476094006018864 0 -0.0021364047264164944 0.011026257785499392 0 -0.0022028413986187518 0.022446237248002814 0 -0.0018790213078094782 0.022694756930535031 0 -0.0029738007851733326 0.035415887139098663 0 -0.0039755607749746178 0.033360993258752775 0 -0.0046709361644096834 0.034748283179268015 0 -0.001491667249444391 0.0093875875468210496 0 -0.0015404329425804395 0.010476094006018864 0 -0.00062270017424754002 0.011084452557115444 0 -0.00020285361512759699 0.011211929468060097 0 -0.0012040249527896043 0.011845106776415228 0 -0.0017872501447362885 0.011143112906043267 0 -0.0018790213078094782 0.022694756930535031 0 -0.0021754002856839249 0.018385973993723048 0 -0.0015404329425804395 0.010476094006018864 0 -0.00062270017424754002 0.011084452557115444 0 -0.0021364047264164944 0.011026257785499392 0 -0.00020285361512759699 0.011211929468060097 0 0.000517736723234936 0.01262194748275489 0 -0.00057334580667020693 0.012220929596883463 0 -0.00020285361512759699 0.011211929468060097 0 -0.0012040249527896043 0.011845106776415228 0 -0.00057334580667020693 0.012220929596883463 0 -0.0012040249527896043 0.011845106776415228 0 -0.0018680325104575373 0.011987181778840875 0 -0.0017872501447362885 0.011143112906043267 0 -0.0026346872576867107 0.011553614891939909 0 -0.0018680325104575373 0.011987181778840875 0 -0.0017872501447362885 0.011143112906043267 0 -0.0050924283512277574 0.038944587530664862 0 -0.0050188932107410721 0.038697309448061823 0 -0.0047849273995977208 0.038815989149807793 0 -0.0050188932107410721 0.038697309448061823 0 -0.0052103142423406993 0.038726759352214514 0 -0.0050624385245071242 0.038488644663893769 0 -0.0052530309222253609 0.038547037555330309 0 -0.0052103142423406993 0.038726759352214514 0 -0.0050451126852233937 0.038484638767123082 0 -0.0053697819243769297 0.030691077115318561 0 -0.0042816697032347579 0.028399823030004649 0 -0.0050924283512277574 0.038944587530664862 0 -0.0050188932107410721 0.038697309448061823 0 -0.0052103142423406993 0.038726759352214514 0 -0.0053464462883500603 0.038923148086523515 0 -0.0050924283512277574 0.038944587530664862 0 -0.0052103142423406993 0.038726759352214514 0 -0.0033102302791341901 0.032287375001329464 0 -0.0026741608209841579 0.024864867862501954 0 -0.0050188932107410721 0.038697309448061823 0 -0.0047849273995977208 0.038815989149807793 0 -0.0049657570409146435 0.038489197139684878 0 -0.0039755607749746178 0.033360993258752775 0 -0.0046709361644096834 0.034748283179268015 0 -0.004361051921769713 0.033353876982685202 0 -0.0033102302791341901 0.032287375001329464 0 -0.0035229112792661507 0.027626308914432622 0 -0.0045338254283890465 0.026855870495344568 0 -0.0049143171805661589 0.028545158815436896 0 -0.0035122234400161915 0.028567644856369749 0 -0.0018790213078094782 0.022694756930535031 0 -0.0019013949456529989 0.020011327166697557 0 -0.0014686452958069278 0.023666045996835704 0 -0.00045204250270360177 0.023583075143854569 0 -0.00072017855593855163 0.023131307584700112 0 -0.0027699729838839807 0.023096232955265097 0 -0.0022503085501134321 0.023104881356972324 0 -0.0016411776634886229 0.025277858484912159 0 -0.0022503085501134321 0.023104881356972324 0 -0.0014686452958069278 0.023666045996835704 0 -0.0016411776634886229 0.025277858484912159 0 -0.0022503085501134321 0.023104881356972324 0 -0.0014686452958069278 0.023666045996835704 0 -0.00072017855593855163 0.023131307584700112 0 -0.0026741608209841579 0.024864867862501954 0 -0.0035229112792661507 0.027626308914432622 0 -0.0018790213078094782 0.022694756930535031 0 -0.0026741608209841579 0.024864867862501954 0 -0.0014686452958069278 0.023666045996835704 0 -0.00045204250270360177 0.023583075143854569 0 -0.0016411776634886229 0.025277858484912159 0 -0.0014384632572969523 0.024715220825837065 0 -0.0019742448738972141 0.025460149555719489 0 -0.0030999674971595569 0.023793381742471274 0 -0.0037787155379508733 0.026358879238527446 0 -0.0035229112792661507 0.027626308914432622 0 -0.0035229112792661507 0.027626308914432622 0 -0.0042816697032347579 0.028399823030004649 0 -0.0050188932107410721 0.038697309448061823 0 -0.0049657570409146435 0.038489197139684878 0 -0.0050624385245071242 0.038488644663893769 0 -0.0034705796121506176 0.032261294653765128 0 -0.006672330246419951 0.026860813717342356 0 0.00023090725115277713 0.026970522511006741 0 -0.0037787155379508733 0.026358879238527446 0 -0.0042816697032347579 0.028399823030004649 0 -0.0046654207683987283 0.02443581873509269 0 -0.0019742448738972141 0.025460149555719489 0 -0.0030999674971595569 0.023793381742471274 0 -0.0030999674971595569 0.023793381742471274 0 -0.0033325467893060776 0.021346688862155606 0 -0.0041856894912177794 0.023110098070900115 0 -0.0026959360894374539 0.02247245621666381 0 -0.0040495126093795216 0.020176074962847138 0 -0.0027142579691351388 0.020207563783289275 0 -0.0014384632572969523 0.024715220825837065 0 -0.0030999674971595569 0.023793381742471274 0 -0.0033325467893060776 0.021346688862155606 0 -0.0037787155379508733 0.026358879238527446 0 -0.0047808840488247784 0.022777176720655507 0 -0.0040495126093795216 0.020176074962847138 0 -0.0027142579691351388 0.020207563783289275 0 -0.0033399140527492813 0.01905527665076405 0 -0.0026959360894374539 0.02247245621666381 0 -0.0027142579691351388 0.020207563783289275 0 -0.0012965946448639325 0.020476360984082287 0 -0.0037787155379508733 0.026358879238527446 0 -0.0019013949456529989 0.020011327166697557 0 -0.0019013949456529989 0.020011327166697557 0 -0.0011535965025420234 0.017317007161760736 0 -0.0027142579691351388 0.020207563783289275 0 -0.0012965946448639325 0.020476360984082287 0 -0.0020767549307697765 0.018942086121353396 0 -0.0019013949456529989 0.020011327166697557 0 -0.0019302944695303681 0.019907953500832985 0 -0.0020767549307697765 0.018942086121353396 0 -0.0012078043646008318 0.017623756544277905 0 6.2630644474831807e-05 0.018600974994007306 0 -0.0012711226375917953 0.020504653198777648 0 -0.0020767549307697765 0.018942086121353396 0 6.2630644474831807e-05 0.018600974994007306 0 -0.0012078043646008318 0.017623756544277905 0 6.2630644474831807e-05 0.018600974994007306 0 -0.00070849779811558045 0.016064769357391002 0 -0.0020767549307697765 0.018942086121353396 0 -0.0012078043646008318 0.017623756544277905 0 -0.0021056957528480936 0.016875150519496954 0 -0.0020767549307697765 0.018942086121353396 0 -0.0034594938880005131 0.017546427816501269 0 -0.0021056957528480936 0.016875150519496954 0 -0.0034594938880005131 0.017546427816501269 0 -0.0040851257368460124 0.018698745430160424 0 -0.0033399140527492813 0.01905527665076405 0 -0.0034594938880005131 0.017546427816501269 0 -0.0040851257368460124 0.018698745430160424 0 -0.0054712467272276582 0.017969770916374812 0 -0.0040495126093795216 0.020176074962847138 0 -0.0040851257368460124 0.018698745430160424 0 -0.0033399140527492813 0.01905527665076405 0 -0.0027142579691351388 0.020207563783289275 0 -0.0020767549307697765 0.018942086121353396 0 -0.0033399140527492813 0.01905527665076405 0 -0.0020767549307697765 0.018942086121353396 0 -0.0034594938880005131 0.017546427816501269 0 -0.0033399140527492813 0.01905527665076405 0 -0.0028849459859160509 0.01284120526936568 0 -0.0016067678504453229 0.01266857295480775 0 -0.0023074991643671204 0.013424765986105936 0 -0.0026330836818429784 0.012242070152233143 0 -0.0018680325104575373 0.011987181778840875 0 -0.0016067678504453229 0.01266857295480775 0 -0.0012040249527896043 0.011845106776415228 0 -0.0018680325104575373 0.011987181778840875 0 -0.0016067678504453229 0.01266857295480775 0 -0.0016067678504453229 0.01266857295480775 0 -0.00070889259803913961 0.013002847443666218 0 -0.00149548089675668 0.013688894987290087 0 0.000517736723234936 0.01262194748275489 0 -0.00070889259803913961 0.013002847443666218 0 -0.00019715265909628617 0.013629623906496711 0 0.000517736723234936 0.01262194748275489 0 -0.00070889259803913961 0.013002847443666218 0 -0.00057334580667020693 0.012220929596883463 0 -0.0016067678504453229 0.01266857295480775 0 -0.00070889259803913961 0.013002847443666218 0 -0.00057334580667020693 0.012220929596883463 0 -0.0012040249527896043 0.011845106776415228 0 -0.0016067678504453229 0.01266857295480775 0 -0.00057334580667020693 0.012220929596883463 0 -0.00019715265909628617 0.013629623906496711 0 -0.00149548089675668 0.013688894987290087 0 -0.00091073644796126237 0.014635534810654119 0 -0.00070889259803913961 0.013002847443666218 0 -0.00019715265909628617 0.013629623906496711 0 -0.00149548089675668 0.013688894987290087 0 -0.0011535965025420234 0.017317007161760736 0 -0.001485169386237868 0.016079238290983691 0 -0.0026255308679107746 0.0141144815541192 0 -0.00149548089675668 0.013688894987290087 0 -0.0023074991643671204 0.013424765986105936 0 -0.0026255308679107746 0.0141144815541192 0 -0.00149548089675668 0.013688894987290087 0 -0.00091073644796126237 0.014635534810654119 0 -0.0016067678504453229 0.01266857295480775 0 -0.00149548089675668 0.013688894987290087 0 -0.0023074991643671204 0.013424765986105936 0 -0.0026699174719870141 0.014799079669272132 0 -0.0022856802376104123 0.014716463845185289 0 -0.002539525127747863 0.014999139163087432 0 -0.0028104171090153358 0.015038273970452321 0 -0.001485169386237868 0.016079238290983691 0 -0.0028269216845428868 0.014323232801053134 0 -0.0026699174719870141 0.014799079669272132 0 -0.0022856802376104123 0.014716463845185289 0 -0.0025682054517748875 0.01520932946601518 0 -0.0026017253342283421 0.015083840273537144 0 -0.002539525127747863 0.014999139163087432 0 6.2630644474831807e-05 0.018600974994007306 0 0.001404740589358379 0.016678156889980544 0 -0.00070849779811558045 0.016064769357391002 0 -0.0025682054517748875 0.01520932946601518 0 -0.0026017253342283421 0.015083840273537144 0 -0.0027081063442732107 0.015322823783733392 0 -0.001485169386237868 0.016079238290983691 0 -0.0015239200276091767 0.015973212968124064 0 -0.001485169386237868 0.016079238290983691 0 -0.0018056317100396113 0.015919791263638874 0 -0.002631432307513855 0.015004259866523064 0 -0.0026367273688244399 0.015047350065296321 0 -0.0026017253342283421 0.015083840273537144 0 -0.0026367273688244399 0.015047350065296321 0 -0.0026017253342283421 0.015083840273537144 0 -0.002539525127747863 0.014999139163087432 0 -0.0027827133924664994 0.015030999797376082 0 -0.0026367273688244399 0.015047350065296321 0 -0.0027373250778871647 0.014983822587113589 0 -0.0026367273688244399 0.015047350065296321 0 -0.002539525127747863 0.014999139163087432 0 -0.0027373250778871647 0.014983822587113589 0 -0.0026699174719870141 0.014799079669272132 0 -0.002539525127747863 0.014999139163087432 0 -0.0027373250778871647 0.014983822587113589 0 -0.0034594938880005131 0.017546427816501269 0 -0.0033609706727594701 0.015462578659385034 0 -0.0054712467272276582 0.017969770916374812 0 -0.0030102223754887797 0.015474909971650219 0 -0.0029977321303154519 0.01630554916560964 0 -0.0021056957528480936 0.016875150519496954 0 -0.0030102223754887797 0.015474909971650219 0 -0.0033609706727594701 0.015462578659385034 0 -0.0029977321303154519 0.01630554916560964 0 -0.0034594938880005131 0.017546427816501269 0 -0.0033609706727594701 0.015462578659385034 0 -0.0029977321303154519 0.01630554916560964 0 -0.0034594938880005131 0.017546427816501269 0 -0.0029977321303154519 0.01630554916560964 0 -0.0021056957528480936 0.016875150519496954 0 -0.0012078043646008318 0.017623756544277905 0 -0.0021056957528480936 0.016875150519496954 0 -0.00070849779811558045 0.016064769357391002 0 -0.0030102223754887797 0.015474909971650219 0 -0.0021056957528480936 0.016875150519496954 0 -0.00070849779811558045 0.016064769357391002 0 -0.0020875174003564209 0.015823880667878196 0 -0.0018056317100396113 0.015919791263638874 0 -0.002631432307513855 0.015004259866523064 0 -0.0026017253342283421 0.015083840273537144 0 -0.0027081063442732107 0.015322823783733392 0 -0.002631432307513855 0.015004259866523064 0 -0.0030102223754887797 0.015474909971650219 0 -0.0027081063442732107 0.015322823783733392 0 -0.002631432307513855 0.015004259866523064 0 -0.0030102223754887797 0.015474909971650219 0 -0.0033609706727594701 0.015462578659385034 0 0.00030145459942569283 0.02603962739059484 0 0.00023351768296415093 0.027178596401905866 0 0.0032582970009109985 0.036762478671370814 0 0.0034462849290781473 0.036433970435441713 0 0.0034862073873168577 0.036669151382613327 0 0.0034462849290781473 0.036433970435441713 0 0.0034862073873168577 0.036669151382613327 0 0.0036486635349092288 0.036511020351754221 0 0.0035737034881727801 0.036813247098266291 0 0.0034862073873168577 0.036669151382613327 0 0.0036486635349092288 0.036511020351754221 0 0.0030915134250003424 0.03824726673347744 0 0.0033565396060028542 0.038657122684506377 0 0.0029762159083583759 0.038829556192924143 0 0.0030915134250003424 0.03824726673347744 0 0.0029762159083583759 0.038829556192924143 0 0.0026845421703613863 0.038508005838933844 0 0.0029762159083583759 0.038829556192924143 0 0.0032179917868108347 0.039324621543191461 0 0.0026528076120549476 0.039112146633577295 0 0.0029762159083583759 0.038829556192924143 0 0.0026528076120549476 0.039112146633577295 0 0.0026845421703613863 0.038508005838933844 0 0.00023351768296415093 0.027178596401905866 0 -0.00068803641276955871 0.030141618281743079 0 0.0033565396060028542 0.038657122684506377 0 0.0029762159083583759 0.038829556192924143 0 0.0032179917868108347 0.039324621543191461 0 0.0034462849290781473 0.036433970435441713 0 0.0036486635349092288 0.036511020351754221 0 0.0037113809268607013 0.036097963265254752 0 -0.0033609706727594701 0.015462578659385034 0 -0.0063466578201093957 0.018398576231492336 0 -0.0054712467272276582 0.017969770916374812 0 0.0010147792016226296 0.035695524984663121 0 -0.00068803641276955871 0.030141618281743079 0 -0.0040495126093795216 0.020176074962847138 0 -0.0040851257368460124 0.018698745430160424 0 -0.0054712467272276582 0.017969770916374812 0 -0.0033325467893060776 0.021346688862155606 0 -0.0053391026771894348 0.020290615902577067 0 -0.0054712467272276582 0.017969770916374812 0 -0.0047808840488247784 0.022777176720655507 0 -0.0053302098620310375 0.021295668069570586 0 -0.00068803641276955871 0.030141618281743079 0 -0.0017235216678074688 0.026513810018215556 0 -0.0053391026771894348 0.020290615902577067 0 -0.0063466578201093957 0.018398576231492336 0 -0.0070291785559716173 0.021422437140971588 0 -0.0053391026771894348 0.020290615902577067 0 -0.0063466578201093957 0.018398576231492336 0 -0.0054712467272276582 0.017969770916374812 0 0.0032179917868108347 0.039324621543191461 0 0.0027549258808742339 0.039806212356273907 0 0.0026528076120549476 0.039112146633577295 0 -0.00068803641276955871 0.030141618281743079 0 -0.0015031413624808302 0.033977104173177466 0 -0.0067631356217684345 0.021313718393545403 0 -0.0071265159862589 0.022885722576452008 0 -0.008656930027149198 0.023134226631996064 0 -0.0074548214095099003 0.024478431077266428 0 -0.0071265159862589 0.022885722576452008 0 -0.008656930027149198 0.023134226631996064 0 -0.0065962201942691267 0.023585279565835587 0 -0.0074548214095099003 0.024478431077266428 0 -0.0070291785559716173 0.021422437140971588 0 -0.0021542381761415529 0.025899451956562604 0 -0.0017235216678074688 0.026513810018215556 0 -0.0065962201942691267 0.023585279565835587 0 -0.0070291785559716173 0.021422437140971588 0 -0.0056337986417116601 0.022834415720201579 0 -0.0033325467893060776 0.021346688862155606 0 -0.0056337986417116601 0.022834415720201579 0 -0.0041856894912177794 0.023110098070900115 0 -0.0033325467893060776 0.021346688862155606 0 -0.0053391026771894348 0.020290615902577067 0 -0.0056337986417116601 0.022834415720201579 0 -0.0053391026771894348 0.020290615902577067 0 -0.0070291785559716173 0.021422437140971588 0 -0.0056337986417116601 0.022834415720201579 0 0.0022984216341021923 0.040285513549096465 0 0.0019647465346157816 0.039925871067785536 0 0.0027549258808742339 0.039806212356273907 0 0.0019647465346157816 0.039925871067785536 0 0.0027549258808742339 0.039806212356273907 0 0.0021244914891034774 0.039431555290578131 0 0.0027549258808742339 0.039806212356273907 0 0.0021244914891034774 0.039431555290578131 0 0.0026528076120549476 0.039112146633577295 0 0.0021244914891034774 0.039431555290578131 0 0.0021681712481270475 0.038768079156520127 0 0.0018334677366933574 0.039080174587484695 0 0.0021244914891034774 0.039431555290578131 0 0.0026528076120549476 0.039112146633577295 0 0.0021681712481270475 0.038768079156520127 0 0.0026528076120549476 0.039112146633577295 0 0.0026845421703613863 0.038508005838933844 0 0.0021681712481270475 0.038768079156520127 0 0.0023266225205266066 0.038323413678303178 0 0.0026845421703613863 0.038508005838933844 0 0.0021681712481270475 0.038768079156520127 0 0.001923345107730255 0.038142852743408645 0 0.0023266225205266066 0.038323413678303178 0 0.0021681712481270475 0.038768079156520127 0 0.001923345107730255 0.038142852743408645 0 0.0021681712481270475 0.038768079156520127 0 0.0015613780814753635 0.03873721622811379 0 0.0015613780814753635 0.03873721622811379 0 0.0018334677366933574 0.039080174587484695 0 0.0014818975070195015 0.039385659275181083 0 0.0021681712481270475 0.038768079156520127 0 0.0015613780814753635 0.03873721622811379 0 0.0018334677366933574 0.039080174587484695 0 0.0015613780814753635 0.03873721622811379 0 0.0010455186898371085 0.039017452845367888 0 0.0014818975070195015 0.039385659275181083 0 0.0015613780814753635 0.03873721622811379 0 0.001084464017920354 0.038499091515899864 0 0.0010455186898371085 0.039017452845367888 0 0.0014041610147471266 0.038200966879419984 0 0.0015613780814753635 0.03873721622811379 0 0.001084464017920354 0.038499091515899864 0 0.00089743359990670493 0.038989117338376601 0 0.00069511049129835267 0.039216861563150886 0 0.001084464017920354 0.038499091515899864 0 0.00050626187629829232 0.038841392096162067 0 0.0010455186898371085 0.039017452845367888 0 0.00061218976774964377 0.038152949688599683 0 0.001084464017920354 0.038499091515899864 0 0.00065211409799264348 0.038844302243604155 0 0.00050626187629829232 0.038841392096162067 0 0.00069227461972004567 0.039604852456906661 0 -6.5878462133753555e-05 0.039210154745354726 0 0.00050626187629829232 0.038841392096162067 0 0.0010455186898371085 0.039017452845367888 0 0.00069227461972004567 0.039604852456906661 0 0.0010455186898371085 0.039017452845367888 0 0.00069227461972004567 0.039604852456906661 0 0.0014818975070195015 0.039385659275181083 0 0.00069227461972004567 0.039604852456906661 0 0.0013584186032341806 0.039914724037334627 0 0.0009853650225480049 0.04031654564910795 0 0.0019647465346157816 0.039925871067785536 0 0.0013584186032341806 0.039914724037334627 0 0.0014818975070195015 0.039385659275181083 0 0.0021244914891034774 0.039431555290578131 0 0.0018334677366933574 0.039080174587484695 0 0.0014818975070195015 0.039385659275181083 0 0.0019647465346157816 0.039925871067785536 0 0.0021244914891034774 0.039431555290578131 0 0.0014818975070195015 0.039385659275181083 0 0.00069227461972004567 0.039604852456906661 0 0.0013584186032341806 0.039914724037334627 0 0.0014818975070195015 0.039385659275181083 0 -0.00078680414762469393 0.03952919089725377 0 -0.00017672889323640286 0.039269999347389555 0 -0.0006484317641536157 0.04007688801214928 0 -0.00078680414762469393 0.03952919089725377 0 -0.0008271851011036409 0.039049747615775801 0 -0.00017672889323640286 0.039269999347389555 0 -0.00037854819900276515 0.038608303271573274 0 -0.00078876627423814282 0.038562365964793274 0 -0.0008271851011036409 0.039049747615775801 0 0.00017247514713721775 0.038468546468541524 0 -0.00037854819900276515 0.038608303271573274 0 -0.00017672889323640286 0.039269999347389555 0 -0.00037854819900276515 0.038608303271573274 0 -0.0008271851011036409 0.039049747615775801 0 -0.00017672889323640286 0.039269999347389555 0 0.00017247514713721775 0.038468546468541524 0 0.00065211409799264348 0.038844302243604155 0 0.00024019286336738685 0.039156185833911741 0 0.00017247514713721775 0.038468546468541524 0 -0.00023634314790458951 0.038948563878332586 0 0.00024019286336738685 0.039156185833911741 0 -0.00023634314790458951 0.038948563878332586 0 0.00024019286336738685 0.039156185833911741 0 -0.00021956019065007796 0.039507879806078096 0 0.00031443714907177975 0.039169354536330685 0 0.0001972190646653558 0.039654919880753252 0 0.00069511049129835267 0.039216861563150886 0 0.00037510138356770437 0.039761891100075698 0 0.00069227461972004567 0.039604852456906661 0 -6.5878462133753555e-05 0.039210154745354726 0 -0.00013503955139727627 0.039856401410210393 0 0.00069227461972004567 0.039604852456906661 0 -0.00013503955139727627 0.039856401410210393 0 0.00030817370763358592 0.04034074723277465 0 -0.00013503955139727627 0.039856401410210393 0 -0.0006478794694725294 0.039589710258016941 0 -0.00073603923405732763 0.040033334537304024 0 -0.00013503955139727627 0.039856401410210393 0 -0.00073603923405732763 0.040033334537304024 0 -0.00039064788550997724 0.040364185784866162 0 -6.5878462133753555e-05 0.039210154745354726 0 -0.00013503955139727627 0.039856401410210393 0 -0.0006478794694725294 0.039589710258016941 0 0.00037510138356770437 0.039761891100075698 0 0.00011026221072322505 0.040683771736430632 0 0.0001972190646653558 0.039654919880753252 0 9.2471129259149489e-05 0.040996413853854469 0 -0.00023634314790458951 0.038948563878332586 0 -0.00021956019065007796 0.039507879806078096 0 -0.00071090680450678983 0.039523923252703132 0 0.00011026221072322505 0.040683771736430632 0 -0.00013239550958819201 0.042393848792507731 0 -0.0006478794694725294 0.039589710258016941 0 -0.00073603923405732763 0.040033334537304024 0 -0.0012412253766994499 0.039986087753542211 0 -0.00073603923405732763 0.040033334537304024 0 -0.0012412253766994499 0.039986087753542211 0 -0.0011088166225450605 0.040383443315891644 0 -0.00021956019065007796 0.039507879806078096 0 -0.00074903610657002149 0.039893024063886881 0 -0.00071090680450678983 0.039523923252703132 0 -0.0012105844280422497 0.040203876370155371 0 -0.00074903610657002149 0.039893024063886881 0 -0.00071090680450678983 0.039523923252703132 0 -0.0011721350373627461 0.039852520274676402 0 -0.00078680414762469393 0.03952919089725377 0 -0.0006484317641536157 0.04007688801214928 0 -0.00014467841678045449 0.061143482099214254 0 -0.00015021439241176646 0.061073231862597589 0 -0.00016320429252576673 0.061058623963501736 0 -0.0017232693892011927 0.040316811478093649 0 -0.0012412253766994499 0.039986087753542211 0 -0.0011088166225450605 0.040383443315891644 0 -0.00015021439241176646 0.061073231862597589 0 -0.00017399483721754983 0.061020373854660387 0 -0.00017411533870819706 0.061005424203293135 0 -0.00073603923405732763 0.040033334537304024 0 -0.0011088166225450605 0.040383443315891644 0 -0.00039064788550997724 0.040364185784866162 0 -0.00067090804682753903 0.048767311157270891 0 -0.00027427727805499918 0.049348819415949763 0 -0.00015021439241176646 0.061073231862597589 0 -0.00017399483721754983 0.061020373854660387 0 -0.00016320429252576673 0.061058623963501736 0 -0.00017399483721754983 0.061020373854660387 0 -0.00017411533870819706 0.061005424203293135 0 -0.00018458158267889465 0.060927669882512782 0 -0.00013503955139727627 0.039856401410210393 0 -0.00039064788550997724 0.040364185784866162 0 0.00030817370763358592 0.04034074723277465 0 -0.00027427727805499918 0.049348819415949763 0 6.2695808327525881e-05 0.049162427131989456 0 -0.00017399483721754983 0.061020373854660387 0 -0.00018458158267889465 0.060927669882512782 0 -0.00018697332156965976 0.060948967950433287 0 -0.00018268480940661334 0.060997675458048191 0 -0.00018697332156965976 0.060948967950433287 0 -0.00018911278407279995 0.060954120364192302 0 -0.00017399483721754983 0.061020373854660387 0 -0.00018268480940661334 0.060997675458048191 0 -0.00018697332156965976 0.060948967950433287 0 -0.00018911278407279995 0.060954120364192302 0 -0.0001881343242695922 0.060955736541842401 0 -0.00019136518392368182 0.060973716157845435 0 -0.00018268480940661334 0.060997675458048191 0 -0.00018911278407279995 0.060954120364192302 0 -0.00019136518392368182 0.060973716157845435 0 -0.00018268480940661334 0.060997675458048191 0 -0.00017505665351231136 0.061019743431382702 0 -0.00019136518392368182 0.060973716157845435 0 -0.00017505665351231136 0.061019743431382702 0 -0.0001678467059624357 0.061017279760081644 0 -0.00019136518392368182 0.060973716157845435 0 -0.00017399483721754983 0.061020373854660387 0 -0.00018268480940661334 0.060997675458048191 0 -0.00016320429252576673 0.061058623963501736 0 -0.00018268480940661334 0.060997675458048191 0 -0.00016320429252576673 0.061058623963501736 0 -0.00017505665351231136 0.061019743431382702 0 -0.00016320429252576673 0.061058623963501736 0 -0.00017505665351231136 0.061019743431382702 0 -0.00016570587545896228 0.061046485816471811 0 -0.00016320429252576673 0.061058623963501736 0 -0.00016570587545896228 0.061046485816471811 0 -0.00015725122209981449 0.061073368778503903 0 -0.00017505665351231136 0.061019743431382702 0 -0.0001678467059624357 0.061017279760081644 0 -0.00016570587545896228 0.061046485816471811 0 -0.0001678467059624357 0.061017279760081644 0 -0.00016570587545896228 0.061046485816471811 0 -0.00015725122209981449 0.061073368778503903 0 -0.0001678467059624357 0.061017279760081644 0 -0.00015725122209981449 0.061073368778503903 0 -0.00014516129517439061 0.061112431534799096 0 0.0004773164779403412 0.058161582502594622 0 0.00073249078574202334 0.060352041735559081 0 -0.00014467841678045449 0.061143482099214254 0 -0.00016320429252576673 0.061058623963501736 0 -0.00015725122209981449 0.061073368778503903 0 -0.00014467841678045449 0.061143482099214254 0 -0.00015725122209981449 0.061073368778503903 0 -0.00014516129517439061 0.061112431534799096 0 -0.00013741122967211516 0.060849198575924433 0 -6.0822012031151603e-05 0.060817460601877565 0 -0.00012494862655592834 0.060898680154221424 0 -0.00013741122967211516 0.060849198575924433 0 -6.0822012031151603e-05 0.060817460601877565 0 -0.00010022630079003378 0.060756817360689858 0 1.4704341408936104e-05 0.060687996074248823 0 -6.0822012031151603e-05 0.060817460601877565 0 -0.00010022630079003378 0.060756817360689858 0 0.0019647465346157816 0.039925871067785536 0 0.0013584186032341806 0.039914724037334627 0 0.001643651913517319 0.040294825253427702 0 -0.00013741122967211516 0.060849198575924433 0 -0.00010022630079003378 0.060756817360689858 0 -0.00016723871180873015 0.060845371230042279 0 5.1909822124188897e-05 0.045680732570462838 0 0.00030354906382720943 0.048129192020180185 0 0.0013584186032341806 0.039914724037334627 0 0.001643651913517319 0.040294825253427702 0 0.0009853650225480049 0.04031654564910795 0 0.00069227461972004567 0.039604852456906661 0 0.00030817370763358592 0.04034074723277465 0 0.0009853650225480049 0.04031654564910795 0 6.2695808327525881e-05 0.049162427131989456 0 0.00030354906382720943 0.048129192020180185 0 -0.00018458158267889465 0.060927669882512782 0 -0.00016723871180873015 0.060845371230042279 0 -0.00018697332156965976 0.060948967950433287 0 -0.00016723871180873015 0.060845371230042279 0 -0.00018697332156965976 0.060948967950433287 0 -0.00016973844755681323 0.060908424446928372 0 -0.00013741122967211516 0.060849198575924433 0 -0.00016723871180873015 0.060845371230042279 0 -0.00016973844755681323 0.060908424446928372 0 -0.00018697332156965976 0.060948967950433287 0 -0.00016973844755681323 0.060908424446928372 0 -0.00018911278407279995 0.060954120364192302 0 -0.00018911278407279995 0.060954120364192302 0 -0.00016774150650234346 0.060941253594887598 0 -0.0001881343242695922 0.060955736541842401 0 -0.00016973844755681323 0.060908424446928372 0 -0.00018911278407279995 0.060954120364192302 0 -0.00016774150650234346 0.060941253594887598 0 -0.0048639904680563848 0.049704356949337253 0 -0.0047545128942487721 0.048635727837407952 0 -0.0083008322865024426 0.040010431587027162 0 -0.0073990234181384095 0.039205444062964938 0 -0.007620177537295862 0.040396304342927146 0 -0.00013741122967211516 0.060849198575924433 0 -0.00016973844755681323 0.060908424446928372 0 -0.00012494862655592834 0.060898680154221424 0 -0.00016973844755681323 0.060908424446928372 0 -0.00016774150650234346 0.060941253594887598 0 -0.00012494862655592834 0.060898680154221424 0 -0.0066623474422938742 0.038736161600730339 0 -0.0073990234181384095 0.039205444062964938 0 -0.0066135314691741628 0.039281806451536123 0 -0.0045803439228105812 0.046394245387361061 0 -0.0047545128942487721 0.048635727837407952 0 -0.0073990234181384095 0.039205444062964938 0 -0.0069030004410892956 0.039994138706115699 0 -0.007620177537295862 0.040396304342927146 0 -0.0073990234181384095 0.039205444062964938 0 -0.0066135314691741628 0.039281806451536123 0 -0.0069030004410892956 0.039994138706115699 0 -0.0069030004410892956 0.039994138706115699 0 -0.0071590777982737195 0.040781505357295217 0 -0.0065135123767542276 0.041119410180011619 0 -0.0069030004410892956 0.039994138706115699 0 -0.0071590777982737195 0.040781505357295217 0 -0.007620177537295862 0.040396304342927146 0 -0.0062441498423505765 0.039820404295133532 0 -0.0065040073221678619 0.040241975005174756 0 -0.0062260369857444972 0.039977470818816842 0 -0.0065135123767542276 0.041119410180011619 0 -0.0072318479839988013 0.041531504776458714 0 -0.0071987660841639836 0.042790043015228818 0 -0.006659269592623967 0.040577274908746692 0 -0.0072295248425756293 0.041387195664893024 0 -0.0071590777982737195 0.040781505357295217 0 -0.0065135123767542276 0.041119410180011619 0 -0.0072318479839988013 0.041531504776458714 0 -0.0071590777982737195 0.040781505357295217 0 -0.0072318479839988013 0.041531504776458714 0 -0.0076451294186170374 0.041090429526843206 0 -0.0082988309490112985 0.041986963629310425 0 -0.0076238402499592857 0.041954365633173021 0 -0.0076451294186170374 0.041090429526843206 0 -0.0072318479839988013 0.041531504776458714 0 -0.0076238402499592857 0.041954365633173021 0 -0.0076451294186170374 0.041090429526843206 0 -0.0083008322865024426 0.040010431587027162 0 -0.007620177537295862 0.040396304342927146 0 -0.0082679692766326491 0.041144065135753291 0 -0.0076451294186170374 0.041090429526843206 0 -0.007620177537295862 0.040396304342927146 0 -0.0082679692766326491 0.041144065135753291 0 -0.0071590777982737195 0.040781505357295217 0 -0.0076451294186170374 0.041090429526843206 0 -0.007620177537295862 0.040396304342927146 0 -0.00016774150650234346 0.060941253594887598 0 -0.0001881343242695922 0.060955736541842401 0 -0.00019102848039284447 0.06095176326965035 0 -0.0051089943967325448 0.050264594572017283 0 -0.0069431905058552085 0.048804442119498373 0 -0.0048639904680563848 0.049704356949337253 0 -0.0051089943967325448 0.050264594572017283 0 -0.0083008322865024426 0.040010431587027162 0 -0.0091671053770715806 0.040904788168252854 0 -0.0082679692766326491 0.041144065135753291 0 -0.0001881343242695922 0.060955736541842401 0 -0.00019102848039284447 0.06095176326965035 0 -0.00019136518392368182 0.060973716157845435 0 -0.0090448130533275026 0.040984434766790451 0 -0.0087231385895630027 0.041422964631992243 0 -0.0097790240275353532 0.04177574111461662 0 -0.0070636181922921742 0.047085605872949778 0 -0.0053797408761836994 0.051128836328470852 0 -0.0051089943967325448 0.050264594572017283 0 -0.0053797408761836994 0.051128836328470852 0 -0.0091436789833996314 0.041504796198929488 0 -0.0098632936195221319 0.042086765025583249 0 -0.010678340426961717 0.041981098136395861 0 -0.0091436789833996314 0.041504796198929488 0 -0.0091003496968786561 0.042290324480788698 0 -0.0098632936195221319 0.042086765025583249 0 -0.0082988309490112985 0.041986963629310425 0 -0.0076451294186170374 0.041090429526843206 0 -0.0091436789833996314 0.041504796198929488 0 -0.0076451294186170374 0.041090429526843206 0 -0.0082679692766326491 0.041144065135753291 0 -0.0087231385895630027 0.041422964631992243 0 -0.0090448130533275026 0.040984434766790451 0 -0.0082679692766326491 0.041144065135753291 0 -0.0087231385895630027 0.041422964631992243 0 -0.0070992606735705193 0.045908325275326511 0 -0.0070636181922921742 0.047085605872949778 0 -0.0082988309490112985 0.041986963629310425 0 -0.0091436789833996314 0.041504796198929488 0 -0.0091003496968786561 0.042290324480788698 0 -0.0082988309490112985 0.041986963629310425 0 -0.0091003496968786561 0.042290324480788698 0 -0.0085232429729401246 0.042625638832179423 0 -0.0091003496968786561 0.042290324480788698 0 -0.008935934220202427 0.042939655484397155 0 -0.0085232429729401246 0.042625638832179423 0 -0.0091003496968786561 0.042290324480788698 0 -0.008935934220202427 0.042939655484397155 0 -0.0097457529181690632 0.042858373536879539 0 -0.008935934220202427 0.042939655484397155 0 -0.0085232429729401246 0.042625638832179423 0 -0.008514701998706008 0.043270128922999314 0 -0.0089301409430062994 0.043863995426660987 0 -0.0088357529332605527 0.043992961771705912 0 -0.0088595994626566848 0.043842250782015327 0 -0.0086912347423922631 0.046663357813374558 0 -0.0053797408761836994 0.051128836328470852 0 -0.0098632936195221319 0.042086765025583249 0 -0.0097457529181690632 0.042858373536879539 0 -0.010678340426961717 0.041981098136395861 0 -0.0091003496968786561 0.042290324480788698 0 -0.0098632936195221319 0.042086765025583249 0 -0.0097457529181690632 0.042858373536879539 0 -0.009209424711256459 0.043993489829020509 0 -0.0088958515065078424 0.04383901556202921 0 -0.0094090691053120012 0.043889140543426824 0 -0.0089301409430062994 0.043863995426660987 0 -0.0088958515065078424 0.04383901556202921 0 -0.0088595994626566848 0.043842250782015327 0 -0.0087877275924362324 0.048422540483272894 0 -0.0081191546205327588 0.04931366072951418 0 -0.009209424711256459 0.043993489829020509 0 -0.0088958515065078424 0.04383901556202921 0 -0.0089587059901761763 0.044049179204359322 0 -0.0085232429729401246 0.042625638832179423 0 -0.008514701998706008 0.043270128922999314 0 -0.0079993907216567867 0.043271848624374075 0 -0.008935934220202427 0.042939655484397155 0 -0.008514701998706008 0.043270128922999314 0 -0.0087543482735511179 0.043789338269013205 0 -0.0089301409430062994 0.043863995426660987 0 -0.0088958515065078424 0.04383901556202921 0 -0.0087543482735511179 0.043789338269013205 0 -0.008935934220202427 0.042939655484397155 0 -0.0097457529181690632 0.042858373536879539 0 -0.0087543482735511179 0.043789338269013205 0 -0.0086912347423922631 0.046663357813374558 0 -0.0092167742086283963 0.045759608953135723 0 -0.0088958515065078424 0.04383901556202921 0 -0.0087484837343194052 0.044009530619143193 0 -0.0089587059901761763 0.044049179204359322 0 -0.0088958515065078424 0.04383901556202921 0 -0.0087543482735511179 0.043789338269013205 0 -0.0087484837343194052 0.044009530619143193 0 -0.0087543482735511179 0.043789338269013205 0 -0.0084313215033009915 0.043752253557007063 0 -0.0087484837343194052 0.044009530619143193 0 -0.008514701998706008 0.043270128922999314 0 -0.0087543482735511179 0.043789338269013205 0 -0.0084313215033009915 0.043752253557007063 0 -0.0072295248425756293 0.041387195664893024 0 -0.0081098217194313441 0.042239737361877555 0 -0.0084313215033009915 0.043752253557007063 0 -0.0079993907216567867 0.043271848624374075 0 -0.0080713034841379139 0.04430337070528665 0 -0.0079993907216567867 0.043271848624374075 0 -0.0071987660841639836 0.042790043015228818 0 -0.0080713034841379139 0.04430337070528665 0 -0.0065040073221678619 0.040241975005174756 0 -0.0064336868965046796 0.040672117498929877 0 -0.0067682190340713003 0.040744769560099876 0 -0.008514701998706008 0.043270128922999314 0 -0.0084313215033009915 0.043752253557007063 0 -0.0079993907216567867 0.043271848624374075 0 -0.0063043710363978878 0.04044809531470496 0 -0.0065040073221678619 0.040241975005174756 0 -0.0061703964568678004 0.040280086085826013 0 -0.0063043710363978878 0.04044809531470496 0 -0.0065040073221678619 0.040241975005174756 0 -0.0064336868965046796 0.040672117498929877 0 -0.0063043710363978878 0.04044809531470496 0 -0.0064336868965046796 0.040672117498929877 0 -0.006110555257123204 0.040600554669300792 0 -0.0065040073221678619 0.040241975005174756 0 -0.0061703964568678004 0.040280086085826013 0 -0.0062260369857444972 0.039977470818816842 0 -0.0072318479839988013 0.041531504776458714 0 -0.0076238402499592857 0.041954365633173021 0 -0.0071987660841639836 0.042790043015228818 0 -0.0076238402499592857 0.041954365633173021 0 -0.0071987660841639836 0.042790043015228818 0 -0.0078743035045535596 0.042563804837479083 0 -0.0082988309490112985 0.041986963629310425 0 -0.0085232429729401246 0.042625638832179423 0 -0.0078743035045535596 0.042563804837479083 0 -0.0082988309490112985 0.041986963629310425 0 -0.0076238402499592857 0.041954365633173021 0 -0.0078743035045535596 0.042563804837479083 0 -0.0085232429729401246 0.042625638832179423 0 -0.0079993907216567867 0.043271848624374075 0 -0.0078743035045535596 0.042563804837479083 0 -0.0079993907216567867 0.043271848624374075 0 -0.0071987660841639836 0.042790043015228818 0 -0.0078743035045535596 0.042563804837479083 0 0.0012993176764180907 0.063916278260656809 0 0.0014223526279325608 0.063751177674454831 0 0.0014410146593264491 0.063976121856454127 0 0.0011079056827201848 0.064017423663609949 0 0.0012692594760779622 0.064083460650881149 0 0.0012993176764180907 0.063916278260656809 0 0.0012692594760779622 0.064083460650881149 0 0.0012993176764180907 0.063916278260656809 0 0.0014410146593264491 0.063976121856454127 0 0.0011085017813826006 0.06372803641611853 0 0.0012993176764180907 0.063916278260656809 0 0.0014223526279325608 0.063751177674454831 0 0.0011085017813826006 0.06372803641611853 0 0.0012353494746022789 0.063459978458916044 0 0.0014223526279325608 0.063751177674454831 0 0.0015664182301071453 0.063615456988066144 0 0.0012353494746022789 0.063459978458916044 0 0.0014223526279325608 0.063751177674454831 0 0.0014223526279325608 0.063751177674454831 0 0.0015714361779894774 0.063738018045621167 0 0.0016041750954622891 0.063808773884930142 0 0.0015664182301071453 0.063615456988066144 0 0.0015714361779894774 0.063738018045621167 0 0.0015960060003079215 0.063783960853757427 0 0.0015664182301071453 0.063615456988066144 0 0.0014223526279325608 0.063751177674454831 0 0.0015714361779894774 0.063738018045621167 0 0.0014223526279325608 0.063751177674454831 0 0.0016041750954622891 0.063808773884930142 0 0.0014410146593264491 0.063976121856454127 0 0.0016041750954622891 0.063808773884930142 0 0.0014410146593264491 0.063976121856454127 0 0.0017060466975669473 0.064094366712049211 0 -0.0011527538673802983 0.059033206214345026 0 -0.0022368214585749492 0.056158683419199391 0 0.0015797004309293344 0.063740580947184752 0 0.0014420873466565965 0.063679887163359303 0 0.0016097910270622213 0.063664083873557417 0 0.0016041750954622891 0.063808773884930142 0 0.0015797004309293344 0.063740580947184752 0 0.0016097910270622213 0.063664083873557417 0 0.0015797004309293344 0.063740580947184752 0 0.0015960060003079215 0.063783960853757427 0 0.0014420873466565965 0.063679887163359303 0 0.0016041750954622891 0.063808773884930142 0 0.0015797004309293344 0.063740580947184752 0 0.0015960060003079215 0.063783960853757427 0 0.0004773164779403412 0.058161582502594622 0 -0.0014097288404371631 0.055247074352006161 0 0.00018872552855343428 0.055721016920418337 0 -0.0016606140712748848 0.0539731226113776 0 -0.0026672501380165668 0.054906604314918582 0 0.0004773164779403412 0.058161582502594622 0 -0.00081652396833151284 0.056547483496638996 0 0.0015714361779894774 0.063738018045621167 0 0.0016041750954622891 0.063808773884930142 0 0.0015960060003079215 0.063783960853757427 0 -0.0051089943967325448 0.050264594572017283 0 -0.0014097288404371631 0.055247074352006161 0 -0.0016606140712748848 0.0539731226113776 0 -0.0026672501380165668 0.054906604314918582 0 -0.0034106447432470707 0.053501985488022576 0 -0.0055034044484600694 0.054096976156390662 0 -0.0026672501380165668 0.054906604314918582 0 -0.0034106447432470707 0.053501985488022576 0 -0.00081652396833151284 0.056547483496638996 0 -0.0053797408761836994 0.051128836328470852 0 -0.0016606140712748848 0.0539731226113776 0 -0.0034106447432470707 0.053501985488022576 0 -0.003585231218549768 0.052162540442406063 0 -0.0055034044484600694 0.054096976156390662 0 -0.0034106447432470707 0.053501985488022576 0 -0.003585231218549768 0.052162540442406063 0 -0.0053797408761836994 0.051128836328470852 0 -0.0046987291093388769 0.052507700177620173 0 -0.0088357529332605527 0.043992961771705912 0 -0.0088595994626566848 0.043842250782015327 0 -0.0087101504874121747 0.043887701072557753 0 -0.0037708948127497905 0.052246233011331314 0 -0.0055983267131475044 0.0541006498267547 0 -0.0050640742330813095 0.053073475267590556 0 -0.0081191546205327588 0.04931366072951418 0 -0.0046987291093388769 0.052507700177620173 0 -0.0094090691053120012 0.043889140543426824 0 -0.0093361533002301305 0.044035958996908244 0 -0.009371178897258952 0.043973342873512719 0 -0.009209424711256459 0.043993489829020509 0 -0.0094090691053120012 0.043889140543426824 0 -0.0094698122136323386 0.043976561183058177 0 -0.0094090691053120012 0.043889140543426824 0 -0.0094698122136323386 0.043976561183058177 0 -0.009371178897258952 0.043973342873512719 0 -0.0094698122136323386 0.043976561183058177 0 -0.009371178897258952 0.043973342873512719 0 -0.0092858486155814393 0.043872561955040433 0 -0.009371178897258952 0.043973342873512719 0 -0.0093225226469984789 0.044029242834769916 0 -0.0092858486155814393 0.043872561955040433 0 -0.0042925972180396397 0.054280922694146243 0 -0.0044004416336467641 0.054393880759269965 0 -0.0042513954464024131 0.05441384996943429 0 -0.004390851767454294 0.052727696868947016 0 -0.005545535469704683 0.052624945928620971 0 -0.0093361533002301305 0.044035958996908244 0 -0.009371178897258952 0.043973342873512719 0 -0.0093225226469984789 0.044029242834769916 0 -0.0031008772906790682 0.057125511001108742 0 -0.0030781679618803576 0.057195498334403731 0 -0.0026286683803168499 0.056657065637542622 0 -0.004390851767454294 0.052727696868947016 0 -0.0040878090627509273 0.05309150661415564 0 -0.0024292646993900931 0.050845010261312565 0 -0.0055629311109541349 0.054012864706906576 0 -0.0068815812095817074 0.049948298885080802 0 -0.0046987291093388769 0.052507700177620173 0 -0.0040878090627509273 0.05309150661415564 0 -0.0046987291093388769 0.052507700177620173 0 -0.004390851767454294 0.052727696868947016 0 -0.0040878090627509273 0.05309150661415564 0 -0.0022368214585749492 0.056158683419199391 0 -0.0058499577036714512 0.054050248493375128 0 -0.0050640742330813095 0.053073475267590556 0 -0.0062564045903992756 0.052794107436345335 0 -0.0037708948127497905 0.052246233011331314 0 -0.0050640742330813095 0.053073475267590556 0 -0.0062564045903992756 0.052794107436345335 0 -0.0053797408761836994 0.051128836328470852 0 -0.0022368214585749492 0.056158683419199391 0 -0.0055983267131475044 0.0541006498267547 0 -0.0058499577036714512 0.054050248493375128 0 -0.0050640742330813095 0.053073475267590556 0 -0.0040878090627509273 0.05309150661415564 0 -0.00091488996456143843 0.057534210425184758 0 -0.0022368214585749492 0.056158683419199391 0 -0.00091488996456143843 0.057534210425184758 0 -0.0015776256413792466 0.056177272395371111 0 -0.0016535721183846333 0.055941113308964743 0 -0.0021409078016801733 0.056072636610665728 0 0.0014410146593264491 0.063976121856454127 0 0.0017060466975669473 0.064094366712049211 0 0.0013327540201131752 0.064242360448965086 0 -0.0030781679618803576 0.057195498334403731 0 -0.0021605523661754581 0.057393305381467682 0 -0.0026286683803168499 0.056657065637542622 0 -0.004390851767454294 0.052727696868947016 0 -0.0039097262115952184 0.055653018514852021 0 -0.0019338965207634324 0.056774287775837227 0 -0.0021605523661754581 0.057393305381467682 0 -0.0026286683803168499 0.056657065637542622 0 -0.0001992549935469277 0.058106969001881927 0 -0.00091488996456143843 0.057534210425184758 0 0.0012692594760779622 0.064083460650881149 0 0.0014410146593264491 0.063976121856454127 0 0.0013327540201131752 0.064242360448965086 0 0.0011381601579026365 0.064263788128441163 0 0.0012692594760779622 0.064083460650881149 0 0.0013327540201131752 0.064242360448965086 0 -0.0012741249725558175 0.064126456523881104 0 -0.0018226146276407998 0.064260816851325647 0 -0.0015551863245210173 0.064586720310055731 0 -0.0018226146276407998 0.064260816851325647 0 -0.0015551863245210173 0.064586720310055731 0 -0.002023069712338631 0.064604058917036189 0 -0.0014103965653266156 0.065047993473331775 0 -0.0015551863245210173 0.064586720310055731 0 -0.0019274272844971773 0.064896525759995327 0 -0.0014103965653266156 0.065047993473331775 0 -0.0019274272844971773 0.064896525759995327 0 -0.002068350845742598 0.065036107538450724 0 -0.0019162946298240729 0.058110285133717757 0 -0.0039097262115952184 0.055653018514852021 0 -0.0015551863245210173 0.064586720310055731 0 -0.0019274272844971773 0.064896525759995327 0 -0.002023069712338631 0.064604058917036189 0 -0.0019274272844971773 0.064896525759995327 0 -0.0022700758742229279 0.064866501073620436 0 -0.002023069712338631 0.064604058917036189 0 -0.0019274272844971773 0.064896525759995327 0 -0.0021082522709890382 0.06510301134417143 0 -0.0022700758742229279 0.064866501073620436 0 -0.0040723690527818051 0.056028433095441851 0 -0.0039097262115952184 0.055653018514852021 0 -0.0022700758742229279 0.064866501073620436 0 -0.002023069712338631 0.064604058917036189 0 -0.0024347315720896941 0.064684148916209508 0 -0.002023069712338631 0.064604058917036189 0 -0.0022566303827551044 0.064348538465746924 0 -0.0024347315720896941 0.064684148916209508 0 -0.0018226146276407998 0.064260816851325647 0 -0.002023069712338631 0.064604058917036189 0 -0.0022566303827551044 0.064348538465746924 0 -0.0018226146276407998 0.064260816851325647 0 -0.0022566303827551044 0.064348538465746924 0 -0.0022865488636284611 0.06398465826159111 0 -0.0022566303827551044 0.064348538465746924 0 -0.0024347315720896941 0.064684148916209508 0 -0.0032564098364310933 0.064250939344664235 0 -0.0024347315720896941 0.064684148916209508 0 -0.0028403571019549232 0.065035283603397623 0 -0.0032564098364310933 0.064250939344664235 0 -0.0021082522709890382 0.06510301134417143 0 -0.0022700758742229279 0.064866501073620436 0 -0.0028403571019549232 0.065035283603397623 0 -0.0039097262115952184 0.055653018514852021 0 -0.005545535469704683 0.052624945928620971 0 -0.0022700758742229279 0.064866501073620436 0 -0.0024347315720896941 0.064684148916209508 0 -0.0028403571019549232 0.065035283603397623 0 -0.0094698122136323386 0.043976561183058177 0 -0.0092858486155814393 0.043872561955040433 0 -0.0096629255308041135 0.043691262579351589 0 -0.011541862795656324 0.043448018633306273 0 -0.011021398287391234 0.043513002508188091 0 -0.011305398208533353 0.044287372040273089 0 -0.005545535469704683 0.052624945928620971 0 -0.0087327227047006729 0.050095204664146006 0 -0.011021398287391234 0.043513002508188091 0 -0.011305398208533353 0.044287372040273089 0 -0.010839802099519614 0.044005846349864368 0 -0.005545535469704683 0.052624945928620971 0 -0.0065845478629131581 0.053748237193176673 0 -0.0065845478629131581 0.053748237193176673 0 -0.0073530277744421318 0.053899245373208324 0 -0.011305398208533353 0.044287372040273089 0 -0.011137707583730281 0.045182477312973229 0 -0.010605901650733598 0.044492036750369029 0 -0.0032564098364310933 0.064250939344664235 0 -0.0039877416336596893 0.06331513402093944 0 -0.0028844314507596716 0.063387603402542889 0 -0.0039877416336596893 0.06331513402093944 0 -0.0028844314507596716 0.063387603402542889 0 -0.0027389029919873391 0.062406119656237699 0 -0.0028844314507596716 0.063387603402542889 0 -0.0015814474414134892 0.062750398314361855 0 -0.0027389029919873391 0.062406119656237699 0 -0.0022566303827551044 0.064348538465746924 0 -0.0032564098364310933 0.064250939344664235 0 -0.0022865488636284611 0.06398465826159111 0 -0.0032564098364310933 0.064250939344664235 0 -0.0028844314507596716 0.063387603402542889 0 -0.0022865488636284611 0.06398465826159111 0 -0.0018226146276407998 0.064260816851325647 0 -0.0022865488636284611 0.06398465826159111 0 -0.0016592553666007794 0.063849662827674444 0 -0.0019650378110349087 0.063496565559208809 0 -0.0017231908648718596 0.063051123674576284 0 -0.0022865488636284611 0.06398465826159111 0 -0.0016592553666007794 0.063849662827674444 0 -0.0017650283081586074 0.06332335197849287 0 -0.0028844314507596716 0.063387603402542889 0 -0.0022865488636284611 0.06398465826159111 0 -0.0015814474414134892 0.062750398314361855 0 -0.001213071502303371 0.063591022343577427 0 -0.0017650283081586074 0.06332335197849287 0 -0.0011883992336621729 0.063190887231381318 0 -0.001213071502303371 0.063591022343577427 0 -0.0016592553666007794 0.063849662827674444 0 -0.0017650283081586074 0.06332335197849287 0 -0.0012741249725558175 0.064126456523881104 0 -0.0018226146276407998 0.064260816851325647 0 -0.0016592553666007794 0.063849662827674444 0 -0.0012741249725558175 0.064126456523881104 0 -0.001213071502303371 0.063591022343577427 0 -0.0016592553666007794 0.063849662827674444 0 -0.009658702111718322 0.043781127020084534 0 -0.0099953505413360091 0.043965625594694989 0 -0.0095754229147848348 0.044310159645491634 0 -0.009658702111718322 0.043781127020084534 0 -0.0090028255474390081 0.044018922075896784 0 -0.0095754229147848348 0.044310159645491634 0 -0.0084692641723441708 0.043283494116696693 0 -0.0089498996400371369 0.043597936180231257 0 -0.0088349403718320663 0.043058145242147725 0 -0.0084692641723441708 0.043283494116696693 0 -0.0083140280263951684 0.042549918309331553 0 -0.008138668596113792 0.042613494341627832 0 -0.0082109937524275558 0.042513432051461159 0 -0.008138668596113792 0.042613494341627832 0 -0.0082109937524275558 0.042513432051461159 0 -0.0081296979473881661 0.042500771293947193 0 -0.0082109937524275558 0.042513432051461159 0 -0.0081994545147134265 0.042422158774767599 0 -0.0082935049247821451 0.042493029170521564 0 -0.0081296979473881661 0.042500771293947193 0 -0.0081994545147134265 0.042422158774767599 0 -0.0080641943760569115 0.042393337163329506 0 -0.0075063099782792337 0.041768768794909525 0 -0.0071291115414653288 0.041387310902293889 0 -0.0082109937524275558 0.042513432051461159 0 -0.0081296979473881661 0.042500771293947193 0 -0.0081994545147134265 0.042422158774767599 0 -0.0081994545147134265 0.042422158774767599 0 -0.0082935049247821451 0.042493029170521564 0 -0.0083368390984907437 0.042451129605191394 0 -0.0075063099782792337 0.041768768794909525 0 -0.0081098217194313441 0.042239737361877555 0 -0.0083140280263951684 0.042549918309331553 0 -0.0082109937524275558 0.042513432051461159 0 -0.0082935049247821451 0.042493029170521564 0 -0.0083140280263951684 0.042549918309331553 0 -0.0082935049247821451 0.042493029170521564 0 -0.0083535977310720457 0.042483702903354938 0 -0.0082935049247821451 0.042493029170521564 0 -0.0083535977310720457 0.042483702903354938 0 -0.0083368390984907437 0.042451129605191394 0 -0.0081146483675818906 0.042247559304922459 0 -0.0081098217194313441 0.042239737361877555 0 -0.0080713034841379139 0.04430337070528665 0 -0.0087484837343194052 0.044009530619143193 0 -0.0089178670899264893 0.044317455795493454 0 -0.0083535977310720457 0.042483702903354938 0 -0.0083370014273954664 0.042451004898674351 0 -0.0084941466524868035 0.042485659142348996 0 -0.0083140280263951684 0.042549918309331553 0 -0.0083535977310720457 0.042483702903354938 0 -0.0084941466524868035 0.042485659142348996 0 -0.0088349403718320663 0.043058145242147725 0 -0.0089712455381504679 0.042845469359429032 0 -0.0081098217194313441 0.042239737361877555 0 -0.0089712455381504679 0.042845469359429032 0 -0.0084313215033009915 0.043752253557007063 0 -0.0080713034841379139 0.04430337070528665 0 -0.0087484837343194052 0.044009530619143193 0 -0.0087484837343194052 0.044009530619143193 0 -0.0089178670899264893 0.044317455795493454 0 -0.0089587059901761763 0.044049179204359322 0 -0.010367453699526819 0.043579830508197859 0 -0.010400765673219608 0.043741019280432586 0 -0.0099953505413360091 0.043965625594694989 0 -0.010467010528580668 0.043609627858389385 0 -0.010367453699526819 0.043579830508197859 0 -0.010400765673219608 0.043741019280432586 0 -0.0089829678277210112 0.042848788070189416 0 -0.0089712455381504679 0.042845469359429032 0 -0.011021398287391234 0.043513002508188091 0 -0.010394672332865612 0.043595202598372608 0 -0.010611927605464961 0.043779133003980709 0 -0.0094698122136323386 0.043976561183058177 0 -0.0096629255308041135 0.043691262579351589 0 -0.010394672332865612 0.043595202598372608 0 -0.0094698122136323386 0.043976561183058177 0 -0.010467010528580668 0.043609627858389385 0 -0.010394672332865612 0.043595202598372608 0 -0.009209424711256459 0.043993489829020509 0 -0.0094698122136323386 0.043976561183058177 0 -0.0089178670899264893 0.044317455795493454 0 -0.0094698122136323386 0.043976561183058177 0 -0.010467010528580668 0.043609627858389385 0 -0.010558976933547789 0.043632208074900397 0 -0.0087327227047006729 0.050095204664146006 0 -0.0095051498187164896 0.049343602387555426 0 -0.0091647295208646899 0.043102999705654149 0 -0.0089712455381504679 0.042845469359429032 0 -0.009209424711256459 0.043993489829020509 0 -0.0089178670899264893 0.044317455795493454 0 -0.0089587059901761763 0.044049179204359322 0 -0.010467010528580668 0.043609627858389385 0 -0.010400765673219608 0.043741019280432586 0 -0.010394672332865612 0.043595202598372608 0 -0.010400765673219608 0.043741019280432586 0 -0.010394672332865612 0.043595202598372608 0 -0.010611927605464961 0.043779133003980709 0 -0.011021398287391234 0.043513002508188091 0 -0.010611927605464961 0.043779133003980709 0 -0.010839802099519614 0.044005846349864368 0 -0.011305398208533353 0.044287372040273089 0 -0.010839802099519614 0.044005846349864368 0 -0.010605901650733598 0.044492036750369029 0 -0.010611927605464961 0.043779133003980709 0 -0.010839802099519614 0.044005846349864368 0 -0.010480958161576357 0.044004122470210891 0 -0.010400765673219608 0.043741019280432586 0 -0.010611927605464961 0.043779133003980709 0 -0.010480958161576357 0.044004122470210891 0 -0.010480958161576357 0.044004122470210891 0 -0.010283870150411873 0.044232293256036323 0 -0.010605901650733598 0.044492036750369029 0 -0.010839802099519614 0.044005846349864368 0 -0.010480958161576357 0.044004122470210891 0 -0.010605901650733598 0.044492036750369029 0 -0.009658702111718322 0.043781127020084534 0 -0.010367453699526819 0.043579830508197859 0 -0.0099953505413360091 0.043965625594694989 0 -0.0099953505413360091 0.043965625594694989 0 -0.010283870150411873 0.044232293256036323 0 -0.010009002839657706 0.044508510618675313 0 -0.010400765673219608 0.043741019280432586 0 -0.010480958161576357 0.044004122470210891 0 -0.0099953505413360091 0.043965625594694989 0 -0.010480958161576357 0.044004122470210891 0 -0.0099953505413360091 0.043965625594694989 0 -0.010283870150411873 0.044232293256036323 0 -0.010283870150411873 0.044232293256036323 0 -0.010009002839657706 0.044508510618675313 0 -0.010605901650733598 0.044492036750369029 0 -0.010009002839657706 0.044508510618675313 0 -0.010605901650733598 0.044492036750369029 0 -0.010115194464252089 0.045205855953048345 0 -0.011137707583730281 0.045182477312973229 0 -0.010605901650733598 0.044492036750369029 0 -0.010115194464252089 0.045205855953048345 0 -0.010115194464252089 0.045205855953048345 0 -0.0094612059211580373 0.044936153955390398 0 -0.0090881157174730279 0.045803806461337512 0 -0.010009002839657706 0.044508510618675313 0 -0.010115194464252089 0.045205855953048345 0 -0.0094612059211580373 0.044936153955390398 0 -0.0099953505413360091 0.043965625594694989 0 -0.010009002839657706 0.044508510618675313 0 -0.0095754229147848348 0.044310159645491634 0 -0.010009002839657706 0.044508510618675313 0 -0.0094612059211580373 0.044936153955390398 0 -0.0095754229147848348 0.044310159645491634 0 -0.0088592944747235801 0.043841632567265081 0 -0.0089899701932972514 0.044584246099188811 0 -0.008599746324093745 0.044272167189537991 0 -0.0094612059211580373 0.044936153955390398 0 -0.0095754229147848348 0.044310159645491634 0 -0.0089899701932972514 0.044584246099188811 0 -0.0088592944747235801 0.043841632567265081 0 -0.0095754229147848348 0.044310159645491634 0 -0.0089899701932972514 0.044584246099188811 0 -0.0089963323376431939 0.045090245738964335 0 -0.0084548844282873858 0.045029766645682243 0 -0.0090881157174730279 0.045803806461337512 0 -0.0094612059211580373 0.044936153955390398 0 -0.0089963323376431939 0.045090245738964335 0 -0.0090881157174730279 0.045803806461337512 0 -0.0089899701932972514 0.044584246099188811 0 -0.0089963323376431939 0.045090245738964335 0 -0.0084548844282873858 0.045029766645682243 0 -0.0094612059211580373 0.044936153955390398 0 -0.0089899701932972514 0.044584246099188811 0 -0.0089963323376431939 0.045090245738964335 0 -0.0079330183899979125 0.045038827237113943 0 -0.0071071253799640851 0.045183957211126502 0 -0.0069824313687801834 0.044757875499260108 0 -0.0079330183899979125 0.045038827237113943 0 -0.0071071253799640851 0.045183957211126502 0 -0.0075259473330106944 0.045477392884493956 0 -0.0079330183899979125 0.045038827237113943 0 -0.0069824313687801834 0.044757875499260108 0 -0.0070766371969682466 0.0442396715049206 0 -0.0077297412173293716 0.043652017043345683 0 -0.008270811562824441 0.044290808113381042 0 -0.0078104280990035383 0.043014903181398639 0 -0.0081514341787468463 0.044966770940853849 0 -0.0071987708666798348 0.043993428920608993 0 -0.0084548844282873858 0.045029766645682243 0 -0.0075028946050714725 0.044003640677198849 0 -0.0077967439386432361 0.044082316736260327 0 -0.0073864539204358017 0.043926691760636433 0 -0.0077297412173293716 0.043652017043345683 0 -0.0073622479291247265 0.043181514870810477 0 -0.0073864539204358017 0.043926691760636433 0 -0.0077297412173293716 0.043652017043345683 0 -0.0077967439386432361 0.044082316736260327 0 -0.0071987708666798348 0.043993428920608993 0 -0.0072269523794463728 0.043998941687716148 0 -0.0077297412173293716 0.043652017043345683 0 -0.0077967439386432361 0.044082316736260327 0 -0.008270811562824441 0.044290808113381042 0 -0.008599746324093745 0.044272167189537991 0 -0.008270811562824441 0.044290808113381042 0 -0.0083802797808513324 0.043996475575497435 0 -0.0084548844282873858 0.045029766645682243 0 -0.0077967439386432361 0.044082316736260327 0 -0.008270811562824441 0.044290808113381042 0 -0.0089899701932972514 0.044584246099188811 0 -0.0084548844282873858 0.045029766645682243 0 -0.008599746324093745 0.044272167189537991 0 -0.0084548844282873858 0.045029766645682243 0 -0.008599746324093745 0.044272167189537991 0 -0.008270811562824441 0.044290808113381042 0 -0.0078809195980315567 0.044753960029169364 0 -0.0064905129206669025 0.044026960251306153 0 -0.0068651099677941004 0.044859290735921625 0 -0.0072444851060639156 0.04528976908226047 0 -0.0078809195980315567 0.044753960029169364 0 -0.0075960561612492764 0.045972290784354254 0 -0.0072444851060639156 0.04528976908226047 0 -0.0068651099677941004 0.044859290735921625 0 -0.0066164928626175493 0.045575426377364718 0 -0.0072444851060639156 0.04528976908226047 0 -0.0078809195980315567 0.044753960029169364 0 -0.0068651099677941004 0.044859290735921625 0 -0.0071071253799640851 0.045183957211126502 0 -0.0061829111301144315 0.044868278097947481 0 -0.0069224594488964666 0.045880105393524974 0 -0.0071071253799640851 0.045183957211126502 0 -0.0069824313687801834 0.044757875499260108 0 -0.0061829111301144315 0.044868278097947481 0 -0.0069824313687801834 0.044757875499260108 0 -0.0061829111301144315 0.044868278097947481 0 -0.0066248818349991107 0.044455568973027181 0 -0.0070766371969682466 0.0442396715049206 0 -0.0066248818349991107 0.044455568973027181 0 -0.0062583508834057602 0.044059672274638306 0 -0.007214321125419575 0.043450435068739732 0 -0.0063557218074580743 0.043244232988012721 0 -0.0066812303968470108 0.042944425029266209 0 -0.0061829111301144315 0.044868278097947481 0 -0.0066248818349991107 0.044455568973027181 0 -0.0062583508834057602 0.044059672274638306 0 -0.0071987708666798348 0.043993428920608993 0 -0.0064262563509555554 0.043767697415797509 0 -0.0069824313687801834 0.044757875499260108 0 -0.0070766371969682466 0.0442396715049206 0 -0.0066248818349991107 0.044455568973027181 0 -0.0071987708666798348 0.043993428920608993 0 -0.0070579606948795847 0.043809584644911317 0 -0.0068455617880039113 0.044835399713908257 0 -0.0058443455839111138 0.043614205422134192 0 -0.0061829111301144315 0.044868278097947481 0 -0.0062583508834057602 0.044059672274638306 0 -0.0054469694444315535 0.043876434742599897 0 -0.0078809195980315567 0.044753960029169364 0 -0.0065921321999835693 0.042896559869211828 0 -0.0064905129206669025 0.044026960251306153 0 -0.0064262563509555554 0.043767697415797509 0 -0.0058443455839111138 0.043614205422134192 0 -0.0063557218074580743 0.043244232988012721 0 -0.0057798396999743096 0.042808274474200242 0 -0.0053616773476905218 0.042935375421378326 0 -0.0056174627648035869 0.042442865039018098 0 -0.0057798396999743096 0.042808274474200242 0 -0.0060947728303954339 0.04275493643565758 0 -0.0056174627648035869 0.042442865039018098 0 -0.0060947728303954339 0.04275493643565758 0 -0.0059673320964179211 0.042298171440504267 0 -0.0056174627648035869 0.042442865039018098 0 -0.0057798396999743096 0.042808274474200242 0 -0.0054648500743473081 0.042654479660098055 0 -0.0063557218074580743 0.043244232988012721 0 -0.0057798396999743096 0.042808274474200242 0 -0.0060947728303954339 0.04275493643565758 0 -0.0060947728303954339 0.04275493643565758 0 -0.0059673320964179211 0.042298171440504267 0 -0.0063367484839531342 0.042484930498606854 0 -0.0060947728303954339 0.04275493643565758 0 -0.0063367484839531342 0.042484930498606854 0 -0.0066812303968470108 0.042944425029266209 0 -0.0063367484839531342 0.042484930498606854 0 -0.0066812303968470108 0.042944425029266209 0 -0.0066962943461556564 0.04231504880829455 0 -0.0063557218074580743 0.043244232988012721 0 -0.0060947728303954339 0.04275493643565758 0 -0.0066812303968470108 0.042944425029266209 0 -0.0073864539204358017 0.043926691760636433 0 -0.0066812303968470108 0.042944425029266209 0 -0.0073622479291247265 0.043181514870810477 0 -0.0066812303968470108 0.042944425029266209 0 -0.007261579351239493 0.042549850112246809 0 -0.0073622479291247265 0.043181514870810477 0 -0.0066812303968470108 0.042944425029266209 0 -0.007261579351239493 0.042549850112246809 0 -0.0066962943461556564 0.04231504880829455 0 -0.007261579351239493 0.042549850112246809 0 -0.0069223347990157299 0.041698286660267529 0 -0.0066962943461556564 0.04231504880829455 0 -0.0069223347990157299 0.041698286660267529 0 -0.0066962943461556564 0.04231504880829455 0 -0.00631797686156731 0.041899151965097366 0 -0.0063367484839531342 0.042484930498606854 0 -0.0066962943461556564 0.04231504880829455 0 -0.00631797686156731 0.041899151965097366 0 -0.00631797686156731 0.041899151965097366 0 -0.0055404862775474432 0.040900323451407018 0 -0.0055299352373505313 0.041492505638349109 0 -0.0069223347990157299 0.041698286660267529 0 -0.00631797686156731 0.041899151965097366 0 -0.0055404862775474432 0.040900323451407018 0 -0.0059673320964179211 0.042298171440504267 0 -0.0063367484839531342 0.042484930498606854 0 -0.00631797686156731 0.041899151965097366 0 -0.0059673320964179211 0.042298171440504267 0 -0.00631797686156731 0.041899151965097366 0 -0.0058971397126847333 0.041922278389158948 0 -0.00631797686156731 0.041899151965097366 0 -0.0058971397126847333 0.041922278389158948 0 -0.0055299352373505313 0.041492505638349109 0 -0.0058971397126847333 0.041922278389158948 0 -0.0055502725965044866 0.041922075436034677 0 -0.0055299352373505313 0.041492505638349109 0 -0.0059673320964179211 0.042298171440504267 0 -0.0058971397126847333 0.041922278389158948 0 -0.0055502725965044866 0.041922075436034677 0 -0.0056174627648035869 0.042442865039018098 0 -0.0059673320964179211 0.042298171440504267 0 -0.0055502725965044866 0.041922075436034677 0 -0.0077220652385710112 0.043254451447043644 0 -0.0076638222606895982 0.042650322913483509 0 -0.008270811562824441 0.044290808113381042 0 -0.0084150217213877585 0.043692654662423225 0 -0.0083802797808513324 0.043996475575497435 0 -0.008138668596113792 0.042613494341627832 0 -0.0081296979473881661 0.042500771293947193 0 -0.0080354934544084947 0.042560958744107806 0 -0.0084692641723441708 0.043283494116696693 0 -0.0076638222606895982 0.042650322913483509 0 -0.0084692641723441708 0.043283494116696693 0 -0.0084379252723745732 0.043347637023838578 0 -0.008743424942727996 0.043861915723008446 0 -0.0084150217213877585 0.043692654662423225 0 -0.0083802797808513324 0.043996475575497435 0 -0.0088592944747235801 0.043841632567265081 0 -0.008599746324093745 0.044272167189537991 0 -0.0083802797808513324 0.043996475575497435 0 -0.008270811562824441 0.044290808113381042 0 -0.0086631268406874278 0.042589488412495206 0 -0.0078104280990035383 0.043014903181398639 0 -0.007261579351239493 0.042549850112246809 0 -0.0086631268406874278 0.042589488412495206 0 -0.0078104280990035383 0.043014903181398639 0 -0.007261579351239493 0.042549850112246809 0 -0.0078104280990035383 0.043014903181398639 0 -0.0073622479291247265 0.043181514870810477 0 -0.0077297412173293716 0.043652017043345683 0 -0.0078104280990035383 0.043014903181398639 0 -0.0073622479291247265 0.043181514870810477 0 -0.007261579351239493 0.042549850112246809 0 -0.0069223347990157299 0.041698286660267529 0 -0.0086631268406874278 0.042589488412495206 0 -0.0067589979226486139 0.041858327029746997 0 -0.0076638222606895982 0.042650322913483509 0 -0.006682417474136771 0.04145656284795899 0 -0.0077588206656140496 0.041994642254505055 0 -0.0073375009520735696 0.04149339840671934 0 -0.0073375009520735696 0.04149339840671934 0 -0.007189108614786075 0.041263205532497189 0 -0.0079066827934071281 0.041170489351414152 0 -0.006682417474136771 0.04145656284795899 0 -0.0073375009520735696 0.04149339840671934 0 -0.007189108614786075 0.041263205532497189 0 -0.0076638222606895982 0.042650322913483509 0 -0.0071291115414653288 0.041387310902293889 0 -0.0081296979473881661 0.042500771293947193 0 -0.0080354934544084947 0.042560958744107806 0 -0.0080641943760569115 0.042393337163329506 0 -0.0077588206656140496 0.041994642254505055 0 -0.0073375009520735696 0.04149339840671934 0 -0.0079066827934071281 0.041170489351414152 0 -0.0063043710363978878 0.04044809531470496 0 -0.006110555257123204 0.040600554669300792 0 -0.0061703964568678004 0.040280086085826013 0 -0.0061569002837053924 0.04038922356406368 0 -0.0061922093149640789 0.040171429716281522 0 -0.0059932021875878649 0.040237716587709811 0 -0.0071291115414653288 0.041387310902293889 0 -0.0069560141864427926 0.040763637316203846 0 -0.0069560141864427926 0.040763637316203846 0 -0.0069037667111005643 0.040562397969171757 0 -0.0061922093149640789 0.040171429716281522 0 -0.0060804501007332085 0.040013659465019641 0 -0.0062260369857444972 0.039977470818816842 0 -0.0061922093149640789 0.040171429716281522 0 -0.006050420989001693 0.040123576624292646 0 -0.0060804501007332085 0.040013659465019641 0 -0.0061922093149640789 0.040171429716281522 0 -0.006050420989001693 0.040123576624292646 0 -0.0059932021875878649 0.040237716587709811 0 -0.0059321278281292541 0.040071828042518243 0 -0.0058333520890346069 0.040143269762247351 0 -0.0057897533424770206 0.039998829436845101 0 -0.006050420989001693 0.040123576624292646 0 -0.0060804501007332085 0.040013659465019641 0 -0.0059321278281292541 0.040071828042518243 0 -0.006050420989001693 0.040123576624292646 0 -0.0059321278281292541 0.040071828042518243 0 -0.0059932021875878649 0.040237716587709811 0 -0.0059321278281292541 0.040071828042518243 0 -0.0058333520890346069 0.040143269762247351 0 -0.0059932021875878649 0.040237716587709811 0 -0.0071291115414653288 0.041387310902293889 0 -0.0062736420436351158 0.040901128031330898 0 -0.0058333520890346069 0.040143269762247351 0 -0.0059932021875878649 0.040237716587709811 0 -0.0058008252955740131 0.040316504560809444 0 -0.0061569002837053924 0.04038922356406368 0 -0.0059932021875878649 0.040237716587709811 0 -0.0058008252955740131 0.040316504560809444 0 -0.007189108614786075 0.041263205532497189 0 -0.0079066827934071281 0.041170489351414152 0 -0.0068280726012607575 0.040935527813957075 0 -0.006682417474136771 0.04145656284795899 0 -0.007189108614786075 0.041263205532497189 0 -0.0068280726012607575 0.040935527813957075 0 -0.0062736420436351158 0.040901128031330898 0 -0.0054953371158377468 0.040611954502214984 0 -0.006682417474136771 0.04145656284795899 0 -0.0068280726012607575 0.040935527813957075 0 -0.006191486546604486 0.040992099930314649 0 -0.0068280726012607575 0.040935527813957075 0 -0.006191486546604486 0.040992099930314649 0 -0.0057065753321167761 0.040678656801042205 0 -0.006682417474136771 0.04145656284795899 0 -0.006191486546604486 0.040992099930314649 0 -0.0055404862775474432 0.040900323451407018 0 -0.0058008252955740131 0.040316504560809444 0 -0.0054287338954288637 0.0402906764999309 0 -0.0055402390116547308 0.040168238495745343 0 -0.0067589979226486139 0.041858327029746997 0 -0.006109734138465662 0.041438119539158595 0 -0.006191486546604486 0.040992099930314649 0 -0.0057065753321167761 0.040678656801042205 0 -0.0055404862775474432 0.040900323451407018 0 -0.0054132434244190258 0.039967716677287379 0 -0.0056600241092424107 0.04008398340612436 0 -0.0056612282795060007 0.039822681133222286 0 -0.0055402390116547308 0.040168238495745343 0 -0.0054132434244190258 0.039967716677287379 0 -0.0052654692886081184 0.040066851271684724 0 -0.0054287338954288637 0.0402906764999309 0 -0.0055402390116547308 0.040168238495745343 0 -0.0052654692886081184 0.040066851271684724 0 -0.0055402390116547308 0.040168238495745343 0 -0.0054132434244190258 0.039967716677287379 0 -0.0056600241092424107 0.04008398340612436 0 -0.0058008252955740131 0.040316504560809444 0 -0.0055402390116547308 0.040168238495745343 0 -0.0056600241092424107 0.04008398340612436 0 -0.0058333520890346069 0.040143269762247351 0 -0.0058008252955740131 0.040316504560809444 0 -0.0056600241092424107 0.04008398340612436 0 -0.0058333520890346069 0.040143269762247351 0 -0.0056600241092424107 0.04008398340612436 0 -0.0057897533424770206 0.039998829436845101 0 -0.0057897533424770206 0.039998829436845101 0 -0.0056612282795060007 0.039822681133222286 0 -0.0059345740377759852 0.039841268006924294 0 -0.0056600241092424107 0.04008398340612436 0 -0.0057897533424770206 0.039998829436845101 0 -0.0056612282795060007 0.039822681133222286 0 -0.0056612282795060007 0.039822681133222286 0 -0.0058376588976841136 0.039639968330897293 0 -0.0059345740377759852 0.039841268006924294 0 -0.0054132434244190258 0.039967716677287379 0 -0.0056612282795060007 0.039822681133222286 0 -0.0053316860950608303 0.03971763277167812 0 -0.0055445093771286048 0.039502633809531715 0 -0.0056612282795060007 0.039822681133222286 0 -0.0053316860950608303 0.03971763277167812 0 -0.0055445093771286048 0.039502633809531715 0 -0.0053316860950608303 0.03971763277167812 0 -0.0052340072654645147 0.039474304877120232 0 -0.0055445093771286048 0.039502633809531715 0 -0.0056612282795060007 0.039822681133222286 0 -0.0058376588976841136 0.039639968330897293 0 -0.0061391313836104341 0.039606091802579554 0 -0.0058376588976841136 0.039639968330897293 0 -0.0059345740377759852 0.039841268006924294 0 -0.0061391313836104341 0.039606091802579554 0 -0.0069030004410892956 0.039994138706115699 0 -0.0065135123767542276 0.041119410180011619 0 -0.0061391313836104341 0.039606091802579554 0 -0.0062441498423505765 0.039820404295133532 0 -0.0061205321869157257 0.039832220972730127 0 -0.0061391313836104341 0.039606091802579554 0 -0.0061205321869157257 0.039832220972730127 0 -0.0059345740377759852 0.039841268006924294 0 -0.0064184516396832798 0.040147422268102875 0 -0.006659269592623967 0.040577274908746692 0 -0.0062441498423505765 0.039820404295133532 0 -0.0061205321869157257 0.039832220972730127 0 -0.0062260369857444972 0.039977470818816842 0 -0.0060804501007332085 0.040013659465019641 0 -0.0061205321869157257 0.039832220972730127 0 -0.0062260369857444972 0.039977470818816842 0 -0.0060804501007332085 0.040013659465019641 0 -0.0061205321869157257 0.039832220972730127 0 -0.0059345740377759852 0.039841268006924294 0 -0.0060804501007332085 0.040013659465019641 0 -0.0059321278281292541 0.040071828042518243 0 -0.0059345740377759852 0.039841268006924294 0 -0.0059321278281292541 0.040071828042518243 0 -0.0057897533424770206 0.039998829436845101 0 -0.0059345740377759852 0.039841268006924294 0 -0.003248117596061975 0.038819983116556496 0 -0.0041933422515350056 0.039192620318105963 0 -0.0034606745725495342 0.039862787764787536 0 -0.003248117596061975 0.038819983116556496 0 -0.0034606745725495342 0.039862787764787536 0 -0.0024547055891837293 0.039513243645098978 0 -0.003248117596061975 0.038819983116556496 0 -0.0039220562088478229 0.037911353953920104 0 -0.0041933422515350056 0.039192620318105963 0 -0.003248117596061975 0.038819983116556496 0 -0.0024882675716284808 0.038483388841291724 0 -0.0024547055891837293 0.039513243645098978 0 -0.0015601721623510418 0.038829523340362791 0 -0.0024882675716284808 0.038483388841291724 0 -0.0024547055891837293 0.039513243645098978 0 -0.003248117596061975 0.038819983116556496 0 -0.0024882675716284808 0.038483388841291724 0 -0.0030537513974878108 0.037882258744745434 0 -0.0015601721623510418 0.038829523340362791 0 -0.0021918019217349372 0.037294946391197334 0 -0.0024882675716284808 0.038483388841291724 0 -0.0021918019217349372 0.037294946391197334 0 -0.0024882675716284808 0.038483388841291724 0 -0.0030537513974878108 0.037882258744745434 0 -0.0034187627761848201 0.036832090539966118 0 -0.0030537513974878108 0.037882258744745434 0 -0.0039220562088478229 0.037911353953920104 0 -0.003248117596061975 0.038819983116556496 0 -0.0030537513974878108 0.037882258744745434 0 -0.0039220562088478229 0.037911353953920104 0 -0.0039220562088478229 0.037911353953920104 0 -0.0049898726355058019 0.038274561471860397 0 -0.0041933422515350056 0.039192620318105963 0 -0.0044379033565415194 0.036879473543517276 0 -0.0048413171041678544 0.038514829511336293 0 -0.0047022141403025462 0.036706160322765385 0 -0.0039220562088478229 0.037911353953920104 0 -0.0049898726355058019 0.038274561471860397 0 -0.0049164458020061752 0.03927027159840623 0 -0.0050705271851840044 0.039649417574211587 0 -0.0052340072654645147 0.039474304877120232 0 -0.0053316860950608303 0.03971763277167812 0 -0.0050705271851840044 0.039649417574211587 0 -0.0052340072654645147 0.039474304877120232 0 -0.0048413171041678544 0.038514829511336293 0 -0.0049703559458337708 0.039080799778714259 0 -0.0054132434244190258 0.039967716677287379 0 -0.0053316860950608303 0.03971763277167812 0 -0.005113664573443576 0.03986091063224715 0 -0.0053316860950608303 0.03971763277167812 0 -0.0050705271851840044 0.039649417574211587 0 -0.005113664573443576 0.03986091063224715 0 -0.0049898726355058019 0.038274561471860397 0 -0.0041933422515350056 0.039192620318105963 0 -0.005113664573443576 0.03986091063224715 0 -0.0041933422515350056 0.039192620318105963 0 -0.0043976520734478478 0.040246436439943821 0 -0.0034606745725495342 0.039862787764787536 0 -0.0041933422515350056 0.039192620318105963 0 -0.0043976520734478478 0.040246436439943821 0 -0.005113664573443576 0.03986091063224715 0 -0.0043976520734478478 0.040246436439943821 0 -0.005113664573443576 0.03986091063224715 0 -0.0052654692886081184 0.040066851271684724 0 -0.0054287338954288637 0.0402906764999309 0 -0.0043976520734478478 0.040246436439943821 0 -0.0052654692886081184 0.040066851271684724 0 -0.0054132434244190258 0.039967716677287379 0 -0.005113664573443576 0.03986091063224715 0 -0.0052654692886081184 0.040066851271684724 0 -0.0057065753321167761 0.040678656801042205 0 -0.0043976520734478478 0.040246436439943821 0 -0.0051093782298333758 0.040826459174335777 0 -0.0054953371158377468 0.040611954502214984 0 -0.0049720521932982032 0.040468838613438834 0 -0.0057065753321167761 0.040678656801042205 0 -0.0055404862775474432 0.040900323451407018 0 -0.0051093782298333758 0.040826459174335777 0 -0.0051093782298333758 0.040826459174335777 0 -0.0051916931694196743 0.04119025826100918 0 -0.0046943819061445371 0.041132139159935119 0 -0.0055404862775474432 0.040900323451407018 0 -0.0051093782298333758 0.040826459174335777 0 -0.0051916931694196743 0.04119025826100918 0 -0.0055404862775474432 0.040900323451407018 0 -0.0051916931694196743 0.04119025826100918 0 -0.0055299352373505313 0.041492505638349109 0 -0.0043976520734478478 0.040246436439943821 0 -0.0046943819061445371 0.041132139159935119 0 -0.0039288278504127335 0.04121960950353578 0 -0.0043976520734478478 0.040246436439943821 0 -0.0039288278504127335 0.04121960950353578 0 -0.0035539463111392143 0.040620712226983352 0 -0.0043976520734478478 0.040246436439943821 0 -0.0051093782298333758 0.040826459174335777 0 -0.0046943819061445371 0.041132139159935119 0 -0.0039288278504127335 0.04121960950353578 0 -0.0035539463111392143 0.040620712226983352 0 -0.0031712237712365546 0.041271234200580306 0 -0.0035539463111392143 0.040620712226983352 0 -0.0027737517079902776 0.040391789446467118 0 -0.0031712237712365546 0.041271234200580306 0 -0.0043976520734478478 0.040246436439943821 0 -0.0035539463111392143 0.040620712226983352 0 -0.0034606745725495342 0.039862787764787536 0 -0.0035539463111392143 0.040620712226983352 0 -0.0034606745725495342 0.039862787764787536 0 -0.0027737517079902776 0.040391789446467118 0 -0.0034606745725495342 0.039862787764787536 0 -0.0024547055891837293 0.039513243645098978 0 -0.0027737517079902776 0.040391789446467118 0 -0.0024547055891837293 0.039513243645098978 0 -0.0021473525608256749 0.040241797641067244 0 -0.0027737517079902776 0.040391789446467118 0 -0.0017526970911067039 0.039817045851481409 0 -0.0024547055891837293 0.039513243645098978 0 -0.0021473525608256749 0.040241797641067244 0 -0.0021473525608256749 0.040241797641067244 0 -0.0027737517079902776 0.040391789446467118 0 -0.0022695152090021625 0.040839529296462035 0 -0.0022695152090021625 0.040839529296462035 0 -0.0024997585716392853 0.04144039350984622 0 -0.0031712237712365546 0.041271234200580306 0 -0.0027737517079902776 0.040391789446467118 0 -0.0022695152090021625 0.040839529296462035 0 -0.0031712237712365546 0.041271234200580306 0 -0.0024997585716392853 0.04144039350984622 0 -0.0031712237712365546 0.041271234200580306 0 -0.0033591797991536746 0.042298701504659947 0 -0.0024997585716392853 0.04144039350984622 0 -0.0033591797991536746 0.042298701504659947 0 -0.002424094127348825 0.042193561932645708 0 -0.0039288278504127335 0.04121960950353578 0 -0.0033591797991536746 0.042298701504659947 0 -0.0043728190941865171 0.041861691922256479 0 -0.0039288278504127335 0.04121960950353578 0 -0.0031712237712365546 0.041271234200580306 0 -0.0033591797991536746 0.042298701504659947 0 -0.0043844285186628307 0.042956625453583051 0 -0.0048914006837762654 0.04314574234607018 0 -0.0033591797991536746 0.042298701504659947 0 -0.0049961112351218388 0.042547194313004147 0 -0.0042665881720729913 0.043390328233216584 0 -0.0033591797991536746 0.042298701504659947 0 -0.0033533948495357152 0.043332739175314772 0 -0.0042665881720729913 0.043390328233216584 0 -0.0033591797991536746 0.042298701504659947 0 -0.0026765928509567927 0.042977486130386156 0 -0.0033533948495357152 0.043332739175314772 0 -0.0026765928509567927 0.042977486130386156 0 -0.0022094179135838223 0.042711840472659156 0 -0.002424094127348825 0.042193561932645708 0 -0.0020627664701826174 0.043201849467933859 0 -0.0026765928509567927 0.042977486130386156 0 -0.0022094179135838223 0.042711840472659156 0 -0.0033591797991536746 0.042298701504659947 0 -0.0026765928509567927 0.042977486130386156 0 -0.002424094127348825 0.042193561932645708 0 -0.0056174627648035869 0.042442865039018098 0 -0.0052513115018172872 0.042133397761670292 0 -0.0055502725965044866 0.041922075436034677 0 -0.0052513115018172872 0.042133397761670292 0 -0.0055502725965044866 0.041922075436034677 0 -0.0050206275626092324 0.041684539536818381 0 -0.0051916931694196743 0.04119025826100918 0 -0.0055299352373505313 0.041492505638349109 0 -0.0050206275626092324 0.041684539536818381 0 -0.0055502725965044866 0.041922075436034677 0 -0.0055299352373505313 0.041492505638349109 0 -0.0050206275626092324 0.041684539536818381 0 -0.0051916931694196743 0.04119025826100918 0 -0.0046943819061445371 0.041132139159935119 0 -0.0050206275626092324 0.041684539536818381 0 -0.0052513115018172872 0.042133397761670292 0 -0.0050206275626092324 0.041684539536818381 0 -0.0049230363372049892 0.042200263341492052 0 -0.0050206275626092324 0.041684539536818381 0 -0.0043728190941865171 0.041861691922256479 0 -0.0049230363372049892 0.042200263341492052 0 -0.0046943819061445371 0.041132139159935119 0 -0.0050206275626092324 0.041684539536818381 0 -0.0043728190941865171 0.041861691922256479 0 -0.0046943819061445371 0.041132139159935119 0 -0.0039288278504127335 0.04121960950353578 0 -0.0043728190941865171 0.041861691922256479 0 -0.0033591797991536746 0.042298701504659947 0 -0.0043728190941865171 0.041861691922256479 0 -0.0043526347747348589 0.042589965584050475 0 -0.0043728190941865171 0.041861691922256479 0 -0.0043526347747348589 0.042589965584050475 0 -0.0049230363372049892 0.042200263341492052 0 -0.0048914006837762654 0.04314574234607018 0 -0.0058443455839111138 0.043614205422134192 0 -0.0043526347747348589 0.042589965584050475 0 -0.00518254268679289 0.042642942178029587 0 -0.0053619534940162169 0.042895796188981518 0 -0.0043526347747348589 0.042589965584050475 0 -0.0049230363372049892 0.042200263341492052 0 -0.00518254268679289 0.042642942178029587 0 -0.0049961112351218388 0.042547194313004147 0 -0.0065921321999835693 0.042896559869211828 0 -0.0058864977582622248 0.043295114190586674 0 -0.0049230363372049892 0.042200263341492052 0 -0.00518254268679289 0.042642942178029587 0 -0.0053094776504733253 0.042417674701165482 0 -0.0057798396999743096 0.042808274474200242 0 -0.0053616773476905218 0.042935375421378326 0 -0.0054648500743473081 0.042654479660098055 0 -0.0058119869860894019 0.043569944643910362 0 -0.0058443455839111138 0.043614205422134192 0 -0.00518254268679289 0.042642942178029587 0 -0.0053616773476905218 0.042935375421378326 0 -0.0054648500743473081 0.042654479660098055 0 -0.0056174627648035869 0.042442865039018098 0 -0.0054648500743473081 0.042654479660098055 0 -0.0053094776504733253 0.042417674701165482 0 -0.00518254268679289 0.042642942178029587 0 -0.0054648500743473081 0.042654479660098055 0 -0.0053094776504733253 0.042417674701165482 0 -0.0052513115018172872 0.042133397761670292 0 -0.0049230363372049892 0.042200263341492052 0 -0.0053094776504733253 0.042417674701165482 0 -0.0056174627648035869 0.042442865039018098 0 -0.0052513115018172872 0.042133397761670292 0 -0.0053094776504733253 0.042417674701165482 0 -0.0065921321999835693 0.042896559869211828 0 -0.0064905129206669025 0.044026960251306153 0 -0.0058864977582622248 0.043295114190586674 0 -0.0064905129206669025 0.044026960251306153 0 -0.0058864977582622248 0.043295114190586674 0 -0.005466058509068652 0.043711087920664395 0 -0.0064905129206669025 0.044026960251306153 0 -0.005466058509068652 0.043711087920664395 0 -0.0059325520173436489 0.044590493376646764 0 -0.005466058509068652 0.043711087920664395 0 -0.0047738957336259363 0.044375636903948149 0 -0.0059325520173436489 0.044590493376646764 0 -0.0049961112351218388 0.042547194313004147 0 -0.0058864977582622248 0.043295114190586674 0 -0.005466058509068652 0.043711087920664395 0 -0.0049961112351218388 0.042547194313004147 0 -0.005466058509068652 0.043711087920664395 0 -0.0042665881720729913 0.043390328233216584 0 -0.005466058509068652 0.043711087920664395 0 -0.0047738957336259363 0.044375636903948149 0 -0.0042665881720729913 0.043390328233216584 0 -0.0047738957336259363 0.044375636903948149 0 -0.0055502214863975032 0.045337614888055898 0 -0.0042252143906679812 0.045586969648682057 0 -0.0047738957336259363 0.044375636903948149 0 -0.0055502214863975032 0.045337614888055898 0 -0.0059325520173436489 0.044590493376646764 0 -0.0055502214863975032 0.045337614888055898 0 -0.0059325520173436489 0.044590493376646764 0 -0.0066164928626175493 0.045575426377364718 0 -0.0059325520173436489 0.044590493376646764 0 -0.0068651099677941004 0.044859290735921625 0 -0.0066164928626175493 0.045575426377364718 0 -0.0064905129206669025 0.044026960251306153 0 -0.0059325520173436489 0.044590493376646764 0 -0.0068651099677941004 0.044859290735921625 0 -0.0028678707528054146 0.043788106882173668 0 -0.0023187762284621904 0.04385702817078297 0 -0.0029615123753852419 0.044753636209150648 0 -0.0028678707528054146 0.043788106882173668 0 -0.0035810899728401925 0.044196270956763706 0 -0.0029615123753852419 0.044753636209150648 0 -0.0028678707528054146 0.043788106882173668 0 -0.0023187762284621904 0.04385702817078297 0 -0.0024694468641208562 0.043458296381353359 0 -0.0020627664701826174 0.043201849467933859 0 -0.0023187762284621904 0.04385702817078297 0 -0.0024694468641208562 0.043458296381353359 0 -0.0020627664701826174 0.043201849467933859 0 -0.0026765928509567927 0.042977486130386156 0 -0.0024694468641208562 0.043458296381353359 0 -0.0026765928509567927 0.042977486130386156 0 -0.0028678707528054146 0.043788106882173668 0 -0.0024694468641208562 0.043458296381353359 0 -0.0026765928509567927 0.042977486130386156 0 -0.0028678707528054146 0.043788106882173668 0 -0.0033533948495357152 0.043332739175314772 0 -0.0033533948495357152 0.043332739175314772 0 -0.0042665881720729913 0.043390328233216584 0 -0.0035810899728401925 0.044196270956763706 0 -0.0047738957336259363 0.044375636903948149 0 -0.0042665881720729913 0.043390328233216584 0 -0.0035810899728401925 0.044196270956763706 0 -0.0028678707528054146 0.043788106882173668 0 -0.0033533948495357152 0.043332739175314772 0 -0.0035810899728401925 0.044196270956763706 0 -0.00474541074011874 0.042230362122855573 0 -0.004483982399101848 0.040951531418494183 0 -0.00122332883279498 0.029200242192250127 0 -0.001302449729001685 0.030395668747463394 0 -0.0027125011979585931 0.029929452054733154 0 -0.0047738957336259363 0.044375636903948149 0 -0.0035810899728401925 0.044196270956763706 0 -0.0042252143906679812 0.045586969648682057 0 -0.0028435585144822224 0.037613184821606187 0 -0.004483982399101848 0.040951531418494183 0 -0.0035810899728401925 0.044196270956763706 0 -0.0029615123753852419 0.044753636209150648 0 -0.0040973085889550662 0.045347021067737178 0 7.8607833725116466e-05 0.02931696127424134 0 -0.00122332883279498 0.029200242192250127 0 -0.00015943135135690518 0.029982828491289564 0 7.8607833725116466e-05 0.02931696127424134 0 -7.0737616904382244e-05 0.028822247630287179 0 -0.00122332883279498 0.029200242192250127 0 -0.0023600485952135746 0.034970297677973716 0 -0.0028435585144822224 0.037613184821606187 0 0.00016608708252957479 0.028534306565104792 0 -7.0737616904382244e-05 0.028822247630287179 0 -0.00122332883279498 0.029200242192250127 0 -0.00122332883279498 0.029200242192250127 0 -0.001302449729001685 0.030395668747463394 0 -0.00015943135135690518 0.029982828491289564 0 -0.0017793712555337323 0.044161959883262748 0 -0.0023187762284621904 0.04385702817078297 0 -0.0029615123753852419 0.044753636209150648 0 -0.001302449729001685 0.030395668747463394 0 -0.00015943135135690518 0.029982828491289564 0 0.0006439078902430867 0.030877226047642359 0 -0.001302449729001685 0.030395668747463394 0 -0.0014271911900503608 0.031639302399229921 0 0.0006439078902430867 0.030877226047642359 0 -0.0027125011979585931 0.029929452054733154 0 -0.0023102702598255705 0.031246368364705457 0 -0.00368550971577244 0.031862142878452515 0 -0.001302449729001685 0.030395668747463394 0 -0.0027125011979585931 0.029929452054733154 0 -0.0023102702598255705 0.031246368364705457 0 -0.001302449729001685 0.030395668747463394 0 -0.0023102702598255705 0.031246368364705457 0 -0.0014271911900503608 0.031639302399229921 0 -0.0023102702598255705 0.031246368364705457 0 -0.0024678624644581268 0.032467820109913156 0 -0.0014271911900503608 0.031639302399229921 0 -0.0023102702598255705 0.031246368364705457 0 -0.0024678624644581268 0.032467820109913156 0 -0.00368550971577244 0.031862142878452515 0 -0.0014271911900503608 0.031639302399229921 0 -0.00067640414544733671 0.032943385474235753 0 0.0006439078902430867 0.030877226047642359 0 -0.0024678624644581268 0.032467820109913156 0 -0.0014271911900503608 0.031639302399229921 0 -0.00067640414544733671 0.032943385474235753 0 -0.0066164928626175493 0.045575426377364718 0 -0.006173478377284004 0.046538500097913486 0 -0.0075960561612492764 0.045972290784354254 0 -0.0055502214863975032 0.045337614888055898 0 -0.0066164928626175493 0.045575426377364718 0 -0.006173478377284004 0.046538500097913486 0 -0.0091782759851564959 0.048267156694304911 0 -0.0082773188438804799 0.047731322167410418 0 -0.0088912594014269233 0.047563458109288262 0 -0.004483982399101848 0.040951531418494183 0 -0.0054095339349559115 0.040119155099356249 0 -0.0055502214863975032 0.045337614888055898 0 -0.0042252143906679812 0.045586969648682057 0 -0.006173478377284004 0.046538500097913486 0 -0.004483982399101848 0.040951531418494183 0 -0.0075177960125695862 0.044763907753137412 0 -0.0024678624644581268 0.032467820109913156 0 -0.00368550971577244 0.031862142878452515 0 -0.003243951986979359 0.03332257796168548 0 -0.0082773188438804799 0.047731322167410418 0 -0.0088912594014269233 0.047563458109288262 0 -0.0082053956801651871 0.047319546292902991 0 -0.0088912594014269233 0.047563458109288262 0 -0.0082053956801651871 0.047319546292902991 0 -0.008239057087411147 0.04686368471619376 0 -0.0082053956801651871 0.047319546292902991 0 -0.0081424356097621643 0.047141213877846755 0 -0.0080785024289956701 0.047252487730740304 0 -0.0082773188438804799 0.047731322167410418 0 -0.0082053956801651871 0.047319546292902991 0 -0.0080785024289956701 0.047252487730740304 0 -0.008239057087411147 0.04686368471619376 0 -0.0087128058043331718 0.045609940252381409 0 -0.0070172324564256507 0.043077060356446928 0 -0.008239057087411147 0.04686368471619376 0 -0.0080754919136799361 0.04767425769682971 0 -0.0081763604371734872 0.047282915712998613 0 -0.0081424356097621643 0.047141213877846755 0 -0.008239057087411147 0.04686368471619376 0 -0.0081763604371734872 0.047282915712998613 0 -0.0082053956801651871 0.047319546292902991 0 -0.0081424356097621643 0.047141213877846755 0 -0.008239057087411147 0.04686368471619376 0 -0.0054095339349559115 0.040119155099356249 0 -0.006025575305476579 0.039837796743980546 0 -0.0088912594014269233 0.047563458109288262 0 -0.008239057087411147 0.04686368471619376 0 -0.0087128058043331718 0.045609940252381409 0 -0.00368550971577244 0.031862142878452515 0 -0.0047653468416631369 0.03401837308243779 0 -0.003243951986979359 0.03332257796168548 0 -0.0047653468416631369 0.03401837308243779 0 -0.003243951986979359 0.03332257796168548 0 -0.0032950217097707018 0.034431551974097273 0 -0.0032950217097707018 0.034431551974097273 0 -0.0036808011183004641 0.035797834210332467 0 -0.004183283385391548 0.034822421876654332 0 -0.0032950217097707018 0.034431551974097273 0 -0.0036808011183004641 0.035797834210332467 0 -0.0022075300172990035 0.035362466779338644 0 -0.0036808011183004641 0.035797834210332467 0 -0.004183283385391548 0.034822421876654332 0 -0.0047031073045656832 0.035707010827101489 0 -0.0047653468416631369 0.03401837308243779 0 -0.004183283385391548 0.034822421876654332 0 -0.0047031073045656832 0.035707010827101489 0 -0.0047653468416631369 0.03401837308243779 0 -0.0032950217097707018 0.034431551974097273 0 -0.004183283385391548 0.034822421876654332 0 -0.0087128058043331718 0.045609940252381409 0 -0.0077141214422303175 0.042192260822350738 0 -0.0070172324564256507 0.043077060356446928 0 -0.0081893886236014089 0.046159356290998543 0 -0.0079718465902344181 0.045474348531527105 0 -0.006025575305476579 0.039837796743980546 0 -0.0063110854064419237 0.039603013983565194 0 -0.0047653468416631369 0.03401837308243779 0 -0.0047031073045656832 0.035707010827101489 0 -0.005941227768826416 0.03649848690809656 0 -0.00067640414544733671 0.032943385474235753 0 -0.00086000167087601695 0.034755723746739665 0 0.00089610068159333726 0.033508718193782157 0 -0.00067640414544733671 0.032943385474235753 0 -0.0020605055773344778 0.033878159360731581 0 -0.00086000167087601695 0.034755723746739665 0 -0.0024678624644581268 0.032467820109913156 0 -0.00067640414544733671 0.032943385474235753 0 -0.0020605055773344778 0.033878159360731581 0 -0.0024678624644581268 0.032467820109913156 0 -0.003243951986979359 0.03332257796168548 0 -0.0020605055773344778 0.033878159360731581 0 -0.003243951986979359 0.03332257796168548 0 -0.0032950217097707018 0.034431551974097273 0 -0.0020605055773344778 0.033878159360731581 0 -0.0022075300172990035 0.035362466779338644 0 -0.00086000167087601695 0.034755723746739665 0 -0.0014881524201674253 0.036845296522712352 0 -0.0020605055773344778 0.033878159360731581 0 -0.0022075300172990035 0.035362466779338644 0 -0.00086000167087601695 0.034755723746739665 0 -0.0032950217097707018 0.034431551974097273 0 -0.0020605055773344778 0.033878159360731581 0 -0.0022075300172990035 0.035362466779338644 0 -0.00086000167087601695 0.034755723746739665 0 -0.0014881524201674253 0.036845296522712352 0 0.00022655288395567828 0.036166950123051329 0 -0.00037167805359535506 0.038078831016640079 0 -0.0014881524201674253 0.036845296522712352 0 0.00022655288395567828 0.036166950123051329 0 -0.00037167805359535506 0.038078831016640079 0 6.8666628192707809e-05 0.039645680572053442 0 -0.00183274423588551 0.039519445773211655 0 -0.00037167805359535506 0.038078831016640079 0 -0.0014881524201674253 0.036845296522712352 0 -0.00183274423588551 0.039519445773211655 0 -0.0014881524201674253 0.036845296522712352 0 -0.0030541970797104811 0.037344573187737193 0 -0.00183274423588551 0.039519445773211655 0 -0.0030541970797104811 0.037344573187737193 0 -0.0035785676872276788 0.038912114522537108 0 -0.00183274423588551 0.039519445773211655 0 -0.0022075300172990035 0.035362466779338644 0 -0.0014881524201674253 0.036845296522712352 0 -0.0030541970797104811 0.037344573187737193 0 -0.0036808011183004641 0.035797834210332467 0 -0.0022075300172990035 0.035362466779338644 0 -0.0030541970797104811 0.037344573187737193 0 -0.0036808011183004641 0.035797834210332467 0 -0.0043959102694068686 0.036834161836876371 0 -0.0030541970797104811 0.037344573187737193 0 -0.0036808011183004641 0.035797834210332467 0 -0.0047031073045656832 0.035707010827101489 0 -0.0043959102694068686 0.036834161836876371 0 -0.0043959102694068686 0.036834161836876371 0 -0.0030541970797104811 0.037344573187737193 0 -0.0043549144579408091 0.038125767490790254 0 -0.0047031073045656832 0.035707010827101489 0 -0.0043959102694068686 0.036834161836876371 0 -0.0050351425609329063 0.036632322185976091 0 -0.0047031073045656832 0.035707010827101489 0 -0.005941227768826416 0.03649848690809656 0 -0.0050351425609329063 0.036632322185976091 0 -0.005941227768826416 0.03649848690809656 0 -0.0050351425609329063 0.036632322185976091 0 -0.0051301086826070381 0.037532015166668348 0 -0.0043959102694068686 0.036834161836876371 0 -0.0050351425609329063 0.036632322185976091 0 -0.0051301086826070381 0.037532015166668348 0 -0.0043959102694068686 0.036834161836876371 0 -0.0051301086826070381 0.037532015166668348 0 -0.0043549144579408091 0.038125767490790254 0 -0.005941227768826416 0.03649848690809656 0 -0.0051301086826070381 0.037532015166668348 0 -0.0058472099908518337 0.038443617976104162 0 -0.005941227768826416 0.03649848690809656 0 -0.0058472099908518337 0.038443617976104162 0 -0.0068792970629913321 0.03972140862146438 0 -0.0058472099908518337 0.038443617976104162 0 -0.0052938399476428599 0.038720765296948123 0 -0.0057960810404693299 0.039689147251742024 0 -0.0051301086826070381 0.037532015166668348 0 -0.0052938399476428599 0.038720765296948123 0 -0.0043549144579408091 0.038125767490790254 0 -0.0052938399476428599 0.038720765296948123 0 -0.0047598051397164057 0.039415233011278486 0 -0.0043549144579408091 0.038125767490790254 0 -0.0051301086826070381 0.037532015166668348 0 -0.0058472099908518337 0.038443617976104162 0 -0.0052938399476428599 0.038720765296948123 0 -0.0052938399476428599 0.038720765296948123 0 -0.0047598051397164057 0.039415233011278486 0 -0.0057960810404693299 0.039689147251742024 0 -0.0047598051397164057 0.039415233011278486 0 -0.0057960810404693299 0.039689147251742024 0 -0.0054646357485120828 0.040659553838758106 0 -0.0058472099908518337 0.038443617976104162 0 -0.0057960810404693299 0.039689147251742024 0 -0.0068792970629913321 0.03972140862146438 0 -0.0035785676872276788 0.038912114522537108 0 -0.0040107025485076634 0.040367196833245862 0 -0.00183274423588551 0.039519445773211655 0 -0.0030541970797104811 0.037344573187737193 0 -0.0043549144579408091 0.038125767490790254 0 -0.0035785676872276788 0.038912114522537108 0 -0.0047598051397164057 0.039415233011278486 0 -0.0043549144579408091 0.038125767490790254 0 -0.0035785676872276788 0.038912114522537108 0 -0.0047598051397164057 0.039415233011278486 0 -0.0035785676872276788 0.038912114522537108 0 -0.0040107025485076634 0.040367196833245862 0 -0.0030414017095807141 0.041373377562510409 0 -0.0040107025485076634 0.040367196833245862 0 -0.0052426429230930348 0.042546723663118853 0 -0.0030414017095807141 0.041373377562510409 0 -0.0040107025485076634 0.040367196833245862 0 -0.00183274423588551 0.039519445773211655 0 -0.0040107025485076634 0.040367196833245862 0 -0.0054646357485120828 0.040659553838758106 0 -0.0052426429230930348 0.042546723663118853 0 -0.0054646357485120828 0.040659553838758106 0 -0.0052426429230930348 0.042546723663118853 0 -0.006807988438570934 0.041518260356352442 0 -0.0057960810404693299 0.039689147251742024 0 -0.0054646357485120828 0.040659553838758106 0 -0.0064929276667859059 0.040375331130461052 0 -0.0047598051397164057 0.039415233011278486 0 -0.0040107025485076634 0.040367196833245862 0 -0.0054646357485120828 0.040659553838758106 0 -0.0030414017095807141 0.041373377562510409 0 -0.0018464042547800875 0.042425259480729914 0 -0.0036447581612583518 0.044006385277346252 0 -0.0030414017095807141 0.041373377562510409 0 -0.0052426429230930348 0.042546723663118853 0 -0.0036447581612583518 0.044006385277346252 0 -0.0018464042547800875 0.042425259480729914 0 4.1936729434012879e-05 0.041530708800939745 0 -0.00183274423588551 0.039519445773211655 0 -0.0018464042547800875 0.042425259480729914 0 4.1936729434012879e-05 0.041530708800939745 0 -0.0015731167508982644 0.045039598078110032 0 4.1936729434012879e-05 0.041530708800939745 0 6.8666628192707809e-05 0.039645680572053442 0 -0.00183274423588551 0.039519445773211655 0 -0.0030414017095807141 0.041373377562510409 0 -0.0018464042547800875 0.042425259480729914 0 -0.00183274423588551 0.039519445773211655 0 -0.0086028182896452175 0.047997468789410497 0 -0.0086269717606588196 0.047883484308117681 0 -0.0088653600467520667 0.047964895964814458 0 -0.0085193549445562334 0.047986036884119274 0 -0.0085163554053196856 0.047880848641360843 0 -0.0086269717606588196 0.047883484308117681 0 -0.0086028182896452175 0.047997468789410497 0 -0.0085193549445562334 0.047986036884119274 0 -0.0086269717606588196 0.047883484308117681 0 -0.0086028182896452175 0.047997468789410497 0 -0.0085193549445562334 0.047986036884119274 0 -0.008511535165002344 0.048000723671795725 0 -0.0085193549445562334 0.047986036884119274 0 -0.0084416906978832511 0.048010842603886883 0 -0.008511535165002344 0.048000723671795725 0 -0.0085193549445562334 0.047986036884119274 0 -0.0084416906978832511 0.048010842603886883 0 -0.0084307328123941327 0.047974172072971465 0 -0.0084416906978832511 0.048010842603886883 0 -0.0084307328123941327 0.047974172072971465 0 -0.0083639324477116916 0.048038828455892371 0 -0.0085193549445562334 0.047986036884119274 0 -0.0084307328123941327 0.047974172072971465 0 -0.0085163554053196856 0.047880848641360843 0 -0.0084307328123941327 0.047974172072971465 0 -0.0085163554053196856 0.047880848641360843 0 -0.008456785374590315 0.047830493697183299 0 -0.0085163554053196856 0.047880848641360843 0 -0.008456785374590315 0.047830493697183299 0 -0.0085594500834637929 0.04769801685437066 0 -0.0084307328123941327 0.047974172072971465 0 -0.008456785374590315 0.047830493697183299 0 -0.0083860122638892524 0.047969050349228382 0 -0.008456785374590315 0.047830493697183299 0 -0.0084753086912342582 0.047726307000478654 0 -0.0085237235282287389 0.047612508215679188 0 -0.008456785374590315 0.047830493697183299 0 -0.0084130113552966217 0.047890825512556613 0 -0.0084753086912342582 0.047726307000478654 0 -0.008456785374590315 0.047830493697183299 0 -0.0084130113552966217 0.047890825512556613 0 -0.0083860122638892524 0.047969050349228382 0 -0.008456785374590315 0.047830493697183299 0 -0.0085594500834637929 0.04769801685437066 0 -0.0085237235282287389 0.047612508215679188 0 -0.008683162601564336 0.047561085849528714 0 -0.0086269717606588196 0.047883484308117681 0 -0.0088653600467520667 0.047964895964814458 0 -0.0085594500834637929 0.04769801685437066 0 -0.008683162601564336 0.047561085849528714 0 -0.0086390158111726966 0.047317341845402733 0 -0.008683162601564336 0.047561085849528714 0 -0.0088653600467520667 0.047964895964814458 0 -0.0090426218653060133 0.046639915242164251 0 -0.0085594500834637929 0.04769801685437066 0 -0.008683162601564336 0.047561085849528714 0 -0.0086269717606588196 0.047883484308117681 0 -0.0085163554053196856 0.047880848641360843 0 -0.0085594500834637929 0.04769801685437066 0 -0.0086269717606588196 0.047883484308117681 0 -0.0085543015372047011 0.042304820364149169 0 -0.0071297871036294464 0.043539534032667741 0 -0.0079922814118547 0.045064908346364944 0 -0.0082805001091038073 0.045068439872345073 0 -0.0085383257727236657 0.045538650604752755 0 -0.0085543015372047011 0.042304820364149169 0 -0.0071297871036294464 0.043539534032667741 0 -0.006807988438570934 0.041518260356352442 0 -0.0052426429230930348 0.042546723663118853 0 -0.0071297871036294464 0.043539534032667741 0 -0.0065796554358120776 0.044872120989945606 0 -0.0052426429230930348 0.042546723663118853 0 -0.0071297871036294464 0.043539534032667741 0 -0.006807988438570934 0.041518260356352442 0 -0.0085543015372047011 0.042304820364149169 0 -0.006807988438570934 0.041518260356352442 0 -0.0068172060786129774 0.039668149841256731 0 -0.006807988438570934 0.041518260356352442 0 -0.0064929276667859059 0.040375331130461052 0 -0.0068172060786129774 0.039668149841256731 0 -0.0054646357485120828 0.040659553838758106 0 -0.006807988438570934 0.041518260356352442 0 -0.0064929276667859059 0.040375331130461052 0 -0.0082805001091038073 0.045068439872345073 0 -0.0078917408030570423 0.044705123086496011 0 -0.0088653600467520667 0.047964895964814458 0 -0.0085769778706752849 0.047994343441538072 0 -0.0084046184157230974 0.048001045694632774 0 -0.0086028182896452175 0.047997468789410497 0 -0.0088653600467520667 0.047964895964814458 0 -0.0085769778706752849 0.047994343441538072 0 -0.0086028182896452175 0.047997468789410497 0 -0.0085769778706752849 0.047994343441538072 0 -0.0085233676250425858 0.047955042858841807 0 -0.0085769778706752849 0.047994343441538072 0 -0.0084645770907226074 0.047926573540266131 0 -0.0084046184157230974 0.048001045694632774 0 -0.0085769778706752849 0.047994343441538072 0 -0.0084645770907226074 0.047926573540266131 0 -0.0085233676250425858 0.047955042858841807 0 -0.0077141214422303175 0.042192260822350738 0 -0.0068792970629913321 0.03972140862146438 0 -0.0068172060786129774 0.039668149841256731 0 -0.0064929276667859059 0.040375331130461052 0 -0.0068792970629913321 0.03972140862146438 0 -0.0068172060786129774 0.039668149841256731 0 -0.0057960810404693299 0.039689147251742024 0 -0.0064929276667859059 0.040375331130461052 0 -0.0068792970629913321 0.03972140862146438 0 -0.0077141214422303175 0.042192260822350738 0 -0.0068172060786129774 0.039668149841256731 0 -0.0070172324564256507 0.043077060356446928 0 -0.0063110854064419237 0.039603013983565194 0 -0.0064113332832815258 0.039580299215812922 0 -0.0084046184157230974 0.048001045694632774 0 -0.0083531878271005961 0.047806582279148677 0 -0.0080754919136799361 0.04767425769682971 0 -0.0078917408030570423 0.044705123086496011 0 -0.0079718465902344181 0.045474348531527105 0 -0.0084645770907226074 0.047926573540266131 0 -0.0084046184157230974 0.048001045694632774 0 -0.0083531878271005961 0.047806582279148677 0 -0.0085233676250425858 0.047955042858841807 0 -0.0084443412955620429 0.047848655999459172 0 -0.0084749965907602934 0.047868576332150234 0 -0.0084645770907226074 0.047926573540266131 0 -0.0085233676250425858 0.047955042858841807 0 -0.0084443412955620429 0.047848655999459172 0 -0.0084645770907226074 0.047926573540266131 0 -0.0083531878271005961 0.047806582279148677 0 -0.0084443412955620429 0.047848655999459172 0 -0.0083531878271005961 0.047806582279148677 0 -0.0084443412955620429 0.047848655999459172 0 -0.0083789315705061884 0.047719832635699323 0 -0.0084443412955620429 0.047848655999459172 0 -0.008447338521906482 0.047789577196725101 0 -0.0083789315705061884 0.047719832635699323 0 -0.0084443412955620429 0.047848655999459172 0 -0.0084749965907602934 0.047868576332150234 0 -0.008447338521906482 0.047789577196725101 0 -0.0084749965907602934 0.047868576332150234 0 -0.0084981406884752277 0.047921887597284288 0 -0.0084764926447319002 0.04784646834217593 0 -0.0084749965907602934 0.047868576332150234 0 -0.0084764926447319002 0.04784646834217593 0 -0.008447338521906482 0.047789577196725101 0 -0.0084981406884752277 0.047921887597284288 0 -0.0084932557116994233 0.047960619821708239 0 -0.0084862647847804562 0.047910206758203497 0 -0.0084981406884752277 0.047921887597284288 0 -0.0084862647847804562 0.047910206758203497 0 -0.0084764926447319002 0.04784646834217593 0 -0.0084981406884752277 0.047921887597284288 0 -0.008511535165002344 0.048000723671795725 0 -0.0084932557116994233 0.047960619821708239 0 -0.0085233676250425858 0.047955042858841807 0 -0.0084749965907602934 0.047868576332150234 0 -0.0084981406884752277 0.047921887597284288 0 -0.0086028182896452175 0.047997468789410497 0 -0.0085233676250425858 0.047955042858841807 0 -0.008511535165002344 0.048000723671795725 0 -0.0085233676250425858 0.047955042858841807 0 -0.0084981406884752277 0.047921887597284288 0 -0.008511535165002344 0.048000723671795725 0 -0.008511535165002344 0.048000723671795725 0 -0.0084796468377511224 0.048009331257616014 0 -0.0084320461494269919 0.048017169401501282 0 -0.0084416906978832511 0.048010842603886883 0 -0.008511535165002344 0.048000723671795725 0 -0.0084320461494269919 0.048017169401501282 0 -0.008511535165002344 0.048000723671795725 0 -0.0084796468377511224 0.048009331257616014 0 -0.0084932557116994233 0.047960619821708239 0 -0.0084796468377511224 0.048009331257616014 0 -0.0084932557116994233 0.047960619821708239 0 -0.0084862647847804562 0.047910206758203497 0 -0.0084796468377511224 0.048009331257616014 0 -0.0084862647847804562 0.047910206758203497 0 -0.0084652658314814354 0.047959918722819225 0 -0.0084796468377511224 0.048009331257616014 0 -0.0084652658314814354 0.047959918722819225 0 -0.0084523164518996163 0.048094376828034524 0 -0.0084652658314814354 0.047959918722819225 0 -0.0084598586071917073 0.047848194758494896 0 -0.0084717510827242628 0.047834477366405906 0 -0.0084652658314814354 0.047959918722819225 0 -0.0084598586071917073 0.047848194758494896 0 -0.0084523164518996163 0.048094376828034524 0 -0.0084598586071917073 0.047848194758494896 0 -0.0084717510827242628 0.047834477366405906 0 -0.008485738761685303 0.047714905717543575 0 -0.0084862647847804562 0.047910206758203497 0 -0.0084652658314814354 0.047959918722819225 0 -0.0084717510827242628 0.047834477366405906 0 -0.0084862647847804562 0.047910206758203497 0 -0.0084764926447319002 0.04784646834217593 0 -0.0084671693894982376 0.047759991962042045 0 -0.0084862647847804562 0.047910206758203497 0 -0.0084717510827242628 0.047834477366405906 0 -0.0084671693894982376 0.047759991962042045 0 -0.008447338521906482 0.047789577196725101 0 -0.0084671693894982376 0.047759991962042045 0 -0.0084034254780558735 0.047650330806142296 0 -0.0084764926447319002 0.04784646834217593 0 -0.008447338521906482 0.047789577196725101 0 -0.0084671693894982376 0.047759991962042045 0 -0.0084671693894982376 0.047759991962042045 0 -0.008432632425723988 0.047596227343330355 0 -0.0084034254780558735 0.047650330806142296 0 -0.0084671693894982376 0.047759991962042045 0 -0.008485738761685303 0.047714905717543575 0 -0.008432632425723988 0.047596227343330355 0 -0.0084717510827242628 0.047834477366405906 0 -0.0084671693894982376 0.047759991962042045 0 -0.008485738761685303 0.047714905717543575 0 -0.008485738761685303 0.047714905717543575 0 -0.008432632425723988 0.047596227343330355 0 -0.0085242916282533988 0.047581038975028474 0 -0.008432632425723988 0.047596227343330355 0 -0.0085242916282533988 0.047581038975028474 0 -0.0083629861592354783 0.047383246437542791 0 -0.0083225934743479547 0.047029033924166734 0 -0.0083491226256036891 0.047137769892889307 0 -0.0084598586071917073 0.047848194758494896 0 -0.008485738761685303 0.047714905717543575 0 -0.0085242916282533988 0.047581038975028474 0 -0.0076767797868081506 0.046921577837031103 0 -0.0082803188630724417 0.046505407596594578 0 -0.0084591464757589729 0.047076692170450025 0 -0.0084598586071917073 0.047848194758494896 0 -0.0078797829183167266 0.047118770150603131 0 -0.0085547662592541998 0.047235445126047208 0 -0.0083225934743479547 0.047029033924166734 0 -0.0085362241038653957 0.047089157405787237 0 -0.0084275835594637 0.047275630933088578 0 -0.0083225934743479547 0.047029033924166734 0 -0.0080754919136799361 0.04767425769682971 0 -0.0082225941482195457 0.04749877029349709 0 -0.0081763604371734872 0.047282915712998613 0 -0.0082225941482195457 0.04749877029349709 0 -0.0082216120428450518 0.047400430253371532 0 -0.0081763604371734872 0.047282915712998613 0 -0.0080754919136799361 0.04767425769682971 0 -0.0082746835790854182 0.047644725783091577 0 -0.0082225941482195457 0.04749877029349709 0 -0.0083531878271005961 0.047806582279148677 0 -0.0080754919136799361 0.04767425769682971 0 -0.0082746835790854182 0.047644725783091577 0 -0.0082225941482195457 0.04749877029349709 0 -0.0083028904167820883 0.047534851285103707 0 -0.0082216120428450518 0.047400430253371532 0 -0.0082746835790854182 0.047644725783091577 0 -0.0082225941482195457 0.04749877029349709 0 -0.0083028904167820883 0.047534851285103707 0 -0.0083028904167820883 0.047534851285103707 0 -0.0084034254780558735 0.047650330806142296 0 -0.0083414222617384064 0.047492297211250895 0 -0.0083028904167820883 0.047534851285103707 0 -0.0083789315705061884 0.047719832635699323 0 -0.0084034254780558735 0.047650330806142296 0 -0.0083531878271005961 0.047806582279148677 0 -0.0082746835790854182 0.047644725783091577 0 -0.0083789315705061884 0.047719832635699323 0 -0.0082746835790854182 0.047644725783091577 0 -0.0083028904167820883 0.047534851285103707 0 -0.0083789315705061884 0.047719832635699323 0 -0.008447338521906482 0.047789577196725101 0 -0.0083789315705061884 0.047719832635699323 0 -0.0084034254780558735 0.047650330806142296 0 -0.008432632425723988 0.047596227343330355 0 -0.0084034254780558735 0.047650330806142296 0 -0.0083414222617384064 0.047492297211250895 0 -0.008432632425723988 0.047596227343330355 0 -0.0083414222617384064 0.047492297211250895 0 -0.0083629861592354783 0.047383246437542791 0 -0.0083414222617384064 0.047492297211250895 0 -0.0082106968052023301 0.047350436853655982 0 -0.0083629861592354783 0.047383246437542791 0 -0.0083028904167820883 0.047534851285103707 0 -0.0083414222617384064 0.047492297211250895 0 -0.0082106968052023301 0.047350436853655982 0 -0.0082106968052023301 0.047350436853655982 0 -0.0080785024289956701 0.047252487730740304 0 -0.0083629861592354783 0.047383246437542791 0 -0.0083028904167820883 0.047534851285103707 0 -0.0082216120428450518 0.047400430253371532 0 -0.0082106968052023301 0.047350436853655982 0 -0.0082216120428450518 0.047400430253371532 0 -0.0082106968052023301 0.047350436853655982 0 -0.0081673165888044661 0.047265378992839488 0 -0.0081424356097621643 0.047141213877846755 0 -0.0081673165888044661 0.047265378992839488 0 -0.0080785024289956701 0.047252487730740304 0 -0.0082106968052023301 0.047350436853655982 0 -0.0081673165888044661 0.047265378992839488 0 -0.0080785024289956701 0.047252487730740304 0 -0.0081424356097621643 0.047141213877846755 0 -0.0081673165888044661 0.047265378992839488 0 -0.0081763604371734872 0.047282915712998613 0 -0.0082216120428450518 0.047400430253371532 0 -0.0081673165888044661 0.047265378992839488 0 -0.0081763604371734872 0.047282915712998613 0 -0.0082551850216625536 0.047149417048634693 0 -0.0083491226256036891 0.047137769892889307 0 -0.0075177960125695862 0.044763907753137412 0 -0.0081115235852739723 0.045639666336559769 0 -0.0082773188438804799 0.047731322167410418 0 -0.0080785024289956701 0.047252487730740304 0 -0.0081130681724545448 0.04719832804760133 0 -0.0080785024289956701 0.047252487730740304 0 -0.0081130681724545448 0.04719832804760133 0 -0.0083844029962823283 0.047262319907521749 0 -0.006173478377284004 0.046538500097913486 0 -0.0081130681724545448 0.04719832804760133 0 -0.0075444314995243211 0.046602520910078736 0 -0.0081130681724545448 0.04719832804760133 0 -0.0075444314995243211 0.046602520910078736 0 -0.0081555017891640821 0.046706754119118503 0 -0.0081555017891640821 0.046706754119118503 0 -0.0083844029962823283 0.047262319907521749 0 -0.0087655671210443882 0.046360135000751881 0 -0.0081130681724545448 0.04719832804760133 0 -0.0081555017891640821 0.046706754119118503 0 -0.0083844029962823283 0.047262319907521749 0 -0.0081555017891640821 0.046706754119118503 0 -0.0087655671210443882 0.046360135000751881 0 -0.0075960561612492764 0.045972290784354254 0 -0.0078809195980315567 0.044753960029169364 0 -0.0087655671210443882 0.046360135000751881 0 -0.0075960561612492764 0.045972290784354254 0 -0.0068455617880039113 0.044835399713908257 0 -0.0077009476491582754 0.046041064517498863 0 -0.006173478377284004 0.046538500097913486 0 -0.0075444314995243211 0.046602520910078736 0 -0.0075960561612492764 0.045972290784354254 0 -0.0075444314995243211 0.046602520910078736 0 -0.0081555017891640821 0.046706754119118503 0 -0.0075960561612492764 0.045972290784354254 0 -0.0072444851060639156 0.04528976908226047 0 -0.0066164928626175493 0.045575426377364718 0 -0.0075960561612492764 0.045972290784354254 0 -0.0076767797868081506 0.046921577837031103 0 -0.0082803188630724417 0.046505407596594578 0 -0.0078501555357546621 0.045969946558702242 0 -0.0082803188630724417 0.046505407596594578 0 -0.0078501555357546621 0.045969946558702242 0 -0.0088138291138396465 0.045845333654221686 0 -0.0076767797868081506 0.046921577837031103 0 -0.0069224594488964666 0.045880105393524974 0 -0.0078501555357546621 0.045969946558702242 0 -0.0083225934743479547 0.047029033924166734 0 -0.0077009476491582754 0.046041064517498863 0 -0.0094343172983552409 0.047443513022787306 0 -0.0083844029962823283 0.047262319907521749 0 -0.0087655671210443882 0.046360135000751881 0 -0.0071071253799640851 0.045183957211126502 0 -0.0069224594488964666 0.045880105393524974 0 -0.0075259473330106944 0.045477392884493956 0 -0.0069224594488964666 0.045880105393524974 0 -0.0075259473330106944 0.045477392884493956 0 -0.0078501555357546621 0.045969946558702242 0 -0.0079330183899979125 0.045038827237113943 0 -0.0075259473330106944 0.045477392884493956 0 -0.0078501555357546621 0.045969946558702242 0 -0.0079330183899979125 0.045038827237113943 0 -0.0078501555357546621 0.045969946558702242 0 -0.0088138291138396465 0.045845333654221686 0 -0.0081514341787468463 0.044966770940853849 0 -0.008918397564377482 0.045745182525336048 0 -0.0082803188630724417 0.046505407596594578 0 -0.0088138291138396465 0.045845333654221686 0 -0.008882658089744741 0.046674404536010086 0 -0.0082803188630724417 0.046505407596594578 0 -0.008882658089744741 0.046674404536010086 0 -0.0084591464757589729 0.047076692170450025 0 -0.0090881157174730279 0.045803806461337512 0 -0.0097837699606192208 0.046677364593069738 0 -0.010205428196689221 0.045957111723210556 0 -0.0088138291138396465 0.045845333654221686 0 -0.008882658089744741 0.046674404536010086 0 -0.0097837699606192208 0.046677364593069738 0 -0.008918397564377482 0.045745182525336048 0 -0.0093391053656584344 0.046165814167992134 0 -0.010115194464252089 0.045205855953048345 0 -0.0090881157174730279 0.045803806461337512 0 -0.010205428196689221 0.045957111723210556 0 -0.011137707583730281 0.045182477312973229 0 -0.010115194464252089 0.045205855953048345 0 -0.010205428196689221 0.045957111723210556 0 -0.011137707583730281 0.045182477312973229 0 -0.010205428196689221 0.045957111723210556 0 -0.010943435604015591 0.046251151360300953 0 -0.0073530277744421318 0.053899245373208324 0 -0.0080443234608182299 0.053560507133109753 0 -0.0097837699606192208 0.046677364593069738 0 -0.010205428196689221 0.045957111723210556 0 -0.010943435604015591 0.046251151360300953 0 -0.0097837699606192208 0.046677364593069738 0 -0.010685139175852544 0.047502417242474948 0 -0.0097598322034333704 0.047648890484280775 0 -0.0097837699606192208 0.046677364593069738 0 -0.010943435604015591 0.046251151360300953 0 -0.010685139175852544 0.047502417242474948 0 -0.0080443234608182299 0.053560507133109753 0 -0.0087265280418221021 0.052733939657325202 0 -0.0053181622762816811 0.061823703740152648 0 -0.0073750973968634524 0.058638762998735168 0 -0.0044253442842772687 0.059340953930052134 0 -0.0073750973968634524 0.058638762998735168 0 -0.0065767530724726133 0.056058768174948849 0 -0.0044253442842772687 0.059340953930052134 0 -0.0087265280418221021 0.052733939657325202 0 -0.0092514854101438324 0.051702239877056674 0 -0.0073750973968634524 0.058638762998735168 0 -0.0065767530724726133 0.056058768174948849 0 -0.0090829602680530808 0.053885848868555866 0 -0.010685139175852544 0.047502417242474948 0 -0.0099747931949369616 0.048286707357107835 0 -0.0097598322034333704 0.047648890484280775 0 -0.010685139175852544 0.047502417242474948 0 -0.0099747931949369616 0.048286707357107835 0 -0.010343434597550112 0.049025317665089885 0 -0.0099747931949369616 0.048286707357107835 0 -0.0097598322034333704 0.047648890484280775 0 -0.0093937609967609664 0.048294130722803454 0 -0.0097598322034333704 0.047648890484280775 0 -0.0093381326679620874 0.047753269318127206 0 -0.0093937609967609664 0.048294130722803454 0 -0.0093381326679620874 0.047753269318127206 0 -0.0093937609967609664 0.048294130722803454 0 -0.0089402567533357919 0.04782786186989435 0 -0.0093381326679620874 0.047753269318127206 0 -0.0089402567533357919 0.04782786186989435 0 -0.0092718985135241822 0.047264611467330735 0 -0.0093937609967609664 0.048294130722803454 0 -0.0089057415012160912 0.048306834239772133 0 -0.0089402567533357919 0.04782786186989435 0 -0.0089057415012160912 0.048306834239772133 0 -0.0086421297644089998 0.047913262066583417 0 -0.0089402567533357919 0.04782786186989435 0 -0.0084598586071917073 0.047848194758494896 0 -0.0086421297644089998 0.047913262066583417 0 -0.0084523164518996163 0.048094376828034524 0 -0.0089057415012160912 0.048306834239772133 0 -0.0086421297644089998 0.047913262066583417 0 -0.0084523164518996163 0.048094376828034524 0 -0.0084598586071917073 0.047848194758494896 0 -0.0086421297644089998 0.047913262066583417 0 -0.0087004102516771691 0.047589951219109417 0 -0.0086421297644089998 0.047913262066583417 0 -0.0089402567533357919 0.04782786186989435 0 -0.0087004102516771691 0.047589951219109417 0 -0.0085362241038653957 0.047089157405787237 0 -0.0087339437936970292 0.047129642012648687 0 -0.0087004102516771691 0.047589951219109417 0 -0.0085547662592541998 0.047235445126047208 0 -0.0092718985135241822 0.047264611467330735 0 -0.008882658089744741 0.046674404536010086 0 -0.0084591464757589729 0.047076692170450025 0 -0.0092718985135241822 0.047264611467330735 0 -0.0089402567533357919 0.04782786186989435 0 -0.0087004102516771691 0.047589951219109417 0 -0.0092718985135241822 0.047264611467330735 0 -0.0084598586071917073 0.047848194758494896 0 -0.0087004102516771691 0.047589951219109417 0 -0.0085547662592541998 0.047235445126047208 0 -0.008882658089744741 0.046674404536010086 0 -0.0097837699606192208 0.046677364593069738 0 -0.0092718985135241822 0.047264611467330735 0 -0.0097837699606192208 0.046677364593069738 0 -0.0097598322034333704 0.047648890484280775 0 -0.0092718985135241822 0.047264611467330735 0 -0.0097598322034333704 0.047648890484280775 0 -0.0093381326679620874 0.047753269318127206 0 -0.0092718985135241822 0.047264611467330735 0 -0.0012928953284982408 0.061667123488702104 0 -0.0015814474414134892 0.062750398314361855 0 -0.0018827423342637941 0.061699585090087258 0 -0.0013711541359217533 0.062383202428204901 0 -0.0017231908648718596 0.063051123674576284 0 -0.0013935710324496072 0.062804800422354007 0 -0.0017650283081586074 0.06332335197849287 0 -0.0011883992336621729 0.063190887231381318 0 -0.0015814474414134892 0.062750398314361855 0 -0.0018827423342637941 0.061699585090087258 0 -0.0027389029919873391 0.062406119656237699 0 -0.0012928953284982408 0.061667123488702104 0 -0.0018827423342637941 0.061699585090087258 0 -0.0018269675871484905 0.061239912254632038 0 -0.0018827423342637941 0.061699585090087258 0 -0.0027389029919873391 0.062406119656237699 0 -0.0022784968583859145 0.060805803030972327 0 -0.0027389029919873391 0.062406119656237699 0 -0.0035615618317060222 0.061683200560423389 0 -0.0022784968583859145 0.060805803030972327 0 -0.0039877416336596893 0.06331513402093944 0 -0.0027389029919873391 0.062406119656237699 0 -0.0035615618317060222 0.061683200560423389 0 -0.0039877416336596893 0.06331513402093944 0 -0.0053181622762816811 0.061823703740152648 0 -0.0035615618317060222 0.061683200560423389 0 -0.0053181622762816811 0.061823703740152648 0 -0.0035615618317060222 0.061683200560423389 0 -0.0044253442842772687 0.059340953930052134 0 -0.0035615618317060222 0.061683200560423389 0 -0.0044253442842772687 0.059340953930052134 0 -0.0022784968583859145 0.060805803030972327 0 -0.0044253442842772687 0.059340953930052134 0 -0.003735731276948301 0.056591027914667545 0 -0.0018694322687394164 0.057968844634004105 0 -0.0065767530724726133 0.056058768174948849 0 -0.0044253442842772687 0.059340953930052134 0 -0.003735731276948301 0.056591027914667545 0 -0.0034940934899389958 0.058969600004145924 0 -0.0039529803829220916 0.05814225711420893 0 -0.003735731276948301 0.056591027914667545 0 -0.0018694322687394164 0.057968844634004105 0 -0.0017721140799161145 0.055227298380942466 0 -0.0021430487387153439 0.060983154443797101 0 -0.0017685109692516946 0.060962353500634447 0 -0.0021331790630671884 0.060784142989182832 0 -0.0021430487387153439 0.060983154443797101 0 -0.0022784968583859145 0.060805803030972327 0 -0.0018269675871484905 0.061239912254632038 0 -0.0034940934899389958 0.058969600004145924 0 -0.0033589272513203255 0.059390816488654651 0 -0.0044253442842772687 0.059340953930052134 0 -0.0018694322687394164 0.057968844634004105 0 -0.0022784968583859145 0.060805803030972327 0 -0.0018827423342637941 0.061699585090087258 0 -0.0022784968583859145 0.060805803030972327 0 -0.0018269675871484905 0.061239912254632038 0 -0.0018269675871484905 0.061239912254632038 0 -0.0017685109692516946 0.060962353500634447 0 -0.0014231136171375721 0.061483248056815744 0 -0.0021430487387153439 0.060983154443797101 0 -0.0018269675871484905 0.061239912254632038 0 -0.0017685109692516946 0.060962353500634447 0 -0.0026646970715143345 0.060082702717243128 0 -0.0018161072694530046 0.061022146266114109 0 -0.0036173078818952827 0.063283586558482555 0 -0.0015594013845811336 0.063201511527775103 0 -0.0015427924615001101 0.0624608319936832 0 -0.0017685109692516946 0.060962353500634447 0 -0.0014231136171375721 0.061483248056815744 0 -0.0012579608738830111 0.061395095538409619 0 -0.0012928953284982408 0.061667123488702104 0 -0.0018269675871484905 0.061239912254632038 0 -0.0014231136171375721 0.061483248056815744 0 -0.0026712965029023032 0.060634297586836965 0 -0.0021385358703535557 0.061801702470308861 0 -0.0011365335017041035 0.060816990606598016 0 -0.0026712965029023032 0.060634297586836965 0 -0.0021385358703535557 0.061801702470308861 0 -0.0042506493249547224 0.061545341534218492 0 -0.0036173078818952827 0.063283586558482555 0 -0.0021385358703535557 0.061801702470308861 0 -0.0015427924615001101 0.0624608319936832 0 -0.0036173078818952827 0.063283586558482555 0 -0.0021385358703535557 0.061801702470308861 0 -0.0042506493249547224 0.061545341534218492 0 -0.0036173078818952827 0.063283586558482555 0 -0.0042506493249547224 0.061545341534218492 0 -0.0058593378429527858 0.062942822914342098 0 -0.0026646970715143345 0.060082702717243128 0 -0.0039529803829220916 0.05814225711420893 0 -0.0042506493249547224 0.061545341534218492 0 -0.0061770545349233161 0.060534462803616386 0 -0.0058593378429527858 0.062942822914342098 0 -0.0051085302854398749 0.056007686284745048 0 -0.0039529803829220916 0.05814225711420893 0 -0.0055876011300966177 0.051612926415478162 0 -0.0054491424246014266 0.053476633736954292 0 -0.0066702426756830866 0.053185166123821168 0 -0.0065767530724726133 0.056058768174948849 0 -0.003735731276948301 0.056591027914667545 0 -0.0046031742014455016 0.054334157141545214 0 -0.0039529803829220916 0.05814225711420893 0 -0.0056565896534839224 0.056572007613467458 0 -0.003735731276948301 0.056591027914667545 0 -0.0017721140799161145 0.055227298380942466 0 -0.0046031742014455016 0.054334157141545214 0 -0.0055876011300966177 0.051612926415478162 0 -0.0066702426756830866 0.053185166123821168 0 -0.0069849583836805486 0.052091660031658216 0 -0.0055876011300966177 0.051612926415478162 0 -0.0069849583836805486 0.052091660031658216 0 -0.0070112026456789203 0.050841808902404431 0 -0.0055876011300966177 0.051612926415478162 0 -0.0060212219313701661 0.049849023046511308 0 -0.0070112026456789203 0.050841808902404431 0 -0.0060212219313701661 0.049849023046511308 0 -0.0070112026456789203 0.050841808902404431 0 -0.0071026463649209587 0.049357291450483849 0 -0.0051085302854398749 0.056007686284745048 0 -0.0058031339509059966 0.053886359343333377 0 -0.0061770545349233161 0.060534462803616386 0 -0.0066972414187137326 0.057709078791711894 0 -0.0039974746522269669 0.058882518320302099 0 -0.0026712965029023032 0.060634297586836965 0 -0.0042506493249547224 0.061545341534218492 0 -0.0039974746522269669 0.058882518320302099 0 -0.0042506493249547224 0.061545341534218492 0 -0.0061770545349233161 0.060534462803616386 0 -0.0039974746522269669 0.058882518320302099 0 -0.0066972414187137326 0.057709078791711894 0 -0.0039974746522269669 0.058882518320302099 0 -0.0043822764594616224 0.054972796681310047 0 -0.0039974746522269669 0.058882518320302099 0 -0.0023963199785216878 0.056586874636379673 0 -0.0015225580185360855 0.05918943112056016 0 -0.0026712965029023032 0.060634297586836965 0 -0.0039974746522269669 0.058882518320302099 0 -0.0015225580185360855 0.05918943112056016 0 -0.0095771953100401812 0.049656020272271145 0 -0.0089314092973888856 0.049889007504153655 0 -0.0094696207265548837 0.050667875603799789 0 -0.0095771953100401812 0.049656020272271145 0 -0.0089314092973888856 0.049889007504153655 0 -0.0096091701232819404 0.048998971053720822 0 -0.0084796468377511224 0.048009331257616014 0 -0.0084320461494269919 0.048017169401501282 0 -0.0083878522853664816 0.048017833388906556 0 -0.0084320461494269919 0.048017169401501282 0 -0.0083878522853664816 0.048017833388906556 0 -0.0083628153983960583 0.048049358983919425 0 -0.0089057415012160912 0.048306834239772133 0 -0.0084523164518996163 0.048094376828034524 0 -0.0089314092973888856 0.049889007504153655 0 -0.0084796468377511224 0.048009331257616014 0 -0.0084523164518996163 0.048094376828034524 0 -0.0083878522853664816 0.048017833388906556 0 -0.00853731338263467 0.048670247280542769 0 -0.0086330018074715943 0.048915018648944326 0 -0.0089057415012160912 0.048306834239772133 0 -0.0089314092973888856 0.049889007504153655 0 -0.0092195920017864273 0.048853733135440211 0 -0.0093937609967609664 0.048294130722803454 0 -0.0089057415012160912 0.048306834239772133 0 -0.0092195920017864273 0.048853733135440211 0 -0.0093937609967609664 0.048294130722803454 0 -0.0092195920017864273 0.048853733135440211 0 -0.0096091701232819404 0.048998971053720822 0 -0.0089314092973888856 0.049889007504153655 0 -0.0092195920017864273 0.048853733135440211 0 -0.0096091701232819404 0.048998971053720822 0 -0.0099747931949369616 0.048286707357107835 0 -0.0093937609967609664 0.048294130722803454 0 -0.0096091701232819404 0.048998971053720822 0 -0.0099747931949369616 0.048286707357107835 0 -0.0096091701232819404 0.048998971053720822 0 -0.010343434597550112 0.049025317665089885 0 -0.0095771953100401812 0.049656020272271145 0 -0.0096091701232819404 0.048998971053720822 0 -0.010343434597550112 0.049025317665089885 0 -0.0066702426756830866 0.053185166123821168 0 -0.0078169713715473023 0.053253529437314526 0 -0.0069849583836805486 0.052091660031658216 0 -0.0065767530724726133 0.056058768174948849 0 -0.0046031742014455016 0.054334157141545214 0 -0.0078169713715473023 0.053253529437314526 0 -0.0056565896534839224 0.056572007613467458 0 -0.00648978325163192 0.056015913580082462 0 -0.0065767530724726133 0.056058768174948849 0 -0.0090829602680530808 0.053885848868555866 0 -0.0078169713715473023 0.053253529437314526 0 -0.0069849583836805486 0.052091660031658216 0 -0.0080624176394102041 0.051664051162320895 0 -0.0070112026456789203 0.050841808902404431 0 -0.0078169713715473023 0.053253529437314526 0 -0.0069849583836805486 0.052091660031658216 0 -0.0080624176394102041 0.051664051162320895 0 -0.0095771953100401812 0.049656020272271145 0 -0.010343434597550112 0.049025317665089885 0 -0.0094696207265548837 0.050667875603799789 0 -0.0090829602680530808 0.053885848868555866 0 -0.0080624176394102041 0.051664051162320895 0 -0.0094696207265548837 0.050667875603799789 0 -0.0090829602680530808 0.053885848868555866 0 -0.0078169713715473023 0.053253529437314526 0 -0.0080624176394102041 0.051664051162320895 0 -0.0092514854101438324 0.051702239877056674 0 -0.0094168160020766025 0.051229895770245309 0 -0.0080624176394102041 0.051664051162320895 0 -0.0082900599810408603 0.050483528005688519 0 -0.0094696207265548837 0.050667875603799789 0 -0.0082900599810408603 0.050483528005688519 0 -0.0094306471717169188 0.050638904474592787 0 -0.0094696207265548837 0.050667875603799789 0 -0.0080624176394102041 0.051664051162320895 0 -0.0082900599810408603 0.050483528005688519 0 -0.0070112026456789203 0.050841808902404431 0 -0.0082900599810408603 0.050483528005688519 0 -0.008076560327551309 0.048885715076544621 0 -0.0071026463649209587 0.049357291450483849 0 -0.0082900599810408603 0.050483528005688519 0 -0.0070112026456789203 0.050841808902404431 0 -0.0071026463649209587 0.049357291450483849 0 -0.0082900599810408603 0.050483528005688519 0 -0.0094306471717169188 0.050638904474592787 0 -0.008076560327551309 0.048885715076544621 0 -0.0083584685709707559 0.048125099102929461 0 -0.0082026858634112708 0.048505878362800396 0 -0.008076560327551309 0.048885715076544621 0 -0.008656876754263524 0.049090056697668832 0 -0.0085201835987890311 0.048970538401392497 0 -0.008284642440437473 0.048226234020699872 0 -0.0083584685709707559 0.048125099102929461 0 -0.0082026858634112708 0.048505878362800396 0 -0.0082928920494070076 0.048188262345769679 0 -0.008284642440437473 0.048226234020699872 0 -0.0082026858634112708 0.048505878362800396 0 -0.0082928920494070076 0.048188262345769679 0 -0.0083292620027920154 0.04814834087291988 0 -0.0082026858634112708 0.048505878362800396 0 -0.008284642440437473 0.048226234020699872 0 -0.0083584685709707559 0.048125099102929461 0 -0.0083237025487513609 0.04811427647036149 0 -0.0082928920494070076 0.048188262345769679 0 -0.008284642440437473 0.048226234020699872 0 -0.0083237025487513609 0.04811427647036149 0 -0.0086330018074715943 0.048915018648944326 0 -0.008656876754263524 0.049090056697668832 0 -0.0083584685709707559 0.048125099102929461 0 -0.0083237025487513609 0.04811427647036149 0 -0.0083628153983960583 0.048049358983919425 0 -0.0083878522853664816 0.048017833388906556 0 -0.0083584685709707559 0.048125099102929461 0 -0.0083628153983960583 0.048049358983919425 0 -0.0089314092973888856 0.049889007504153655 0 -0.0094306471717169188 0.050638904474592787 0 -0.0094696207265548837 0.050667875603799789 0 -0.0084416906978832511 0.048010842603886883 0 -0.0083628153983960583 0.048049358983919425 0 -0.0083639324477116916 0.048038828455892371 0 -0.0084416906978832511 0.048010842603886883 0 -0.0084320461494269919 0.048017169401501282 0 -0.0083628153983960583 0.048049358983919425 0 -0.0083237025487513609 0.04811427647036149 0 -0.0083628153983960583 0.048049358983919425 0 -0.0083639324477116916 0.048038828455892371 0 -0.0083237025487513609 0.04811427647036149 0 -0.0083639324477116916 0.048038828455892371 0 -0.0083319144172057415 0.048078901354327352 0 -0.0084307328123941327 0.047974172072971465 0 -0.0083639324477116916 0.048038828455892371 0 -0.0083860122638892524 0.047969050349228382 0 -0.0083639324477116916 0.048038828455892371 0 -0.0083860122638892524 0.047969050349228382 0 -0.0083319144172057415 0.048078901354327352 0 -0.0083860122638892524 0.047969050349228382 0 -0.0083319144172057415 0.048078901354327352 0 -0.0083495141769148913 0.048042632410822086 0 -0.0082928920494070076 0.048188262345769679 0 -0.0083237025487513609 0.04811427647036149 0 -0.0083319144172057415 0.048078901354327352 0 -0.0082928920494070076 0.048188262345769679 0 -0.0083495141769148913 0.048042632410822086 0 -0.0083292620027920154 0.04814834087291988 0 -0.0082928920494070076 0.048188262345769679 0 -0.0083319144172057415 0.048078901354327352 0 -0.0083495141769148913 0.048042632410822086 0 -0.0084130113552966217 0.047890825512556613 0 -0.0083860122638892524 0.047969050349228382 0 -0.0083495141769148913 0.048042632410822086 0 -0.0084130113552966217 0.047890825512556613 0 -0.0083495141769148913 0.048042632410822086 0 -0.0084065466686865549 0.04793014588982801 0 -0.0084065466686865549 0.04793014588982801 0 -0.0084720458390739762 0.04780464771866836 0 -0.0084753086912342582 0.047726307000478654 0 -0.0084065466686865549 0.04793014588982801 0 -0.0084104150342536668 0.04798814096807559 0 -0.0084720458390739762 0.04780464771866836 0 -0.0084065466686865549 0.04793014588982801 0 -0.0083292620027920154 0.04814834087291988 0 -0.0084104150342536668 0.04798814096807559 0 -0.0083495141769148913 0.048042632410822086 0 -0.0084065466686865549 0.04793014588982801 0 -0.0083292620027920154 0.04814834087291988 0 -0.0084104150342536668 0.04798814096807559 0 -0.0085270463795718392 0.047835714071735078 0 -0.0083260819704181251 0.048193862903125211 0 -0.0083292620027920154 0.04814834087291988 0 -0.0084104150342536668 0.04798814096807559 0 -0.0083260819704181251 0.048193862903125211 0 -0.0084104150342536668 0.04798814096807559 0 -0.0084720458390739762 0.04780464771866836 0 -0.0085270463795718392 0.047835714071735078 0 -0.0085270463795718392 0.047835714071735078 0 -0.0084156438986363775 0.048065681628004404 0 -0.0086622169382824122 0.047753547215058444 0 -0.0085270463795718392 0.047835714071735078 0 -0.0083260819704181251 0.048193862903125211 0 -0.0084156438986363775 0.048065681628004404 0 -0.0083260819704181251 0.048193862903125211 0 -0.0080987287204660058 0.048509208395526311 0 -0.0084156438986363775 0.048065681628004404 0 -0.0080987287204660058 0.048509208395526311 0 -0.0079225833010096707 0.048312253686255011 0 -0.0084156438986363775 0.048065681628004404 0 -0.0083260819704181251 0.048193862903125211 0 -0.0082026858634112708 0.048505878362800396 0 -0.0080987287204660058 0.048509208395526311 0 -0.0083292620027920154 0.04814834087291988 0 -0.0083260819704181251 0.048193862903125211 0 -0.0082026858634112708 0.048505878362800396 0 -0.0082026858634112708 0.048505878362800396 0 -0.008076560327551309 0.048885715076544621 0 -0.0080987287204660058 0.048509208395526311 0 -0.008076560327551309 0.048885715076544621 0 -0.0071026463649209587 0.049357291450483849 0 -0.007193517147463151 0.048778908665385541 0 -0.008076560327551309 0.048885715076544621 0 -0.007193517147463151 0.048778908665385541 0 -0.0080987287204660058 0.048509208395526311 0 -0.007193517147463151 0.048778908665385541 0 -0.0080987287204660058 0.048509208395526311 0 -0.0079225833010096707 0.048312253686255011 0 -0.0079225833010096707 0.048312253686255011 0 -0.0074823442919770165 0.04822226965529354 0 -0.0082727704180159817 0.047933474331812546 0 -0.007193517147463151 0.048778908665385541 0 -0.0079225833010096707 0.048312253686255011 0 -0.0074823442919770165 0.04822226965529354 0 -0.007193517147463151 0.048778908665385541 0 -0.0074823442919770165 0.04822226965529354 0 -0.0068527294737263664 0.048236016664963563 0 -0.0074823442919770165 0.04822226965529354 0 -0.0068527294737263664 0.048236016664963563 0 -0.007650731690028733 0.047601057410590786 0 -0.0074823442919770165 0.04822226965529354 0 -0.0082727704180159817 0.047933474331812546 0 -0.007650731690028733 0.047601057410590786 0 -0.0082727704180159817 0.047933474331812546 0 -0.0084548375298128964 0.047423625053737789 0 -0.007650731690028733 0.047601057410590786 0 -0.0082727704180159817 0.047933474331812546 0 -0.0087734479929667524 0.047649768984516533 0 -0.0084548375298128964 0.047423625053737789 0 -0.0082727704180159817 0.047933474331812546 0 -0.0087734479929667524 0.047649768984516533 0 -0.0087100523195962273 0.047875004689545073 0 -0.0084156438986363775 0.048065681628004404 0 -0.0087100523195962273 0.047875004689545073 0 -0.0086622169382824122 0.047753547215058444 0 -0.0082727704180159817 0.047933474331812546 0 -0.0084156438986363775 0.048065681628004404 0 -0.0087100523195962273 0.047875004689545073 0 -0.0079225833010096707 0.048312253686255011 0 -0.0082727704180159817 0.047933474331812546 0 -0.0084156438986363775 0.048065681628004404 0 -0.0019922981445937831 0.053899815484663084 0 -0.0043822764594616224 0.054972796681310047 0 -0.0039592677931875883 0.051943909115016965 0 -0.0019922981445937831 0.053899815484663084 0 -0.0023963199785216878 0.056586874636379673 0 -0.0043822764594616224 0.054972796681310047 0 -0.0039974746522269669 0.058882518320302099 0 -0.0023963199785216878 0.056586874636379673 0 -0.0043822764594616224 0.054972796681310047 0 -0.0043822764594616224 0.054972796681310047 0 -0.0069886166962962112 0.054110531959852229 0 -0.0039592677931875883 0.051943909115016965 0 -0.0061860899559038835 0.051991424175882553 0 -0.006288401520154095 0.050993877114158905 0 -0.0066972414187137326 0.057709078791711894 0 -0.0043822764594616224 0.054972796681310047 0 -0.0069886166962962112 0.054110531959852229 0 -0.0058031339509059966 0.053886359343333377 0 -0.0061860899559038835 0.051991424175882553 0 -0.0060212219313701661 0.049849023046511308 0 -0.0071026463649209587 0.049357291450483849 0 -0.0065495478483037668 0.049051726854088575 0 -0.007193517147463151 0.048778908665385541 0 -0.0065495478483037668 0.049051726854088575 0 -0.0064943028395378095 0.049550864947239648 0 -0.0071026463649209587 0.049357291450483849 0 -0.007193517147463151 0.048778908665385541 0 -0.0065495478483037668 0.049051726854088575 0 -0.007193517147463151 0.048778908665385541 0 -0.0068527294737263664 0.048236016664963563 0 -0.0064943028395378095 0.049550864947239648 0 -0.0068527294737263664 0.048236016664963563 0 -0.0064943028395378095 0.049550864947239648 0 -0.0059251435009618344 0.048230981450385679 0 -0.0064943028395378095 0.049550864947239648 0 -0.0039634211859238492 0.049510602222646097 0 -0.0059251435009618344 0.048230981450385679 0 -0.0069886166962962112 0.054110531959852229 0 -0.0064943028395378095 0.049550864947239648 0 -0.0039592677931875883 0.051943909115016965 0 -0.0064943028395378095 0.049550864947239648 0 -0.0039592677931875883 0.051943909115016965 0 -0.0039634211859238492 0.049510602222646097 0 -0.0039634211859238492 0.049510602222646097 0 -0.0045564428803833018 0.047965814238566981 0 -0.0059251435009618344 0.048230981450385679 0 -0.0039634211859238492 0.049510602222646097 0 -0.0023471559611988723 0.048793434389223705 0 -0.0035116700553726936 0.048027104063793513 0 -0.0039634211859238492 0.049510602222646097 0 -0.0023471559611988723 0.048793434389223705 0 -0.002174341433159358 0.051056495670461943 0 -0.0039592677931875883 0.051943909115016965 0 -0.0039634211859238492 0.049510602222646097 0 -0.002174341433159358 0.051056495670461943 0 -0.0019922981445937831 0.053899815484663084 0 -0.0039592677931875883 0.051943909115016965 0 -0.002174341433159358 0.051056495670461943 0 -0.0025572506445540395 0.046024306912806089 0 -0.002775415477375935 0.047248097861398525 0 -0.0036782904587162836 0.044627931036644072 0 -0.0023266867042943408 0.046353631150193905 0 -0.0020411067699978944 0.046299650510165248 0 -0.0025572506445540395 0.046024306912806089 0 -0.002775415477375935 0.047248097861398525 0 -0.0013906268001410748 0.047428181159025883 0 -0.0023471559611988723 0.048793434389223705 0 -0.002775415477375935 0.047248097861398525 0 -0.0013906268001410748 0.047428181159025883 0 -0.0023471559611988723 0.048793434389223705 0 -0.0035116700553726936 0.048027104063793513 0 -0.002775415477375935 0.047248097861398525 0 -0.0039634211859238492 0.049510602222646097 0 -0.0035116700553726936 0.048027104063793513 0 -0.0045564428803833018 0.047965814238566981 0 -0.0035116700553726936 0.048027104063793513 0 -0.002775415477375935 0.047248097861398525 0 -0.0042526707933331328 0.04681490629474231 0 -0.0035116700553726936 0.048027104063793513 0 -0.0045564428803833018 0.047965814238566981 0 -0.0042526707933331328 0.04681490629474231 0 -0.002775415477375935 0.047248097861398525 0 -0.0042526707933331328 0.04681490629474231 0 -0.0037416477970242438 0.04550110741913261 0 -0.0045564428803833018 0.047965814238566981 0 -0.0042526707933331328 0.04681490629474231 0 -0.0055414714769389034 0.046936951046402518 0 -0.0042526707933331328 0.04681490629474231 0 -0.0055414714769389034 0.046936951046402518 0 -0.0051227282653474749 0.045678244611961842 0 -0.0045564428803833018 0.047965814238566981 0 -0.0055414714769389034 0.046936951046402518 0 -0.0059251435009618344 0.048230981450385679 0 -0.0068527294737263664 0.048236016664963563 0 -0.0059251435009618344 0.048230981450385679 0 -0.0065769466475882861 0.047155818109388424 0 -0.0055414714769389034 0.046936951046402518 0 -0.0059251435009618344 0.048230981450385679 0 -0.0065769466475882861 0.047155818109388424 0 -0.0055414714769389034 0.046936951046402518 0 -0.0065769466475882861 0.047155818109388424 0 -0.0063570466967676461 0.046093379498651596 0 -0.0055414714769389034 0.046936951046402518 0 -0.0051227282653474749 0.045678244611961842 0 -0.0063570466967676461 0.046093379498651596 0 -0.0057597522776661435 0.044789514474195893 0 -0.0051227282653474749 0.045678244611961842 0 -0.0063570466967676461 0.046093379498651596 0 -0.0044087046656478305 0.045220750485318727 0 -0.0034189216524400448 0.04517060667546937 0 -0.0057597522776661435 0.044789514474195893 0 -0.0051227282653474749 0.045678244611961842 0 -0.0047750455588973194 0.04444411398335027 0 -0.0042526707933331328 0.04681490629474231 0 -0.0051227282653474749 0.045678244611961842 0 -0.0037416477970242438 0.04550110741913261 0 -0.0020411067699978944 0.046299650510165248 0 -0.0034189216524400448 0.04517060667546937 0 -0.0023384724905862663 0.045807544028406859 0 -0.0023801386508623635 0.045693475455868521 0 -0.0024224175645319343 0.045705355984286523 0 -0.0020411067699978944 0.046299650510165248 0 -0.0023864976901312417 0.045391486054151962 0 0.0014726228208891091 0.048034856106994456 0 0.0015693014311461482 0.047817396832731535 0 0.0013456577531340095 0.047683554102568013 0 -0.0051227282653474749 0.045678244611961842 0 -0.0037416477970242438 0.04550110741913261 0 -0.0047750455588973194 0.04444411398335027 0 0.0015693014311461482 0.047817396832731535 0 0.0017930354549218837 0.047951824465255352 0 0.0016821081230451525 0.047588607022641415 0 0.0014726228208891091 0.048034856106994456 0 0.0015693014311461482 0.047817396832731535 0 0.0017930354549218837 0.047951824465255352 0 0.0016386959292375978 0.048237023900782744 0 0.0014726228208891091 0.048034856106994456 0 0.0017930354549218837 0.047951824465255352 0 -0.00075716769698913838 0.047146502334257982 0 -0.0020411067699978944 0.046299650510165248 0 -0.0082474742710982006 0.046691323710199989 0 -0.0091886173142940696 0.045974278147081847 0 -0.0092134269986674702 0.047064785281035491 0 -0.0087734479929667524 0.047649768984516533 0 -0.0084548375298128964 0.047423625053737789 0 -0.0092134269986674702 0.047064785281035491 0 -0.0082474742710982006 0.046691323710199989 0 -0.0084548375298128964 0.047423625053737789 0 -0.0092134269986674702 0.047064785281035491 0 -0.0082474742710982006 0.046691323710199989 0 -0.0084548375298128964 0.047423625053737789 0 -0.007650731690028733 0.047601057410590786 0 -0.0068527294737263664 0.048236016664963563 0 -0.0065769466475882861 0.047155818109388424 0 -0.007650731690028733 0.047601057410590786 0 -0.0065769466475882861 0.047155818109388424 0 -0.007650731690028733 0.047601057410590786 0 -0.0072549843025480924 0.046762334293540278 0 -0.0065769466475882861 0.047155818109388424 0 -0.0072549843025480924 0.046762334293540278 0 -0.0063570466967676461 0.046093379498651596 0 -0.0082474742710982006 0.046691323710199989 0 -0.0072549843025480924 0.046762334293540278 0 -0.0074291529181100572 0.045940293365501005 0 -0.0082474742710982006 0.046691323710199989 0 -0.007650731690028733 0.047601057410590786 0 -0.0072549843025480924 0.046762334293540278 0 -0.0072549843025480924 0.046762334293540278 0 -0.0074291529181100572 0.045940293365501005 0 -0.0063570466967676461 0.046093379498651596 0 -0.0074291529181100572 0.045940293365501005 0 -0.0063570466967676461 0.046093379498651596 0 -0.0067053661231691692 0.045266992294487322 0 -0.0057597522776661435 0.044789514474195893 0 -0.0063570466967676461 0.046093379498651596 0 -0.0067053661231691692 0.045266992294487322 0 -0.0057597522776661435 0.044789514474195893 0 -0.0067053661231691692 0.045266992294487322 0 -0.0064777009588654283 0.044245803114446598 0 -0.0074291529181100572 0.045940293365501005 0 -0.0073780094995905725 0.044725204306954883 0 -0.0083218039463814342 0.045330591438205982 0 -0.0067053661231691692 0.045266992294487322 0 -0.0073780094995905725 0.044725204306954883 0 -0.0064777009588654283 0.044245803114446598 0 -0.0074291529181100572 0.045940293365501005 0 -0.0067053661231691692 0.045266992294487322 0 -0.0073780094995905725 0.044725204306954883 0 -0.0073780094995905725 0.044725204306954883 0 -0.0080614336168537311 0.044554572865004562 0 -0.0083218039463814342 0.045330591438205982 0 -0.0080614336168537311 0.044554572865004562 0 -0.0083218039463814342 0.045330591438205982 0 -0.0086795696040742921 0.044571929985226813 0 -0.0082474742710982006 0.046691323710199989 0 -0.0074291529181100572 0.045940293365501005 0 -0.0083218039463814342 0.045330591438205982 0 -0.0082474742710982006 0.046691323710199989 0 -0.0083218039463814342 0.045330591438205982 0 -0.0091886173142940696 0.045974278147081847 0 -0.0083897352318758594 0.04141412181514556 0 -0.010077905933933111 0.041228874274482775 0 -0.0083218039463814342 0.045330591438205982 0 -0.0091886173142940696 0.045974278147081847 0 -0.0090248522643486019 0.044582156197948641 0 -0.0083218039463814342 0.045330591438205982 0 -0.0086795696040742921 0.044571929985226813 0 -0.0090248522643486019 0.044582156197948641 0 -0.0059710261991985343 0.036942012229206136 0 -0.0059584662951685189 0.03695256569372464 0 -0.0059983054990805883 0.036981516019491747 0 -0.0059584662951685189 0.03695256569372464 0 -0.0059665544858298744 0.036973612919605922 0 -0.0059983054990805883 0.036981516019491747 0 -0.0059584662951685189 0.03695256569372464 0 -0.0059436102803155123 0.036960347361899862 0 -0.0059665544858298744 0.036973612919605922 0 -0.0059584662951685189 0.03695256569372464 0 -0.0059368468346593616 0.03693724710239138 0 -0.0059436102803155123 0.036960347361899862 0 -0.0059368468346593616 0.03693724710239138 0 -0.0059408093210024937 0.036930066640309581 0 -0.0059261150590608266 0.036924077270981168 0 -0.0059584662951685189 0.03695256569372464 0 -0.0059368468346593616 0.03693724710239138 0 -0.0059408093210024937 0.036930066640309581 0 -0.0059710261991985343 0.036942012229206136 0 -0.0059584662951685189 0.03695256569372464 0 -0.0059408093210024937 0.036930066640309581 0 -0.0059408093210024937 0.036930066640309581 0 -0.0059207909946207551 0.036914751398602466 0 -0.0059371651660290511 0.036922136788479124 0 -0.0059710261991985343 0.036942012229206136 0 -0.0059408093210024937 0.036930066640309581 0 -0.0059371651660290511 0.036922136788479124 0 -0.0083897352318758594 0.04141412181514556 0 -0.0074353290501512062 0.042375700134306984 0 -0.0059207909946207551 0.036914751398602466 0 -0.0059239752757826005 0.036882436974722321 0 -0.00590997779815838 0.036832913783582957 0 -0.0038473373502523017 0.035002241775216769 0 -0.0037091384524608169 0.033956022861009447 0 -0.0059408093210024937 0.036930066640309581 0 -0.0059207909946207551 0.036914751398602466 0 -0.0059261150590608266 0.036924077270981168 0 -0.0059207909946207551 0.036914751398602466 0 -0.0059286000738757137 0.036917973619578617 0 -0.0059212113391570436 0.036941908070807494 0 -0.0074353290501512062 0.042375700134306984 0 -0.0067518613288793505 0.044759889027815192 0 -0.0059207909946207551 0.036914751398602466 0 -0.0059371651660290511 0.036922136788479124 0 -0.0059212113391570436 0.036941908070807494 0 -0.0057450172343774929 0.041906115273348761 0 -0.0038156889483546988 0.03796290489175045 0 -0.0062206806322473761 0.050155209852315474 0 -0.00812653210348507 0.050176176846117283 0 -0.0062665929552623255 0.051598171682132779 0 -0.0059286000738757137 0.036917973619578617 0 -0.0059363404704635683 0.036856387369591549 0 -0.0059239752757826005 0.036882436974722321 0 -0.0059207909946207551 0.036914751398602466 0 -0.0059286000738757137 0.036917973619578617 0 -0.0059239752757826005 0.036882436974722321 0 -0.0059286000738757137 0.036917973619578617 0 -0.0059363404704635683 0.036856387369591549 0 -0.0059767845932157332 0.036865343133107534 0 -0.0059363404704635683 0.036856387369591549 0 -0.0059239752757826005 0.036882436974722321 0 -0.00590997779815838 0.036832913783582957 0 -0.0059363404704635683 0.036856387369591549 0 -0.00590997779815838 0.036832913783582957 0 -0.0059271585995889628 0.03680273682956077 0 -0.0059363404704635683 0.036856387369591549 0 -0.0059767845932157332 0.036865343133107534 0 -0.0059271585995889628 0.03680273682956077 0 -0.0038156889483546988 0.03796290489175045 0 -0.0041818962579075643 0.037811697863451794 0 -0.0058186811137693533 0.03661566411574551 0 -0.005871862212009085 0.036800095285448635 0 -0.0057224441056985403 0.036679176978233065 0 -0.0017076944813043953 0.029335612897967107 0 -0.0027715460242881177 0.033021990950065784 0 -0.0058186811137693533 0.03661566411574551 0 -0.005871862212009085 0.036800095285448635 0 -0.0059271585995889628 0.03680273682956077 0 0.0070559315135361048 0.014248973315987087 0 0.0045645409516032725 0.014603790705894895 0 0.0034022570223502329 0.017710763675283667 0 -0.005871862212009085 0.036800095285448635 0 -0.0059271585995889628 0.03680273682956077 0 -0.0059385001025396506 0.036802775502688484 0 0.0070559315135361048 0.014248973315987087 0 0.010463766421447468 0.011033177739921775 0 0.0069602161924899146 0.010856994462697089 0 -0.0017076944813043953 0.029335612897967107 0 -0.0038855517625578382 0.028998875482903863 0 0.0070559315135361048 0.014248973315987087 0 0.0054031701219016308 0.012225303789599662 0 0.0045645409516032725 0.014603790705894895 0 0.0070559315135361048 0.014248973315987087 0 0.0054031701219016308 0.012225303789599662 0 0.0069602161924899146 0.010856994462697089 0 -0.0059368468346593616 0.03693724710239138 0 -0.0059261150590608266 0.036924077270981168 0 -0.0059209187232438084 0.036932188182034753 0 -0.00590997779815838 0.036832913783582957 0 -0.0059271585995889628 0.03680273682956077 0 -0.0059385001025396506 0.036802775502688484 0 -0.0037091384524608169 0.033956022861009447 0 -0.0038855517625578382 0.028998875482903863 0 -0.0038855517625578382 0.028998875482903863 0 -0.0098971848174855045 0.03511491929585385 0 -0.0044817526607683232 0.030195181684102391 0 -0.0043245865657895672 0.030526410856389245 0 -0.0048420125792412684 0.030519864526446228 0 -0.0059368468346593616 0.03693724710239138 0 -0.0059209187232438084 0.036932188182034753 0 -0.0059436102803155123 0.036960347361899862 0 -0.0038855517625578382 0.028998875482903863 0 -0.0036362874888978053 0.026698758464772047 0 0.0054625361851282127 0.010441909753831718 0 0.0069602161924899146 0.010856994462697089 0 0.0058411425886916533 0.0088991285096537212 0 0.0054031701219016308 0.012225303789599662 0 0.0054625361851282127 0.010441909753831718 0 0.0041823098887059504 0.010920080485548515 0 0.0054031701219016308 0.012225303789599662 0 0.0054625361851282127 0.010441909753831718 0 0.0069602161924899146 0.010856994462697089 0 0.010463766421447468 0.011033177739921775 0 0.0069602161924899146 0.010856994462697089 0 0.0076151019129695454 0.0091386402976276117 0 0.0076151019129695454 0.0091386402976276117 0 0.0066124028044760507 0.0080253711205350593 0 0.0084729804565292534 0.0069480598057447152 0 0.010463766421447468 0.011033177739921775 0 0.0076151019129695454 0.0091386402976276117 0 0.0084729804565292534 0.0069480598057447152 0 0.0066124028044760507 0.0080253711205350593 0 0.0052383790374390263 0.0079644409583145316 0 0.0061507459117471795 0.0069281209852549682 0 0.0069602161924899146 0.010856994462697089 0 0.0076151019129695454 0.0091386402976276117 0 0.0058411425886916533 0.0088991285096537212 0 0.0076151019129695454 0.0091386402976276117 0 0.0066124028044760507 0.0080253711205350593 0 0.0058411425886916533 0.0088991285096537212 0 0.0054625361851282127 0.010441909753831718 0 0.0058411425886916533 0.0088991285096537212 0 0.0048890166017515092 0.009363696925052312 0 0.0058411425886916533 0.0088991285096537212 0 0.0050490378179789642 0.0085635591491793079 0 0.0048890166017515092 0.009363696925052312 0 0.0058411425886916533 0.0088991285096537212 0 0.0050490378179789642 0.0085635591491793079 0 0.0052383790374390263 0.0079644409583145316 0 0.0066124028044760507 0.0080253711205350593 0 0.0058411425886916533 0.0088991285096537212 0 0.0052383790374390263 0.0079644409583145316 0 0.0042401650954770895 0.0080537840650376034 0 0.0048890166017515092 0.009363696925052312 0 0.0041823098887059504 0.010920080485548515 0 0.0042401650954770895 0.0080537840650376034 0 0.0032658639061452174 0.0082332477068942297 0 0.0035630059529942267 0.0095152363722939195 0 0.0042401650954770895 0.0080537840650376034 0 0.0041823098887059504 0.010920080485548515 0 0.0021247129924933258 0.012826872559231421 0 0.0028664017377193333 0.011952959695732865 0 0.002237137813300163 0.013618828961107003 0 0.0052383790374390263 0.0079644409583145316 0 0.0042401650954770895 0.0080537840650376034 0 0.0043609854617411023 0.0071544893161012346 0 0.0050490378179789642 0.0085635591491793079 0 0.0052383790374390263 0.0079644409583145316 0 0.0042401650954770895 0.0080537840650376034 0 0.0050490378179789642 0.0085635591491793079 0 0.0042401650954770895 0.0080537840650376034 0 0.0048890166017515092 0.009363696925052312 0 0.0054625361851282127 0.010441909753831718 0 0.0048890166017515092 0.009363696925052312 0 0.0041823098887059504 0.010920080485548515 0 0.0032658639061452174 0.0082332477068942297 0 0.0022724761059810302 0.0086833058742595542 0 0.0035630059529942267 0.0095152363722939195 0 0.0042401650954770895 0.0080537840650376034 0 0.0032658639061452174 0.0082332477068942297 0 0.0035874899431283152 0.0074925811748212893 0 0.0032658639061452174 0.0082332477068942297 0 0.0027084536032720456 0.007388984593102106 0 0.0035874899431283152 0.0074925811748212893 0 0.0022724761059810302 0.0086833058742595542 0 0.00033983000364994754 0.0093997627987062928 0 0.0015413376163194708 0.007502738314415767 0 0.0022724761059810302 0.0086833058742595542 0 0.0015413376163194708 0.007502738314415767 0 0.0027084536032720456 0.007388984593102106 0 0.0032658639061452174 0.0082332477068942297 0 0.0022724761059810302 0.0086833058742595542 0 0.0027084536032720456 0.007388984593102106 0 0.0021502869688269639 0.0099999779479711288 0 0.00033983000364994754 0.0093997627987062928 0 0.002190015682757721 0.011670466133099938 0 0.0022724761059810302 0.0086833058742595542 0 0.0021502869688269639 0.0099999779479711288 0 0.00033983000364994754 0.0093997627987062928 0 0.0021502869688269639 0.0099999779479711288 0 0.0035630059529942267 0.0095152363722939195 0 0.0029087232708522558 0.011174193635368165 0 0.0022724761059810302 0.0086833058742595542 0 0.0021502869688269639 0.0099999779479711288 0 0.0035630059529942267 0.0095152363722939195 0 0.002237137813300163 0.013618828961107003 0 0.00058600902177074988 0.018091062259107539 0 0.0045645409516032725 0.014603790705894895 0 0.0021247129924933258 0.012826872559231421 0 0.00025603904342185531 0.017567273893912258 0 0.0016720115817268433 0.017254708124993055 0 0.00058600902177074988 0.018091062259107539 0 0.0054031701219016308 0.012225303789599662 0 0.0045645409516032725 0.014603790705894895 0 0.003989132631305202 0.012685314191715849 0 0.0045645409516032725 0.014603790705894895 0 0.003989132631305202 0.012685314191715849 0 0.0021247129924933258 0.012826872559231421 0 0.0054031701219016308 0.012225303789599662 0 0.0041823098887059504 0.010920080485548515 0 0.003989132631305202 0.012685314191715849 0 0.0041823098887059504 0.010920080485548515 0 0.003989132631305202 0.012685314191715849 0 0.0021247129924933258 0.012826872559231421 0 -0.018404791761607621 -0.0085258840189874497 0 -0.015134574991748237 -0.0089303444096976454 0 -0.014943904282106027 -0.0042697557266221098 0 0.00033983000364994754 0.0093997627987062928 0 0.0002003071475825167 0.0064765003247751821 0 -0.0015530834729827856 0.0070570960420848093 0 -0.015134574991748237 -0.0089303444096976454 0 -0.014943904282106027 -0.0042697557266221098 0 -0.013236106412737156 -0.0067637304728237323 0 -0.0078986006436236045 0.0035413374277050691 0 -0.0050188308711094989 0.001736013462650689 0 0.00033983000364994754 0.0093997627987062928 0 0.0002003071475825167 0.0064765003247751821 0 0.0015413376163194708 0.007502738314415767 0 -0.0078986006436236045 0.0035413374277050691 0 -0.0019045222113056137 0.017535251360857294 0 -0.015134574991748237 -0.0089303444096976454 0 -0.016248280016899482 -0.012077315065817102 0 -0.01403361678981507 -0.012083149160690468 0 -0.018404791761607621 -0.0085258840189874497 0 -0.015134574991748237 -0.0089303444096976454 0 -0.016248280016899482 -0.012077315065817102 0 -0.016248280016899482 -0.012077315065817102 0 -0.015074438337664442 -0.014682564303179008 0 -0.01403361678981507 -0.012083149160690468 0 -0.016248280016899482 -0.012077315065817102 0 -0.0168438366771889 -0.013907972708441407 0 -0.018646980698049476 -0.013019720420965481 0 -0.016248280016899482 -0.012077315065817102 0 -0.0168438366771889 -0.013907972708441407 0 -0.015074438337664442 -0.014682564303179008 0 -0.018404791761607621 -0.0085258840189874497 0 -0.018646980698049476 -0.013019720420965481 0 -0.02181208523177015 -0.012713709282501486 0 -0.018404791761607621 -0.0085258840189874497 0 -0.016248280016899482 -0.012077315065817102 0 -0.018646980698049476 -0.013019720420965481 0 -0.018646980698049476 -0.013019720420965481 0 -0.017400082719803756 -0.015847836387519132 0 -0.02181208523177015 -0.012713709282501486 0 1.0589409275247222e-05 0.045214013370501287 0 -0.00076421473003713885 0.045285833046010054 0 -0.00015516219930573942 0.044772970832637163 0 -0.0015400126981462714 0.031661545462659736 0 -0.0037560296956728806 0.037285760183746568 0 -0.0060011681581409624 0.016462878045575596 0 -0.0019045222113056137 0.017535251360857294 0 -0.0168438366771889 -0.013907972708441407 0 -0.018646980698049476 -0.013019720420965481 0 -0.017400082719803756 -0.015847836387519132 0 -0.017400082719803756 -0.015847836387519132 0 -0.015074438337664442 -0.014682564303179008 0 -0.012967353410981802 -0.019030960211031095 0 -0.0168438366771889 -0.013907972708441407 0 -0.017400082719803756 -0.015847836387519132 0 -0.015074438337664442 -0.014682564303179008 0 -0.0027715460242881177 0.033021990950065784 0 0.00021572709953435635 0.028734279624537108 0 -0.0003157970959577908 0.042910445798879746 0 -0.00058302583442332268 0.043175504760902816 0 -0.00040016509122033626 0.043196924660400544 0 0.0034022570223502329 0.017710763675283667 0 0.00011599803560809041 0.017710284571232436 0 -0.00039594115266286219 0.021199463336636522 0 -0.00013123734157153427 0.043056280941970497 0 -0.0003157970959577908 0.042910445798879746 0 -0.00040016509122033626 0.043196924660400544 0 0.0045645409516032725 0.014603790705894895 0 0.0034022570223502329 0.017710763675283667 0 0.00011599803560809041 0.017710284571232436 0 -0.0038156889483546988 0.03796290489175045 0 -0.0027715460242881177 0.033021990950065784 0 0.0021502869688269639 0.0099999779479711288 0 0.0029087232708522558 0.011174193635368165 0 0.002190015682757721 0.011670466133099938 0 0.00058600902177074988 0.018091062259107539 0 -0.0019045222113056137 0.017535251360857294 0 0.00011599803560809041 0.017710284571232436 0 -0.00096967922622981633 0.020493675336545981 0 -0.00039594115266286219 0.021199463336636522 0 -0.00074027856095394576 0.045565518933233219 0 -0.00083791943082865336 0.04544817254293293 0 -0.00076421473003713885 0.045285833046010054 0 0.00058600902177074988 0.018091062259107539 0 -0.00027822953916053258 0.025596584942323173 0 -0.0056606128425386315 0.023654128979219206 0 0.0058139024409086561 0.015785464896292681 0 0.00018552678241024468 0.0088751672116287057 0 -0.0019045222113056137 0.017535251360857294 0 -0.00027822953916053258 0.025596584942323173 0 -0.00027822953916053258 0.025596584942323173 0 0.00021572709953435635 0.028734279624537108 0 -0.0015400126981462714 0.031661545462659736 0 -0.0026079329639479981 0.040147672916752981 0 -0.000562093590176807 0.043205319089322479 0 -0.00063693790069242523 0.043294688217112978 0 -0.00051887928905262469 0.043258906433093242 0 -0.00063693790069242523 0.043294688217112978 0 -0.0005513081269424865 0.043433721018887997 0 -0.00051887928905262469 0.043258906433093242 0 0.00021572709953435635 0.028734279624537108 0 0.00034972356146000986 0.029006053697217451 0 1.0589409275247222e-05 0.045214013370501287 0 -0.00074027856095394576 0.045565518933233219 0 -0.00076421473003713885 0.045285833046010054 0 -0.00063693790069242523 0.043294688217112978 0 -0.0005513081269424865 0.043433721018887997 0 -0.00058331412489523037 0.043580420790525286 0 -0.00033948724898898061 0.03724212734744322 0 -0.0041708330320799486 0.032538149128767062 0 0.0046788910384003473 0.024547685689952983 0 -0.00027822953916053258 0.025596584942323173 0 -0.0015400126981462714 0.031661545462659736 0 0.00021572709953435635 0.028734279624537108 0 -0.0015400126981462714 0.031661545462659736 0 -0.0038156889483546988 0.03796290489175045 0 -0.004072969780764297 0.044038969218188444 0 -0.00040016509122033626 0.043196924660400544 0 -0.00051887928905262469 0.043258906433093242 0 -0.00046427397667043682 0.043559102458812497 0 -0.00013123734157153427 0.043056280941970497 0 -0.00040016509122033626 0.043196924660400544 0 -0.00046427397667043682 0.043559102458812497 0 -0.0062206806322473761 0.050155209852315474 0 -0.0062665929552623255 0.051598171682132779 0 -0.0049677593513578035 0.049737316143402113 0 -0.0005513081269424865 0.043433721018887997 0 -0.00051887928905262469 0.043258906433093242 0 -0.00046427397667043682 0.043559102458812497 0 -0.00058302583442332268 0.043175504760902816 0 -0.00040016509122033626 0.043196924660400544 0 -0.00051887928905262469 0.043258906433093242 0 -0.0058079046710166485 0.049048696922544453 0 -0.0049677593513578035 0.049737316143402113 0 -0.0050693982354461957 0.048157915261653861 0 -0.0062206806322473761 0.050155209852315474 0 -0.0058079046710166485 0.049048696922544453 0 -0.0049677593513578035 0.049737316143402113 0 -0.00058331412489523037 0.043580420790525286 0 -0.00066610760235589507 0.043675202730643757 0 -0.00065650811546088389 0.043712471831309649 0 -0.0005513081269424865 0.043433721018887997 0 -0.00046427397667043682 0.043559102458812497 0 -0.00058331412489523037 0.043580420790525286 0 -0.00046427397667043682 0.043559102458812497 0 -0.00058331412489523037 0.043580420790525286 0 -0.00065650811546088389 0.043712471831309649 0 -0.00063693790069242523 0.043294688217112978 0 -0.00058331412489523037 0.043580420790525286 0 -0.00066610760235589507 0.043675202730643757 0 -0.004072969780764297 0.044038969218188444 0 -0.0028048359011319424 0.044575022689361872 0 -0.0033751153881480564 0.047706108947185216 0 -0.0050693982354461957 0.048157915261653861 0 -0.0044502402301038104 0.047007834219086657 0 -0.0049677593513578035 0.049737316143402113 0 -0.0033751153881480564 0.047706108947185216 0 -0.0050693982354461957 0.048157915261653861 0 -0.0050693982354461957 0.048157915261653861 0 -0.0055536225124053259 0.047037099935383207 0 -0.0044502402301038104 0.047007834219086657 0 -0.0050693982354461957 0.048157915261653861 0 -0.0055536225124053259 0.047037099935383207 0 -0.0064428422216885892 0.048020744121670636 0 -0.0058079046710166485 0.049048696922544453 0 -0.0050693982354461957 0.048157915261653861 0 -0.0064428422216885892 0.048020744121670636 0 -0.00015516219930573942 0.044772970832637163 0 0.0003747062780989372 0.044168178231837302 0 0.0012079075415386269 0.044834494468095322 0 -0.0060011681581409624 0.016462878045575596 0 -0.0045747768950995683 0.014273522602468036 0 1.0589409275247222e-05 0.045214013370501287 0 -0.00015516219930573942 0.044772970832637163 0 0.0012079075415386269 0.044834494468095322 0 -0.0010276435310613149 0.045449513587935204 0 -0.00067639735700712809 0.044638740107483782 0 -0.00015516219930573942 0.044772970832637163 0 -0.00067639735700712809 0.044638740107483782 0 -0.00015516219930573942 0.044772970832637163 0 -0.00019849240440545065 0.044274669256245403 0 -0.0026079329639479981 0.040147672916752981 0 -0.0025317587390264926 0.041641606510738977 0 -0.00066610760235589507 0.043675202730643757 0 -0.00065650811546088389 0.043712471831309649 0 -0.00038227950415530102 0.043588473805423626 0 -0.00067639735700712809 0.044638740107483782 0 -0.00019849240440545065 0.044274669256245403 0 -0.00038227950415530102 0.043588473805423626 0 -0.00019849240440545065 0.044274669256245403 0 0.0003747062780989372 0.044168178231837302 0 -0.00038227950415530102 0.043588473805423626 0 -0.00015516219930573942 0.044772970832637163 0 -0.00019849240440545065 0.044274669256245403 0 0.0003747062780989372 0.044168178231837302 0 0.0003747062780989372 0.044168178231837302 0 0.0001542455026911078 0.043328335997432153 0 0.00085963746334951458 0.04367618120208356 0 0.0003747062780989372 0.044168178231837302 0 0.0001542455026911078 0.043328335997432153 0 -0.00038227950415530102 0.043588473805423626 0 0.0001542455026911078 0.043328335997432153 0 0.00060187055005865293 0.042583576866062484 0 0.00085963746334951458 0.04367618120208356 0 0.0001542455026911078 0.043328335997432153 0 -0.0003925247503216259 0.042902087491904585 0 0.00060187055005865293 0.042583576866062484 0 -0.0028048359011319424 0.044575022689361872 0 -0.0015528411146855869 0.04358406819541822 0 0.0001542455026911078 0.043328335997432153 0 -0.00038227950415530102 0.043588473805423626 0 -0.0003925247503216259 0.042902087491904585 0 -0.00065650811546088389 0.043712471831309649 0 -0.00038227950415530102 0.043588473805423626 0 -0.0003925247503216259 0.042902087491904585 0 -0.0018464042547800875 0.042425259480729914 0 -0.0015731167508982644 0.045039598078110032 0 -0.0036447581612583518 0.044006385277346252 0 -0.000861736496539614 0.042689260830389673 0 -0.0015528411146855869 0.04358406819541822 0 4.1936729434012879e-05 0.041530708800939745 0 -0.0003925247503216259 0.042902087491904585 0 0.00060187055005865293 0.042583576866062484 0 -0.0046071254431142711 0.045661894700289779 0 -0.0059534158186998016 0.045853264364128635 0 -0.0055536225124053259 0.047037099935383207 0 -0.0046071254431142711 0.045661894700289779 0 -0.0055536225124053259 0.047037099935383207 0 -0.0044502402301038104 0.047007834219086657 0 -0.0033751153881480564 0.047706108947185216 0 -0.0015731167508982644 0.045039598078110032 0 -0.0035430515511656164 0.045912264260709885 0 -0.0033751153881480564 0.047706108947185216 0 -0.0044502402301038104 0.047007834219086657 0 -0.0035430515511656164 0.045912264260709885 0 -0.0046071254431142711 0.045661894700289779 0 -0.0044502402301038104 0.047007834219086657 0 -0.0035430515511656164 0.045912264260709885 0 -0.0046071254431142711 0.045661894700289779 0 -0.0035430515511656164 0.045912264260709885 0 -0.0036447581612583518 0.044006385277346252 0 -0.0015731167508982644 0.045039598078110032 0 -0.0035430515511656164 0.045912264260709885 0 -0.0036447581612583518 0.044006385277346252 0 -0.0052426429230930348 0.042546723663118853 0 -0.0036447581612583518 0.044006385277346252 0 -0.0052226622541896202 0.044604176075012526 0 -0.0052426429230930348 0.042546723663118853 0 -0.0052226622541896202 0.044604176075012526 0 -0.0065796554358120776 0.044872120989945606 0 -0.0046071254431142711 0.045661894700289779 0 -0.0036447581612583518 0.044006385277346252 0 -0.0052226622541896202 0.044604176075012526 0 -0.0046071254431142711 0.045661894700289779 0 -0.0059534158186998016 0.045853264364128635 0 -0.0052226622541896202 0.044604176075012526 0 -0.0059534158186998016 0.045853264364128635 0 -0.0052226622541896202 0.044604176075012526 0 -0.0065796554358120776 0.044872120989945606 0 -0.0071297871036294464 0.043539534032667741 0 -0.0065796554358120776 0.044872120989945606 0 -0.0074008994242463575 0.045492955980659881 0 -0.0065796554358120776 0.044872120989945606 0 -0.0074008994242463575 0.045492955980659881 0 -0.0069861672340082066 0.046086841596778221 0 -0.0059534158186998016 0.045853264364128635 0 -0.0065796554358120776 0.044872120989945606 0 -0.0069861672340082066 0.046086841596778221 0 -0.0059534158186998016 0.045853264364128635 0 -0.0069861672340082066 0.046086841596778221 0 -0.0066209624729583897 0.04691157034726251 0 -0.0069861672340082066 0.046086841596778221 0 -0.0072887716755175606 0.046757416874774471 0 -0.007869218600543116 0.046562058325837673 0 -0.0074008994242463575 0.045492955980659881 0 -0.0069861672340082066 0.046086841596778221 0 -0.007869218600543116 0.046562058325837673 0 -0.0069861672340082066 0.046086841596778221 0 -0.0072887716755175606 0.046757416874774471 0 -0.0066209624729583897 0.04691157034726251 0 -0.0072887716755175606 0.046757416874774471 0 -0.0066209624729583897 0.04691157034726251 0 -0.0075754062130160196 0.04736408865871692 0 -0.0059534158186998016 0.045853264364128635 0 -0.0055536225124053259 0.047037099935383207 0 -0.0066209624729583897 0.04691157034726251 0 -0.008249035231614351 0.04701177945166167 0 -0.0087381472128268828 0.047001780745504755 0 -0.0085024969520406269 0.04749880195086293 0 -0.008249035231614351 0.04701177945166167 0 -0.0075754062130160196 0.04736408865871692 0 -0.0085024969520406269 0.04749880195086293 0 -0.0072887716755175606 0.046757416874774471 0 -0.007869218600543116 0.046562058325837673 0 -0.0075754062130160196 0.04736408865871692 0 -0.008249035231614351 0.04701177945166167 0 -0.007869218600543116 0.046562058325837673 0 -0.0075754062130160196 0.04736408865871692 0 -0.007869218600543116 0.046562058325837673 0 -0.0084254479884177426 0.046669855801711978 0 -0.0083012874387464533 0.046192386867835243 0 -0.008249035231614351 0.04701177945166167 0 -0.007869218600543116 0.046562058325837673 0 -0.0084254479884177426 0.046669855801711978 0 -0.0084254479884177426 0.046669855801711978 0 -0.0087193728498462207 0.046694699713067819 0 -0.0087381472128268828 0.047001780745504755 0 -0.008249035231614351 0.04701177945166167 0 -0.0084254479884177426 0.046669855801711978 0 -0.0087381472128268828 0.047001780745504755 0 -0.0084254479884177426 0.046669855801711978 0 -0.0083012874387464533 0.046192386867835243 0 -0.0087193728498462207 0.046694699713067819 0 -0.0083012874387464533 0.046192386867835243 0 -0.0090426218653060133 0.046639915242164251 0 -0.0087193728498462207 0.046694699713067819 0 -0.0083012874387464533 0.046192386867835243 0 -0.0079922814118547 0.045064908346364944 0 -0.0090426218653060133 0.046639915242164251 0 -0.0085543015372047011 0.042304820364149169 0 -0.0079922814118547 0.045064908346364944 0 -0.0090426218653060133 0.046639915242164251 0 -0.0074008994242463575 0.045492955980659881 0 -0.0083012874387464533 0.046192386867835243 0 -0.0079922814118547 0.045064908346364944 0 -0.0074008994242463575 0.045492955980659881 0 -0.007869218600543116 0.046562058325837673 0 -0.0083012874387464533 0.046192386867835243 0 -0.0071297871036294464 0.043539534032667741 0 -0.0074008994242463575 0.045492955980659881 0 -0.0079922814118547 0.045064908346364944 0 -0.008683162601564336 0.047561085849528714 0 -0.0086390158111726966 0.047317341845402733 0 -0.0090426218653060133 0.046639915242164251 0 -0.0086390158111726966 0.047317341845402733 0 -0.0087882672158066614 0.046993965097858803 0 -0.0090426218653060133 0.046639915242164251 0 -0.0086390158111726966 0.047317341845402733 0 -0.0086696610353553458 0.047216540367234744 0 -0.0087882672158066614 0.046993965097858803 0 -0.0086696610353553458 0.047216540367234744 0 -0.0087882672158066614 0.046993965097858803 0 -0.0087137260805741669 0.047179250838903626 0 -0.0087882672158066614 0.046993965097858803 0 -0.0090426218653060133 0.046639915242164251 0 -0.0088378822395545099 0.046872708460570338 0 -0.0090426218653060133 0.046639915242164251 0 -0.0087193728498462207 0.046694699713067819 0 -0.0088378822395545099 0.046872708460570338 0 -0.0084753086912342582 0.047726307000478654 0 -0.008575167788626329 0.047457023966504197 0 -0.0085597635425064926 0.047583699260894285 0 -0.0084130113552966217 0.047890825512556613 0 -0.0084065466686865549 0.04793014588982801 0 -0.0084753086912342582 0.047726307000478654 0 -0.0085594500834637929 0.04769801685437066 0 -0.0086390158111726966 0.047317341845402733 0 -0.0085237235282287389 0.047612508215679188 0 -0.0084753086912342582 0.047726307000478654 0 -0.0085237235282287389 0.047612508215679188 0 -0.008575167788626329 0.047457023966504197 0 -0.0086390158111726966 0.047317341845402733 0 -0.0085237235282287389 0.047612508215679188 0 -0.008575167788626329 0.047457023966504197 0 -0.0086389513259735595 0.047355959618678591 0 -0.0085597635425064926 0.047583699260894285 0 -0.0086602833389673173 0.04747530196094573 0 -0.0086696610353553458 0.047216540367234744 0 -0.008575167788626329 0.047457023966504197 0 -0.0086389513259735595 0.047355959618678591 0 -0.0086390158111726966 0.047317341845402733 0 -0.0086696610353553458 0.047216540367234744 0 -0.008575167788626329 0.047457023966504197 0 -0.0086696610353553458 0.047216540367234744 0 -0.0086389513259735595 0.047355959618678591 0 -0.0087137260805741669 0.047179250838903626 0 -0.008575167788626329 0.047457023966504197 0 -0.0086389513259735595 0.047355959618678591 0 -0.0085597635425064926 0.047583699260894285 0 -0.0084720458390739762 0.04780464771866836 0 -0.0085270463795718392 0.047835714071735078 0 -0.0085597635425064926 0.047583699260894285 0 -0.0084720458390739762 0.04780464771866836 0 -0.0084753086912342582 0.047726307000478654 0 -0.0085597635425064926 0.047583699260894285 0 -0.0086602833389673173 0.04747530196094573 0 -0.0086622169382824122 0.047753547215058444 0 -0.0085475976053282412 0.047660431000905286 0 -0.0085270463795718392 0.047835714071735078 0 -0.0085597635425064926 0.047583699260894285 0 -0.0086602833389673173 0.04747530196094573 0 -0.0085270463795718392 0.047835714071735078 0 -0.0086602833389673173 0.04747530196094573 0 -0.0086622169382824122 0.047753547215058444 0 -0.0086389513259735595 0.047355959618678591 0 -0.0086602833389673173 0.04747530196094573 0 -0.0087137260805741669 0.047179250838903626 0 -0.0086602833389673173 0.04747530196094573 0 -0.0087137260805741669 0.047179250838903626 0 -0.0085475976053282412 0.047660431000905286 0 -0.0079057565644192473 0.046984880293827518 0 -0.0076845676467272956 0.046638219432405599 0 -0.0088378822395545099 0.046872708460570338 0 -0.0087137260805741669 0.047179250838903626 0 -0.0085475976053282412 0.047660431000905286 0 -0.0088378822395545099 0.046872708460570338 0 -0.0087381472128268828 0.047001780745504755 0 -0.0093417916555536187 0.04750336011458111 0 -0.0087193728498462207 0.046694699713067819 0 -0.0088378822395545099 0.046872708460570338 0 -0.0087381472128268828 0.047001780745504755 0 -0.0087882672158066614 0.046993965097858803 0 -0.0088378822395545099 0.046872708460570338 0 -0.0087137260805741669 0.047179250838903626 0 -0.0087381472128268828 0.047001780745504755 0 -0.0093417916555536187 0.04750336011458111 0 -0.0085024969520406269 0.04749880195086293 0 -0.0076845676467272956 0.046638219432405599 0 -0.0067518613288793505 0.044759889027815192 0 -0.0093417916555536187 0.04750336011458111 0 -0.0087123460808286226 0.048444895822810592 0 -0.0085024969520406269 0.04749880195086293 0 -0.0093417916555536187 0.04750336011458111 0 -0.0087123460808286226 0.048444895822810592 0 -0.0098283475790857684 0.048783668327772874 0 -0.0087100523195962273 0.047875004689545073 0 -0.0085475976053282412 0.047660431000905286 0 -0.0085770267086638825 0.047902534302578847 0 -0.0087100523195962273 0.047875004689545073 0 -0.0086622169382824122 0.047753547215058444 0 -0.0085475976053282412 0.047660431000905286 0 -0.0069668431982717917 0.045156594824199835 0 -0.0067518613288793505 0.044759889027815192 0 -0.0087734479929667524 0.047649768984516533 0 -0.0087100523195962273 0.047875004689545073 0 -0.0091561120431040924 0.047744646788886506 0 -0.0087734479929667524 0.047649768984516533 0 -0.0092134269986674702 0.047064785281035491 0 -0.0091561120431040924 0.047744646788886506 0 -0.00812653210348507 0.050176176846117283 0 -0.0087123460808286226 0.048444895822810592 0 -0.0098283475790857684 0.048783668327772874 0 -0.0057450172343774929 0.041906115273348761 0 -0.0067518613288793505 0.044759889027815192 0 -0.00812653210348507 0.050176176846117283 0 -0.0067331432021134601 0.049200966033774912 0 -0.0077165024643227739 0.048404674431629484 0 -0.00812653210348507 0.050176176846117283 0 -0.0087123460808286226 0.048444895822810592 0 -0.0077165024643227739 0.048404674431629484 0 -0.0062206806322473761 0.050155209852315474 0 -0.00812653210348507 0.050176176846117283 0 -0.0067331432021134601 0.049200966033774912 0 -0.0062206806322473761 0.050155209852315474 0 -0.0058079046710166485 0.049048696922544453 0 -0.0067331432021134601 0.049200966033774912 0 -0.0058079046710166485 0.049048696922544453 0 -0.0067331432021134601 0.049200966033774912 0 -0.0064428422216885892 0.048020744121670636 0 -0.0067331432021134601 0.049200966033774912 0 -0.0064428422216885892 0.048020744121670636 0 -0.0077165024643227739 0.048404674431629484 0 -0.0055536225124053259 0.047037099935383207 0 -0.0066209624729583897 0.04691157034726251 0 -0.0064428422216885892 0.048020744121670636 0 -0.0066209624729583897 0.04691157034726251 0 -0.0064428422216885892 0.048020744121670636 0 -0.0075754062130160196 0.04736408865871692 0 -0.0064428422216885892 0.048020744121670636 0 -0.0075754062130160196 0.04736408865871692 0 -0.0077165024643227739 0.048404674431629484 0 -0.0075754062130160196 0.04736408865871692 0 -0.0085024969520406269 0.04749880195086293 0 -0.0077165024643227739 0.048404674431629484 0 -0.0087123460808286226 0.048444895822810592 0 -0.0085024969520406269 0.04749880195086293 0 -0.0077165024643227739 0.048404674431629484 0 7.5250497532042339e-05 0.064659902749836878 0 9.2437499295686674e-05 0.064675543924229237 0 0.0001010226874104719 0.064375238323221881 0 7.5250497532042339e-05 0.064659902749836878 0 0.0001010226874104719 0.064375238323221881 0 0.00012429692944445774 0.064380240757292831 0 7.5250497532042339e-05 0.064659902749836878 0 3.1250916892888818e-07 0.064999479393027651 0 -4.1194709160011047e-07 0.064998542998322237 0 7.5250497532042339e-05 0.064659902749836878 0 3.1250916892888818e-07 0.064999479393027651 0 9.2437499295686674e-05 0.064675543924229237 0 3.1250916892888818e-07 0.064999479393027651 0 0.00012448812423246106 0.064838036915575423 0 9.2437499295686674e-05 0.064675543924229237 0 0.00012448812423246106 0.064838036915575423 0 9.2437499295686674e-05 0.064675543924229237 0 9.3202664997842254e-05 0.064432983736482943 0 3.1250916892888818e-07 0.064999479393027651 0 0.00012448812423246106 0.064838036915575423 0 7.7291373381118759e-08 0.064999699747745887 0 9.2437499295686674e-05 0.064675543924229237 0 0.0001010226874104719 0.064375238323221881 0 9.3202664997842254e-05 0.064432983736482943 0 0.0001010226874104719 0.064375238323221881 0 8.1084373788535156e-05 0.064212037226110324 0 9.3202664997842254e-05 0.064432983736482943 0 0.0001010226874104719 0.064375238323221881 0 8.9013982841106647e-05 0.064050906756997761 0 0.00014703860194464587 0.064112357488037938 0 0.0001010226874104719 0.064375238323221881 0 8.9013982841106647e-05 0.064050906756997761 0 8.1084373788535156e-05 0.064212037226110324 0 8.9013982841106647e-05 0.064050906756997761 0 0.00014703860194464587 0.064112357488037938 0 8.9706003677016724e-05 0.063740968739409556 0 0.00014703860194464587 0.064112357488037938 0 0.00012429692944445774 0.064380240757292831 0 0.00018242754974989579 0.064215348810379339 0 0.0001010226874104719 0.064375238323221881 0 0.00014703860194464587 0.064112357488037938 0 0.00012429692944445774 0.064380240757292831 0 0.00018242754974989579 0.064215348810379339 0 0.00015232659259979938 0.064210291630571403 0 9.3872524222118309e-05 0.064504604866412629 0 0.00012429692944445774 0.064380240757292831 0 0.00018242754974989579 0.064215348810379339 0 9.3872524222118309e-05 0.064504604866412629 0 0.00018242754974989579 0.064215348810379339 0 0.00027383806211222621 0.063952824021628135 0 0.00025272505491996645 0.064009609891925875 0 0.00014703860194464587 0.064112357488037938 0 0.00018242754974989579 0.064215348810379339 0 0.00027383806211222621 0.063952824021628135 0 0.00014703860194464587 0.064112357488037938 0 0.00027383806211222621 0.063952824021628135 0 0.00038651567569386521 0.063880814626172205 0 0.00025272505491996645 0.064009609891925875 0 0.00031514411917144182 0.063834478252312907 0 0.00033527277834740352 0.063809962554435565 0 0.00027383806211222621 0.063952824021628135 0 0.00025272505491996645 0.064009609891925875 0 0.00033527277834740352 0.063809962554435565 0 0.00025272505491996645 0.064009609891925875 0 0.00015232659259979938 0.064210291630571403 0 0.00022356335103286128 0.063970570503604274 0 0.00018242754974989579 0.064215348810379339 0 0.00025272505491996645 0.064009609891925875 0 0.00015232659259979938 0.064210291630571403 0 0.00015232659259979938 0.064210291630571403 0 9.3872524222118309e-05 0.064504604866412629 0 1.1132834357807877e-05 0.064218912744030021 0 0.00015232659259979938 0.064210291630571403 0 1.1132834357807877e-05 0.064218912744030021 0 0.00022356335103286128 0.063970570503604274 0 7.5250497532042339e-05 0.064659902749836878 0 0.00012429692944445774 0.064380240757292831 0 9.3872524222118309e-05 0.064504604866412629 0 7.5250497532042339e-05 0.064659902749836878 0 9.3872524222118309e-05 0.064504604866412629 0 -4.1194709160011047e-07 0.064998542998322237 0 -7.3684624891164894e-10 0.065000003015769026 0 4.3539939161210307e-09 0.064999999781878967 0 2.8822896190861099e-06 0.065001179466317921 0 9.3872524222118309e-05 0.064504604866412629 0 -4.1194709160011047e-07 0.064998542998322237 0 1.1132834357807877e-05 0.064218912744030021 0 1.4538748089610493e-07 0.064999516772490051 0 0.00013839511022694566 0.064719578195579996 0 4.3539939161210307e-09 0.064999999781878967 0 2.8822896190861099e-06 0.065001179466317921 0 4.39111890657908e-06 0.064999099516760209 0 1.1132834357807877e-05 0.064218912744030021 0 0.00015598582684619959 0.063816194632081089 0 0.00022356335103286128 0.063970570503604274 0 0.00013839511022694566 0.064719578195579996 0 0.00020204450821174481 0.064609648088707824 0 2.8822896190861099e-06 0.065001179466317921 0 4.39111890657908e-06 0.064999099516760209 0 9.4168133348017443e-06 0.065000068690359056 0 4.39111890657908e-06 0.064999099516760209 0 9.6004151538780037e-06 0.064996574154545919 0 9.4168133348017443e-06 0.065000068690359056 0 4.3539939161210307e-09 0.064999999781878967 0 4.39111890657908e-06 0.064999099516760209 0 -1.058824813462487e-09 0.065000001025591031 0 4.39111890657908e-06 0.064999099516760209 0 -1.058824813462487e-09 0.065000001025591031 0 6.7787662130532525e-06 0.064995500278182794 0 4.39111890657908e-06 0.064999099516760209 0 9.6004151538780037e-06 0.064996574154545919 0 6.7787662130532525e-06 0.064995500278182794 0 9.6004151538780037e-06 0.064996574154545919 0 6.7787662130532525e-06 0.064995500278182794 0 1.1773884680547816e-05 0.064992493304964094 0 6.7787662130532525e-06 0.064995500278182794 0 8.3332340576601515e-06 0.064984483906469728 0 1.1773884680547816e-05 0.064992493304964094 0 0.00012988948995749393 0.064832506223231876 0 0.00015339948251763931 0.064805390141606647 0 2.5430670319949022e-05 0.064981246154438357 0 8.3332340576601515e-06 0.064984483906469728 0 4.1636197701174265e-05 0.064998583010864155 0 3.2465828958207502e-06 0.064979783156163845 0 2.5430670319949022e-05 0.064981246154438357 0 8.3332340576601515e-06 0.064984483906469728 0 -1.058824813462487e-09 0.065000001025591031 0 6.7787662130532525e-06 0.064995500278182794 0 8.3332340576601515e-06 0.064984483906469728 0 -1.1129320424352505e-09 0.064999931610509556 0 3.2465828958207502e-06 0.064979783156163845 0 -1.058824813462487e-09 0.065000001025591031 0 3.2465828958207502e-06 0.064979783156163845 0 -1.058824813462487e-09 0.065000001025591031 0 8.3332340576601515e-06 0.064984483906469728 0 0.00010153165870586831 0.064956727955000612 0 4.9910691206299867e-05 0.064964190774199168 0 7.1458379685385487e-05 0.064986243621415474 0 0.00010153165870586831 0.064956727955000612 0 7.1458379685385487e-05 0.064986243621415474 0 9.7231732212401244e-05 0.064998328410117642 0 4.9910691206299867e-05 0.064964190774199168 0 7.1458379685385487e-05 0.064986243621415474 0 4.1636197701174265e-05 0.064998583010864155 0 4.9910691206299867e-05 0.064964190774199168 0 2.5430670319949022e-05 0.064981246154438357 0 4.1636197701174265e-05 0.064998583010864155 0 7.1458379685385487e-05 0.064986243621415474 0 4.1636197701174265e-05 0.064998583010864155 0 7.5619993901697864e-05 0.065020627898090544 0 9.6004151538780037e-06 0.064996574154545919 0 1.1773884680547816e-05 0.064992493304964094 0 1.5778403260738882e-05 0.064995640566070587 0 0.00015339948251763931 0.064805390141606647 0 0.00021206896653919735 0.06469920831776739 0 7.1458379685385487e-05 0.064986243621415474 0 7.5619993901697864e-05 0.065020627898090544 0 9.7231732212401244e-05 0.064998328410117642 0 8.0545276981066428e-05 0.065015161286032297 0 9.7231732212401244e-05 0.064998328410117642 0 0.0001035590194324698 0.065031949818195142 0 0.00021206896653919735 0.06469920831776739 0 0.00016021769911881377 0.064765404140926908 0 0.00029603368363280256 0.063659405816450382 0 0.00030432952713868822 0.063783977063545202 0 0.00036946335024003467 0.063724439748037279 0 0.00021206896653919735 0.06469920831776739 0 0.00021259443699208678 0.064378053669155125 0 0.00030432952713868822 0.063783977063545202 0 0.00036598339544571335 0.063736561056995281 0 0.00036946335024003467 0.063724439748037279 0 9.6004151538780037e-06 0.064996574154545919 0 1.5778403260738882e-05 0.064995640566070587 0 9.4168133348017443e-06 0.065000068690359056 0 0.00029603368363280256 0.063659405816450382 0 0.00030432952713868822 0.063783977063545202 0 0.00015598582684619959 0.063816194632081089 0 0.00021206896653919735 0.06469920831776739 0 0.00020204450821174481 0.064609648088707824 0 0.00030432952713868822 0.063783977063545202 0 0.00015598582684619959 0.063816194632081089 0 0.00022356335103286128 0.063970570503604274 0 0.00030432952713868822 0.063783977063545202 0 0.00031514411917144182 0.063834478252312907 0 0.00036598339544571335 0.063736561056995281 0 0.00030432952713868822 0.063783977063545202 0 0.00022356335103286128 0.063970570503604274 0 0.00031514411917144182 0.063834478252312907 0 0.00025272505491996645 0.064009609891925875 0 0.00022356335103286128 0.063970570503604274 0 0.00031514411917144182 0.063834478252312907 0 0.00031514411917144182 0.063834478252312907 0 0.00035362000922982829 0.063745297736786333 0 0.00033527277834740352 0.063809962554435565 0 0.00031514411917144182 0.063834478252312907 0 0.00035362000922982829 0.063745297736786333 0 0.00036598339544571335 0.063736561056995281 0 0.00035362000922982829 0.063745297736786333 0 0.00037823110640248787 0.063654452685370122 0 0.00040909085393590314 0.063645092366230491 0 0.00037823110640248787 0.063654452685370122 0 0.00036608883082104421 0.063702272214788982 0 0.00036598339544571335 0.063736561056995281 0 0.00022409087500722223 0.064018051227785991 0 0.00020198741900801781 0.06405309469977398 0 0.00035362000922982829 0.063745297736786333 0 0.00037823110640248787 0.063654452685370122 0 0.00036598339544571335 0.063736561056995281 0 0.00044150706956567695 0.063380330931887011 0 0.00049248500218991912 0.063467592907282017 0 0.00056596981954991799 0.063337240415263008 0 0.00049248500218991912 0.063467592907282017 0 0.00055198404211369214 0.063362097606112097 0 0.00050841574534708398 0.063481000276703198 0 0.00037823110640248787 0.063654452685370122 0 0.00049248500218991912 0.063467592907282017 0 0.00040909085393590314 0.063645092366230491 0 0.00020198741900801781 0.06405309469977398 0 0.00021526406374140772 0.064015657368145795 0 0.00037823110640248787 0.063654452685370122 0 0.00041212217070329412 0.063561230355477547 0 0.00049248500218991912 0.063467592907282017 0 0.00049248500218991912 0.063467592907282017 0 0.00056596981954991799 0.063337240415263008 0 0.00055198404211369214 0.063362097606112097 0 0.00044150706956567695 0.063380330931887011 0 0.00058446542307038964 0.0633083054808352 0 0.00056596981954991799 0.063337240415263008 0 0.00012768163819991537 0.065049101832410625 0 0.00012556754087504797 0.06502794616771404 0 0.00015152503906567705 0.065018540897832044 0 0.00020198741900801781 0.06405309469977398 0 0.00029221755041736896 0.064161783352580451 0 0.00036608883082104421 0.063702272214788982 0 0.00036598339544571335 0.063736561056995281 0 0.00036946335024003467 0.063724439748037279 0 0.00020198741900801781 0.06405309469977398 0 0.00021259443699208678 0.064378053669155125 0 0.00012768163819991537 0.065049101832410625 0 0.00012556754087504797 0.06502794616771404 0 0.0001035590194324698 0.065031949818195142 0 0.00012556754087504797 0.06502794616771404 0 0.0001035590194324698 0.065031949818195142 0 0.0001202164429817537 0.065012034091642995 0 9.7231732212401244e-05 0.064998328410117642 0 0.0001202164429817537 0.065012034091642995 0 0.00013348860233622096 0.064987279531155753 0 9.7231732212401244e-05 0.064998328410117642 0 0.0001035590194324698 0.065031949818195142 0 0.0001202164429817537 0.065012034091642995 0 0.00015152503906567705 0.065018540897832044 0 0.00013348860233622096 0.064987279531155753 0 0.00017746594800853801 0.064984860840257147 0 0.0001202164429817537 0.065012034091642995 0 0.00015152503906567705 0.065018540897832044 0 0.00013348860233622096 0.064987279531155753 0 0.00012556754087504797 0.06502794616771404 0 0.0001202164429817537 0.065012034091642995 0 0.00015152503906567705 0.065018540897832044 0 0.0001513787882490269 0.064951736430169049 0 0.00013348860233622096 0.064987279531155753 0 0.00017746594800853801 0.064984860840257147 0 0.00010153165870586831 0.064956727955000612 0 9.7231732212401244e-05 0.064998328410117642 0 0.00013348860233622096 0.064987279531155753 0 0.00010153165870586831 0.064956727955000612 0 0.0001513787882490269 0.064951736430169049 0 0.00013348860233622096 0.064987279531155753 0 0.00065618360611388561 0.06364613492690499 0 0.00067997494297685379 0.063419039091271154 0 0.00053549933593783087 0.063522053795188008 0 0.00067997494297685379 0.063419039091271154 0 0.00057241367134615762 0.063325243975574153 0 0.00053549933593783087 0.063522053795188008 0 0.0004022272695506309 0.064372293115839238 0 0.00036478815727025233 0.064249480934567255 0 0.00020363634744309349 0.064948039848155212 0 0.0001513787882490269 0.064951736430169049 0 0.00017746594800853801 0.064984860840257147 0 0.00029221755041736896 0.064161783352580451 0 0.00036478815727025233 0.064249480934567255 0 0.00058446542307038964 0.0633083054808352 0 0.00067997494297685379 0.063419039091271154 0 0.00061050335292557861 0.06332072255661246 0 0.00067997494297685379 0.063419039091271154 0 0.00061050335292557861 0.06332072255661246 0 0.00057241367134615762 0.063325243975574153 0 0.00057241367134615762 0.063325243975574153 0 0.00058247221458491538 0.0632854724679245 0 0.00053326971993670883 0.063163664774799316 0 0.00061050335292557861 0.06332072255661246 0 0.00057241367134615762 0.063325243975574153 0 0.00058247221458491538 0.0632854724679245 0 0.00058446542307038964 0.0633083054808352 0 0.00061050335292557861 0.06332072255661246 0 0.00056596981954991799 0.063337240415263008 0 0.00061050335292557861 0.06332072255661246 0 0.00058247221458491538 0.0632854724679245 0 0.00056596981954991799 0.063337240415263008 0 0.00058247221458491538 0.0632854724679245 0 0.00055198404211369214 0.063362097606112097 0 0.00054639432684387289 0.063268934574007021 0 0.00058247221458491538 0.0632854724679245 0 0.00056596981954991799 0.063337240415263008 0 0.00055198404211369214 0.063362097606112097 0 0.00058247221458491538 0.0632854724679245 0 0.00054639432684387289 0.063268934574007021 0 0.00053326971993670883 0.063163664774799316 0 0.00054639432684387289 0.063268934574007021 0 0.00045993760038248922 0.062958680466967551 0 0.00053326971993670883 0.063163664774799316 0 0.00054639432684387289 0.063268934574007021 0 0.00042605957932554815 0.063021686947026048 0 0.00045993760038248922 0.062958680466967551 0 0.0002170213621832617 0.063239741950448625 0 0.00030403386194811948 0.063152147371709044 0 0.00042605957932554815 0.063021686947026048 0 0.00054639432684387289 0.063268934574007021 0 0.00053052593644139102 0.063473946544009355 0 0.00042605957932554815 0.063021686947026048 0 0.00033220859156543581 0.063484637144201606 0 0.00035987331117340679 0.063405408671515576 0 0.00054639432684387289 0.063268934574007021 0 0.00053052593644139102 0.063473946544009355 0 0.00050841574534708398 0.063481000276703198 0 0.00055198404211369214 0.063362097606112097 0 0.00054639432684387289 0.063268934574007021 0 0.00050841574534708398 0.063481000276703198 0 0.00049248500218991912 0.063467592907282017 0 0.00050841574534708398 0.063481000276703198 0 0.00040909085393590314 0.063645092366230491 0 0.00050841574534708398 0.063481000276703198 0 0.00041954922329086346 0.063698368688157384 0 0.00040909085393590314 0.063645092366230491 0 0.00027383806211222621 0.063952824021628135 0 0.00041954922329086346 0.063698368688157384 0 0.00033527277834740352 0.063809962554435565 0 0.00035362000922982829 0.063745297736786333 0 0.00033527277834740352 0.063809962554435565 0 0.00040909085393590314 0.063645092366230491 0 0.00041954922329086346 0.063698368688157384 0 0.00033527277834740352 0.063809962554435565 0 0.00040909085393590314 0.063645092366230491 0 0.00027383806211222621 0.063952824021628135 0 0.00041954922329086346 0.063698368688157384 0 0.00038651567569386521 0.063880814626172205 0 0.00053052593644139102 0.063473946544009355 0 0.00050841574534708398 0.063481000276703198 0 0.00041954922329086346 0.063698368688157384 0 0.00033220859156543581 0.063484637144201606 0 0.00027613778918789752 0.063632359678730446 0 0.00053052593644139102 0.063473946544009355 0 0.00041954922329086346 0.063698368688157384 0 0.00038651567569386521 0.063880814626172205 0 0.0002170213621832617 0.063239741950448625 0 0.000107849950733412 0.063625492620120377 0 0.00018527833691634677 0.063407393082088065 0 0.00014703860194464587 0.064112357488037938 0 0.000107849950733412 0.063625492620120377 0 8.9706003677016724e-05 0.063740968739409556 0 0.00023844503364203469 0.063714637858434842 0 0.00027613778918789752 0.063632359678730446 0 0.000107849950733412 0.063625492620120377 0 8.9706003677016724e-05 0.063740968739409556 0 0.00018527833691634677 0.063407393082088065 0 0.00018527833691634677 0.063407393082088065 0 0.00025718687575096427 0.063181219853529202 0 0.00021383136661416868 0.063310422057204038 0 0.00025718687575096427 0.063181219853529202 0 0.00030403386194811948 0.063152147371709044 0 0.00032926507312585219 0.062919480687622487 0 0.00018527833691634677 0.063407393082088065 0 0.00025718687575096427 0.063181219853529202 0 0.00030403386194811948 0.063152147371709044 0 0.00030403386194811948 0.063152147371709044 0 0.00032926507312585219 0.062919480687622487 0 0.00042605957932554815 0.063021686947026048 0 0.0002170213621832617 0.063239741950448625 0 0.00018527833691634677 0.063407393082088065 0 0.00030403386194811948 0.063152147371709044 0 0.00032926507312585219 0.062919480687622487 0 0.00030637248434352743 0.062602304242279222 0 0.00039026184555605365 0.062633486114783865 0 0.00032926507312585219 0.062919480687622487 0 0.00039026184555605365 0.062633486114783865 0 0.00042605957932554815 0.063021686947026048 0 0.00025718687575096427 0.063181219853529202 0 0.00032926507312585219 0.062919480687622487 0 0.00025200543829378161 0.06302349725274875 0 0.00032926507312585219 0.062919480687622487 0 0.00030637248434352743 0.062602304242279222 0 0.00025200543829378161 0.06302349725274875 0 0.00030637248434352743 0.062602304242279222 0 0.00042897222906304946 0.061917597391532596 0 0.00036333331535162499 0.062672788956927947 0 0.00030637248434352743 0.062602304242279222 0 0.00039715239581142927 0.062334494809012125 0 0.00042897222906304946 0.061917597391532596 0 0.00039715239581142927 0.062334494809012125 0 0.00040134294626222597 0.062294610013392739 0 0.00042897222906304946 0.061917597391532596 0 0.00030637248434352743 0.062602304242279222 0 0.00039715239581142927 0.062334494809012125 0 0.00039026184555605365 0.062633486114783865 0 0.00040134294626222597 0.062294610013392739 0 0.00040432113051011315 0.062645915319085491 0 0.00039026184555605365 0.062633486114783865 0 0.00039715239581142927 0.062334494809012125 0 0.00040134294626222597 0.062294610013392739 0 0.00039026184555605365 0.062633486114783865 0 0.00040134294626222597 0.062294610013392739 0 0.00034181858914869188 0.06257209763633334 0 0.00030640767476502914 0.062254940943242312 0 0.00040134294626222597 0.062294610013392739 0 0.00034181858914869188 0.06257209763633334 0 0.00040432113051011315 0.062645915319085491 0 0.00034181858914869188 0.06257209763633334 0 0.00040432113051011315 0.062645915319085491 0 0.00039140350944057769 0.062856248004775267 0 0.00040432113051011315 0.062645915319085491 0 0.00045993760038248922 0.062958680466967551 0 0.00039140350944057769 0.062856248004775267 0 0.00040432113051011315 0.062645915319085491 0 0.00039026184555605365 0.062633486114783865 0 0.00045993760038248922 0.062958680466967551 0 0.00039026184555605365 0.062633486114783865 0 0.00042605957932554815 0.063021686947026048 0 0.00045993760038248922 0.062958680466967551 0 0.00045993760038248922 0.062958680466967551 0 0.0004294777339992939 0.063051265106290916 0 0.00053326971993670883 0.063163664774799316 0 0.00045993760038248922 0.062958680466967551 0 0.0004294777339992939 0.063051265106290916 0 0.00039140350944057769 0.062856248004775267 0 0.0004294777339992939 0.063051265106290916 0 0.00041007658304482677 0.063308139940034702 0 0.00031797531786332325 0.063068292718672939 0 0.0004294777339992939 0.063051265106290916 0 0.00031797531786332325 0.063068292718672939 0 0.00039140350944057769 0.062856248004775267 0 0.0004294777339992939 0.063051265106290916 0 0.00053326971993670883 0.063163664774799316 0 0.00041007658304482677 0.063308139940034702 0 0.00057241367134615762 0.063325243975574153 0 0.00041007658304482677 0.063308139940034702 0 0.00053549933593783087 0.063522053795188008 0 0.00057241367134615762 0.063325243975574153 0 0.00053326971993670883 0.063163664774799316 0 0.00041007658304482677 0.063308139940034702 0 0.00041007658304482677 0.063308139940034702 0 0.00019097048016639956 0.063326098145786811 0 0.00031797531786332325 0.063068292718672939 0 0.00041007658304482677 0.063308139940034702 0 0.00023208579275544049 0.063499935697476736 0 0.00019097048016639956 0.063326098145786811 0 0.00041007658304482677 0.063308139940034702 0 0.00023208579275544049 0.063499935697476736 0 0.00032208061970849739 0.063580192733619825 0 0.00018477042632358251 0.06382150414358595 0 0.00023208579275544049 0.063499935697476736 0 0.00032208061970849739 0.063580192733619825 0 0.00041007658304482677 0.063308139940034702 0 0.00032208061970849739 0.063580192733619825 0 0.00053549933593783087 0.063522053795188008 0 0.00036486047896179552 0.063833388968113774 0 0.00032208061970849739 0.063580192733619825 0 0.00053549933593783087 0.063522053795188008 0 0.00015484196956876939 0.063401032771324792 0 -2.7098595868366161e-05 0.063115130297889191 0 0.00016051441830690225 0.063270187751376619 0 0.00049854971559207283 0.063213761972671104 0 5.0496884741799733e-05 0.062938284165046265 0 0.00030231549181398396 0.06346939581518013 0 0.00016051441830690225 0.063270187751376619 0 0.00049854971559207283 0.063213761972671104 0 0.00015371351683415293 0.063402428008920167 0 0.00015484196956876939 0.063401032771324792 0 0.00018477042632358251 0.06382150414358595 0 0.00023208579275544049 0.063499935697476736 0 5.2246381366545827e-05 0.063566262577914229 0 0.00023208579275544049 0.063499935697476736 0 5.2246381366545827e-05 0.063566262577914229 0 0.00019097048016639956 0.063326098145786811 0 5.2246381366545827e-05 0.063566262577914229 0 -3.731356116098485e-06 0.063505990285896402 0 0.00019097048016639956 0.063326098145786811 0 -3.731356116098485e-06 0.063505990285896402 0 0.0002003969673610597 0.063139867642561603 0 0.00019097048016639956 0.063326098145786811 0 0.00015484196956876939 0.063401032771324792 0 0.00015572235089724131 0.063361854634393103 0 0.0002003969673610597 0.063139867642561603 0 0.00019097048016639956 0.063326098145786811 0 0.00031797531786332325 0.063068292718672939 0 0.00019958240513051281 0.063182118653019287 0 0.0002003969673610597 0.063139867642561603 0 0.00012538423367371715 0.063108298380643746 0 0.0002003969673610597 0.063139867642561603 0 0.00013436637402137799 0.062884326653019115 0 0.00012538423367371715 0.063108298380643746 0 0.0002003969673610597 0.063139867642561603 0 0.000270023659648817 0.062845963379280931 0 0.00013436637402137799 0.062884326653019115 0 0.0002003969673610597 0.063139867642561603 0 0.000270023659648817 0.062845963379280931 0 0.00031797531786332325 0.063068292718672939 0 0.000270023659648817 0.062845963379280931 0 0.00031797531786332325 0.063068292718672939 0 0.00039140350944057769 0.062856248004775267 0 0.00034181858914869188 0.06257209763633334 0 0.000270023659648817 0.062845963379280931 0 0.00039140350944057769 0.062856248004775267 0 0.00034181858914869188 0.06257209763633334 0 0.000270023659648817 0.062845963379280931 0 0.00019447205597872378 0.062593390603891963 0 0.00019447205597872378 0.062593390603891963 0 -9.0698150254864802e-05 0.062645566819981763 0 0.00013436637402137799 0.062884326653019115 0 0.00019447205597872378 0.062593390603891963 0 -9.0698150254864802e-05 0.062645566819981763 0 -6.454009074667885e-05 0.062291260686650973 0 -9.0698150254864802e-05 0.062645566819981763 0 -0.00048353654932621544 0.062484582330746163 0 -6.454009074667885e-05 0.062291260686650973 0 -9.0698150254864802e-05 0.062645566819981763 0 -0.0001880061861814992 0.062942527204192786 0 0.00013436637402137799 0.062884326653019115 0 -9.0698150254864802e-05 0.062645566819981763 0 -0.0001880061861814992 0.062942527204192786 0 -0.00048353654932621544 0.062484582330746163 0 0.000270023659648817 0.062845963379280931 0 0.00019447205597872378 0.062593390603891963 0 0.00013436637402137799 0.062884326653019115 0 -0.0001880061861814992 0.062942527204192786 0 0.00013436637402137799 0.062884326653019115 0 0.00012538423367371715 0.063108298380643746 0 -0.00031984445855417283 0.062853971126846181 0 -2.7098595868366161e-05 0.063115130297889191 0 -0.00040697003246230833 0.06263458417001011 0 5.0496884741799733e-05 0.062938284165046265 0 -0.00026280313701390373 0.063192064441642659 0 -0.00040697003246230833 0.06263458417001011 0 -0.00026280313701390373 0.063192064441642659 0 -0.00081005514173470715 0.06287139148050605 0 9.1098023973848339e-05 0.06358787670752826 0 0.00016051441830690225 0.063270187751376619 0 -0.00026280313701390373 0.063192064441642659 0 0.00016051441830690225 0.063270187751376619 0 5.0496884741799733e-05 0.062938284165046265 0 -0.00026280313701390373 0.063192064441642659 0 -0.0011883992336621729 0.063190887231381318 0 -0.00074969872115384641 0.063366594790699671 0 -0.00081005514173470715 0.06287139148050605 0 -0.00026280313701390373 0.063192064441642659 0 -0.00074969872115384641 0.063366594790699671 0 -0.00081005514173470715 0.06287139148050605 0 -0.0013935710324496072 0.062804800422354007 0 -0.0011883992336621729 0.063190887231381318 0 -0.00081005514173470715 0.06287139148050605 0 -0.0013935710324496072 0.062804800422354007 0 -0.00081005514173470715 0.06287139148050605 0 -0.0008317966707668405 0.062290485703999379 0 -0.0012928953284982408 0.061667123488702104 0 -0.0014231136171375721 0.061483248056815744 0 -0.0010237486405453911 0.061892014266495328 0 -0.0013711541359217533 0.062383202428204901 0 -0.0011895118020716761 0.062057128967226032 0 -0.0013935710324496072 0.062804800422354007 0 -0.0008317966707668405 0.062290485703999379 0 -0.0010237486405453911 0.061892014266495328 0 -0.00031984445855417283 0.062853971126846181 0 -0.00053346652816821003 0.062693738955708289 0 -0.00040697003246230833 0.06263458417001011 0 -0.00081005514173470715 0.06287139148050605 0 -0.0008317966707668405 0.062290485703999379 0 -0.0001880061861814992 0.062942527204192786 0 -0.0008317966707668405 0.062290485703999379 0 -0.00048353654932621544 0.062484582330746163 0 -0.00048353654932621544 0.062484582330746163 0 -0.00066712715946625129 0.06245919887049823 0 -6.454009074667885e-05 0.062291260686650973 0 -0.0008317966707668405 0.062290485703999379 0 -0.00048353654932621544 0.062484582330746163 0 -0.0010237486405453911 0.061892014266495328 0 -0.00048353654932621544 0.062484582330746163 0 -0.0015594013845811336 0.063201511527775103 0 -0.00066712715946625129 0.06245919887049823 0 -0.00048353654932621544 0.062484582330746163 0 -0.0010237486405453911 0.061892014266495328 0 -0.0012579608738830111 0.061395095538409619 0 -0.0014231136171375721 0.061483248056815744 0 -0.0010237486405453911 0.061892014266495328 0 -0.0012579608738830111 0.061395095538409619 0 -0.0014397825140844863 0.061321773001089701 0 -0.0018161072694530046 0.061022146266114109 0 -0.0021385358703535557 0.061801702470308861 0 -0.0015427924615001101 0.0624608319936832 0 -0.00037633670146221374 0.061804672746119796 0 -0.0015427924615001101 0.0624608319936832 0 -0.00037633670146221374 0.061804672746119796 0 -0.00066712715946625129 0.06245919887049823 0 -0.0015594013845811336 0.063201511527775103 0 -0.0015427924615001101 0.0624608319936832 0 -0.00066712715946625129 0.06245919887049823 0 -0.0021385358703535557 0.061801702470308861 0 -0.00037633670146221374 0.061804672746119796 0 -0.0011365335017041035 0.060816990606598016 0 -0.00037633670146221374 0.061804672746119796 0 -0.00066712715946625129 0.06245919887049823 0 -6.454009074667885e-05 0.062291260686650973 0 -0.00037633670146221374 0.061804672746119796 0 -6.454009074667885e-05 0.062291260686650973 0 0.00047122215484915724 0.061757890641705095 0 -6.454009074667885e-05 0.062291260686650973 0 0.00030640767476502914 0.062254940943242312 0 0.00047122215484915724 0.061757890641705095 0 0.00019447205597872378 0.062593390603891963 0 -6.454009074667885e-05 0.062291260686650973 0 0.00030640767476502914 0.062254940943242312 0 0.00034181858914869188 0.06257209763633334 0 0.00019447205597872378 0.062593390603891963 0 0.00030640767476502914 0.062254940943242312 0 0.00040134294626222597 0.062294610013392739 0 0.00047122215484915724 0.061757890641705095 0 0.00042897222906304946 0.061917597391532596 0 0.00040134294626222597 0.062294610013392739 0 0.00030640767476502914 0.062254940943242312 0 0.00047122215484915724 0.061757890641705095 0 -0.00037633670146221374 0.061804672746119796 0 0.00047122215484915724 0.061757890641705095 0 0.00077957096372015461 0.060456538740576216 0 0.00047122215484915724 0.061757890641705095 0 0.00042897222906304946 0.061917597391532596 0 0.00077957096372015461 0.060456538740576216 0 0.00042897222906304946 0.061917597391532596 0 0.00077957096372015461 0.060456538740576216 0 0.00077795307271902423 0.06221447866026019 0 0.0014152161895483362 0.059851863711213281 0 0.0019152968883618105 0.059033453028321109 0 -0.0015225580185360855 0.05918943112056016 0 0.00077957096372015461 0.060456538740576216 0 2.5792396073318047e-05 0.055998684223256892 0 -0.0023963199785216878 0.056586874636379673 0 -0.0015225580185360855 0.05918943112056016 0 2.5792396073318047e-05 0.055998684223256892 0 -0.0026712965029023032 0.060634297586836965 0 -0.0015225580185360855 0.05918943112056016 0 -0.0011365335017041035 0.060816990606598016 0 -0.0015225580185360855 0.05918943112056016 0 -0.0011365335017041035 0.060816990606598016 0 0.00077957096372015461 0.060456538740576216 0 -0.00037633670146221374 0.061804672746119796 0 -0.0011365335017041035 0.060816990606598016 0 0.00077957096372015461 0.060456538740576216 0 2.5792396073318047e-05 0.055998684223256892 0 0.0026661837507581877 0.052868442687633813 0 -0.00012554304521973295 0.052328855901064814 0 -0.0019922981445937831 0.053899815484663084 0 2.5792396073318047e-05 0.055998684223256892 0 -0.00012554304521973295 0.052328855901064814 0 -0.0019922981445937831 0.053899815484663084 0 -0.0023963199785216878 0.056586874636379673 0 2.5792396073318047e-05 0.055998684223256892 0 0.00077957096372015461 0.060456538740576216 0 2.5792396073318047e-05 0.055998684223256892 0 0.0035709168749216004 0.055940858574894031 0 0.00042897222906304946 0.061917597391532596 0 0.00077795307271902423 0.06221447866026019 0 0.00036333331535162499 0.062672788956927947 0 0.00077795307271902423 0.06221447866026019 0 0.00058552143546423464 0.062934925210748366 0 0.00036333331535162499 0.062672788956927947 0 0.0019152968883618105 0.059033453028321109 0 0.0025381719062188006 0.057769543535034822 0 0.0035709168749216004 0.055940858574894031 0 0.0026661837507581877 0.052868442687633813 0 0.0051974684070067228 0.052214664148586581 0 2.5792396073318047e-05 0.055998684223256892 0 0.0035709168749216004 0.055940858574894031 0 0.0026661837507581877 0.052868442687633813 0 0.0026661837507581877 0.052868442687633813 0 0.0028789471773039638 0.051156188968272731 0 0.0051974684070067228 0.052214664148586581 0 0.0026661837507581877 0.052868442687633813 0 0.0028789471773039638 0.051156188968272731 0 0.001310247025434257 0.050646212338296984 0 0.0028789471773039638 0.051156188968272731 0 0.0051974684070067228 0.052214664148586581 0 0.0041487678475072383 0.050507354094756041 0 0.0051974684070067228 0.052214664148586581 0 0.0041487678475072383 0.050507354094756041 0 0.005693715839387368 0.049625737297738802 0 0.0041487678475072383 0.050507354094756041 0 0.0044263060766801341 0.049434014286051216 0 0.0031294464632379651 0.048826914861068535 0 0.0041487678475072383 0.050507354094756041 0 0.0044263060766801341 0.049434014286051216 0 0.005693715839387368 0.049625737297738802 0 0.0028789471773039638 0.051156188968272731 0 0.0025787074031555089 0.049984166968013242 0 0.001310247025434257 0.050646212338296984 0 0.0028789471773039638 0.051156188968272731 0 0.0041487678475072383 0.050507354094756041 0 0.0025787074031555089 0.049984166968013242 0 0.0041487678475072383 0.050507354094756041 0 0.0025787074031555089 0.049984166968013242 0 0.0031294464632379651 0.048826914861068535 0 0.0025787074031555089 0.049984166968013242 0 0.0014004096452179301 0.048812775378504508 0 0.0031294464632379651 0.048826914861068535 0 0.00050667269950509751 0.049562604217839396 0 0.001310247025434257 0.050646212338296984 0 0.0014004096452179301 0.048812775378504508 0 0.0025787074031555089 0.049984166968013242 0 0.001310247025434257 0.050646212338296984 0 0.0014004096452179301 0.048812775378504508 0 0.00050667269950509751 0.049562604217839396 0 0.001310247025434257 0.050646212338296984 0 -0.00057923356120960414 0.050132756491065751 0 0.001310247025434257 0.050646212338296984 0 -0.00012554304521973295 0.052328855901064814 0 -0.00057923356120960414 0.050132756491065751 0 0.0026661837507581877 0.052868442687633813 0 0.001310247025434257 0.050646212338296984 0 -0.00012554304521973295 0.052328855901064814 0 -0.002174341433159358 0.051056495670461943 0 -0.00012554304521973295 0.052328855901064814 0 -0.00057923356120960414 0.050132756491065751 0 -0.0019922981445937831 0.053899815484663084 0 -0.002174341433159358 0.051056495670461943 0 -0.00012554304521973295 0.052328855901064814 0 -0.0023471559611988723 0.048793434389223705 0 -0.002174341433159358 0.051056495670461943 0 -0.00057923356120960414 0.050132756491065751 0 -0.0023471559611988723 0.048793434389223705 0 -0.00057923356120960414 0.050132756491065751 0 -2.2742881155932938e-06 0.048370127252728747 0 0.00050667269950509751 0.049562604217839396 0 -0.00057923356120960414 0.050132756491065751 0 -2.2742881155932938e-06 0.048370127252728747 0 -0.0023471559611988723 0.048793434389223705 0 -2.2742881155932938e-06 0.048370127252728747 0 -0.00088179450450638099 0.047244112796012178 0 -0.00027773832198202999 0.048303490789897735 0 0.00031685815281122211 0.047846564081444401 0 -2.2742881155932938e-06 0.048370127252728747 0 -0.00069374110981950895 0.047515967232229013 0 0.00067098447347767635 0.047546778987029269 0 0.00027050205712579454 0.047832808788842912 0 0.00031685815281122211 0.047846564081444401 0 -2.2742881155932938e-06 0.048370127252728747 0 0.0014004096452179301 0.048812775378504508 0 0.00067098447347767635 0.047546778987029269 0 0.00050667269950509751 0.049562604217839396 0 -2.2742881155932938e-06 0.048370127252728747 0 0.0014004096452179301 0.048812775378504508 0 0.0014004096452179301 0.048812775378504508 0 0.00067098447347767635 0.047546778987029269 0 0.0019786915935423748 0.047316241816195023 0 0.00067098447347767635 0.047546778987029269 0 0.00076532389591658229 0.045730930284390146 0 0.0019786915935423748 0.047316241816195023 0 0.00076532389591658229 0.045730930284390146 0 0.0019786915935423748 0.047316241816195023 0 0.0029128628434254762 0.045874819014847107 0 0.0016386959292375978 0.048237023900782744 0 0.0018011725924693832 0.048437491869135658 0 0.0019914595849870962 0.048208550060845692 0 0.00031685815281122211 0.047846564081444401 0 0.0017844073347472722 0.047595543403762916 0 -0.00069374110981950895 0.047515967232229013 0 0.00067098447347767635 0.047546778987029269 0 0.00076532389591658229 0.045730930284390146 0 -0.00075716769698913838 0.047146502334257982 0 0.00031685815281122211 0.047846564081444401 0 0.0016386959292375978 0.048237023900782744 0 0.0019914595849870962 0.048208550060845692 0 0.0017930354549218837 0.047951824465255352 0 0.0019914595849870962 0.048208550060845692 0 0.0017930354549218837 0.047951824465255352 0 0.0021847844429961124 0.047979988796039374 0 0.00076532389591658229 0.045730930284390146 0 0.0022912584307076497 0.043867212680483623 0 0.0029128628434254762 0.045874819014847107 0 0.0017844073347472722 0.047595543403762916 0 0.0031785436803562221 0.047878493072809801 0 0.0017930354549218837 0.047951824465255352 0 0.0021847844429961124 0.047979988796039374 0 0.0019732127760477428 0.047748886034130238 0 0.0021847844429961124 0.047979988796039374 0 0.0021789260257547402 0.047634085188620376 0 0.0019732127760477428 0.047748886034130238 0 0.0017930354549218837 0.047951824465255352 0 0.0019732127760477428 0.047748886034130238 0 0.0016821081230451525 0.047588607022641415 0 0.0046819088156312902 0.049289446550709291 0 0.0040383715064873215 0.050051668339183189 0 0.0060314007828626689 0.054392579243741773 0 0.0067497100072390218 0.053294914599598051 0 0.0056405401222151437 0.053923389829552283 0 0.0060314007828626689 0.054392579243741773 0 0.0067497100072390218 0.053294914599598051 0 0.0066620792265325215 0.054499219529553049 0 0.0022912584307076497 0.043867212680483623 0 0.0044337224765368137 0.044394808907116924 0 0.0037966576087962744 0.0420176286081601 0 0.0031785436803562221 0.047878493072809801 0 0.0040383715064873215 0.050051668339183189 0 0.0021847844429961124 0.047979988796039374 0 0.0021789260257547402 0.047634085188620376 0 0.0023768193442913013 0.04775199286703867 0 0.0022912584307076497 0.043867212680483623 0 0.0044337224765368137 0.044394808907116924 0 0.0029128628434254762 0.045874819014847107 0 0.0046819088156312902 0.049289446550709291 0 0.0051080794244593407 0.049344834160020272 0 0.0067497100072390218 0.053294914599598051 0 0.0065916864411189333 0.051401989758148948 0 0.0056940496613702533 0.052439191638208586 0 0.0051243438069449422 0.046842149390576314 0 0.0029128628434254762 0.045874819014847107 0 0.0034920439700411644 0.047466235458823294 0 0.0044337224765368137 0.044394808907116924 0 0.0051243438069449422 0.046842149390576314 0 0.0029128628434254762 0.045874819014847107 0 0.0019786915935423748 0.047316241816195023 0 0.0029128628434254762 0.045874819014847107 0 0.0034920439700411644 0.047466235458823294 0 0.0019786915935423748 0.047316241816195023 0 0.0034920439700411644 0.047466235458823294 0 0.0031294464632379651 0.048826914861068535 0 0.0034920439700411644 0.047466235458823294 0 0.0031294464632379651 0.048826914861068535 0 0.0043814565946706432 0.048455239832150949 0 0.0014004096452179301 0.048812775378504508 0 0.0019786915935423748 0.047316241816195023 0 0.0031294464632379651 0.048826914861068535 0 0.0051080794244593407 0.049344834160020272 0 0.0052526389185202742 0.049492171207885752 0 0.0051243438069449422 0.046842149390576314 0 0.0043814565946706432 0.048455239832150949 0 0.005693715839387368 0.049625737297738802 0 0.0051243438069449422 0.046842149390576314 0 0.0034920439700411644 0.047466235458823294 0 0.0043814565946706432 0.048455239832150949 0 0.0044263060766801341 0.049434014286051216 0 0.0031294464632379651 0.048826914861068535 0 0.0043814565946706432 0.048455239832150949 0 0.0044263060766801341 0.049434014286051216 0 0.0043814565946706432 0.048455239832150949 0 0.005693715839387368 0.049625737297738802 0 0.005714720315492171 0.050763027807159272 0 0.005693715839387368 0.049625737297738802 0 0.0058464966076559278 0.049653521121610644 0 0.0065916864411189333 0.051401989758148948 0 0.005714720315492171 0.050763027807159272 0 0.005693715839387368 0.049625737297738802 0 0.005714720315492171 0.050763027807159272 0 0.0043270025909088053 0.051662755309523828 0 0.0058464966076559278 0.049653521121610644 0 0.0022675600868495276 0.057346910927899633 0 0.0027172053424793629 0.057021025653218559 0 0.00012618951371845148 0.063216586888001303 0 -9.9829915584888785e-05 0.063103411187008809 0 0.00027208591387860033 0.063228903763129993 0 0.0065916864411189333 0.051401989758148948 0 0.005714720315492171 0.050763027807159272 0 0.0056940496613702533 0.052439191638208586 0 0.005714720315492171 0.050763027807159272 0 0.0043270025909088053 0.051662755309523828 0 0.0056940496613702533 0.052439191638208586 0 0.0056940496613702533 0.052439191638208586 0 0.0049340080016091661 0.053277545629872761 0 0.0056405401222151437 0.053923389829552283 0 0.0067497100072390218 0.053294914599598051 0 0.0056940496613702533 0.052439191638208586 0 0.0056405401222151437 0.053923389829552283 0 0.0043270025909088053 0.051662755309523828 0 0.0056940496613702533 0.052439191638208586 0 0.0049340080016091661 0.053277545629872761 0 0.0043270025909088053 0.051662755309523828 0 0.0042258409867269491 0.053453358820515759 0 0.0049340080016091661 0.053277545629872761 0 0.0043270025909088053 0.051662755309523828 0 0.0042258409867269491 0.053453358820515759 0 0.0028003078677751548 0.054289983168417967 0 0.0042258409867269491 0.053453358820515759 0 0.0049340080016091661 0.053277545629872761 0 0.0048337826459367954 0.054542456372952811 0 0.0042258409867269491 0.053453358820515759 0 0.0048337826459367954 0.054542456372952811 0 0.0028003078677751548 0.054289983168417967 0 0.0060314007828626689 0.054392579243741773 0 0.0056405401222151437 0.053923389829552283 0 0.0054557532575393924 0.054697377524815155 0 0.0048337826459367954 0.054542456372952811 0 0.0056405401222151437 0.053923389829552283 0 0.0054557532575393924 0.054697377524815155 0 0.0049340080016091661 0.053277545629872761 0 0.0048337826459367954 0.054542456372952811 0 0.0056405401222151437 0.053923389829552283 0 0.00085506540432929846 0.062083986957117913 0 0.0013506441002224118 0.061997075133572027 0 0.00093264197158433816 0.060971381238396558 0 0.00021302852297310119 0.062182624434426029 0 0.0028565721736996557 0.061008795957397992 0 0.0017152108276975422 0.060031378713478009 0 0.00093264197158433816 0.060971381238396558 0 0.0028565721736996557 0.061008795957397992 0 0.0017152108276975422 0.060031378713478009 0 0.0028565721736996557 0.061008795957397992 0 0.0028061736187363676 0.059407159403167986 0 0.00093264197158433816 0.060971381238396558 0 -0.00018257483292963622 0.06187524367651117 0 0.0020298452050794909 0.057951571205252649 0 0.0048337826459367954 0.054542456372952811 0 0.0028003078677751548 0.054289983168417967 0 0.002255297509835775 0.057666395732989151 0 0.00093264197158433816 0.060971381238396558 0 -0.00018257483292963622 0.06187524367651117 0 0.00021302852297310119 0.062182624434426029 0 -9.9829915584888785e-05 0.063103411187008809 0 -0.00018257483292963622 0.06187524367651117 0 0.0001783208427342981 0.062877161012274058 0 -0.00018257483292963622 0.06187524367651117 0 0.00021302852297310119 0.062182624434426029 0 0.0001783208427342981 0.062877161012274058 0 0.0022675600868495276 0.057346910927899633 0 0.001866044558970956 0.057778618507339154 0 0.00021302852297310119 0.062182624434426029 0 0.00037298577224843213 0.062763173619735393 0 0.00042896510699263297 0.062639115790780728 0 0.00021302852297310119 0.062182624434426029 0 0.00037298577224843213 0.062763173619735393 0 0.0001783208427342981 0.062877161012274058 0 0.00037298577224843213 0.062763173619735393 0 0.00032379243746691382 0.063123506040665009 0 0.00044665028666117363 0.063034038817363774 0 0.00037298577224843213 0.062763173619735393 0 0.00032379243746691382 0.063123506040665009 0 0.0001783208427342981 0.062877161012274058 0 0.00032379243746691382 0.063123506040665009 0 0.0001783208427342981 0.062877161012274058 0 0.00017390878151191507 0.063182585684621692 0 -9.9829915584888785e-05 0.063103411187008809 0 0.0001783208427342981 0.062877161012274058 0 0.00017390878151191507 0.063182585684621692 0 0.00012618951371845148 0.063216586888001303 0 0.00017390878151191507 0.063182585684621692 0 0.00021087531994141206 0.063259770198974427 0 0.00012618951371845148 0.063216586888001303 0 -9.9829915584888785e-05 0.063103411187008809 0 0.00017390878151191507 0.063182585684621692 0 0.00032379243746691382 0.063123506040665009 0 0.00017390878151191507 0.063182585684621692 0 0.00029070208118623996 0.06329931750299185 0 0.00032379243746691382 0.063123506040665009 0 0.00029070208118623996 0.06329931750299185 0 0.00041839508473453358 0.063329538006684449 0 0.00017390878151191507 0.063182585684621692 0 0.00029070208118623996 0.06329931750299185 0 0.00021087531994141206 0.063259770198974427 0 0.00029070208118623996 0.06329931750299185 0 0.00024546235779051803 0.063298483043073922 0 0.00021087531994141206 0.063259770198974427 0 0.00024546235779051803 0.063298483043073922 0 0.00021858935893272883 0.063178730004073383 0 0.00021087531994141206 0.063259770198974427 0 0.00024546235779051803 0.063298483043073922 0 0.00021858935893272883 0.063178730004073383 0 0.00023272803484056034 0.063091037291608476 0 0.00024546235779051803 0.063298483043073922 0 0.00023272803484056034 0.063091037291608476 0 0.00022940468013655745 0.063259602749910923 0 0.00021858935893272883 0.063178730004073383 0 0.00025094302012407119 0.063020945562045363 0 0.00023272803484056034 0.063091037291608476 0 0.00021858935893272883 0.063178730004073383 0 0.00021087531994141206 0.063259770198974427 0 0.00019720413159448071 0.063185920314067293 0 0.00012618951371845148 0.063216586888001303 0 0.00021087531994141206 0.063259770198974427 0 0.00019720413159448071 0.063185920314067293 0 0.00019720413159448071 0.063185920314067293 0 0.00027208591387860033 0.063228903763129993 0 0.00031972561917908992 0.063054255802264134 0 0.00012618951371845148 0.063216586888001303 0 0.00019720413159448071 0.063185920314067293 0 0.00027208591387860033 0.063228903763129993 0 0.0025381719062188006 0.057769543535034822 0 0.0027172053424793629 0.057021025653218559 0 0.0051974684070067228 0.052214664148586581 0 0.005693715839387368 0.049625737297738802 0 0.0058464966076559278 0.049653521121610644 0 0.00058552143546423464 0.062934925210748366 0 0.00027208591387860033 0.063228903763129993 0 0.00031972561917908992 0.063054255802264134 0 0.00019720413159448071 0.063185920314067293 0 0.00031972561917908992 0.063054255802264134 0 0.00025094302012407119 0.063020945562045363 0 0.00021858935893272883 0.063178730004073383 0 0.00019720413159448071 0.063185920314067293 0 0.00025094302012407119 0.063020945562045363 0 0.00031972561917908992 0.063054255802264134 0 0.00025094302012407119 0.063020945562045363 0 0.00036333331535162499 0.062672788956927947 0 0.00025094302012407119 0.063020945562045363 0 0.00036333331535162499 0.062672788956927947 0 0.00027020341246409321 0.06286881547096046 0 0.00058552143546423464 0.062934925210748366 0 0.00031972561917908992 0.063054255802264134 0 0.00036333331535162499 0.062672788956927947 0 0.00030637248434352743 0.062602304242279222 0 0.00036333331535162499 0.062672788956927947 0 0.00027020341246409321 0.06286881547096046 0 0.00030637248434352743 0.062602304242279222 0 0.00027020341246409321 0.06286881547096046 0 0.00025200543829378161 0.06302349725274875 0 0.00025200543829378161 0.06302349725274875 0 0.00023272803484056034 0.063091037291608476 0 0.00022940468013655745 0.063259602749910923 0 0.00027020341246409321 0.06286881547096046 0 0.00025200543829378161 0.06302349725274875 0 0.00023272803484056034 0.063091037291608476 0 0.00025094302012407119 0.063020945562045363 0 0.00027020341246409321 0.06286881547096046 0 0.00023272803484056034 0.063091037291608476 0 0.00020377878367664577 0.063444411252215518 0 0.00021383136661416868 0.063310422057204038 0 0.00016124938063553354 0.063501477946060356 0 0.00020377878367664577 0.063444411252215518 0 0.00022940468013655745 0.063259602749910923 0 0.00021383136661416868 0.063310422057204038 0 0.00025200543829378161 0.06302349725274875 0 0.00022940468013655745 0.063259602749910923 0 0.00021383136661416868 0.063310422057204038 0 0.00025718687575096427 0.063181219853529202 0 0.00025200543829378161 0.06302349725274875 0 0.00021383136661416868 0.063310422057204038 0 0.00018527833691634677 0.063407393082088065 0 0.00021383136661416868 0.063310422057204038 0 0.00016124938063553354 0.063501477946060356 0 8.9706003677016724e-05 0.063740968739409556 0 0.00016124938063553354 0.063501477946060356 0 0.00010609299736136574 0.063673524762502584 0 8.9706003677016724e-05 0.063740968739409556 0 0.00018527833691634677 0.063407393082088065 0 0.00016124938063553354 0.063501477946060356 0 8.9706003677016724e-05 0.063740968739409556 0 0.00010609299736136574 0.063673524762502584 0 7.1087443509238157e-05 0.063848340072660367 0 0.00010609299736136574 0.063673524762502584 0 0.00012390123333396586 0.063638119077597782 0 6.0333496703549134e-05 0.063784014034299619 0 0.00010609299736136574 0.063673524762502584 0 0.00016015651767736048 0.063557239942779481 0 0.00012390123333396586 0.063638119077597782 0 0.00010609299736136574 0.063673524762502584 0 6.0333496703549134e-05 0.063784014034299619 0 7.1087443509238157e-05 0.063848340072660367 0 0.00016124938063553354 0.063501477946060356 0 0.00010609299736136574 0.063673524762502584 0 0.00016015651767736048 0.063557239942779481 0 0.00020377878367664577 0.063444411252215518 0 0.00016124938063553354 0.063501477946060356 0 0.00016015651767736048 0.063557239942779481 0 0.00016015651767736048 0.063557239942779481 0 0.00022317059178409622 0.063529539762994969 0 0.00012390123333396586 0.063638119077597782 0 0.00020377878367664577 0.063444411252215518 0 0.00016015651767736048 0.063557239942779481 0 0.00022317059178409622 0.063529539762994969 0 0.00012390123333396586 0.063638119077597782 0 0.00010077784062771044 0.063710164178299014 0 6.9673508321081701e-05 0.063712614072660129 0 0.00012390123333396586 0.063638119077597782 0 0.00020857306427412951 0.063615600143704557 0 0.00010077784062771044 0.063710164178299014 0 0.00022317059178409622 0.063529539762994969 0 0.00012390123333396586 0.063638119077597782 0 0.00020857306427412951 0.063615600143704557 0 0.00022317059178409622 0.063529539762994969 0 0.00020857306427412951 0.063615600143704557 0 0.00031691096259809553 0.063483339600463734 0 0.00022317059178409622 0.063529539762994969 0 0.00031691096259809553 0.063483339600463734 0 0.00026332561499635811 0.063411902465090486 0 0.00031691096259809553 0.063483339600463734 0 0.00026332561499635811 0.063411902465090486 0 0.00033261421388995361 0.063397623645471024 0 0.00020377878367664577 0.063444411252215518 0 0.00022317059178409622 0.063529539762994969 0 0.00026332561499635811 0.063411902465090486 0 0.00020377878367664577 0.063444411252215518 0 0.00022940468013655745 0.063259602749910923 0 0.00026332561499635811 0.063411902465090486 0 0.00024546235779051803 0.063298483043073922 0 0.00022940468013655745 0.063259602749910923 0 0.00026332561499635811 0.063411902465090486 0 0.00024546235779051803 0.063298483043073922 0 0.00026332561499635811 0.063411902465090486 0 0.00033261421388995361 0.063397623645471024 0 0.00029070208118623996 0.06329931750299185 0 0.00024546235779051803 0.063298483043073922 0 0.00033261421388995361 0.063397623645471024 0 0.00033261421388995361 0.063397623645471024 0 0.00041839508473453358 0.063329538006684449 0 0.0004188554195154502 0.06344869819282839 0 0.00029070208118623996 0.06329931750299185 0 0.00033261421388995361 0.063397623645471024 0 0.00041839508473453358 0.063329538006684449 0 0.0004188554195154502 0.06344869819282839 0 0.00059715408511384969 0.063435073633959754 0 0.00033306551723120872 0.063579783121808037 0 0.00031691096259809553 0.063483339600463734 0 0.0004188554195154502 0.06344869819282839 0 0.00033306551723120872 0.063579783121808037 0 0.00031691096259809553 0.063483339600463734 0 0.00033261421388995361 0.063397623645471024 0 0.0004188554195154502 0.06344869819282839 0 0.00041839508473453358 0.063329538006684449 0 0.0004188554195154502 0.06344869819282839 0 0.00059715408511384969 0.063435073633959754 0 0.00032379243746691382 0.063123506040665009 0 0.00041839508473453358 0.063329538006684449 0 0.00044665028666117363 0.063034038817363774 0 0.00041839508473453358 0.063329538006684449 0 0.00059715408511384969 0.063435073633959754 0 0.00044665028666117363 0.063034038817363774 0 0.00037298577224843213 0.062763173619735393 0 0.00044665028666117363 0.063034038817363774 0 0.00042896510699263297 0.062639115790780728 0 0.00044665028666117363 0.063034038817363774 0 0.00062042705826012947 0.062913600435114264 0 0.00042896510699263297 0.062639115790780728 0 0.00059715408511384969 0.063435073633959754 0 0.00044665028666117363 0.063034038817363774 0 0.00062042705826012947 0.062913600435114264 0 0.00059715408511384969 0.063435073633959754 0 0.00062042705826012947 0.062913600435114264 0 0.0010199697194336256 0.062897795612430168 0 0.0003645519165968715 0.063167279077363109 0 0.00038530623312223541 0.063017752207355532 0 0.00062042705826012947 0.062913600435114264 0 0.00076147458228352266 0.062600201285575335 0 0.0010199697194336256 0.062897795612430168 0 0.0017994906344454076 0.06197399786246395 0 0.0013506441002224118 0.061997075133572027 0 0.00062042705826012947 0.062913600435114264 0 0.00076147458228352266 0.062600201285575335 0 0.00042896510699263297 0.062639115790780728 0 0.0044263626479289888 0.060332018837050118 0 0.0028565721736996557 0.061008795957397992 0 0.0037221791060172531 0.059474319289010501 0 0.0028565721736996557 0.061008795957397992 0 0.0028061736187363676 0.059407159403167986 0 0.0037221791060172531 0.059474319289010501 0 0.00049661596175367014 0.062411121704006145 0 0.00050333010427703944 0.062988254673229119 0 -0.00055054069164391214 0.064197526550220374 0 -0.00070257436311160456 0.064245400474430475 0 -0.00015536535288729981 0.064304103334283894 0 0.00021787512815115757 0.064476957660466322 0 0.00016186498183282829 0.064147389694040824 0 -0.00015536535288729981 0.064304103334283894 0 0.00026908820376939129 0.062543028833306938 0 0.00049661596175367014 0.062411121704006145 0 0.0017994906344454076 0.06197399786246395 0 0.00049661596175367014 0.062411121704006145 0 0.00021787512815115757 0.064476957660466322 0 0.0004298097524806028 0.064127750243934287 0 0.00016186498183282829 0.064147389694040824 0 0.00049661596175367014 0.062411121704006145 0 0.00038530623312223541 0.063017752207355532 0 0.00076147458228352266 0.062600201285575335 0 0.0013003013985651223 0.06250750073824414 0 0.0010199697194336256 0.062897795612430168 0 0.00059715408511384969 0.063435073633959754 0 0.0004298097524806028 0.064127750243934287 0 0.000260117218576886 0.063803576119683375 0 0.0004298097524806028 0.064127750243934287 0 0.00016186498183282829 0.064147389694040824 0 0.000260117218576886 0.063803576119683375 0 0.00016186498183282829 0.064147389694040824 0 6.7806434479799599e-05 0.064013522236653284 0 -0.00015536535288729981 0.064304103334283894 0 0.00016186498183282829 0.064147389694040824 0 6.7806434479799599e-05 0.064013522236653284 0 0.000260117218576886 0.063803576119683375 0 6.7806434479799599e-05 0.064013522236653284 0 0.00012949982706051704 0.063789242339666624 0 -1.0051282767173951e-05 0.06404143591896172 0 6.7806434479799599e-05 0.064013522236653284 0 0.000260117218576886 0.063803576119683375 0 0.00012949982706051704 0.063789242339666624 0 0.000260117218576886 0.063803576119683375 0 0.00033306551723120872 0.063579783121808037 0 0.00012949982706051704 0.063789242339666624 0 0.00059715408511384969 0.063435073633959754 0 0.000260117218576886 0.063803576119683375 0 0.00033306551723120872 0.063579783121808037 0 0.00020857306427412951 0.063615600143704557 0 0.00033306551723120872 0.063579783121808037 0 0.00012949982706051704 0.063789242339666624 0 0.00020857306427412951 0.063615600143704557 0 0.00031691096259809553 0.063483339600463734 0 0.00033306551723120872 0.063579783121808037 0 0.00020857306427412951 0.063615600143704557 0 0.00012949982706051704 0.063789242339666624 0 0.00010077784062771044 0.063710164178299014 0 0.00012949982706051704 0.063789242339666624 0 -3.4470584223973039e-06 0.063906599440702094 0 -1.0051282767173951e-05 0.06404143591896172 0 0.00012949982706051704 0.063789242339666624 0 -3.4470584223973039e-06 0.063906599440702094 0 0.00010077784062771044 0.063710164178299014 0 -3.4470584223973039e-06 0.063906599440702094 0 -6.4606424923156663e-05 0.064214185489560774 0 -0.00019376239931375523 0.063968103714666991 0 -3.4470584223973039e-06 0.063906599440702094 0 -0.00019376239931375523 0.063968103714666991 0 -5.9083813036439494e-05 0.063830006588204452 0 -6.4606424923156663e-05 0.064214185489560774 0 -1.0051282767173951e-05 0.06404143591896172 0 -0.00015536535288729981 0.064304103334283894 0 -3.4470584223973039e-06 0.063906599440702094 0 -6.4606424923156663e-05 0.064214185489560774 0 -1.0051282767173951e-05 0.06404143591896172 0 6.7806434479799599e-05 0.064013522236653284 0 -1.0051282767173951e-05 0.06404143591896172 0 -0.00015536535288729981 0.064304103334283894 0 -0.00015536535288729981 0.064304103334283894 0 -8.8985371627650205e-05 0.064408521683790104 0 -0.0001493047112367683 0.064379063855477522 0 -6.4606424923156663e-05 0.064214185489560774 0 -8.8985371627650205e-05 0.064408521683790104 0 -9.1275492919668322e-05 0.064439037795590515 0 -6.4606424923156663e-05 0.064214185489560774 0 -0.00015536535288729981 0.064304103334283894 0 -8.8985371627650205e-05 0.064408521683790104 0 -0.0001493047112367683 0.064379063855477522 0 -3.9598050176343856e-05 0.064580143709882479 0 -2.296779452093496e-05 0.064452822877256177 0 -8.8985371627650205e-05 0.064408521683790104 0 -0.0001493047112367683 0.064379063855477522 0 -3.9598050176343856e-05 0.064580143709882479 0 -0.0001493047112367683 0.064379063855477522 0 -2.296779452093496e-05 0.064452822877256177 0 -0.00015212838485016846 0.064243384211645757 0 -0.0001493047112367683 0.064379063855477522 0 -0.00030118931715773746 0.064199972164892247 0 -0.00015212838485016846 0.064243384211645757 0 -0.00015536535288729981 0.064304103334283894 0 -0.0001493047112367683 0.064379063855477522 0 -0.00032178249928102029 0.064261304975646055 0 -0.00055054069164391214 0.064197526550220374 0 -0.00015536535288729981 0.064304103334283894 0 -0.00032178249928102029 0.064261304975646055 0 -0.0001493047112367683 0.064379063855477522 0 -0.00032178249928102029 0.064261304975646055 0 -0.00030118931715773746 0.064199972164892247 0 3.135556235488148e-05 0.064719580907277308 0 -3.9598050176343856e-05 0.064580143709882479 0 -4.9101554415161497e-07 0.064998830551829992 0 3.135556235488148e-05 0.064719580907277308 0 -4.9101554415161497e-07 0.064998830551829992 0 1.548615470164781e-07 0.064999895352435458 0 3.135556235488148e-05 0.064719580907277308 0 -3.9598050176343856e-05 0.064580143709882479 0 -2.296779452093496e-05 0.064452822877256177 0 -3.9598050176343856e-05 0.064580143709882479 0 -9.1275492919668322e-05 0.064439037795590515 0 -4.9101554415161497e-07 0.064998830551829992 0 -8.8985371627650205e-05 0.064408521683790104 0 -3.9598050176343856e-05 0.064580143709882479 0 -9.1275492919668322e-05 0.064439037795590515 0 -5.9002870583064247e-06 0.064991890085686607 0 0.0044995001723243467 0.067321395884607421 0 9.2436046546315546e-06 0.065020339461027074 0 3.6538862078827137e-06 0.064996325203923538 0 0.0026989886893567399 0.061168987798322812 0 -9.1275492919668322e-05 0.064439037795590515 0 -4.9101554415161497e-07 0.064998830551829992 0 -0.00020914345840645509 0.064354050642943153 0 0.0044995001723243467 0.067321395884607421 0 9.2436046546315546e-06 0.065020339461027074 0 -1.1052838530633281e-05 0.064947309105951909 0 -6.4606424923156663e-05 0.064214185489560774 0 -9.1275492919668322e-05 0.064439037795590515 0 -0.00019376239931375523 0.063968103714666991 0 -9.1275492919668322e-05 0.064439037795590515 0 -0.00020914345840645509 0.064354050642943153 0 -0.00019376239931375523 0.063968103714666991 0 0.0026989886893567399 0.061168987798322812 0 0.0052089762085687713 0.055685412211070977 0 0.0044995001723243467 0.067321395884607421 0 -1.1052838530633281e-05 0.064947309105951909 0 0.0087093469946611032 0.05173111478317835 0 0.0044995001723243467 0.067321395884607421 0 0.022956522412507063 0.049807087211298479 0 0.0087093469946611032 0.05173111478317835 0 8.3306165186314532e-06 0.064990212660071739 0 0.0036752275254050473 0.059100338189494714 0 -1.1052838530633281e-05 0.064947309105951909 0 0.0087093469946611032 0.05173111478317835 0 -0.0026483663729930684 0.035178095056293907 0 0.022956522412507063 0.049807087211298479 0 0.0087093469946611032 0.05173111478317835 0 0.013703540265364687 0.033814161392951007 0 -0.0026483663729930684 0.035178095056293907 0 0.013703540265364687 0.033814161392951007 0 -0.00091712537484308601 0.015999406717966184 0 0.0036752275254050473 0.059100338189494714 0 0.0024910710519034985 0.063301637270952907 0 1.0309976437692223e-09 0.064819928511386835 0 1.202052187178913e-08 0.065000002922400449 0 -2.6578762779794926e-05 0.064995668218883779 0 0.0087093469946611032 0.05173111478317835 0 -0.0026483663729930684 0.035178095056293907 0 0.013703540265364687 0.033814161392951007 0 0.013703540265364687 0.033814161392951007 0 -0.00091712537484308601 0.015999406717966184 0 0.018528705865554881 0.018711323935743315 0 0.00044690502704507076 0.063770039175578247 0 0.00026984645750949829 0.063914599570189884 0 0.00043304489967551285 0.064111609220765878 0 0.0024910710519034985 0.063301637270952907 0 0.001637797127154828 0.064248926721400715 0 -2.3193468977744704e-08 0.065000203657020167 0 -1.5271998675374547e-06 0.064999353557415929 0 5.374102578861201e-06 0.065020328966400809 0 2.4335160396971275e-05 0.064967575229741198 0 0.0024910710519034985 0.063301637270952907 0 0.0024910710519034985 0.063301637270952907 0 0.0035437159916549359 0.058657101756372537 0 0.00044690502704507076 0.063770039175578247 0 0.00026984645750949829 0.063914599570189884 0 0.00022856831425685192 0.063761888904597289 0 0.0001428105302544234 0.063825665908786508 0 9.6600089626333282e-05 0.063873341709140982 0 0.00014126233013360225 0.063968067833223063 0 0.00026984645750949829 0.063914599570189884 0 0.0001428105302544234 0.063825665908786508 0 0.00014126233013360225 0.063968067833223063 0 0.00026984645750949829 0.063914599570189884 0 0.0001428105302544234 0.063825665908786508 0 0.00022856831425685192 0.063761888904597289 0 0.0035437159916549359 0.058657101756372537 0 0.0011523652814748717 0.057079564555596408 0 0.0001428105302544234 0.063825665908786508 0 0.00022856831425685192 0.063761888904597289 0 9.4258389223533942e-05 0.063756514129896427 0 0.013703540265364687 0.033814161392951007 0 0.018528705865554881 0.018711323935743315 0 0.038480189645870674 0.021373755142928601 0 0.022956522412507063 0.049807087211298479 0 0.013703540265364687 0.033814161392951007 0 0.038480189645870674 0.021373755142928601 0 0.0052089762085687713 0.055685412211070977 0 0.0011523652814748717 0.057079564555596408 0 -3.4470584223973039e-06 0.063906599440702094 0 -5.9083813036439494e-05 0.063830006588204452 0 3.9071179447057947e-05 0.063721448714587223 0 -0.00019376239931375523 0.063968103714666991 0 -5.9083813036439494e-05 0.063830006588204452 0 -0.00011628464487143552 0.063694087539190272 0 -5.9083813036439494e-05 0.063830006588204452 0 3.9071179447057947e-05 0.063721448714587223 0 -0.00011628464487143552 0.063694087539190272 0 0.0010043291395751849 0.057642613872498465 0 0.0011523652814748717 0.057079564555596408 0 -3.4470584223973039e-06 0.063906599440702094 0 0.00010077784062771044 0.063710164178299014 0 3.9071179447057947e-05 0.063721448714587223 0 0.00010077784062771044 0.063710164178299014 0 3.9071179447057947e-05 0.063721448714587223 0 6.9673508321081701e-05 0.063712614072660129 0 3.9071179447057947e-05 0.063721448714587223 0 6.9673508321081701e-05 0.063712614072660129 0 5.4604338389089665e-05 0.063782841562521606 0 6.9673508321081701e-05 0.063712614072660129 0 5.4604338389089665e-05 0.063782841562521606 0 6.0333496703549134e-05 0.063784014034299619 0 0.00012390123333396586 0.063638119077597782 0 6.9673508321081701e-05 0.063712614072660129 0 6.0333496703549134e-05 0.063784014034299619 0 0.0001428105302544234 0.063825665908786508 0 8.2458041214228037e-05 0.063797161464462571 0 9.4258389223533942e-05 0.063756514129896427 0 0.00096259825230013093 0.057527929882126703 0 0.0011523652814748717 0.057079564555596408 0 3.9071179447057947e-05 0.063721448714587223 0 8.2458041214228037e-05 0.063797161464462571 0 0.00010486367075787904 0.063754278200668896 0 3.9071179447057947e-05 0.063721448714587223 0 5.4604338389089665e-05 0.063782841562521606 0 8.2458041214228037e-05 0.063797161464462571 0 5.4604338389089665e-05 0.063782841562521606 0 8.2458041214228037e-05 0.063797161464462571 0 7.1449255113533109e-05 0.063840105397871882 0 0.0001428105302544234 0.063825665908786508 0 8.2458041214228037e-05 0.063797161464462571 0 9.6600089626333282e-05 0.063873341709140982 0 8.2458041214228037e-05 0.063797161464462571 0 7.1449255113533109e-05 0.063840105397871882 0 9.6600089626333282e-05 0.063873341709140982 0 6.6878317885699621e-05 0.063938093219715997 0 6.0333496703549134e-05 0.063784014034299619 0 6.4170012246186504e-05 0.064002038552816845 0 7.1449255113533109e-05 0.063840105397871882 0 9.6600089626333282e-05 0.063873341709140982 0 6.6878317885699621e-05 0.063938093219715997 0 9.6600089626333282e-05 0.063873341709140982 0 6.6878317885699621e-05 0.063938093219715997 0 0.00014126233013360225 0.063968067833223063 0 5.4604338389089665e-05 0.063782841562521606 0 7.1449255113533109e-05 0.063840105397871882 0 6.6878317885699621e-05 0.063938093219715997 0 6.6878317885699621e-05 0.063938093219715997 0 6.4170012246186504e-05 0.064002038552816845 0 8.1828050446189113e-05 0.064167061073584705 0 5.4604338389089665e-05 0.063782841562521606 0 6.6878317885699621e-05 0.063938093219715997 0 6.0333496703549134e-05 0.063784014034299619 0 6.0333496703549134e-05 0.063784014034299619 0 7.1087443509238157e-05 0.063848340072660367 0 6.4170012246186504e-05 0.064002038552816845 0 8.9013982841106647e-05 0.064050906756997761 0 8.9706003677016724e-05 0.063740968739409556 0 7.1087443509238157e-05 0.063848340072660367 0 8.9013982841106647e-05 0.064050906756997761 0 7.1087443509238157e-05 0.063848340072660367 0 6.4170012246186504e-05 0.064002038552816845 0 6.4170012246186504e-05 0.064002038552816845 0 8.1084373788535156e-05 0.064212037226110324 0 8.1828050446189113e-05 0.064167061073584705 0 8.9013982841106647e-05 0.064050906756997761 0 6.4170012246186504e-05 0.064002038552816845 0 8.1084373788535156e-05 0.064212037226110324 0 8.1084373788535156e-05 0.064212037226110324 0 9.3202664997842254e-05 0.064432983736482943 0 8.1828050446189113e-05 0.064167061073584705 0 9.3202664997842254e-05 0.064432983736482943 0 8.1828050446189113e-05 0.064167061073584705 0 0.00013768116157201815 0.064357872150695522 0 8.1828050446189113e-05 0.064167061073584705 0 0.00013768116157201815 0.064357872150695522 0 0.00011843452837493147 0.064124297607685232 0 0.00012448812423246106 0.064838036915575423 0 0.00013768116157201815 0.064357872150695522 0 0.00043304489967551285 0.064111609220765878 0 0.0013858321399635729 0.064481151720236204 0 0.001637797127154828 0.064248926721400715 0 0.00012448812423246106 0.064838036915575423 0 9.3202664997842254e-05 0.064432983736482943 0 0.00013768116157201815 0.064357872150695522 0 0.00012448812423246106 0.064838036915575423 0 7.7291373381118759e-08 0.064999699747745887 0 5.374102578861201e-06 0.065020328966400809 0 0.00013768116157201815 0.064357872150695522 0 0.00043304489967551285 0.064111609220765878 0 0.0002078821784717816 0.064087254169534799 0 -2.3193468977744704e-08 0.065000203657020167 0 7.7291373381118759e-08 0.064999699747745887 0 5.374102578861201e-06 0.065020328966400809 0 0.00026984645750949829 0.063914599570189884 0 0.00043304489967551285 0.064111609220765878 0 0.0002078821784717816 0.064087254169534799 0 0.00026984645750949829 0.063914599570189884 0 0.00014126233013360225 0.063968067833223063 0 0.0002078821784717816 0.064087254169534799 0 6.6878317885699621e-05 0.063938093219715997 0 0.00014126233013360225 0.063968067833223063 0 0.00011843452837493147 0.064124297607685232 0 6.6878317885699621e-05 0.063938093219715997 0 8.1828050446189113e-05 0.064167061073584705 0 0.00011843452837493147 0.064124297607685232 0 0.00013768116157201815 0.064357872150695522 0 0.00011843452837493147 0.064124297607685232 0 0.0002078821784717816 0.064087254169534799 0 0.00014126233013360225 0.063968067833223063 0 0.00011843452837493147 0.064124297607685232 0 0.0002078821784717816 0.064087254169534799 0 2.0446814379557541e-05 0.064945830370270324 0 -1.9512273714663225e-06 0.064967418791014503 0 1.5693737807889616e-05 0.064985924344756113 0 2.0446814379557541e-05 0.064945830370270324 0 4.0556228503091112e-08 0.064999931833026978 0 1.5693737807889616e-05 0.064985924344756113 0 4.0556228503091112e-08 0.064999931833026978 0 1.6804743018425992e-05 0.064935908865325812 0 -8.059925076778964e-09 0.064999899698441652 0 2.0446814379557541e-05 0.064945830370270324 0 4.0556228503091112e-08 0.064999931833026978 0 1.6804743018425992e-05 0.064935908865325812 0 2.0446814379557541e-05 0.064945830370270324 0 3.1652416591550374e-05 0.064835129779701392 0 1.6804743018425992e-05 0.064935908865325812 0 3.1652416591550374e-05 0.064835129779701392 0 0.00016783177829787931 0.064504993672819561 0 0.00024491672497030343 0.064737206570258776 0 2.0446814379557541e-05 0.064945830370270324 0 3.1652416591550374e-05 0.064835129779701392 0 -1.9512273714663225e-06 0.064967418791014503 0 3.1652416591550374e-05 0.064835129779701392 0 0.00016783177829787931 0.064504993672819561 0 -6.3007513033762189e-05 0.064525726687537949 0 0.00010803406220028613 0.06473466711152373 0 0.00011817357022001352 0.064651120451648947 0 -6.3007513033762189e-05 0.064525726687537949 0 4.9090591306704887e-05 0.06436197567633202 0 -0.00012442582665877965 0.064255434211049636 0 0.00016783177829787931 0.064504993672819561 0 -6.3007513033762189e-05 0.064525726687537949 0 4.9090591306704887e-05 0.06436197567633202 0 0.00011817357022001352 0.064651120451648947 0 0.00017182409914189597 0.064388985401035742 0 0.00016783177829787931 0.064504993672819561 0 4.9090591306704887e-05 0.06436197567633202 0 0.00020043674933742061 0.064287455596364465 0 0.00016783177829787931 0.064504993672819561 0 0.00020043674933742061 0.064287455596364465 0 0.00029191813112657797 0.064397380640883059 0 0.00021975388807518657 0.062031169998109377 0 0.0011842762393023461 0.060430594967615922 0 4.9090591306704887e-05 0.06436197567633202 0 0.00020043674933742061 0.064287455596364465 0 9.6141977063471159e-05 0.06412424970281165 0 0.00020043674933742061 0.064287455596364465 0 9.6141977063471159e-05 0.06412424970281165 0 0.00038618978186772182 0.064256474995739471 0 4.9090591306704887e-05 0.06436197567633202 0 -0.00012442582665877965 0.064255434211049636 0 9.6141977063471159e-05 0.06412424970281165 0 1.3185353296420956e-05 0.064994524084543565 0 1.5693737807889616e-05 0.064985924344756113 0 2.1426330430446102e-05 0.064996731293835736 0 -1.9512273714663225e-06 0.064967418791014503 0 1.3185353296420956e-05 0.064994524084543565 0 1.5693737807889616e-05 0.064985924344756113 0 4.0556228503091112e-08 0.064999931833026978 0 1.5693737807889616e-05 0.064985924344756113 0 -4.8773242332992462e-09 0.064999942992423884 0 -4.8773242332992462e-09 0.064999942992423884 0 2.1426330430446102e-05 0.064996731293835736 0 1.0538746973542129e-07 0.06500020495334756 0 1.5693737807889616e-05 0.064985924344756113 0 -4.8773242332992462e-09 0.064999942992423884 0 2.1426330430446102e-05 0.064996731293835736 0 2.1426330430446102e-05 0.064996731293835736 0 3.9263716086024102e-05 0.064987623423973698 0 1.0538746973542129e-07 0.06500020495334756 0 2.1426330430446102e-05 0.064996731293835736 0 3.9263716086024102e-05 0.064987623423973698 0 3.2640747377650083e-05 0.064991085421359798 0 3.9263716086024102e-05 0.064987623423973698 0 1.0538746973542129e-07 0.06500020495334756 0 8.3226907840317223e-05 0.064944440185360233 0 0.00017182409914189597 0.064388985401035742 0 0.00025523351900151326 0.063627848158092998 0 1.3185353296420956e-05 0.064994524084543565 0 2.1426330430446102e-05 0.064996731293835736 0 3.2640747377650083e-05 0.064991085421359798 0 0.0012028750682699981 0.065248665048972684 0 0.00097128931656350367 0.064253668351794954 0 8.3226907840317223e-05 0.064944440185360233 0 0.0011675624912081688 0.062348412441954583 0 0.00060292035586439411 0.063240238559725576 0 0.00010731346656099124 0.062213736160122463 0 0.0011675624912081688 0.062348412441954583 0 0.00060292035586439411 0.063240238559725576 0 0.00097128931656350367 0.064253668351794954 0 0.00025523351900151326 0.063627848158092998 0 0.00033615613342974484 0.063725561390984259 0 0.00060292035586439411 0.063240238559725576 0 0.00097128931656350367 0.064253668351794954 0 0.00094868401368414842 0.064291178116713713 0 0.00097128931656350367 0.064253668351794954 0 8.3226907840317223e-05 0.064944440185360233 0 3.5528679057763926e-07 0.064998475062251149 0 1.0538746973542129e-07 0.06500020495334756 0 8.3226907840317223e-05 0.064944440185360233 0 3.5528679057763926e-07 0.064998475062251149 0 3.9263716086024102e-05 0.064987623423973698 0 3.2640747377650083e-05 0.064991085421359798 0 8.3226907840317223e-05 0.064944440185360233 0 0.00025523351900151326 0.063627848158092998 0 0.00039299715756310695 0.063906352090840682 0 0.00097128931656350367 0.064253668351794954 0 3.5528679057763926e-07 0.064998475062251149 0 0.00094868401368414842 0.064291178116713713 0 2.7559219016272022e-07 0.064998929661844923 0 0.000131976471167616 0.064421223754237714 0 6.9622002199296265e-05 0.064749699948691841 0 2.7559219016272022e-07 0.064998929661844923 0 0.00022159664609063567 0.063966972497650043 0 0.000131976471167616 0.064421223754237714 0 4.1155878931812076e-07 0.064998966128649666 0 9.1864571225948799e-05 0.064508677488061605 0 0.00022159664609063567 0.063966972497650043 0 0.00014171941057281018 0.064106306015597705 0 0.000131976471167616 0.064421223754237714 0 0.00022159664609063567 0.063966972497650043 0 0.00014171941057281018 0.064106306015597705 0 2.2260947640291308e-05 0.063725485705484017 0 8.4960972673123428e-05 0.064169277711456515 0 0.00014171941057281018 0.064106306015597705 0 2.2260947640291308e-05 0.063725485705484017 0 8.4960972673123428e-05 0.064169277711456515 0 0.000131976471167616 0.064421223754237714 0 7.4626548152912045e-05 0.0644773808702956 0 8.4960972673123428e-05 0.064169277711456515 0 0.00014171941057281018 0.064106306015597705 0 0.000131976471167616 0.064421223754237714 0 3.135556235488148e-05 0.064719580907277308 0 7.4626548152912045e-05 0.0644773808702956 0 -2.296779452093496e-05 0.064452822877256177 0 8.4960972673123428e-05 0.064169277711456515 0 7.4626548152912045e-05 0.0644773808702956 0 -3.1254230923503039e-05 0.064189884880226103 0 7.4626548152912045e-05 0.0644773808702956 0 -2.296779452093496e-05 0.064452822877256177 0 -3.1254230923503039e-05 0.064189884880226103 0 2.7559219016272022e-07 0.064998929661844923 0 1.548615470164781e-07 0.064999895352435458 0 6.9622002199296265e-05 0.064749699948691841 0 3.135556235488148e-05 0.064719580907277308 0 7.4626548152912045e-05 0.0644773808702956 0 6.9622002199296265e-05 0.064749699948691841 0 3.135556235488148e-05 0.064719580907277308 0 1.548615470164781e-07 0.064999895352435458 0 6.9622002199296265e-05 0.064749699948691841 0 0.000131976471167616 0.064421223754237714 0 7.4626548152912045e-05 0.0644773808702956 0 6.9622002199296265e-05 0.064749699948691841 0 -0.00030552279129657559 0.063891955029390338 0 -0.00047914533516559427 0.064112728666465946 0 -0.00070275300674882977 0.063927106432782974 0 -0.00055054069164391214 0.064197526550220374 0 -0.00032178249928102029 0.064261304975646055 0 -0.00047914533516559427 0.064112728666465946 0 -0.00032178249928102029 0.064261304975646055 0 -0.00047914533516559427 0.064112728666465946 0 -0.00030118931715773746 0.064199972164892247 0 -0.00030552279129657559 0.063891955029390338 0 -0.00047914533516559427 0.064112728666465946 0 -0.00030118931715773746 0.064199972164892247 0 -0.00030552279129657559 0.063891955029390338 0 -0.00030118931715773746 0.064199972164892247 0 -0.00015212838485016846 0.064243384211645757 0 -2.296779452093496e-05 0.064452822877256177 0 -0.00015212838485016846 0.064243384211645757 0 -3.1254230923503039e-05 0.064189884880226103 0 -0.00030552279129657559 0.063891955029390338 0 -0.00015212838485016846 0.064243384211645757 0 -3.1254230923503039e-05 0.064189884880226103 0 -0.00030552279129657559 0.063891955029390338 0 -6.8931876049063852e-05 0.063793721945314491 0 -0.00021929464426963165 0.063390021310690908 0 -0.00030552279129657559 0.063891955029390338 0 -3.1254230923503039e-05 0.064189884880226103 0 -6.8931876049063852e-05 0.063793721945314491 0 8.4960972673123428e-05 0.064169277711456515 0 -6.8931876049063852e-05 0.063793721945314491 0 2.2260947640291308e-05 0.063725485705484017 0 8.4960972673123428e-05 0.064169277711456515 0 -3.1254230923503039e-05 0.064189884880226103 0 -6.8931876049063852e-05 0.063793721945314491 0 -6.8931876049063852e-05 0.063793721945314491 0 2.2260947640291308e-05 0.063725485705484017 0 -0.00021929464426963165 0.063390021310690908 0 2.2260947640291308e-05 0.063725485705484017 0 -0.00021929464426963165 0.063390021310690908 0 -0.00018789308440045807 0.062775949601850456 0 -0.00032984114852871368 0.063222184938700909 0 -0.00027776808084028457 0.063234484782307643 0 -0.00030552279129657559 0.063891955029390338 0 -0.00061451758666968427 0.062985059507863858 0 -0.00070275300674882977 0.063927106432782974 0 -0.00030552279129657559 0.063891955029390338 0 -0.00021929464426963165 0.063390021310690908 0 -0.00061451758666968427 0.062985059507863858 0 -0.00061451758666968427 0.062985059507863858 0 -0.00080342314118249901 0.062057218647332935 0 -0.0013603698088123744 0.062346062770544462 0 -0.00021929464426963165 0.063390021310690908 0 -0.00061451758666968427 0.062985059507863858 0 -0.00018789308440045807 0.062775949601850456 0 -0.00061451758666968427 0.062985059507863858 0 -0.00080342314118249901 0.062057218647332935 0 -0.00018789308440045807 0.062775949601850456 0 -0.00080342314118249901 0.062057218647332935 0 -0.00018789308440045807 0.062775949601850456 0 -0.00045067220886753725 0.06184107619831037 0 0.00022159664609063567 0.063966972497650043 0 2.2260947640291308e-05 0.063725485705484017 0 -0.00018789308440045807 0.062775949601850456 0 0.00060292035586439411 0.063240238559725576 0 0.00094868401368414842 0.064291178116713713 0 -0.00018789308440045807 0.062775949601850456 0 9.1864571225948799e-05 0.064508677488061605 0 -8.3052800090772041e-05 0.064186567622251542 0 -0.00018789308440045807 0.062775949601850456 0 0.00010731346656099124 0.062213736160122463 0 -0.00045067220886753725 0.06184107619831037 0 0.00060292035586439411 0.063240238559725576 0 -0.00018789308440045807 0.062775949601850456 0 0.00010731346656099124 0.062213736160122463 0 0.0011675624912081688 0.062348412441954583 0 0.00010731346656099124 0.062213736160122463 0 -0.00044096542601498222 0.060856891126312616 0 0.00025523351900151326 0.063627848158092998 0 0.00021975388807518657 0.062031169998109377 0 -0.00012442582665877965 0.064255434211049636 0 -0.00018385744313222766 0.063987891764383409 0 9.6141977063471159e-05 0.06412424970281165 0 0.00010731346656099124 0.062213736160122463 0 -0.00045067220886753725 0.06184107619831037 0 -0.00044096542601498222 0.060856891126312616 0 -0.00090207413440338111 0.061336796224137527 0 -0.00044096542601498222 0.060856891126312616 0 -0.0013257482694653108 0.060671352610969502 0 -0.00080342314118249901 0.062057218647332935 0 -0.00090207413440338111 0.061336796224137527 0 -0.0013710157275613041 0.061195004383100944 0 -0.00080342314118249901 0.062057218647332935 0 -0.00090207413440338111 0.061336796224137527 0 -0.00045067220886753725 0.06184107619831037 0 -0.00090207413440338111 0.061336796224137527 0 -0.00045067220886753725 0.06184107619831037 0 -0.00044096542601498222 0.060856891126312616 0 -0.0013257482694653108 0.060671352610969502 0 -0.0013710157275613041 0.061195004383100944 0 -0.0019583008914521439 0.060153449633595361 0 -0.0013710157275613041 0.061195004383100944 0 -0.0019583008914521439 0.060153449633595361 0 -0.0018987375216540591 0.060885626749841396 0 -0.00090207413440338111 0.061336796224137527 0 -0.0013257482694653108 0.060671352610969502 0 -0.0013710157275613041 0.061195004383100944 0 -0.0019583008914521439 0.060153449633595361 0 -0.0022807005340201893 0.059452267940606728 0 -0.0017517382818761709 0.06019024837698065 0 -0.0019583008914521439 0.060153449633595361 0 -0.0022807005340201893 0.059452267940606728 0 -0.0018987375216540591 0.060885626749841396 0 -0.0022807005340201893 0.059452267940606728 0 -0.0026372580512129076 0.061150572765644153 0 -0.0018987375216540591 0.060885626749841396 0 -0.0026372580512129076 0.061150572765644153 0 -0.0018987375216540591 0.060885626749841396 0 -0.002212331736440649 0.061965975894358538 0 -0.0018987375216540591 0.060885626749841396 0 -0.002212331736440649 0.061965975894358538 0 -0.0013603698088123744 0.062346062770544462 0 -0.0026372580512129076 0.061150572765644153 0 -0.002212331736440649 0.061965975894358538 0 -0.0032191462689876381 0.06214390163148422 0 -0.0013710157275613041 0.061195004383100944 0 -0.0018987375216540591 0.060885626749841396 0 -0.0013603698088123744 0.062346062770544462 0 -0.00080342314118249901 0.062057218647332935 0 -0.0013710157275613041 0.061195004383100944 0 -0.0013603698088123744 0.062346062770544462 0 -0.0013603698088123744 0.062346062770544462 0 -0.0020929875823298754 0.062941201515623615 0 -0.0010854029926285244 0.063435995286660329 0 -0.00061451758666968427 0.062985059507863858 0 -0.0013603698088123744 0.062346062770544462 0 -0.0010854029926285244 0.063435995286660329 0 -0.0020929875823298754 0.062941201515623615 0 -0.0033291670105684399 0.06344810111988991 0 -0.0032191462689876381 0.06214390163148422 0 -0.002212331736440649 0.061965975894358538 0 -0.0013603698088123744 0.062346062770544462 0 -0.0020929875823298754 0.062941201515623615 0 -0.002212331736440649 0.061965975894358538 0 -0.0020929875823298754 0.062941201515623615 0 -0.0032191462689876381 0.06214390163148422 0 -0.0018071489803262316 0.064547371668598141 0 -0.001922915685353653 0.06399302155627376 0 -0.0033291670105684399 0.06344810111988991 0 -0.0020929875823298754 0.062941201515623615 0 -0.001922915685353653 0.06399302155627376 0 -0.0033291670105684399 0.06344810111988991 0 0.00049661596175367014 0.062411121704006145 0 0.0009789159046035157 0.060562528588868882 0 0.0044263626479289888 0.060332018837050118 0 0.0062226289768231155 0.060044908987838097 0 0.0044440970907493257 0.058615048260464701 0 -0.00055054069164391214 0.064197526550220374 0 -0.00066933968499522972 0.0642558496033796 0 -0.00070275300674882977 0.063927106432782974 0 -0.0018071489803262316 0.064547371668598141 0 -0.001922915685353653 0.06399302155627376 0 -0.0010854029926285244 0.063435995286660329 0 0.00049661596175367014 0.062411121704006145 0 -0.00027776808084028457 0.063234484782307643 0 -0.0020929875823298754 0.062941201515623615 0 -0.001922915685353653 0.06399302155627376 0 -0.0010854029926285244 0.063435995286660329 0 -0.00055054069164391214 0.064197526550220374 0 -0.00047914533516559427 0.064112728666465946 0 -0.00070275300674882977 0.063927106432782974 0 0.0028648215434830663 0.058547649344687876 0 0.0037221791060172531 0.059474319289010501 0 0.0044440970907493257 0.058615048260464701 0 0.0028648215434830663 0.058547649344687876 0 0.0028061736187363676 0.059407159403167986 0 0.0023427992756056074 0.058978700005355593 0 0.0028648215434830663 0.058547649344687876 0 0.0028061736187363676 0.059407159403167986 0 0.0037221791060172531 0.059474319289010501 0 0.0044263626479289888 0.060332018837050118 0 0.0037221791060172531 0.059474319289010501 0 0.0044440970907493257 0.058615048260464701 0 -0.0033291670105684399 0.06344810111988991 0 -0.0032191462689876381 0.06214390163148422 0 -0.0051711275738310428 0.062085105557411369 0 0.0028648215434830663 0.058547649344687876 0 0.00250079857322784 0.057839133609183198 0 0.0020298452050794909 0.057951571205252649 0 0.0009789159046035157 0.060562528588868882 0 0.0016620966716099303 0.058452334136177418 0 0.0028648215434830663 0.058547649344687876 0 0.0044440970907493257 0.058615048260464701 0 0.00250079857322784 0.057839133609183198 0 0.0017185738697450298 0.054218564596441095 0 -0.00034600326195898245 0.056077139590710659 0 0.0018425530153505134 0.056711306778958574 0 0.0016620966716099303 0.058452334136177418 0 -4.4611525442563134e-05 0.05908421137309542 0 -0.0032191462689876381 0.06214390163148422 0 -0.0051711275738310428 0.062085105557411369 0 -0.00403084078673995 0.061037294989049848 0 -0.0026372580512129076 0.061150572765644153 0 -0.0032191462689876381 0.06214390163148422 0 -0.00403084078673995 0.061037294989049848 0 -0.0022807005340201893 0.059452267940606728 0 -0.0026372580512129076 0.061150572765644153 0 -0.00403084078673995 0.061037294989049848 0 -0.0022807005340201893 0.059452267940606728 0 -0.00022295001829651995 0.058507447955600221 0 -0.0017517382818761709 0.06019024837698065 0 -0.00050334936407383764 0.059258374403090251 0 -4.4611525442563134e-05 0.05908421137309542 0 -0.0022807005340201893 0.059452267940606728 0 -0.00034600326195898245 0.056077139590710659 0 -0.00022295001829651995 0.058507447955600221 0 -0.00022295001829651995 0.058507447955600221 0 0.0018425530153505134 0.056711306778958574 0 0.0017837220819633248 0.059217874193640281 0 -0.00034600326195898245 0.056077139590710659 0 -0.00022295001829651995 0.058507447955600221 0 0.0018425530153505134 0.056711306778958574 0 0.005982164761850998 0.056116188699514291 0 0.0062027408773937436 0.05573877967477165 0 0.006567894361578965 0.055981133776615191 0 0.005982164761850998 0.056116188699514291 0 0.0062027408773937436 0.05573877967477165 0 0.0055208224547438683 0.055532750756960125 0 0.0062027408773937436 0.05573877967477165 0 0.0060637227651232804 0.055333351242604592 0 0.0055208224547438683 0.055532750756960125 0 0.0062027408773937436 0.05573877967477165 0 0.0060637227651232804 0.055333351242604592 0 0.0066335464947832974 0.05566407163169159 0 0.0030525776819847312 0.060245831057788822 0 0.0027599921947008407 0.060452569326505695 0 0.00063757038281605605 0.06444249318490422 0 0.00050518764837797895 0.064379680713807924 0 0.00048202551191612784 0.064483674018312176 0 0.0033404788445305731 0.058363591818755313 0 0.0025431724156700676 0.059095614351894532 0 0.0062027408773937436 0.05573877967477165 0 0.0066335464947832974 0.05566407163169159 0 0.006567894361578965 0.055981133776615191 0 -0.00022295001829651995 0.058507447955600221 0 0.0017837220819633248 0.059217874193640281 0 -0.0017517382818761709 0.06019024837698065 0 0.0025431724156700676 0.059095614351894532 0 0.0011842762393023461 0.060430594967615922 0 -0.0019583008914521439 0.060153449633595361 0 -0.0017517382818761709 0.06019024837698065 0 -0.0017828764690424465 0.059989665763250363 0 0.0066335464947832974 0.05566407163169159 0 0.006567894361578965 0.055981133776615191 0 0.007090229197234974 0.055915376566631939 0 0.0027599921947008407 0.060452569326505695 0 0.0011842762393023461 0.060430594967615922 0 0.00077207617958897933 0.060844842303561852 0 0.0011842762393023461 0.060430594967615922 0 -0.00044096542601498222 0.060856891126312616 0 -0.0013257482694653108 0.060671352610969502 0 -0.0017828764690424465 0.059989665763250363 0 0.00020043674933742061 0.064287455596364465 0 0.00034481868318116381 0.064285062707204368 0 0.00029191813112657797 0.064397380640883059 0 -0.0013257482694653108 0.060671352610969502 0 -0.0019583008914521439 0.060153449633595361 0 -0.0017828764690424465 0.059989665763250363 0 0.00016783177829787931 0.064504993672819561 0 0.00029191813112657797 0.064397380640883059 0 0.00034424978394313255 0.06451000188499155 0 0.00034481868318116381 0.064285062707204368 0 0.00029191813112657797 0.064397380640883059 0 0.00039163081495858728 0.064408325330113064 0 0.00029191813112657797 0.064397380640883059 0 0.00039163081495858728 0.064408325330113064 0 0.00034424978394313255 0.06451000188499155 0 0.00050518764837797895 0.064379680713807924 0 0.00034481868318116381 0.064285062707204368 0 0.00039163081495858728 0.064408325330113064 0 0.00050518764837797895 0.064379680713807924 0 0.00039163081495858728 0.064408325330113064 0 0.00048202551191612784 0.064483674018312176 0 0.00039163081495858728 0.064408325330113064 0 0.00048202551191612784 0.064483674018312176 0 0.00034424978394313255 0.06451000188499155 0 0.00048202551191612784 0.064483674018312176 0 0.00034424978394313255 0.06451000188499155 0 0.00043379123454155626 0.06462057457001337 0 0.00048202551191612784 0.064483674018312176 0 0.00043379123454155626 0.06462057457001337 0 0.00054167917628782601 0.064547141576310377 0 0.00016783177829787931 0.064504993672819561 0 0.00034424978394313255 0.06451000188499155 0 0.00024491672497030343 0.064737206570258776 0 0.00034424978394313255 0.06451000188499155 0 0.00024491672497030343 0.064737206570258776 0 0.00043379123454155626 0.06462057457001337 0 0.00024491672497030343 0.064737206570258776 0 0.00043379123454155626 0.06462057457001337 0 0.0004653122075425121 0.06473641204943649 0 0.00043379123454155626 0.06462057457001337 0 0.00056920486232242475 0.064643756048415449 0 0.0004653122075425121 0.06473641204943649 0 0.00056920486232242475 0.064643756048415449 0 0.00064991690903537145 0.064543756259000787 0 0.00054167917628782601 0.064547141576310377 0 0.00043379123454155626 0.06462057457001337 0 0.00056920486232242475 0.064643756048415449 0 0.00054167917628782601 0.064547141576310377 0 0.00056920486232242475 0.064643756048415449 0 0.00064991690903537145 0.064543756259000787 0 0.00071863052962826957 0.064608698849140792 0 0.00063757038281605605 0.06444249318490422 0 0.00064991690903537145 0.064543756259000787 0 0.00054167917628782601 0.064547141576310377 0 0.00063757038281605605 0.06444249318490422 0 0.00064991690903537145 0.064543756259000787 0 0.00075909223376878748 0.064477530256850907 0 0.00063757038281605605 0.06444249318490422 0 0.00048202551191612784 0.064483674018312176 0 0.00054167917628782601 0.064547141576310377 0 0.0030032176776814096 0.06010591533636124 0 0.002852693533726532 0.060088376981165939 0 0.0052538787467279052 0.055146165225209813 0 0.0054595261667474207 0.055091963687166248 0 0.005129817729301594 0.055066566252273227 0 0.0052538787467279052 0.055146165225209813 0 0.0051803437854851166 0.055134187449689571 0 0.005129817729301594 0.055066566252273227 0 0.0052538787467279052 0.055146165225209813 0 0.0051803437854851166 0.055134187449689571 0 0.0051740392222984098 0.055245402102888176 0 0.0052538787467279052 0.055146165225209813 0 0.0054595261667474207 0.055091963687166248 0 0.0055208224547438683 0.055532750756960125 0 0.0030525776819847312 0.060245831057788822 0 0.0030032176776814096 0.06010591533636124 0 0.00064991690903537145 0.064543756259000787 0 0.00075909223376878748 0.064477530256850907 0 0.00071863052962826957 0.064608698849140792 0 0.00075909223376878748 0.064477530256850907 0 0.00071863052962826957 0.064608698849140792 0 0.0008039062908267203 0.064523307121384391 0 0.00071863052962826957 0.064608698849140792 0 0.0008109301990427949 0.064574521610992461 0 0.0008039062908267203 0.064523307121384391 0 0.00075909223376878748 0.064477530256850907 0 0.0008039062908267203 0.064523307121384391 0 0.00089118250276475682 0.064497962256811259 0 0.0008109301990427949 0.064574521610992461 0 0.0008039062908267203 0.064523307121384391 0 0.00086452064225301479 0.064537174121665791 0 0.0008039062908267203 0.064523307121384391 0 0.00086452064225301479 0.064537174121665791 0 0.00089118250276475682 0.064497962256811259 0 0.00086452064225301479 0.064537174121665791 0 0.00089118250276475682 0.064497962256811259 0 0.00088988773070635503 0.064516135446659559 0 0.0008109301990427949 0.064574521610992461 0 0.00086452064225301479 0.064537174121665791 0 0.00086307769732524851 0.064576615964877793 0 0.00086307769732524851 0.064576615964877793 0 0.00089045104995985191 0.064555415706468194 0 0.00090014259031720922 0.064579198815392147 0 0.00086452064225301479 0.064537174121665791 0 0.00086307769732524851 0.064576615964877793 0 0.00089045104995985191 0.064555415706468194 0 0.0051572704293442913 0.055102561313227841 0 0.005129817729301594 0.055066566252273227 0 0.0052005395879961775 0.055161294938504385 0 0.00089045104995985191 0.064555415706468194 0 0.00090093791086406374 0.064531981456329296 0 0.00092506886946283021 0.064553249881948285 0 0.00089045104995985191 0.064555415706468194 0 0.00092506886946283021 0.064553249881948285 0 0.00090014259031720922 0.064579198815392147 0 0.002852693533726532 0.060088376981165939 0 0.0037527085074296682 0.057444200344165509 0 0.00093938426750487147 0.064512463063058675 0 0.00089118250276475682 0.064497962256811259 0 0.0010797846543114922 0.064501646069265922 0 0.00093938426750487147 0.064512463063058675 0 0.00096571361064970516 0.064517168324071478 0 0.0010797846543114922 0.064501646069265922 0 0.002852693533726532 0.060088376981165939 0 0.0025361266168201033 0.061116987605281267 0 0.005129817729301594 0.055066566252273227 0 0.0052515193111186999 0.055269684168748258 0 0.0052005395879961775 0.055161294938504385 0 0.00086452064225301479 0.064537174121665791 0 0.00090093791086406374 0.064531981456329296 0 0.00088988773070635503 0.064516135446659559 0 0.00086452064225301479 0.064537174121665791 0 0.00089045104995985191 0.064555415706468194 0 0.00090093791086406374 0.064531981456329296 0 0.00090093791086406374 0.064531981456329296 0 0.00088988773070635503 0.064516135446659559 0 0.00091147291698525637 0.064516972146730397 0 0.00090093791086406374 0.064531981456329296 0 0.00093185586440745251 0.064529008398137938 0 0.00091147291698525637 0.064516972146730397 0 0.00090093791086406374 0.064531981456329296 0 0.00093185586440745251 0.064529008398137938 0 0.00092506886946283021 0.064553249881948285 0 0.00093938426750487147 0.064512463063058675 0 0.00093185586440745251 0.064529008398137938 0 0.00091147291698525637 0.064516972146730397 0 0.00093185586440745251 0.064529008398137938 0 0.00092506886946283021 0.064553249881948285 0 0.00095674029990471801 0.064535300405442253 0 0.00095674029990471801 0.064535300405442253 0 0.00099691159122415325 0.064523731057871028 0 0.00096561879917652033 0.064552572834736935 0 0.00092506886946283021 0.064553249881948285 0 0.00095674029990471801 0.064535300405442253 0 0.00096561879917652033 0.064552572834736935 0 0.00095674029990471801 0.064535300405442253 0 0.00099691159122415325 0.064523731057871028 0 0.00096571361064970516 0.064517168324071478 0 0.00099691159122415325 0.064523731057871028 0 0.0010075846308820685 0.064543561239809449 0 0.00096561879917652033 0.064552572834736935 0 0.00093185586440745251 0.064529008398137938 0 0.00095674029990471801 0.064535300405442253 0 0.00096571361064970516 0.064517168324071478 0 0.00093938426750487147 0.064512463063058675 0 0.00093185586440745251 0.064529008398137938 0 0.00096571361064970516 0.064517168324071478 0 0.0051742814849322135 0.055120750512072908 0 0.0051572704293442913 0.055102561313227841 0 0.0052005395879961775 0.055161294938504385 0 0.0051842174405053827 0.055129526591224304 0 0.0051742814849322135 0.055120750512072908 0 0.0052005395879961775 0.055161294938504385 0 0.0051842174405053827 0.055129526591224304 0 0.0051967517732308382 0.055121138691787031 0 0.0051736808400948157 0.055107748933258885 0 0.0051742814849322135 0.055120750512072908 0 0.0051581603735992489 0.055103004405101512 0 0.0051736808400948157 0.055107748933258885 0 0.0051842174405053827 0.055129526591224304 0 0.0051742814849322135 0.055120750512072908 0 0.0051736808400948157 0.055107748933258885 0 0.0051742814849322135 0.055120750512072908 0 0.0051572704293442913 0.055102561313227841 0 0.0051581603735992489 0.055103004405101512 0 0.0051572704293442913 0.055102561313227841 0 0.0051479732672844473 0.055093015652057958 0 0.0051581603735992489 0.055103004405101512 0 0.0051572704293442913 0.055102561313227841 0 0.0051479732672844473 0.055093015652057958 0 0.005129817729301594 0.055066566252273227 0 0.0051479732672844473 0.055093015652057958 0 0.005129817729301594 0.055066566252273227 0 0.0051472883667075453 0.055095097897530615 0 0.00089118250276475682 0.064497962256811259 0 0.00088988773070635503 0.064516135446659559 0 0.00091147291698525637 0.064516972146730397 0 0.00093938426750487147 0.064512463063058675 0 0.00089118250276475682 0.064497962256811259 0 0.00091147291698525637 0.064516972146730397 0 0.00084615279173387732 0.064320873580609311 0 0.0010797846543114922 0.064501646069265922 0 0.0011076606745304988 0.064462328711773181 0 0.0052515193111186999 0.055269684168748258 0 0.0053005048370778751 0.05520571274262346 0 0.0053818535085561553 0.05521678859816502 0 0.0011108340236945036 0.064508576934404427 0 0.0011076606745304988 0.064462328711773181 0 0.0011535845162856946 0.064520120240957463 0 0.0011108340236945036 0.064508576934404427 0 0.0010797846543114922 0.064501646069265922 0 0.0011076606745304988 0.064462328711773181 0 0.0052515193111186999 0.055269684168748258 0 0.0052372685526854527 0.055208356147630921 0 0.0052622446368423958 0.055202734533590259 0 0.0052515193111186999 0.055269684168748258 0 0.0052622446368423958 0.055202734533590259 0 0.0053005048370778751 0.05520571274262346 0 0.00099691159122415325 0.064523731057871028 0 0.00096571361064970516 0.064517168324071478 0 0.0010797846543114922 0.064501646069265922 0 0.00099691159122415325 0.064523731057871028 0 0.0010797846543114922 0.064501646069265922 0 0.0010334360452823033 0.064529920396096604 0 0.00099691159122415325 0.064523731057871028 0 0.0010075846308820685 0.064543561239809449 0 0.0010334360452823033 0.064529920396096604 0 0.0052515193111186999 0.055269684168748258 0 0.0052005395879961775 0.055161294938504385 0 0.0052372685526854527 0.055208356147630921 0 0.0052005395879961775 0.055161294938504385 0 0.0051967517732308382 0.055121138691787031 0 0.005220500390295606 0.055136435404049132 0 0.0051842174405053827 0.055129526591224304 0 0.0052005395879961775 0.055161294938504385 0 0.0051967517732308382 0.055121138691787031 0 0.005220500390295606 0.055136435404049132 0 0.005238539164589608 0.05516552975222113 0 0.005258370404309827 0.05511152205242284 0 0.0052005395879961775 0.055161294938504385 0 0.005220500390295606 0.055136435404049132 0 0.005238539164589608 0.05516552975222113 0 0.0052005395879961775 0.055161294938504385 0 0.005238539164589608 0.05516552975222113 0 0.0052372685526854527 0.055208356147630921 0 0.005238539164589608 0.05516552975222113 0 0.0052372685526854527 0.055208356147630921 0 0.0052622446368423958 0.055202734533590259 0 0.0052622446368423958 0.055202734533590259 0 0.0052819462833056264 0.055164643935824841 0 0.0053005048370778751 0.05520571274262346 0 0.005238539164589608 0.05516552975222113 0 0.0052622446368423958 0.055202734533590259 0 0.0052819462833056264 0.055164643935824841 0 0.005238539164589608 0.05516552975222113 0 0.0052819462833056264 0.055164643935824841 0 0.005258370404309827 0.05511152205242284 0 0.0052819462833056264 0.055164643935824841 0 0.005258370404309827 0.05511152205242284 0 0.0053414989044890324 0.055084311776201822 0 0.0052819462833056264 0.055164643935824841 0 0.0053443136696117947 0.055160576102035647 0 0.0053414989044890324 0.055084311776201822 0 0.0053443136696117947 0.055160576102035647 0 0.0053005048370778751 0.05520571274262346 0 0.0053818535085561553 0.05521678859816502 0 0.0052819462833056264 0.055164643935824841 0 0.0053443136696117947 0.055160576102035647 0 0.0053005048370778751 0.05520571274262346 0 0.0053414989044890324 0.055084311776201822 0 0.0052825828843997471 0.055043889577579511 0 0.005364058452027344 0.054940495374693726 0 0.0052825828843997471 0.055043889577579511 0 0.0052593744172553629 0.054998446910280087 0 0.005364058452027344 0.054940495374693726 0 0.005258370404309827 0.05511152205242284 0 0.0053414989044890324 0.055084311776201822 0 0.0052825828843997471 0.055043889577579511 0 0.005258370404309827 0.05511152205242284 0 0.0052825828843997471 0.055043889577579511 0 0.0052259328633052346 0.055085241077743513 0 0.0052825828843997471 0.055043889577579511 0 0.0052259328633052346 0.055085241077743513 0 0.0052593744172553629 0.054998446910280087 0 0.0052259328633052346 0.055085241077743513 0 0.0051994435567372047 0.055057915443826468 0 0.0052593744172553629 0.054998446910280087 0 0.0051967517732308382 0.055121138691787031 0 0.005220500390295606 0.055136435404049132 0 0.0052259328633052346 0.055085241077743513 0 0.005220500390295606 0.055136435404049132 0 0.005258370404309827 0.05511152205242284 0 0.0052259328633052346 0.055085241077743513 0 0.0051967517732308382 0.055121138691787031 0 0.0052259328633052346 0.055085241077743513 0 0.0051919920546620963 0.05509474812712916 0 0.0051967517732308382 0.055121138691787031 0 0.0051919920546620963 0.05509474812712916 0 0.0051736808400948157 0.055107748933258885 0 0.0051919920546620963 0.05509474812712916 0 0.0051994435567372047 0.055057915443826468 0 0.0051684180038272442 0.055094411591807904 0 0.0052259328633052346 0.055085241077743513 0 0.0051919920546620963 0.05509474812712916 0 0.0051994435567372047 0.055057915443826468 0 0.0051994435567372047 0.055057915443826468 0 0.0051825489564793145 0.055076470207044557 0 0.0052285399244950577 0.055002854969523174 0 0.0051994435567372047 0.055057915443826468 0 0.0052593744172553629 0.054998446910280087 0 0.0052285399244950577 0.055002854969523174 0 0.0052593744172553629 0.054998446910280087 0 0.0053079418475045076 0.05490505419171033 0 0.005364058452027344 0.054940495374693726 0 0.0052593744172553629 0.054998446910280087 0 0.0053079418475045076 0.05490505419171033 0 0.0052285399244950577 0.055002854969523174 0 0.0051803437854851166 0.055134187449689571 0 0.005129817729301594 0.055066566252273227 0 0.0051526200377073972 0.055105983758826312 0 0.0051535423676734617 0.055108247006265487 0 0.0051526200377073972 0.055105983758826312 0 0.0051511290906751488 0.055100607490200397 0 0.0051576860233117335 0.055122167030501858 0 0.0051535423676734617 0.055108247006265487 0 0.0051526200377073972 0.055105983758826312 0 0.0051803437854851166 0.055134187449689571 0 0.0051576860233117335 0.055122167030501858 0 0.0051526200377073972 0.055105983758826312 0 0.005129817729301594 0.055066566252273227 0 0.0051526200377073972 0.055105983758826312 0 0.0051472883667075453 0.055095097897530615 0 0.0051526200377073972 0.055105983758826312 0 0.0051472883667075453 0.055095097897530615 0 0.0051511290906751488 0.055100607490200397 0 0.0051479732672844473 0.055093015652057958 0 0.0051472883667075453 0.055095097897530615 0 0.0051511290906751488 0.055100607490200397 0 0.0051479732672844473 0.055093015652057958 0 0.0051511290906751488 0.055100607490200397 0 0.0051581603735992489 0.055103004405101512 0 0.0051581603735992489 0.055103004405101512 0 0.0051585435689434538 0.055101375617647962 0 0.0051736808400948157 0.055107748933258885 0 0.0051511290906751488 0.055100607490200397 0 0.0051581603735992489 0.055103004405101512 0 0.0051585435689434538 0.055101375617647962 0 0.0051919920546620963 0.05509474812712916 0 0.0051736808400948157 0.055107748933258885 0 0.0051684180038272442 0.055094411591807904 0 0.0051585435689434538 0.055101375617647962 0 0.0051736808400948157 0.055107748933258885 0 0.0051684180038272442 0.055094411591807904 0 0.0051535423676734617 0.055108247006265487 0 0.0051585435689434538 0.055101375617647962 0 0.0051684180038272442 0.055094411591807904 0 0.0051535423676734617 0.055108247006265487 0 0.0051684180038272442 0.055094411591807904 0 0.005162742523020342 0.05510171624102992 0 0.0051535423676734617 0.055108247006265487 0 0.0051511290906751488 0.055100607490200397 0 0.0051585435689434538 0.055101375617647962 0 0.0051535423676734617 0.055108247006265487 0 0.005162742523020342 0.05510171624102992 0 0.0051544231055182469 0.055147158145873794 0 0.0051994435567372047 0.055057915443826468 0 0.005162742523020342 0.05510171624102992 0 0.0051825489564793145 0.055076470207044557 0 0.0051994435567372047 0.055057915443826468 0 0.0051684180038272442 0.055094411591807904 0 0.005162742523020342 0.05510171624102992 0 0.005162742523020342 0.05510171624102992 0 0.0051825489564793145 0.055076470207044557 0 0.0051600407175969526 0.055133486980633487 0 0.005162742523020342 0.05510171624102992 0 0.0051600407175969526 0.055133486980633487 0 0.0051544231055182469 0.055147158145873794 0 0.0051600407175969526 0.055133486980633487 0 0.0051544231055182469 0.055147158145873794 0 0.0051541237537962659 0.055207425817297255 0 0.0051803437854851166 0.055134187449689571 0 0.0051544231055182469 0.055147158145873794 0 0.0051740392222984098 0.055245402102888176 0 0.0051576860233117335 0.055122167030501858 0 0.0051535423676734617 0.055108247006265487 0 0.0051544231055182469 0.055147158145873794 0 0.0051803437854851166 0.055134187449689571 0 0.0051576860233117335 0.055122167030501858 0 0.0051544231055182469 0.055147158145873794 0 0.0051541237537962659 0.055207425817297255 0 0.0051447577766096904 0.055387961649910972 0 0.0051740392222984098 0.055245402102888176 0 0.0051544231055182469 0.055147158145873794 0 0.0051541237537962659 0.055207425817297255 0 0.0051740392222984098 0.055245402102888176 0 0.0051600407175969526 0.055133486980633487 0 0.0051541237537962659 0.055207425817297255 0 0.00517971855336427 0.055117906644354127 0 0.0051825489564793145 0.055076470207044557 0 0.0051600407175969526 0.055133486980633487 0 0.00517971855336427 0.055117906644354127 0 0.0051541237537962659 0.055207425817297255 0 0.00517971855336427 0.055117906644354127 0 0.0051708229595225589 0.055240696935695374 0 0.00517971855336427 0.055117906644354127 0 0.0051708229595225589 0.055240696935695374 0 0.0052305178884177869 0.05504960873471354 0 0.0051708229595225589 0.055240696935695374 0 0.0052305178884177869 0.05504960873471354 0 0.0052405278832815183 0.055198030823210807 0 0.0051541237537962659 0.055207425817297255 0 0.0051708229595225589 0.055240696935695374 0 0.0051447577766096904 0.055387961649910972 0 0.0051708229595225589 0.055240696935695374 0 0.0051447577766096904 0.055387961649910972 0 0.00515071381488504 0.055452004416035448 0 0.0053079418475045076 0.05490505419171033 0 0.0053018101970931366 0.054887519191031742 0 0.0054337004784458876 0.054713901180946274 0 0.0053079418475045076 0.05490505419171033 0 0.0053018101970931366 0.054887519191031742 0 0.0052285399244950577 0.055002854969523174 0 0.00517971855336427 0.055117906644354127 0 0.0052285399244950577 0.055002854969523174 0 0.0052305178884177869 0.05504960873471354 0 0.0053018101970931366 0.054887519191031742 0 0.0052285399244950577 0.055002854969523174 0 0.0052305178884177869 0.05504960873471354 0 0.0051825489564793145 0.055076470207044557 0 0.00517971855336427 0.055117906644354127 0 0.0052285399244950577 0.055002854969523174 0 0.0053018101970931366 0.054887519191031742 0 0.0052305178884177869 0.05504960873471354 0 0.0053168392852758787 0.054918849142954793 0 0.0052305178884177869 0.05504960873471354 0 0.0053168392852758787 0.054918849142954793 0 0.0052405278832815183 0.055198030823210807 0 0.0053018101970931366 0.054887519191031742 0 0.0053168392852758787 0.054918849142954793 0 0.0054504886943992923 0.054607015218588975 0 0.0053807587057413458 0.054930552693430661 0 0.0055280495359775273 0.054729955715316865 0 0.0054504886943992923 0.054607015218588975 0 0.0053168392852758787 0.054918849142954793 0 0.0053807587057413458 0.054930552693430661 0 0.0054504886943992923 0.054607015218588975 0 0.0053807587057413458 0.054930552693430661 0 0.0053383400909618149 0.055200798887928296 0 0.0052405278832815183 0.055198030823210807 0 0.0053168392852758787 0.054918849142954793 0 0.0053807587057413458 0.054930552693430661 0 0.0052405278832815183 0.055198030823210807 0 0.0053807587057413458 0.054930552693430661 0 0.0053383400909618149 0.055200798887928296 0 0.0055280495359775273 0.054729955715316865 0 0.00515071381488504 0.055452004416035448 0 0.0052405278832815183 0.055198030823210807 0 0.0051770955090103361 0.05555436127489536 0 0.00515071381488504 0.055452004416035448 0 0.0051770955090103361 0.05555436127489536 0 0.005083587257559934 0.055735959024745117 0 0.0051708229595225589 0.055240696935695374 0 0.00515071381488504 0.055452004416035448 0 0.0052405278832815183 0.055198030823210807 0 0.0053383400909618149 0.055200798887928296 0 0.0051770955090103361 0.05555436127489536 0 0.0052311828615628619 0.055601560165670361 0 0.0053383400909618149 0.055200798887928296 0 0.0052405278832815183 0.055198030823210807 0 0.0051770955090103361 0.05555436127489536 0 0.0051770955090103361 0.05555436127489536 0 0.0051095630389297406 0.055937877499152203 0 0.005083587257559934 0.055735959024745117 0 0.0051095630389297406 0.055937877499152203 0 0.0049682903526365859 0.056505310892743257 0 0.005083587257559934 0.055735959024745117 0 0.005083587257559934 0.055735959024745117 0 0.0052271362870781679 0.05545510341325547 0 0.0053071951925802632 0.055841058325333516 0 0.0049682903526365859 0.056505310892743257 0 0.005083587257559934 0.055735959024745117 0 0.0053071951925802632 0.055841058325333516 0 0.0051447577766096904 0.055387961649910972 0 0.00515071381488504 0.055452004416035448 0 0.005083587257559934 0.055735959024745117 0 0.0052538787467279052 0.055146165225209813 0 0.0052271362870781679 0.05545510341325547 0 0.0055208224547438683 0.055532750756960125 0 0.0051447577766096904 0.055387961649910972 0 0.005083587257559934 0.055735959024745117 0 0.0052271362870781679 0.05545510341325547 0 0.0052538787467279052 0.055146165225209813 0 0.0052271362870781679 0.05545510341325547 0 0.0051740392222984098 0.055245402102888176 0 0.0051447577766096904 0.055387961649910972 0 0.0052271362870781679 0.05545510341325547 0 0.0051740392222984098 0.055245402102888176 0 0.0060637227651232804 0.055333351242604592 0 0.0054595261667474207 0.055091963687166248 0 0.0055208224547438683 0.055532750756960125 0 0.0052271362870781679 0.05545510341325547 0 0.0055208224547438683 0.055532750756960125 0 0.0053071951925802632 0.055841058325333516 0 0.005982164761850998 0.056116188699514291 0 0.0055208224547438683 0.055532750756960125 0 0.0053071951925802632 0.055841058325333516 0 0.005982164761850998 0.056116188699514291 0 0.0049682903526365859 0.056505310892743257 0 0.0053071951925802632 0.055841058325333516 0 0.0033404788445305731 0.058363591818755313 0 0.0037437856168193516 0.058054183910336468 0 0.0017837220819633248 0.059217874193640281 0 0.0049682903526365859 0.056505310892743257 0 0.0036764367849475544 0.056738645407694348 0 0.0018425530153505134 0.056711306778958574 0 0.0017837220819633248 0.059217874193640281 0 0.0036764367849475544 0.056738645407694348 0 0.0036764367849475544 0.056738645407694348 0 0.0050210085571929623 0.055903897670283906 0 0.003661704853609228 0.055639104410828213 0 0.0018425530153505134 0.056711306778958574 0 0.0036764367849475544 0.056738645407694348 0 0.003661704853609228 0.055639104410828213 0 0.0051095630389297406 0.055937877499152203 0 0.0050210085571929623 0.055903897670283906 0 0.0052311828615628619 0.055601560165670361 0 0.0051095630389297406 0.055937877499152203 0 0.0049682903526365859 0.056505310892743257 0 0.0050210085571929623 0.055903897670283906 0 0.0049682903526365859 0.056505310892743257 0 0.0036764367849475544 0.056738645407694348 0 0.0050210085571929623 0.055903897670283906 0 0.0030113832604337807 0.057592097892138462 0 0.0025498986733168212 0.057685094965441164 0 0.0050210085571929623 0.055903897670283906 0 0.0051734103916167371 0.055502016586966053 0 0.0049648126688871357 0.055331870178324367 0 0.0050210085571929623 0.055903897670283906 0 0.0051734103916167371 0.055502016586966053 0 0.0052311828615628619 0.055601560165670361 0 0.0051734103916167371 0.055502016586966053 0 0.0049648126688871357 0.055331870178324367 0 0.0052082718597885498 0.055275172584999692 0 0.0050210085571929623 0.055903897670283906 0 0.0049648126688871357 0.055331870178324367 0 0.004584934559958404 0.055394980206193711 0 0.0049648126688871357 0.055331870178324367 0 0.004584934559958404 0.055394980206193711 0 0.0048028304646254476 0.055094798161971534 0 0.0049648126688871357 0.055331870178324367 0 0.0048028304646254476 0.055094798161971534 0 0.0051425578953444165 0.055101542579535458 0 0.0049648126688871357 0.055331870178324367 0 0.0051425578953444165 0.055101542579535458 0 0.0052082718597885498 0.055275172584999692 0 0.0043052980576162303 0.055128613334925178 0 0.004584934559958404 0.055394980206193711 0 0.0048028304646254476 0.055094798161971534 0 0.0017185738697450298 0.054218564596441095 0 0.0018425530153505134 0.056711306778958574 0 0.003661704853609228 0.055639104410828213 0 0.0016620966716099303 0.058452334136177418 0 0.0025498986733168212 0.057685094965441164 0 0.0043052980576162303 0.055128613334925178 0 0.0048028304646254476 0.055094798161971534 0 0.0048254362524369609 0.054786695921764002 0 0.0016620966716099303 0.058452334136177418 0 0.0035502240434313413 0.056461514699544295 0 0.00250079857322784 0.057839133609183198 0 0.002255297509835775 0.057666395732989151 0 0.0020298452050794909 0.057951571205252649 0 0.0048028304646254476 0.055094798161971534 0 0.0049846642166713993 0.054922810186210154 0 0.0048254362524369609 0.054786695921764002 0 0.0048028304646254476 0.055094798161971534 0 0.0049846642166713993 0.054922810186210154 0 0.0051425578953444165 0.055101542579535458 0 0.0042321325247308469 0.055715959288966353 0 0.0035502240434313413 0.056461514699544295 0 0.0049846642166713993 0.054922810186210154 0 0.0048254362524369609 0.054786695921764002 0 0.0050689298373614066 0.054822329907480184 0 0.0028003078677751548 0.054289983168417967 0 0.002255297509835775 0.057666395732989151 0 0.0020298452050794909 0.057951571205252649 0 0.001866044558970956 0.057778618507339154 0 0.0018809904353060392 0.057775887751680778 0 0.0017152108276975422 0.060031378713478009 0 0.00093264197158433816 0.060971381238396558 0 0.0020298452050794909 0.057951571205252649 0 0.0017152108276975422 0.060031378713478009 0 0.0023427992756056074 0.058978700005355593 0 0.0020298452050794909 0.057951571205252649 0 0.0017152108276975422 0.060031378713478009 0 0.0028061736187363676 0.059407159403167986 0 0.0023427992756056074 0.058978700005355593 0 0.0028648215434830663 0.058547649344687876 0 0.0023427992756056074 0.058978700005355593 0 0.0020298452050794909 0.057951571205252649 0 0.0060314007828626689 0.054392579243741773 0 0.0054557532575393924 0.054697377524815155 0 0.0057620938524101575 0.054997241799805086 0 0.0054557532575393924 0.054697377524815155 0 0.0050689298373614066 0.054822329907480184 0 0.0054916380205624615 0.05492643068837455 0 0.0054557532575393924 0.054697377524815155 0 0.0054916380205624615 0.05492643068837455 0 0.0057620938524101575 0.054997241799805086 0 0.0048337826459367954 0.054542456372952811 0 0.0054557532575393924 0.054697377524815155 0 0.0050689298373614066 0.054822329907480184 0 0.0048337826459367954 0.054542456372952811 0 0.0048254362524369609 0.054786695921764002 0 0.0050689298373614066 0.054822329907480184 0 0.0050689298373614066 0.054822329907480184 0 0.0051360725465333665 0.054958730140311968 0 0.005350063033980338 0.055002980859970185 0 0.0050689298373614066 0.054822329907480184 0 0.005350063033980338 0.055002980859970185 0 0.0054916380205624615 0.05492643068837455 0 0.0049846642166713993 0.054922810186210154 0 0.0050689298373614066 0.054822329907480184 0 0.0051360725465333665 0.054958730140311968 0 0.0049846642166713993 0.054922810186210154 0 0.0051360725465333665 0.054958730140311968 0 0.0051425578953444165 0.055101542579535458 0 0.0051360725465333665 0.054958730140311968 0 0.0051425578953444165 0.055101542579535458 0 0.005350063033980338 0.055002980859970185 0 0.0051425578953444165 0.055101542579535458 0 0.005350063033980338 0.055002980859970185 0 0.0053618670497543189 0.055139887526478713 0 0.005350063033980338 0.055002980859970185 0 0.0054916380205624615 0.05492643068837455 0 0.0056142558741850311 0.055054769991434993 0 0.005350063033980338 0.055002980859970185 0 0.0056142558741850311 0.055054769991434993 0 0.0053618670497543189 0.055139887526478713 0 0.0054916380205624615 0.05492643068837455 0 0.0056142558741850311 0.055054769991434993 0 0.0057620938524101575 0.054997241799805086 0 0.0056142558741850311 0.055054769991434993 0 0.0054851055245058976 0.055117770774014835 0 0.0056101136741670415 0.05483294551191948 0 0.0056142558741850311 0.055054769991434993 0 0.0054851055245058976 0.055117770774014835 0 0.0053618670497543189 0.055139887526478713 0 0.0051425578953444165 0.055101542579535458 0 0.0053618670497543189 0.055139887526478713 0 0.0052082718597885498 0.055275172584999692 0 0.0054851055245058976 0.055117770774014835 0 0.0053618670497543189 0.055139887526478713 0 0.0053265433251564543 0.055314886213950192 0 0.0051734103916167371 0.055502016586966053 0 0.0053265433251564543 0.055314886213950192 0 0.0052082718597885498 0.055275172584999692 0 0.0053618670497543189 0.055139887526478713 0 0.0053265433251564543 0.055314886213950192 0 0.0052082718597885498 0.055275172584999692 0 0.0051734103916167371 0.055502016586966053 0 0.0053265433251564543 0.055314886213950192 0 0.0052311828615628619 0.055601560165670361 0 0.0053265433251564543 0.055314886213950192 0 0.0052311828615628619 0.055601560165670361 0 0.0054400642909698312 0.055150990753089615 0 0.0054851055245058976 0.055117770774014835 0 0.0053265433251564543 0.055314886213950192 0 0.0054400642909698312 0.055150990753089615 0 0.0053383400909618149 0.055200798887928296 0 0.0052311828615628619 0.055601560165670361 0 0.0054400642909698312 0.055150990753089615 0 0.0051770955090103361 0.05555436127489536 0 0.0051095630389297406 0.055937877499152203 0 0.0052311828615628619 0.055601560165670361 0 0.0054400642909698312 0.055150990753089615 0 0.0056101136741670415 0.05483294551191948 0 0.0055280495359775273 0.054729955715316865 0 0.0054851055245058976 0.055117770774014835 0 0.0054400642909698312 0.055150990753089615 0 0.0056101136741670415 0.05483294551191948 0 0.0053383400909618149 0.055200798887928296 0 0.0054400642909698312 0.055150990753089615 0 0.0055280495359775273 0.054729955715316865 0 0.0056462504845970745 0.054513942114103535 0 0.0056101136741670415 0.05483294551191948 0 0.0055280495359775273 0.054729955715316865 0 0.0056462504845970745 0.054513942114103535 0 0.0054521807756699285 0.054560250808871134 0 0.0056101136741670415 0.05483294551191948 0 0.0056462504845970745 0.054513942114103535 0 0.0054521807756699285 0.054560250808871134 0 0.0057486992663817278 0.053986988627895076 0 0.0054521807756699285 0.054560250808871134 0 0.0056101136741670415 0.05483294551191948 0 0.0054566962223297419 0.054991635487939249 0 0.0073503683736545122 0.051300558788434925 0 0.0081813939966474195 0.052815808522404008 0 0.0071995935776146989 0.052260697099031937 0 0.005589273962409211 0.05319317520513589 0 0.00431942814972736 0.051349114683453899 0 0.0056142558741850311 0.055054769991434993 0 0.0056101136741670415 0.05483294551191948 0 0.0054566962223297419 0.054991635487939249 0 0.0056142558741850311 0.055054769991434993 0 0.0057620938524101575 0.054997241799805086 0 0.0059337701358017289 0.055041836841465061 0 0.0047625150738866149 0.052209827390768695 0 0.00431942814972736 0.051349114683453899 0 0.00431942814972736 0.051349114683453899 0 0.0040383715064873215 0.050051668339183189 0 0.0022949836297836805 0.047432217030387469 0 0.0021789260257547402 0.047634085188620376 0 0.0023768193442913013 0.04775199286703867 0 0.0057620938524101575 0.054997241799805086 0 0.0059337701358017289 0.055041836841465061 0 0.0058806134122918107 0.054824025186919888 0 0.0038508548717161441 0.051517670960511512 0 0.0040383715064873215 0.050051668339183189 0 0.0060314007828626689 0.054392579243741773 0 0.0057620938524101575 0.054997241799805086 0 0.0066620792265325215 0.054499219529553049 0 0.0019732127760477428 0.047748886034130238 0 0.0019813497126393376 0.047514358961646443 0 0.0016821081230451525 0.047588607022641415 0 0.003769978751972014 0.049368835107484271 0 0.002366419232525833 0.047264804090792534 0 0.0021789260257547402 0.047634085188620376 0 0.0019732127760477428 0.047748886034130238 0 0.0019813497126393376 0.047514358961646443 0 0.0081813939966474195 0.052815808522404008 0 0.0070191441637690666 0.053380553040924483 0 0.0071995935776146989 0.052260697099031937 0 0.0022949836297836805 0.047432217030387469 0 0.0021789260257547402 0.047634085188620376 0 0.0019813497126393376 0.047514358961646443 0 0.00431942814972736 0.051349114683453899 0 0.003769978751972014 0.049368835107484271 0 0.0070191441637690666 0.053380553040924483 0 0.0061974009041598967 0.052757292192070065 0 0.0057560480258225912 0.053994615939306677 0 0.0070191441637690666 0.053380553040924483 0 0.0061974009041598967 0.052757292192070065 0 0.0071995935776146989 0.052260697099031937 0 0.0061974009041598967 0.052757292192070065 0 0.0071995935776146989 0.052260697099031937 0 0.0070552077855036413 0.051484205675288039 0 0.0061974009041598967 0.052757292192070065 0 0.0070552077855036413 0.051484205675288039 0 0.0055403275585852183 0.051114462761635809 0 0.0073503683736545122 0.051300558788434925 0 0.0071995935776146989 0.052260697099031937 0 0.0070552077855036413 0.051484205675288039 0 0.0073503683736545122 0.051300558788434925 0 0.0070552077855036413 0.051484205675288039 0 0.0078641474528764674 0.050476267931320151 0 0.0070552077855036413 0.051484205675288039 0 0.0078641474528764674 0.050476267931320151 0 0.0055403275585852183 0.051114462761635809 0 0.0078641474528764674 0.050476267931320151 0 0.0061701754545786178 0.046475850606663399 0 0.0056107488831397276 0.049245577824159989 0 0.0078641474528764674 0.050476267931320151 0 0.0081408210605633247 0.045368142115143187 0 0.011061585128551873 0.044128277323614212 0 0.0070373744079080839 0.0491239391777121 0 0.0069047473526748816 0.048564691456181114 0 0.0078641474528764674 0.050476267931320151 0 0.0081408210605633247 0.045368142115143187 0 0.0061701754545786178 0.046475850606663399 0 0.0081408210605633247 0.045368142115143187 0 0.011061585128551873 0.044128277323614212 0 0.0090061275295807708 0.042816122849541095 0 0.0081408210605633247 0.045368142115143187 0 0.0069361664035283753 0.043315184872592609 0 0.0061701754545786178 0.046475850606663399 0 0.0081408210605633247 0.045368142115143187 0 0.0069361664035283753 0.043315184872592609 0 0.0090061275295807708 0.042816122849541095 0 0.0078641474528764674 0.050476267931320151 0 0.0072742638964186672 0.054076911069018269 0 0.0062945773610241307 0.052794200543235269 0 0.0072742638964186672 0.054076911069018269 0 0.0062945773610241307 0.052794200543235269 0 0.0061530619064541466 0.054208300914201313 0 0.005589273962409211 0.05319317520513589 0 0.0058571723062457353 0.05343503033167394 0 0.0073503683736545122 0.051300558788434925 0 0.0078641474528764674 0.050476267931320151 0 0.0062945773610241307 0.052794200543235269 0 0.0062945773610241307 0.052794200543235269 0 0.0057486992663817278 0.053986988627895076 0 0.0058504720466033859 0.05385907999807199 0 0.0054521807756699285 0.054560250808871134 0 0.0062945773610241307 0.052794200543235269 0 0.0057486992663817278 0.053986988627895076 0 0.0057486992663817278 0.053986988627895076 0 0.0055280495359775273 0.054729955715316865 0 0.0054504886943992923 0.054607015218588975 0 0.0056462504845970745 0.054513942114103535 0 0.0057486992663817278 0.053986988627895076 0 0.0055280495359775273 0.054729955715316865 0 0.0054504886943992923 0.054607015218588975 0 0.0056355067203155288 0.054287242004375853 0 0.0054337004784458876 0.054713901180946274 0 0.0057486992663817278 0.053986988627895076 0 0.0054504886943992923 0.054607015218588975 0 0.0056355067203155288 0.054287242004375853 0 0.0056355067203155288 0.054287242004375853 0 0.0055977784186612206 0.054599176204700374 0 0.0054337004784458876 0.054713901180946274 0 0.0053018101970931366 0.054887519191031742 0 0.0054504886943992923 0.054607015218588975 0 0.0054337004784458876 0.054713901180946274 0 0.0062945773610241307 0.052794200543235269 0 0.0058504720466033859 0.05385907999807199 0 0.0061530619064541466 0.054208300914201313 0 0.0057486992663817278 0.053986988627895076 0 0.0056355067203155288 0.054287242004375853 0 0.0058504720466033859 0.05385907999807199 0 0.0056355067203155288 0.054287242004375853 0 0.0058504720466033859 0.05385907999807199 0 0.0057593840503777378 0.054545092454966783 0 0.0056355067203155288 0.054287242004375853 0 0.0055977784186612206 0.054599176204700374 0 0.0057593840503777378 0.054545092454966783 0 0.0058504720466033859 0.05385907999807199 0 0.0061530619064541466 0.054208300914201313 0 0.0057593840503777378 0.054545092454966783 0 0.0061530619064541466 0.054208300914201313 0 0.0059673864952461105 0.054751628840438042 0 0.0057593840503777378 0.054545092454966783 0 0.0061530619064541466 0.054208300914201313 0 0.0059673864952461105 0.054751628840438042 0 0.0063037946559408682 0.054878488281588415 0 0.0057593840503777378 0.054545092454966783 0 0.0057574262905628918 0.054891812567517816 0 0.0055504418522799295 0.054823028501309594 0 0.0059673864952461105 0.054751628840438042 0 0.0057593840503777378 0.054545092454966783 0 0.0057574262905628918 0.054891812567517816 0 0.0059673864952461105 0.054751628840438042 0 0.0057574262905628918 0.054891812567517816 0 0.0059518893532769243 0.055012934913325096 0 0.0057574262905628918 0.054891812567517816 0 0.0056062867817308921 0.055042643067802793 0 0.0057724285003516711 0.055111897022722553 0 0.0057574262905628918 0.054891812567517816 0 0.0059518893532769243 0.055012934913325096 0 0.0057724285003516711 0.055111897022722553 0 0.0059673864952461105 0.054751628840438042 0 0.0059518893532769243 0.055012934913325096 0 0.0063037946559408682 0.054878488281588415 0 0.0059518893532769243 0.055012934913325096 0 0.0061102323255384791 0.055135478313349709 0 0.0063037946559408682 0.054878488281588415 0 0.0053079418475045076 0.05490505419171033 0 0.0054337004784458876 0.054713901180946274 0 0.005364058452027344 0.054940495374693726 0 0.0054337004784458876 0.054713901180946274 0 0.005364058452027344 0.054940495374693726 0 0.0055504418522799295 0.054823028501309594 0 0.0055977784186612206 0.054599176204700374 0 0.0057593840503777378 0.054545092454966783 0 0.0055504418522799295 0.054823028501309594 0 0.0055977784186612206 0.054599176204700374 0 0.0054337004784458876 0.054713901180946274 0 0.0055504418522799295 0.054823028501309594 0 0.0055504418522799295 0.054823028501309594 0 0.0056062867817308921 0.055042643067802793 0 0.0054597662423256565 0.055033278023044731 0 0.0057574262905628918 0.054891812567517816 0 0.0055504418522799295 0.054823028501309594 0 0.0056062867817308921 0.055042643067802793 0 0.005364058452027344 0.054940495374693726 0 0.0055504418522799295 0.054823028501309594 0 0.0054597662423256565 0.055033278023044731 0 0.0053414989044890324 0.055084311776201822 0 0.005364058452027344 0.054940495374693726 0 0.0054597662423256565 0.055033278023044731 0 0.0037527085074296682 0.057444200344165509 0 0.0044148003909056082 0.05309156308225655 0 0.0052515193111186999 0.055269684168748258 0 0.0056370193958233897 0.05536124574282044 0 0.0054955048294087856 0.055277388275107656 0 0.0011076606745304988 0.064462328711773181 0 0.0013355857168986488 0.064504667427626616 0 0.0011535845162856946 0.064520120240957463 0 0.0052515193111186999 0.055269684168748258 0 0.0056370193958233897 0.05536124574282044 0 0.005866121045834974 0.055561962420669943 0 0.0053818535085561553 0.05521678859816502 0 0.0054182220689796383 0.055141445490764225 0 0.0054774914416164328 0.055209169830453583 0 0.0053443136696117947 0.055160576102035647 0 0.0053818535085561553 0.05521678859816502 0 0.0054182220689796383 0.055141445490764225 0 0.0053443136696117947 0.055160576102035647 0 0.0053414989044890324 0.055084311776201822 0 0.0054182220689796383 0.055141445490764225 0 0.0053414989044890324 0.055084311776201822 0 0.0054597662423256565 0.055033278023044731 0 0.0054182220689796383 0.055141445490764225 0 0.0054597662423256565 0.055033278023044731 0 0.0054182220689796383 0.055141445490764225 0 0.0055277641034241921 0.055150829705705007 0 0.0053818535085561553 0.05521678859816502 0 0.0054774914416164328 0.055209169830453583 0 0.0054955048294087856 0.055277388275107656 0 0.0054182220689796383 0.055141445490764225 0 0.0054774914416164328 0.055209169830453583 0 0.0055277641034241921 0.055150829705705007 0 0.0054774914416164328 0.055209169830453583 0 0.0055473496532350937 0.055230410073615122 0 0.0054955048294087856 0.055277388275107656 0 0.0055473496532350937 0.055230410073615122 0 0.0055277641034241921 0.055150829705705007 0 0.0056380312497725307 0.055226050647543698 0 0.0055473496532350937 0.055230410073615122 0 0.0056380312497725307 0.055226050647543698 0 0.0056031217509828323 0.055287364616622675 0 0.0054774914416164328 0.055209169830453583 0 0.0055473496532350937 0.055230410073615122 0 0.0055277641034241921 0.055150829705705007 0 0.0056062867817308921 0.055042643067802793 0 0.0054597662423256565 0.055033278023044731 0 0.0055277641034241921 0.055150829705705007 0 0.0056062867817308921 0.055042643067802793 0 0.0055277641034241921 0.055150829705705007 0 0.0056380312497725307 0.055226050647543698 0 0.0056062867817308921 0.055042643067802793 0 0.0056380312497725307 0.055226050647543698 0 0.0057724285003516711 0.055111897022722553 0 0.0056820545020815419 0.055307190636225412 0 0.0056370193958233897 0.05536124574282044 0 0.005744933261081114 0.055349328214697562 0 0.0056380312497725307 0.055226050647543698 0 0.0056820545020815419 0.055307190636225412 0 0.0057868340728899088 0.0552796429633262 0 0.0056380312497725307 0.055226050647543698 0 0.0056820545020815419 0.055307190636225412 0 0.0056031217509828323 0.055287364616622675 0 0.0056820545020815419 0.055307190636225412 0 0.0056370193958233897 0.05536124574282044 0 0.0056031217509828323 0.055287364616622675 0 0.0056370193958233897 0.05536124574282044 0 0.0056031217509828323 0.055287364616622675 0 0.0054955048294087856 0.055277388275107656 0 0.0055473496532350937 0.055230410073615122 0 0.0056031217509828323 0.055287364616622675 0 0.0054955048294087856 0.055277388275107656 0 0.0052515193111186999 0.055269684168748258 0 0.0053818535085561553 0.05521678859816502 0 0.0054955048294087856 0.055277388275107656 0 0.0060771132816329378 0.055308142746035446 0 0.0063267768641282829 0.055111892422761384 0 0.0060729871158881829 0.055621670108974709 0 0.0061102323255384791 0.055135478313349709 0 0.0060771132816329378 0.055308142746035446 0 0.0063267768641282829 0.055111892422761384 0 0.0059220900037188886 0.055201570503195296 0 0.0059066117862519203 0.055330741875223341 0 0.0060771132816329378 0.055308142746035446 0 0.0061102323255384791 0.055135478313349709 0 0.0059220900037188886 0.055201570503195296 0 0.0060771132816329378 0.055308142746035446 0 0.0059518893532769243 0.055012934913325096 0 0.0061102323255384791 0.055135478313349709 0 0.0059220900037188886 0.055201570503195296 0 0.0059518893532769243 0.055012934913325096 0 0.0057724285003516711 0.055111897022722553 0 0.0059220900037188886 0.055201570503195296 0 0.0056380312497725307 0.055226050647543698 0 0.0057724285003516711 0.055111897022722553 0 0.0057868340728899088 0.0552796429633262 0 0.0057724285003516711 0.055111897022722553 0 0.0059220900037188886 0.055201570503195296 0 0.0057868340728899088 0.0552796429633262 0 0.0059220900037188886 0.055201570503195296 0 0.0059066117862519203 0.055330741875223341 0 0.0057868340728899088 0.0552796429633262 0 0.0059066117862519203 0.055330741875223341 0 0.0058233861963620194 0.055357658871841756 0 0.0057868340728899088 0.0552796429633262 0 0.0056370193958233897 0.05536124574282044 0 0.0058042353767498098 0.055431576796838862 0 0.005866121045834974 0.055561962420669943 0 0.0059066117862519203 0.055330741875223341 0 0.0058233861963620194 0.055357658871841756 0 0.0058837107642457078 0.055416934015230991 0 0.0056820545020815419 0.055307190636225412 0 0.0057868340728899088 0.0552796429633262 0 0.005744933261081114 0.055349328214697562 0 0.0058233861963620194 0.055357658871841756 0 0.0057868340728899088 0.0552796429633262 0 0.005744933261081114 0.055349328214697562 0 0.0056370193958233897 0.05536124574282044 0 0.005744933261081114 0.055349328214697562 0 0.0058042353767498098 0.055431576796838862 0 0.0058233861963620194 0.055357658871841756 0 0.005744933261081114 0.055349328214697562 0 0.0058042353767498098 0.055431576796838862 0 0.0059066117862519203 0.055330741875223341 0 0.0058837107642457078 0.055416934015230991 0 0.0059605754144719247 0.055445880074993299 0 0.0058042353767498098 0.055431576796838862 0 0.0058837107642457078 0.055416934015230991 0 0.005866121045834974 0.055561962420669943 0 0.0058837107642457078 0.055416934015230991 0 0.0059605754144719247 0.055445880074993299 0 0.005866121045834974 0.055561962420669943 0 0.0058233861963620194 0.055357658871841756 0 0.0058042353767498098 0.055431576796838862 0 0.0058837107642457078 0.055416934015230991 0 0.0059605754144719247 0.055445880074993299 0 0.0060771132816329378 0.055308142746035446 0 0.0060729871158881829 0.055621670108974709 0 0.0059066117862519203 0.055330741875223341 0 0.0059605754144719247 0.055445880074993299 0 0.0060771132816329378 0.055308142746035446 0 0.0057107179348157584 0.04813392155956487 0 0.0040310485452039833 0.050097381730965028 0 0.012295711937358282 0.039463978098909627 0 0.0097355114577477812 0.037484301133043248 0 0.010278319306791616 0.040927720548493814 0 0.0057107179348157584 0.04813392155956487 0 0.004344793578664536 0.045291221264490755 0 0.012295711937358282 0.039463978098909627 0 0.0097355114577477812 0.037484301133043248 0 0.0095305765982286617 0.034336911978839611 0 0.010278319306791616 0.040927720548493814 0 0.0085440117970467903 0.034390758397842024 0 0.0071600320247946795 0.036614890603993241 0 0.0097355114577477812 0.037484301133043248 0 0.010278319306791616 0.040927720548493814 0 0.0068047006342174905 0.035123619252294368 0 0.010278319306791616 0.040927720548493814 0 0.0071600320247946795 0.036614890603993241 0 0.0069146504059485513 0.038839765007393751 0 0.0083043737044595761 0.03743920867698363 0 0.0070178991377169344 0.034469036306991406 0 0.010278319306791616 0.040927720548493814 0 0.0077501231665847844 0.04128709969121757 0 0.0069146504059485513 0.038839765007393751 0 0.0069361664035283753 0.043315184872592609 0 0.0077501231665847844 0.04128709969121757 0 0.0090061275295807708 0.042816122849541095 0 0.011061585128551873 0.044128277323614212 0 0.010278319306791616 0.040927720548493814 0 0.0090061275295807708 0.042816122849541095 0 0.010278319306791616 0.040927720548493814 0 0.0077501231665847844 0.04128709969121757 0 0.0090061275295807708 0.042816122849541095 0 0.0069047473526748816 0.048564691456181114 0 0.0057107179348157584 0.04813392155956487 0 0.011061585128551873 0.044128277323614212 0 0.012295711937358282 0.039463978098909627 0 0.010278319306791616 0.040927720548493814 0 0.0072742638964186672 0.054076911069018269 0 0.006540960635203423 0.055511940787086399 0 0.0063037946559408682 0.054878488281588415 0 0.0072742638964186672 0.054076911069018269 0 0.0061530619064541466 0.054208300914201313 0 0.0063037946559408682 0.054878488281588415 0 0.0061102323255384791 0.055135478313349709 0 0.0063267768641282829 0.055111892422761384 0 0.0063037946559408682 0.054878488281588415 0 0.0057107179348157584 0.04813392155956487 0 0.0059747939340516936 0.048999677295241746 0 0.0022312038490753775 0.0476740372505388 0 0.0022115212014721126 0.047727925194177893 0 0.0021666718202731322 0.047630779190023016 0 0.0022312038490753775 0.0476740372505388 0 0.0022076173230357117 0.047629884244906287 0 0.0021666718202731322 0.047630779190023016 0 0.0022312038490753775 0.0476740372505388 0 0.0022115212014721126 0.047727925194177893 0 0.0022404547271000523 0.047709069546239775 0 0.0022312038490753775 0.0476740372505388 0 0.0022404547271000523 0.047709069546239775 0 0.0022625771132986582 0.047697775003737904 0 0.0022312038490753775 0.0476740372505388 0 0.002264901644369511 0.047665841440145074 0 0.00224958663147584 0.047636891220691202 0 0.0022312038490753775 0.0476740372505388 0 0.0022076173230357117 0.047629884244906287 0 0.00224958663147584 0.047636891220691202 0 0.0022312038490753775 0.0476740372505388 0 0.0022625771132986582 0.047697775003737904 0 0.002264901644369511 0.047665841440145074 0 0.0065402175147763961 0.033977248265753629 0 0.0068047006342174905 0.035123619252294368 0 0.0039657681284639397 0.030473866967172532 0 0.004344793578664536 0.045291221264490755 0 0.0023113988657656962 0.040976390983015712 0 0.0065402175147763961 0.033977248265753629 0 0.00622165175921594 0.030671088986857057 0 0.0039657681284639397 0.030473866967172532 0 0.0065402175147763961 0.033977248265753629 0 0.0084153202164473292 0.034525492292242901 0 0.00622165175921594 0.030671088986857057 0 0.0070178991377169344 0.034469036306991406 0 0.0048049480959198483 0.029949778371155152 0 0.0065402175147763961 0.033977248265753629 0 0.0068047006342174905 0.035123619252294368 0 0.0095305765982286617 0.034336911978839611 0 0.0045184607417806258 0.044718659849775126 0 0.004344793578664536 0.045291221264490755 0 0.0085440117970467903 0.034390758397842024 0 0.0071600320247946795 0.036614890603993241 0 0.006275318391380875 0.034443604625915641 0 0.0097355114577477812 0.037484301133043248 0 0.0068047006342174905 0.035123619252294368 0 0.0095305765982286617 0.034336911978839611 0 0.0059086931801060382 0.048316795981839855 0 0.0055884553889958 0.047509607185529733 0 0.0061619514679841485 0.047679840618416805 0 0.0022115212014721126 0.047727925194177893 0 0.0022404547271000523 0.047709069546239775 0 0.0022693176331262241 0.04774415777127012 0 0.004344793578664536 0.045291221264490755 0 0.0040310485452039833 0.050097381730965028 0 0.0022404547271000523 0.047709069546239775 0 0.0022693176331262241 0.04774415777127012 0 0.0022625771132986582 0.047697775003737904 0 0.0022198647374680673 0.047927452819634855 0 0.0022931299390333312 0.047948198073201581 0 0.0023009346282871 0.047683746821392078 0 0.0044148003909056082 0.05309156308225655 0 0.0014130895886944367 0.054326564714957365 0 0.0040310485452039833 0.050097381730965028 0 0.0044148003909056082 0.05309156308225655 0 0.0059605754144719247 0.055445880074993299 0 0.0060729871158881829 0.055621670108974709 0 0.005866121045834974 0.055561962420669943 0 0.0013355857168986488 0.064504667427626616 0 0.0011535845162856946 0.064520120240957463 0 0.0012143629216539089 0.064590280804390277 0 0.0013355857168986488 0.064504667427626616 0 0.0012143629216539089 0.064590280804390277 0 0.0012325067929302811 0.064727531205935537 0 0.0011535845162856946 0.064520120240957463 0 0.0012143629216539089 0.064590280804390277 0 0.0011370129009619493 0.064614057997059104 0 0.0012143629216539089 0.064590280804390277 0 0.0012325067929302811 0.064727531205935537 0 0.0011370129009619493 0.064614057997059104 0 0.0012325067929302811 0.064727531205935537 0 0.0010544129909260546 0.064689112213667424 0 0.0011370129009619493 0.064614057997059104 0 0.0040310485452039833 0.050097381730965028 0 0.0038846878450279451 0.049054547043139905 0 0.0022693176331262241 0.04774415777127012 0 0.0022625771132986582 0.047697775003737904 0 0.0023009346282871 0.047683746821392078 0 0.0022931299390333312 0.047948198073201581 0 0.0023643641915531066 0.047685025190263082 0 0.0023009346282871 0.047683746821392078 0 0.0023643641915531066 0.047685025190263082 0 0.0023009346282871 0.047683746821392078 0 0.002303429915338045 0.047633810717431946 0 0.0023009346282871 0.047683746821392078 0 0.002264901644369511 0.047665841440145074 0 0.002303429915338045 0.047633810717431946 0 0.0022625771132986582 0.047697775003737904 0 0.0023009346282871 0.047683746821392078 0 0.002264901644369511 0.047665841440145074 0 0.002264901644369511 0.047665841440145074 0 0.002303429915338045 0.047633810717431946 0 0.00224958663147584 0.047636891220691202 0 0.002303429915338045 0.047633810717431946 0 0.0023942598696519851 0.047557427721548563 0 0.0022650302058974769 0.047580995906094083 0 0.002303429915338045 0.047633810717431946 0 0.0022650302058974769 0.047580995906094083 0 0.00224958663147584 0.047636891220691202 0 0.0023643641915531066 0.047685025190263082 0 0.002303429915338045 0.047633810717431946 0 0.0023942598696519851 0.047557427721548563 0 0.0012325067929302811 0.064727531205935537 0 0.0011404781094541943 0.064921568368727978 0 0.0010537541470510088 0.064825033333260965 0 0.0014130895886944367 0.054326564714957365 0 0.00020793069565626057 0.049499599026068444 0 0.00020793069565626057 0.049499599026068444 0 0.0013598901441544888 0.044219377211813522 0 0.00017884765503912401 0.038216341635849388 0 0.000601567371071291 0.038274155774684931 0 0.00060629054403903376 0.038443993628187033 0 0.000601567371071291 0.038274155774684931 0 0.00057199768792176966 0.038303365977775311 0 0.00060629054403903376 0.038443993628187033 0 0.000601567371071291 0.038274155774684931 0 0.00057199768792176966 0.038303365977775311 0 0.00056545315447186189 0.038474107819969509 0 0.00057199768792176966 0.038303365977775311 0 0.00046339022956080845 0.038313383993955751 0 0.00051165599850691351 0.038341948491379868 0 0.0022650302058974769 0.047580995906094083 0 0.0022076173230357117 0.047629884244906287 0 0.0021514791219580322 0.047589603475788139 0 0.0013598901441544888 0.044219377211813522 0 0.0014911685836259143 0.040107868176050811 0 0.0022650302058974769 0.047580995906094083 0 0.0022076173230357117 0.047629884244906287 0 0.00224958663147584 0.047636891220691202 0 0.00622165175921594 0.030671088986857057 0 0.0051760567835458246 0.029257456999765716 0 0.0039657681284639397 0.030473866967172532 0 0.0023113988657656962 0.040976390983015712 0 0.0014911685836259143 0.040107868176050811 0 0.0022076173230357117 0.047629884244906287 0 0.0021666718202731322 0.047630779190023016 0 0.0021514791219580322 0.047589603475788139 0 0.00059928592814763022 0.03822386002167575 0 0.00078421261538757906 0.034694691811031964 0 -4.4273301063642984e-05 0.037768019130877767 0 0.00056545315447186189 0.038474107819969509 0 0.00059928592814763022 0.03822386002167575 0 -4.4273301063642984e-05 0.037768019130877767 0 0.00057199768792176966 0.038303365977775311 0 0.00056545315447186189 0.038474107819969509 0 0.00059928592814763022 0.03822386002167575 0 0.0014911685836259143 0.040107868176050811 0 0.00079232296458623991 0.035491219830191961 0 0.00059928592814763022 0.03822386002167575 0 0.00046339022956080845 0.038313383993955751 0 0.00025908538489779619 0.038307256207829321 0 0.00057199768792176966 0.038303365977775311 0 0.00059928592814763022 0.03822386002167575 0 0.00046339022956080845 0.038313383993955751 0 0.00052129993775375076 0.036561390394144126 0 0.00038403233877597865 0.035684624385650503 0 0.00059928592814763022 0.03822386002167575 0 0.00025908538489779619 0.038307256207829321 0 -0.00018408066602643465 0.038291119497082686 0 0.00046339022956080845 0.038313383993955751 0 0.00025908538489779619 0.038307256207829321 0 0.00051165599850691351 0.038341948491379868 0 0.00025908538489779619 0.038307256207829321 0 0.00051165599850691351 0.038341948491379868 0 0.00030451258410377473 0.038109545703606515 0 0.00025908538489779619 0.038307256207829321 0 -0.00018408066602643465 0.038291119497082686 0 0.00030451258410377473 0.038109545703606515 0 0.00051165599850691351 0.038341948491379868 0 0.00058809131305742808 0.038291816783251546 0 0.00060629054403903376 0.038443993628187033 0 0.00057199768792176966 0.038303365977775311 0 0.00051165599850691351 0.038341948491379868 0 0.00060629054403903376 0.038443993628187033 0 0.00051165599850691351 0.038341948491379868 0 0.00058809131305742808 0.038291816783251546 0 0.00030451258410377473 0.038109545703606515 0 0.00058809131305742808 0.038291816783251546 0 0.00048547033327465435 0.037737944455356442 0 0.00069002730873795031 0.03858125400462635 0 0.00058809131305742808 0.038291816783251546 0 0.00048547033327465435 0.037737944455356442 0 0.00030451258410377473 0.038109545703606515 0 -0.00018408066602643465 0.038291119497082686 0 -4.4517746633045199e-05 0.037365807773686789 0 -0.0011229555586932502 0.036367863602785523 0 -0.00018408066602643465 0.038291119497082686 0 0.00030451258410377473 0.038109545703606515 0 -4.4517746633045199e-05 0.037365807773686789 0 0.00048547033327465435 0.037737944455356442 0 0.00030451258410377473 0.038109545703606515 0 -4.4517746633045199e-05 0.037365807773686789 0 0.00048547033327465435 0.037737944455356442 0 -4.4517746633045199e-05 0.037365807773686789 0 0.00012481222534547738 0.035758968475799714 0 -4.4517746633045199e-05 0.037365807773686789 0 0.00012481222534547738 0.035758968475799714 0 -0.0011229555586932502 0.036367863602785523 0 0.00048547033327465435 0.037737944455356442 0 0.00012481222534547738 0.035758968475799714 0 0.00047653241845869543 0.037615158347404538 0 0.00048547033327465435 0.037737944455356442 0 0.00047653241845869543 0.037615158347404538 0 0.00069002730873795031 0.03858125400462635 0 1.8514635874478089e-06 0.034672992320372117 0 1.0042123730031865e-06 0.038248179724484306 0 0.00047653241845869543 0.037615158347404538 0 0.00012481222534547738 0.035758968475799714 0 1.8514635874478089e-06 0.034672992320372117 0 0.00047653241845869543 0.037615158347404538 0 0.00012481222534547738 0.035758968475799714 0 1.8514635874478089e-06 0.034672992320372117 0 -4.4820657656403163e-06 0.03110408710462086 0 1.0042123730031865e-06 0.038248179724484306 0 0.00046378756273538808 0.040094480400489352 0 -5.8384010317901027e-07 0.041822626645003622 0 1.0042123730031865e-06 0.038248179724484306 0 0.00047653241845869543 0.037615158347404538 0 0.00046378756273538808 0.040094480400489352 0 0.00047653241845869543 0.037615158347404538 0 0.00046378756273538808 0.040094480400489352 0 0.00069002730873795031 0.03858125400462635 0 0.00046378756273538808 0.040094480400489352 0 0.00040579609590332303 0.038791054819837363 0 -0.00036249543093882911 0.039146897208389549 0 0.00046378756273538808 0.040094480400489352 0 0.00069002730873795031 0.03858125400462635 0 0.00040579609590332303 0.038791054819837363 0 0.00069002730873795031 0.03858125400462635 0 0.00060629054403903376 0.038443993628187033 0 0.00040579609590332303 0.038791054819837363 0 0.00058809131305742808 0.038291816783251546 0 0.00069002730873795031 0.03858125400462635 0 0.00060629054403903376 0.038443993628187033 0 0.00017884765503912401 0.038216341635849388 0 0.00060629054403903376 0.038443993628187033 0 0.00040579609590332303 0.038791054819837363 0 -0.0030446585464331262 0.049526649180915559 0 -0.0022086912082707462 0.047392382975516137 0 -0.00076402649884220225 0.049053992695146105 0 0.00017884765503912401 0.038216341635849388 0 0.00040579609590332303 0.038791054819837363 0 -0.00036249543093882911 0.039146897208389549 0 0.00020793069565626057 0.049499599026068444 0 0.00027659884027884176 0.044725461431907081 0 -0.0022086912082707462 0.047392382975516137 0 7.8949867970744289e-05 0.047064452840557533 0 -0.00076402649884220225 0.049053992695146105 0 0.00027659884027884176 0.044725461431907081 0 0.00018125562962814203 0.043881599514159451 0 -0.0022086912082707462 0.047392382975516137 0 -0.00065633728441634616 0.043549428985856516 0 7.8949867970744289e-05 0.047064452840557533 0 0.00046378756273538808 0.040094480400489352 0 -0.00036249543093882911 0.039146897208389549 0 -0.00065633728441634616 0.043549428985856516 0 -0.00065633728441634616 0.043549428985856516 0 -5.8384010317901027e-07 0.041822626645003622 0 -8.4380826683752322e-08 0.045396747131019335 0 0.00046378756273538808 0.040094480400489352 0 -0.00065633728441634616 0.043549428985856516 0 -5.8384010317901027e-07 0.041822626645003622 0 -8.4380826683752322e-08 0.045396747131019335 0 0.00020028526574644939 0.045771942980237172 0 8.5096485554099526e-07 0.048970909215173428 0 -0.00065633728441634616 0.043549428985856516 0 -8.4380826683752322e-08 0.045396747131019335 0 0.00020028526574644939 0.045771942980237172 0 0.00020028526574644939 0.045771942980237172 0 0.000661760395905449 0.047460099203594314 0 7.8949867970744289e-05 0.047064452840557533 0 -0.00065633728441634616 0.043549428985856516 0 0.00020028526574644939 0.045771942980237172 0 7.8949867970744289e-05 0.047064452840557533 0 0.00020028526574644939 0.045771942980237172 0 0.000661760395905449 0.047460099203594314 0 8.5096485554099526e-07 0.048970909215173428 0 0.000661760395905449 0.047460099203594314 0 0.00082945013122135498 0.048455720168969658 0 0.0008664061682551235 0.048416141584593009 0 0.000661760395905449 0.047460099203594314 0 7.8949867970744289e-05 0.047064452840557533 0 0.00082945013122135498 0.048455720168969658 0 7.8949867970744289e-05 0.047064452840557533 0 0.00082945013122135498 0.048455720168969658 0 -0.00076402649884220225 0.049053992695146105 0 0.00069238587613672156 0.065052638089411571 0 0.00075118982205177017 0.064878934250266848 0 0.00055381051524679365 0.06496024108846403 0 0.00066049190002936606 0.064870076880618702 0 0.00056752982532778788 0.064826351958449532 0 0.00075118982205177017 0.064878934250266848 0 0.00076584406584768506 0.064770401231823399 0 0.00061326240186932194 0.064779521338532015 0 0.00075118982205177017 0.064878934250266848 0 0.00092283031763473863 0.064801253738909742 0 0.00076584406584768506 0.064770401231823399 0 0.00075118982205177017 0.064878934250266848 0 0.00092074730125886884 0.064985788770646549 0 0.00092283031763473863 0.064801253738909742 0 0.00069238587613672156 0.065052638089411571 0 0.00075118982205177017 0.064878934250266848 0 0.00092074730125886884 0.064985788770646549 0 0.00037325419251830978 0.056113013559323938 0 -0.00023732677704413918 0.053945001603281348 0 0.00020793069565626057 0.049499599026068444 0 -0.00023732677704413918 0.053945001603281348 0 0.0011404781094541943 0.064921568368727978 0 0.00092074730125886884 0.064985788770646549 0 0.0010537541470510088 0.064825033333260965 0 0.00092074730125886884 0.064985788770646549 0 0.0010537541470510088 0.064825033333260965 0 0.00092283031763473863 0.064801253738909742 0 0.00092283031763473863 0.064801253738909742 0 0.00094780951518649587 0.064688708227166131 0 0.00085228284012867821 0.064690982847632306 0 0.00092283031763473863 0.064801253738909742 0 0.00094780951518649587 0.064688708227166131 0 0.0010544129909260546 0.064689112213667424 0 0.00094780951518649587 0.064688708227166131 0 0.0010544129909260546 0.064689112213667424 0 0.0009968015759420619 0.064605563347589476 0 0.00094780951518649587 0.064688708227166131 0 0.00092251329098895583 0.064639779608315601 0 0.00085228284012867821 0.064690982847632306 0 0.0010537541470510088 0.064825033333260965 0 0.00092283031763473863 0.064801253738909742 0 0.0010544129909260546 0.064689112213667424 0 0.0012325067929302811 0.064727531205935537 0 0.0010537541470510088 0.064825033333260965 0 0.0010544129909260546 0.064689112213667424 0 0.0010544129909260546 0.064689112213667424 0 0.0011370129009619493 0.064614057997059104 0 0.0010680516194458635 0.064601966808078434 0 0.0011370129009619493 0.064614057997059104 0 0.0010680516194458635 0.064601966808078434 0 0.0011018519564074205 0.064548596789582052 0 0.0010544129909260546 0.064689112213667424 0 0.0010680516194458635 0.064601966808078434 0 0.0009968015759420619 0.064605563347589476 0 0.0010680516194458635 0.064601966808078434 0 0.0010504818457936478 0.064551923508046241 0 0.0009968015759420619 0.064605563347589476 0 0.0010075846308820685 0.064543561239809449 0 0.0010504818457936478 0.064551923508046241 0 0.0009968015759420619 0.064605563347589476 0 0.0010075846308820685 0.064543561239809449 0 0.0010334360452823033 0.064529920396096604 0 0.0010504818457936478 0.064551923508046241 0 0.0010797846543114922 0.064501646069265922 0 0.0010334360452823033 0.064529920396096604 0 0.0010504818457936478 0.064551923508046241 0 0.0011535845162856946 0.064520120240957463 0 0.0011370129009619493 0.064614057997059104 0 0.0011018519564074205 0.064548596789582052 0 0.0010680516194458635 0.064601966808078434 0 0.0010504818457936478 0.064551923508046241 0 0.0011018519564074205 0.064548596789582052 0 0.0010797846543114922 0.064501646069265922 0 0.0010504818457936478 0.064551923508046241 0 0.0011018519564074205 0.064548596789582052 0 0.0011108340236945036 0.064508576934404427 0 0.0010797846543114922 0.064501646069265922 0 0.0011018519564074205 0.064548596789582052 0 0.0011108340236945036 0.064508576934404427 0 0.0011535845162856946 0.064520120240957463 0 0.0011018519564074205 0.064548596789582052 0 0.00092251329098895583 0.064639779608315601 0 0.00094062436169130065 0.064588523741662879 0 0.00087844547482563145 0.064624066843312039 0 0.00094780951518649587 0.064688708227166131 0 0.00092251329098895583 0.064639779608315601 0 0.0009968015759420619 0.064605563347589476 0 0.00092251329098895583 0.064639779608315601 0 0.0009968015759420619 0.064605563347589476 0 0.00094062436169130065 0.064588523741662879 0 0.0010075846308820685 0.064543561239809449 0 0.0009968015759420619 0.064605563347589476 0 0.00097805209693936309 0.064573182609090424 0 0.0009968015759420619 0.064605563347589476 0 0.00097805209693936309 0.064573182609090424 0 0.00094062436169130065 0.064588523741662879 0 0.0010075846308820685 0.064543561239809449 0 0.00097805209693936309 0.064573182609090424 0 0.00096561879917652033 0.064552572834736935 0 0.00097805209693936309 0.064573182609090424 0 0.00096561879917652033 0.064552572834736935 0 0.00094062436169130065 0.064588523741662879 0 0.00092506886946283021 0.064553249881948285 0 0.00094062436169130065 0.064588523741662879 0 0.00090014259031720922 0.064579198815392147 0 0.00094062436169130065 0.064588523741662879 0 0.00090014259031720922 0.064579198815392147 0 0.00087844547482563145 0.064624066843312039 0 0.00092506886946283021 0.064553249881948285 0 0.00096561879917652033 0.064552572834736935 0 0.00094062436169130065 0.064588523741662879 0 0.00080755461426157882 0.064627735138751363 0 0.00073364770993629631 0.06470146571374627 0 0.00085228284012867821 0.064690982847632306 0 0.00086307769732524851 0.064576615964877793 0 0.00090014259031720922 0.064579198815392147 0 0.00087844547482563145 0.064624066843312039 0 0.00086307769732524851 0.064576615964877793 0 0.00087844547482563145 0.064624066843312039 0 0.00080755461426157882 0.064627735138751363 0 0.00087844547482563145 0.064624066843312039 0 0.00080755461426157882 0.064627735138751363 0 0.00085228284012867821 0.064690982847632306 0 0.00092251329098895583 0.064639779608315601 0 0.00087844547482563145 0.064624066843312039 0 0.00085228284012867821 0.064690982847632306 0 0.0008109301990427949 0.064574521610992461 0 0.00086307769732524851 0.064576615964877793 0 0.00080755461426157882 0.064627735138751363 0 0.00071863052962826957 0.064608698849140792 0 0.00080755461426157882 0.064627735138751363 0 0.00073364770993629631 0.06470146571374627 0 0.00071863052962826957 0.064608698849140792 0 0.00073364770993629631 0.06470146571374627 0 0.00061326240186932194 0.064779521338532015 0 0.00071863052962826957 0.064608698849140792 0 0.0008109301990427949 0.064574521610992461 0 0.00080755461426157882 0.064627735138751363 0 0.00073364770993629631 0.06470146571374627 0 0.00076584406584768506 0.064770401231823399 0 0.00061326240186932194 0.064779521338532015 0 0.00073364770993629631 0.06470146571374627 0 0.00076584406584768506 0.064770401231823399 0 0.00085228284012867821 0.064690982847632306 0 0.00092283031763473863 0.064801253738909742 0 0.00076584406584768506 0.064770401231823399 0 0.00085228284012867821 0.064690982847632306 0 0.00056752982532778788 0.064826351958449532 0 0.00042026466966064746 0.064763022294182279 0 0.00052531298526184011 0.064835199691950646 0 0.000366814851352434 0.064806247746898721 0 0.00040723762459118315 0.064935367293290649 0 0.00056920486232242475 0.064643756048415449 0 0.00071863052962826957 0.064608698849140792 0 0.00061326240186932194 0.064779521338532015 0 0.00056920486232242475 0.064643756048415449 0 0.00061326240186932194 0.064779521338532015 0 0.0004653122075425121 0.06473641204943649 0 0.00033072810304192679 0.064724696261461157 0 0.00042026466966064746 0.064763022294182279 0 0.00024491672497030343 0.064737206570258776 0 0.000366814851352434 0.064806247746898721 0 0.00025470793366631203 0.064849264165397269 0 0.00025470793366631203 0.064849264165397269 0 0.00029625266954667363 0.064905128860640163 0 0.00020371968259270457 0.064910555897454966 0 0.00029625266954667363 0.064905128860640163 0 0.0002377583714493856 0.064955895294963734 0 0.00020371968259270457 0.064910555897454966 0 0.000366814851352434 0.064806247746898721 0 0.00025470793366631203 0.064849264165397269 0 0.00029625266954667363 0.064905128860640163 0 0.000366814851352434 0.064806247746898721 0 0.00029625266954667363 0.064905128860640163 0 0.00040723762459118315 0.064935367293290649 0 0.00029625266954667363 0.064905128860640163 0 0.00029288193916371651 0.064989831168427839 0 0.00040723762459118315 0.064935367293290649 0 0.00029625266954667363 0.064905128860640163 0 0.0002377583714493856 0.064955895294963734 0 0.00029288193916371651 0.064989831168427839 0 0.0002377583714493856 0.064955895294963734 0 0.00029288193916371651 0.064989831168427839 0 0.0002053441680675218 0.065004628100840012 0 0.00029288193916371651 0.064989831168427839 0 0.00022716691782308134 0.065059002830856777 0 0.0002053441680675218 0.065004628100840012 0 0.00029288193916371651 0.064989831168427839 0 0.00022716691782308134 0.065059002830856777 0 0.00030732608768610525 0.065053811059487543 0 0.00029288193916371651 0.064989831168427839 0 0.00036958863668318346 0.065009258715146873 0 0.00040723762459118315 0.064935367293290649 0 0.00029288193916371651 0.064989831168427839 0 0.00036958863668318346 0.065009258715146873 0 0.00030732608768610525 0.065053811059487543 0 0.00036958863668318346 0.065009258715146873 0 0.00030732608768610525 0.065053811059487543 0 0.00039491569387708922 0.065066515050641233 0 0.0004395090537618907 0.065011624155629527 0 0.00055381051524679365 0.06496024108846403 0 0.00047845114984986078 0.065093353542961502 0 0.0004395090537618907 0.065011624155629527 0 0.00040723762459118315 0.064935367293290649 0 0.00055381051524679365 0.06496024108846403 0 0.00036958863668318346 0.065009258715146873 0 0.0004395090537618907 0.065011624155629527 0 0.00039491569387708922 0.065066515050641233 0 0.00036958863668318346 0.065009258715146873 0 0.0004395090537618907 0.065011624155629527 0 0.00040723762459118315 0.064935367293290649 0 0.00075118982205177017 0.064878934250266848 0 0.00052531298526184011 0.064835199691950646 0 0.00055381051524679365 0.06496024108846403 0 0.00052531298526184011 0.064835199691950646 0 0.00040723762459118315 0.064935367293290649 0 0.00055381051524679365 0.06496024108846403 0 0.00069238587613672156 0.065052638089411571 0 0.00055381051524679365 0.06496024108846403 0 0.00047845114984986078 0.065093353542961502 0 0.00037325419251830978 0.056113013559323938 0 0.00058704782464799772 0.057868524616654857 0 0.00082945013122135498 0.048455720168969658 0 0.00079195235824836767 0.048411703477597968 0 0.0008664061682551235 0.048416141584593009 0 0.00079195235824836767 0.048411703477597968 0 0.00036261912024229003 0.049183747696145967 0 -0.00055133420350445483 0.048604740522903235 0 0.00058704782464799772 0.057868524616654857 0 0.00038070039604198874 0.060444140139498621 0 0.0004395090537618907 0.065011624155629527 0 0.00047845114984986078 0.065093353542961502 0 0.00039491569387708922 0.065066515050641233 0 0.00079195235824836767 0.048411703477597968 0 0.00036261912024229003 0.049183747696145967 0 0.0008664061682551235 0.048416141584593009 0 0.00036261912024229003 0.049183747696145967 0 0.0008664061682551235 0.048416141584593009 0 0.00057907580103788801 0.04950645936994516 0 0.000661760395905449 0.047460099203594314 0 0.0008664061682551235 0.048416141584593009 0 0.00057907580103788801 0.04950645936994516 0 0.000661760395905449 0.047460099203594314 0 0.00057907580103788801 0.04950645936994516 0 8.5096485554099526e-07 0.048970909215173428 0 0.00057907580103788801 0.04950645936994516 0 2.4257045143319213e-06 0.052546388235508577 0 -6.260780292733064e-05 0.050670887685404994 0 0.00036261912024229003 0.049183747696145967 0 0.00057907580103788801 0.04950645936994516 0 -6.260780292733064e-05 0.050670887685404994 0 0.00057907580103788801 0.04950645936994516 0 2.4257045143319213e-06 0.052546388235508577 0 8.5096485554099526e-07 0.048970909215173428 0 -0.00034249125324297536 0.05270608220770806 0 -5.9916129542608588e-06 0.056114460719692304 0 -0.0027622848012829565 0.052695346541022696 0 -1.7306508037978091e-06 0.056123234668628744 0 -0.00037956767697951968 0.057238530124143705 0 2.4257045143319213e-06 0.052546388235508577 0 -0.00034249125324297536 0.05270608220770806 0 -6.260780292733064e-05 0.050670887685404994 0 2.4257045143319213e-06 0.052546388235508577 0 -0.00034249125324297536 0.05270608220770806 0 -5.9916129542608588e-06 0.056114460719692304 0 -0.00034249125324297536 0.05270608220770806 0 -0.0016757608916063409 0.051159854199944052 0 -0.0027622848012829565 0.052695346541022696 0 -6.260780292733064e-05 0.050670887685404994 0 -0.0016757608916063409 0.051159854199944052 0 -0.0018847421175260534 0.049540071970726372 0 -0.00034249125324297536 0.05270608220770806 0 -6.260780292733064e-05 0.050670887685404994 0 -0.0016757608916063409 0.051159854199944052 0 0.00036618494851098869 0.059851808248553004 0 0.00038070039604198874 0.060444140139498621 0 -6.260780292733064e-05 0.050670887685404994 0 -0.0018847421175260534 0.049540071970726372 0 -0.00055133420350445483 0.048604740522903235 0 0.00022120734838015503 0.065147201416307088 0 0.00030359843138677025 0.06508464096218991 0 0.00022078102480085988 0.065114615019555511 0 0.00036261912024229003 0.049183747696145967 0 -6.260780292733064e-05 0.050670887685404994 0 -0.00055133420350445483 0.048604740522903235 0 0.00047845114984986078 0.065093353542961502 0 0.00031745758535544141 0.065099751318179688 0 0.00039491569387708922 0.065066515050641233 0 0.00030732608768610525 0.065053811059487543 0 0.00030945913651090441 0.065114761621495487 0 0.00039491569387708922 0.065066515050641233 0 0.00038070039604198874 0.060444140139498621 0 -0.00010514754018756634 0.06121003457024686 0 0.00030945913651090441 0.065114761621495487 0 0.00022078102480085988 0.065114615019555511 0 0.00025562453547492924 0.06508857741205136 0 0.00038070039604198874 0.060444140139498621 0 0.00013218227560626261 0.060975391175725348 0 0.00022078102480085988 0.065114615019555511 0 0.00025562453547492924 0.06508857741205136 0 0.00021362863381289116 0.065092267505410403 0 0.00030732608768610525 0.065053811059487543 0 0.00030945913651090441 0.065114761621495487 0 0.00025562453547492924 0.06508857741205136 0 0.00022716691782308134 0.065059002830856777 0 0.00030732608768610525 0.065053811059487543 0 0.00025562453547492924 0.06508857741205136 0 0.00022716691782308134 0.065059002830856777 0 0.00025562453547492924 0.06508857741205136 0 0.00021362863381289116 0.065092267505410403 0 0.00022716691782308134 0.065059002830856777 0 0.00021362863381289116 0.065092267505410403 0 0.00017625745416905895 0.065086808264316176 0 0.00022716691782308134 0.065059002830856777 0 0.00017625745416905895 0.065086808264316176 0 0.0001607030663070009 0.065048257412021776 0 0.00017625745416905895 0.065086808264316176 0 0.00013120901877600291 0.065077941256395752 0 0.0001607030663070009 0.065048257412021776 0 0.00017625745416905895 0.065086808264316176 0 0.00014827153066822307 0.065120358523183056 0 0.00018745940329065609 0.065118644366695164 0 0.00017625745416905895 0.065086808264316176 0 0.00014827153066822307 0.065120358523183056 0 0.00013120901877600291 0.065077941256395752 0 0.00021362863381289116 0.065092267505410403 0 0.00017625745416905895 0.065086808264316176 0 0.00018745940329065609 0.065118644366695164 0 0.00022078102480085988 0.065114615019555511 0 0.00021362863381289116 0.065092267505410403 0 0.00018745940329065609 0.065118644366695164 0 0.00014827153066822307 0.065120358523183056 0 7.7755827066234418e-05 0.065092928330312202 0 0.00013120901877600291 0.065077941256395752 0 7.7755827066234418e-05 0.065092928330312202 0 0.00013120901877600291 0.065077941256395752 0 9.5851559422482189e-05 0.065040534683454068 0 0.00010473363764949651 0.060987258351631345 0 0.00042059598163872767 0.063161018117322859 0 0.00014827153066822307 0.065120358523183056 0 7.7755827066234418e-05 0.065092928330312202 0 0.00015047310064826694 0.065185119383580667 0 -0.00011648797795293928 0.06480149788989871 0 -9.3521879210724788e-05 0.064786237990305862 0 -3.1677566379753691e-06 0.064852510950804396 0 -2.5699085714634337e-05 0.064946625463246671 0 -0.00011648797795293928 0.06480149788989871 0 -3.1677566379753691e-06 0.064852510950804396 0 0.00091607046288863492 0.063792212227835765 0 0.00043625133959440205 0.06025839097846037 0 0.00036618494851098869 0.059851808248553004 0 0.00043625133959440205 0.06025839097846037 0 0.00022120734838015503 0.065147201416307088 0 0.00017520464127253828 0.065145872659725448 0 0.00015047310064826694 0.065185119383580667 0 -0.0016757608916063409 0.051159854199944052 0 -0.0018847421175260534 0.049540071970726372 0 -0.00389645003215932 0.050677260177044686 0 0.00014827153066822307 0.065120358523183056 0 0.00017520464127253828 0.065145872659725448 0 0.00015047310064826694 0.065185119383580667 0 0.00022120734838015503 0.065147201416307088 0 0.00018745940329065609 0.065118644366695164 0 0.00017520464127253828 0.065145872659725448 0 0.00022120734838015503 0.065147201416307088 0 0.00022078102480085988 0.065114615019555511 0 0.00018745940329065609 0.065118644366695164 0 0.00014827153066822307 0.065120358523183056 0 0.00018745940329065609 0.065118644366695164 0 0.00017520464127253828 0.065145872659725448 0 -0.0016757608916063409 0.051159854199944052 0 -0.00389645003215932 0.050677260177044686 0 -0.0027622848012829565 0.052695346541022696 0 0.00013312929665530867 0.058505241674833348 0 0.0001561331438270189 0.058452372401304097 0 -1.7135995936155216e-05 0.058331055500874682 0 0.00043625133959440205 0.06025839097846037 0 -0.00037956767697951968 0.057238530124143705 0 0.00014042530145377797 0.058509771873928723 0 0.0001561331438270189 0.058452372401304097 0 -1.7135995936155216e-05 0.058331055500874682 0 1.7345364773649699e-05 0.061739018146150862 0 -1.0046185055858097e-06 0.061751724415384041 0 -8.1610747421097574e-06 0.061726422552091924 0 0.00043625133959440205 0.06025839097846037 0 0.00010473363764949651 0.060987258351631345 0 0.00014042530145377797 0.058509771873928723 0 0.0001561331438270189 0.058452372401304097 0 0.00019285584800345982 0.058474813047684752 0 0.0001561331438270189 0.058452372401304097 0 8.2418611655017389e-05 0.058327326503077391 0 5.3580637997998072e-05 0.058486605302889579 0 8.9395744901756943e-05 0.060967313916770793 0 0.00010473363764949651 0.060987258351631345 0 0.00010473363764949651 0.060987258351631345 0 0.00010796664759170079 0.06160086847875583 0 8.2418611655017389e-05 0.058327326503077391 0 -0.00052182025940076019 0.058439913260790996 0 5.3580637997998072e-05 0.058486605302889579 0 0.00013312929665530867 0.058505241674833348 0 5.3580637997998072e-05 0.058486605302889579 0 0.00022987351835677551 0.058816165817132469 0 -0.00052182025940076019 0.058439913260790996 0 5.3580637997998072e-05 0.058486605302889579 0 0.00022987351835677551 0.058816165817132469 0 0.00013312929665530867 0.058505241674833348 0 0.0001561331438270189 0.058452372401304097 0 5.3580637997998072e-05 0.058486605302889579 0 -0.00052182025940076019 0.058439913260790996 0 0.00022987351835677551 0.058816165817132469 0 2.1026865961751391e-08 0.060031072155301783 0 0.00010796664759170079 0.06160086847875583 0 -3.2795905779662422e-07 0.06003965187453645 0 -1.671036425483455e-08 0.056127896746637033 0 0.00022987351835677551 0.058816165817132469 0 2.1026865961751391e-08 0.060031072155301783 0 -1.671036425483455e-08 0.056127896746637033 0 0.00022987351835677551 0.058816165817132469 0 -1.7135995936155216e-05 0.058331055500874682 0 0.00013312929665530867 0.058505241674833348 0 0.00022987351835677551 0.058816165817132469 0 -1.7135995936155216e-05 0.058331055500874682 0 -7.3042428452954798e-07 0.060043215619957097 0 5.0283581200909446e-07 0.064996597499876421 0 -2.5674012972290531e-05 0.064294281937451833 0 5.0283581200909446e-07 0.064996597499876421 0 -2.053581919687008e-05 0.064848540634759422 0 -2.6390898407164221e-07 0.065001334643519634 0 5.0283581200909446e-07 0.064996597499876421 0 -2.5674012972290531e-05 0.064294281937451833 0 -2.053581919687008e-05 0.064848540634759422 0 -2.5674012972290531e-05 0.064294281937451833 0 -0.00017596269418652521 0.064538513308583387 0 -2.053581919687008e-05 0.064848540634759422 0 -2.8186416619084281e-05 0.062288761471076613 0 -3.1420111189054831e-05 0.062126435665433646 0 -0.00028296115132688112 0.062191272116538736 0 -7.3042428452954798e-07 0.060043215619957097 0 0.00017322514739695087 0.062162215325733079 0 -7.3042428452954798e-07 0.060043215619957097 0 -2.5674012972290531e-05 0.064294281937451833 0 0.00017322514739695087 0.062162215325733079 0 0.00010796664759170079 0.06160086847875583 0 -3.1420111189054831e-05 0.062126435665433646 0 0.00010796664759170079 0.06160086847875583 0 0.00042059598163872767 0.063161018117322859 0 -0.00017596269418652521 0.064538513308583387 0 -0.00018858264532349559 0.064781471108910679 0 -2.053581919687008e-05 0.064848540634759422 0 -0.00032745434370706983 0.064724847553861001 0 -0.00018858264532349559 0.064781471108910679 0 -0.00020683019210083597 0.064944215178565148 0 -0.00032745434370706983 0.064724847553861001 0 -0.00017596269418652521 0.064538513308583387 0 -0.00018858264532349559 0.064781471108910679 0 -0.00018858264532349559 0.064781471108910679 0 -2.053581919687008e-05 0.064848540634759422 0 -0.00020683019210083597 0.064944215178565148 0 -2.053581919687008e-05 0.064848540634759422 0 -5.9069851661010086e-05 0.064974830592638172 0 -2.6390898407164221e-07 0.065001334643519634 0 -2.053581919687008e-05 0.064848540634759422 0 -5.9069851661010086e-05 0.064974830592638172 0 -0.00020683019210083597 0.064944215178565148 0 0.00023174118570182503 0.064190549271371092 0 0.00042059598163872767 0.063161018117322859 0 0.00042059598163872767 0.063161018117322859 0 0.00050419439028312246 0.064276271451971664 0 -2.5699085714634337e-05 0.064946625463246671 0 -3.1677566379753691e-06 0.064852510950804396 0 3.7382041090374584e-06 0.06497953711674212 0 2.7052486504661672e-06 0.064992292283439265 0 1.238649575704741e-05 0.064994303967911921 0 3.7382041090374584e-06 0.06497953711674212 0 2.7052486504661672e-06 0.064992292283439265 0 -1.2040881801653056e-08 0.064999934692799993 0 3.7382041090374584e-06 0.06497953711674212 0 0.00023174118570182503 0.064190549271371092 0 1.0012655784036562e-06 0.064997714764538833 0 9.5497311566478076e-06 0.065003262368193843 0 2.2871160925231778e-08 0.065000033048022349 0 3.7382041090374584e-06 0.06497953711674212 0 -1.2040881801653056e-08 0.064999934692799993 0 2.2871160925231778e-08 0.065000033048022349 0 3.7382041090374584e-06 0.06497953711674212 0 9.5497311566478076e-06 0.065003262368193843 0 2.2871160925231778e-08 0.065000033048022349 0 1.3250156068922465e-05 0.064979087734811397 0 9.5497311566478076e-06 0.065003262368193843 0 3.763596775018673e-05 0.064981740222184892 0 1.3250156068922465e-05 0.064979087734811397 0 9.5497311566478076e-06 0.065003262368193843 0 3.763596775018673e-05 0.064981740222184892 0 7.4223985999141516e-05 0.064998838844233547 0 7.7755827066234418e-05 0.065092928330312202 0 9.5497311566478076e-06 0.065003262368193843 0 9.5851559422482189e-05 0.065040534683454068 0 -2.5699085714634337e-05 0.064946625463246671 0 9.5497311566478076e-06 0.065003262368193843 0 3.7382041090374584e-06 0.06497953711674212 0 0.00091607046288863492 0.063792212227835765 0 0.0007793696494978004 0.064330571361042699 0 9.5497311566478076e-06 0.065003262368193843 0 9.5851559422482189e-05 0.065040534683454068 0 7.4223985999141516e-05 0.064998838844233547 0 0.00013120901877600291 0.065077941256395752 0 9.5851559422482189e-05 0.065040534683454068 0 0.0001607030663070009 0.065048257412021776 0 9.5851559422482189e-05 0.065040534683454068 0 0.0001607030663070009 0.065048257412021776 0 0.00013395713545532142 0.06500213176136406 0 9.5851559422482189e-05 0.065040534683454068 0 7.4223985999141516e-05 0.064998838844233547 0 0.00013395713545532142 0.06500213176136406 0 0.00022716691782308134 0.065059002830856777 0 0.0001607030663070009 0.065048257412021776 0 0.0002053441680675218 0.065004628100840012 0 0.0001607030663070009 0.065048257412021776 0 0.0002053441680675218 0.065004628100840012 0 0.00013395713545532142 0.06500213176136406 0 0.0002377583714493856 0.064955895294963734 0 0.0002053441680675218 0.065004628100840012 0 0.00017684616561442851 0.064965615308684457 0 0.0002053441680675218 0.065004628100840012 0 0.00017684616561442851 0.064965615308684457 0 0.00013395713545532142 0.06500213176136406 0 0.00017684616561442851 0.064965615308684457 0 0.00013395713545532142 0.06500213176136406 0 0.00010184733050053959 0.064957117281948251 0 0.0002377583714493856 0.064955895294963734 0 0.00017684616561442851 0.064965615308684457 0 0.00020371968259270457 0.064910555897454966 0 3.763596775018673e-05 0.064981740222184892 0 7.4223985999141516e-05 0.064998838844233547 0 0.00010184733050053959 0.064957117281948251 0 7.4223985999141516e-05 0.064998838844233547 0 0.00013395713545532142 0.06500213176136406 0 0.00010184733050053959 0.064957117281948251 0 3.763596775018673e-05 0.064981740222184892 0 0.00010184733050053959 0.064957117281948251 0 4.7485497329776459e-05 0.064939173605264813 0 0.00010184733050053959 0.064957117281948251 0 0.00013601202187499397 0.06488102461115626 0 4.7485497329776459e-05 0.064939173605264813 0 0.00010184733050053959 0.064957117281948251 0 0.00020371968259270457 0.064910555897454966 0 0.00013601202187499397 0.06488102461115626 0 0.00025470793366631203 0.064849264165397269 0 0.00020371968259270457 0.064910555897454966 0 0.00013601202187499397 0.06488102461115626 0 0.00017684616561442851 0.064965615308684457 0 0.00010184733050053959 0.064957117281948251 0 0.00020371968259270457 0.064910555897454966 0 3.1652416591550374e-05 0.064835129779701392 0 0.00024491672497030343 0.064737206570258776 0 0.00013601202187499397 0.06488102461115626 0 0.00024491672497030343 0.064737206570258776 0 0.00025470793366631203 0.064849264165397269 0 0.00013601202187499397 0.06488102461115626 0 3.1652416591550374e-05 0.064835129779701392 0 0.00013601202187499397 0.06488102461115626 0 4.7485497329776459e-05 0.064939173605264813 0 3.1652416591550374e-05 0.064835129779701392 0 1.6804743018425992e-05 0.064935908865325812 0 4.7485497329776459e-05 0.064939173605264813 0 1.6804743018425992e-05 0.064935908865325812 0 -8.059925076778964e-09 0.064999899698441652 0 1.3250156068922465e-05 0.064979087734811397 0 2.2871160925231778e-08 0.065000033048022349 0 -8.059925076778964e-09 0.064999899698441652 0 1.3250156068922465e-05 0.064979087734811397 0 3.763596775018673e-05 0.064981740222184892 0 1.3250156068922465e-05 0.064979087734811397 0 4.7485497329776459e-05 0.064939173605264813 0 1.6804743018425992e-05 0.064935908865325812 0 1.3250156068922465e-05 0.064979087734811397 0 4.7485497329776459e-05 0.064939173605264813 0 0.0034906308843939654 0.0015215149469744837 0 0.0038172647260396107 0.00020197753477979984 0 0.0018442968614770124 0.0020400777006170474 0 -0.0027073677572823475 0.012934461445266695 0 -0.0066418743154101571 0.015799477830772311 0 0.0034906308843939654 0.0015215149469744837 0 0.0018442968614770124 0.0020400777006170474 0 0.003122665550705991 0.0028995863483030171 0 0.0034906308843939654 0.0015215149469744837 0 0.0041528865624506509 0.0017812562526412516 0 0.0037715517388879731 0.0024997110263928293 0 0.0034906308843939654 0.0015215149469744837 0 0.0041528865624506509 0.0017812562526412516 0 0.0040881981682549329 0.0012866379094170341 0 0.0034906308843939654 0.0015215149469744837 0 0.0040881981682549329 0.0012866379094170341 0 0.004097672518583631 0.0012414113535588369 0 0.0042011086562447108 0.0015188440206033694 0 0.0040881981682549329 0.0012866379094170341 0 0.004097672518583631 0.0012414113535588369 0 -0.021658110665164775 0.034985809528079177 0 -0.019150523576805651 0.035712322754061089 0 -0.018180168984710914 0.03021855640268814 0 -0.021658110665164775 0.034985809528079177 0 -0.019150523576805651 0.035712322754061089 0 -0.019759826292603932 0.038635153278086039 0 -0.0016699301175972601 0.0094535121340950778 0 -0.0027073677572823475 0.012934461445266695 0 -0.019150523576805651 0.035712322754061089 0 -0.016834412347495272 0.034960483346627852 0 -0.018180168984710914 0.03021855640268814 0 -0.019150523576805651 0.035712322754061089 0 -0.016834412347495272 0.034960483346627852 0 -0.017187170442017174 0.037855155139969954 0 -0.016834412347495272 0.034960483346627852 0 -0.014113244566762604 0.037019315960230594 0 -0.017187170442017174 0.037855155139969954 0 -0.01454364551672473 0.033742110663201715 0 -0.014113244566762604 0.037019315960230594 0 -0.010783711544047586 0.035444827150331197 0 -0.016834412347495272 0.034960483346627852 0 -0.01454364551672473 0.033742110663201715 0 -0.014113244566762604 0.037019315960230594 0 -0.013955451411952176 0.031044482694677075 0 -0.018180168984710914 0.03021855640268814 0 -0.012920207636403641 0.028066474244730234 0 -0.01454364551672473 0.033742110663201715 0 -0.013955451411952176 0.031044482694677075 0 -0.018180168984710914 0.03021855640268814 0 -0.01454364551672473 0.033742110663201715 0 -0.013955451411952176 0.031044482694677075 0 -0.011142539649744376 0.031872997909190418 0 -0.013955451411952176 0.031044482694677075 0 -0.012920207636403641 0.028066474244730234 0 -0.011142539649744376 0.031872997909190418 0 -0.016834412347495272 0.034960483346627852 0 -0.01454364551672473 0.033742110663201715 0 -0.018180168984710914 0.03021855640268814 0 0.0018442968614770124 0.0020400777006170474 0 0.0019599639184902339 0.0039928191280766551 0 -0.00067395080871877401 0.0052416186045766882 0 -0.0066418743154101571 0.015799477830772311 0 -0.0065466637753512609 0.0150567898377692 0 0.0018442968614770124 0.0020400777006170474 0 0.0019599639184902339 0.0039928191280766551 0 0.003122665550705991 0.0028995863483030171 0 -0.018180168984710914 0.03021855640268814 0 -0.012920207636403641 0.028066474244730234 0 -0.014233850208259312 0.024527584094984886 0 -0.00067395080871877401 0.0052416186045766882 0 0.0023066258604506834 0.0056985909008836367 0 -0.00087895945707109518 0.0084789185955191828 0 0.0019599639184902339 0.0039928191280766551 0 -0.00067395080871877401 0.0052416186045766882 0 0.0023066258604506834 0.0056985909008836367 0 0.0019599639184902339 0.0039928191280766551 0 0.0023066258604506834 0.0056985909008836367 0 0.0029808814110692484 0.0039342801952829609 0 0.000861731311525539 0.0073467257457677793 0 0.0021284905021536028 0.0063185805340771686 0 0.0018334843015222022 0.0074801188912160628 0 0.0023066258604506834 0.0056985909008836367 0 0.0029808814110692484 0.0039342801952829609 0 0.0041282061188130381 0.0032074824583218924 0 0.000861731311525539 0.0073467257457677793 0 0.0023182767240547031 0.0048004709426776628 0 0.0021284905021536028 0.0063185805340771686 0 0.0013509084981521242 0.0058882532069294124 0 0.0031444408339466848 0.0045055263035509883 0 0.0019599639184902339 0.0039928191280766551 0 0.0029808814110692484 0.0039342801952829609 0 0.003122665550705991 0.0028995863483030171 0 0.0029808814110692484 0.0039342801952829609 0 0.0034839742535985392 0.0031935834516543266 0 0.0041282061188130381 0.0032074824583218924 0 0.0034906308843939654 0.0015215149469744837 0 0.003122665550705991 0.0028995863483030171 0 0.0037715517388879731 0.0024997110263928293 0 0.0029808814110692484 0.0039342801952829609 0 0.0034839742535985392 0.0031935834516543266 0 0.003122665550705991 0.0028995863483030171 0 0.0034839742535985392 0.0031935834516543266 0 0.003122665550705991 0.0028995863483030171 0 0.0037715517388879731 0.0024997110263928293 0 0.0041528865624506509 0.0017812562526412516 0 0.0037715517388879731 0.0024997110263928293 0 0.0041282061188130381 0.0032074824583218924 0 0.0026941127017200586 0.0049712586719742671 0 0.0023182767240547031 0.0048004709426776628 0 0.0044285363839652011 0.0017035483868803999 0 0.0034839742535985392 0.0031935834516543266 0 0.0037715517388879731 0.0024997110263928293 0 0.0041282061188130381 0.0032074824583218924 0 0.0026941127017200586 0.0049712586719742671 0 0.0023182767240547031 0.0048004709426776628 0 0.0021284905021536028 0.0063185805340771686 0 0.0021284905021536028 0.0063185805340771686 0 0.0025910183576513721 0.0072144369945298954 0 0.0018334843015222022 0.0074801188912160628 0 0.0026941127017200586 0.0049712586719742671 0 0.0021284905021536028 0.0063185805340771686 0 0.0027053767038182569 0.0063044950466183466 0 0.0021284905021536028 0.0063185805340771686 0 0.0027053767038182569 0.0063044950466183466 0 0.0025910183576513721 0.0072144369945298954 0 0.0026941127017200586 0.0049712586719742671 0 0.0027053767038182569 0.0063044950466183466 0 0.0036036072682497562 0.0067167962582197101 0 0.0027053767038182569 0.0063044950466183466 0 0.0036036072682497562 0.0067167962582197101 0 0.0025910183576513721 0.0072144369945298954 0 0.0026941127017200586 0.0049712586719742671 0 0.0036036072682497562 0.0067167962582197101 0 0.0067615800497918656 0.0065580012370205481 0 0.0026941127017200586 0.0049712586719742671 0 0.004750610129555452 0.0021837531623212121 0 0.0044285363839652011 0.0017035483868803999 0 0.0037292255157565899 0.0035537200924193745 0 0.0050664776694000812 0.0034334587395879325 0 0.004750610129555452 0.0021837531623212121 0 0.0048591860042597086 0.0012623599260240428 0 0.0050656331566551385 0.00097738623577603152 0 0.004750610129555452 0.0021837531623212121 0 0.0048591860042597086 0.0012623599260240428 0 0.0044285363839652011 0.0017035483868803999 0 0.0048591860042597086 0.0012623599260240428 0 0.0044285363839652011 0.0017035483868803999 0 0.0049087793755114937 0.00049437918074706443 0 0.0031444408339466848 0.0045055263035509883 0 0.0040576505601780753 0.0037511610803353502 0 0.0041528865624506509 0.0017812562526412516 0 0.0041282061188130381 0.0032074824583218924 0 0.0044285363839652011 0.0017035483868803999 0 0.0050656331566551385 0.00097738623577603152 0 0.0052124004255713532 0.00026730347322882395 0 0.0052057755154414241 0.00053753812121821879 0 0.0052124004255713532 0.00026730347322882395 0 0.0052057755154414241 0.00053753812121821879 0 0.0052975703076889816 -0.00021955631719859309 0 0.0052124004255713532 0.00026730347322882395 0 0.0052975703076889816 -0.00021955631719859309 0 0.0052848388856329802 -0.00028349956514216754 0 0.004750610129555452 0.0021837531623212121 0 0.0050656331566551385 0.00097738623577603152 0 0.0052057755154414241 0.00053753812121821879 0 0.0050664776694000812 0.0034334587395879325 0 0.0055514597417463864 0.0024692597768648616 0 0.0048591860042597086 0.0012623599260240428 0 0.0050914005208109146 0.00062547134898582879 0 0.0049087793755114937 0.00049437918074706443 0 0.0048591860042597086 0.0012623599260240428 0 0.0050656331566551385 0.00097738623577603152 0 0.0050914005208109146 0.00062547134898582879 0 0.0050656331566551385 0.00097738623577603152 0 0.0050914005208109146 0.00062547134898582879 0 0.0052124004255713532 0.00026730347322882395 0 0.0052124004255713532 0.00026730347322882395 0 0.0051926762171872866 -4.8391814195427358e-05 0 0.0052848388856329802 -0.00028349956514216754 0 0.0050914005208109146 0.00062547134898582879 0 0.0052124004255713532 0.00026730347322882395 0 0.0051926762171872866 -4.8391814195427358e-05 0 0.0051926762171872866 -4.8391814195427358e-05 0 0.0049087793755114937 0.00049437918074706443 0 0.0050536303979966954 -0.00040391522484668784 0 0.0050914005208109146 0.00062547134898582879 0 0.0051926762171872866 -4.8391814195427358e-05 0 0.0049087793755114937 0.00049437918074706443 0 0.0049087793755114937 0.00049437918074706443 0 0.0040111117877585567 0.00083014127963163345 0 0.0048067887197140681 -0.00020321332282216277 0 0.0041528865624506509 0.0017812562526412516 0 0.0040881981682549329 0.0012866379094170341 0 0.0040111117877585567 0.00083014127963163345 0 0.0041528865624506509 0.0017812562526412516 0 0.0044285363839652011 0.0017035483868803999 0 0.0040111117877585567 0.00083014127963163345 0 0.0044285363839652011 0.0017035483868803999 0 0.0049087793755114937 0.00049437918074706443 0 0.0040111117877585567 0.00083014127963163345 0 0.0042011086562447108 0.0015188440206033694 0 0.0040881981682549329 0.0012866379094170341 0 0.0040111117877585567 0.00083014127963163345 0 0.0042011086562447108 0.0015188440206033694 0 0.0040111117877585567 0.00083014127963163345 0 0.0043716301274844722 0.0024315939268035854 0 0.0040111117877585567 0.00083014127963163345 0 0.0043716301274844722 0.0024315939268035854 0 0.0021032533712030004 0.0023877429315788067 0 0.002604796198116553 0.00054750305499396605 0 0.001965388595047681 0.00071090152127143715 0 0.0021032533712030004 0.0023877429315788067 0 0.0027456210935487228 0.0040206813986201628 0 0.00019291946179483132 0.0046384672485089342 0 0.0043716301274844722 0.0024315939268035854 0 0.0021032533712030004 0.0023877429315788067 0 0.0027456210935487228 0.0040206813986201628 0 0.0043716301274844722 0.0024315939268035854 0 0.0027456210935487228 0.0040206813986201628 0 0.0043462438274685282 0.0040288863367678738 0 0.0049087793755114937 0.00049437918074706443 0 0.0048067887197140681 -0.00020321332282216277 0 0.0050536303979966954 -0.00040391522484668784 0 0.001965388595047681 0.00071090152127143715 0 -0.00012814419572008281 0.0010942971886123275 0 0.0048067887197140681 -0.00020321332282216277 0 0.0050536303979966954 -0.00040391522484668784 0 0.0051894852150237052 -6.0068911855167411e-05 0 0.0050536303979966954 -0.00040391522484668784 0 0.0051894852150237052 -6.0068911855167411e-05 0 0.0048991882456590266 3.8088725642917558e-05 0 -0.00012814419572008281 0.0010942971886123275 0 -0.0050188308711094989 0.001736013462650689 0 0.0051894852150237052 -6.0068911855167411e-05 0 0.004942937577802742 0.00074259401831626892 0 0.0048991882456590266 3.8088725642917558e-05 0 0.00019291946179483132 0.0046384672485089342 0 0.0002003071475825167 0.0064765003247751821 0 0.0021090888401281522 0.0059966893170745866 0 0.0002003071475825167 0.0064765003247751821 0 0.0021090888401281522 0.0059966893170745866 0 0.0015413376163194708 0.007502738314415767 0 0.00019291946179483132 0.0046384672485089342 0 0.0002003071475825167 0.0064765003247751821 0 -0.0015530834729827856 0.0070570960420848093 0 0.0051894852150237052 -6.0068911855167411e-05 0 0.0050618241913475059 0.00089686610836498708 0 0.004942937577802742 0.00074259401831626892 0 -0.0050188308711094989 0.001736013462650689 0 -0.0045482658121724058 0.0020021915192895315 0 0.0043462438274685282 0.0040288863367678738 0 0.0037566847415194996 0.0054154219912909921 0 0.0053206607901261083 0.0059447281756425299 0 0.0027456210935487228 0.0040206813986201628 0 0.0043462438274685282 0.0040288863367678738 0 0.0037566847415194996 0.0054154219912909921 0 0.0027456210935487228 0.0040206813986201628 0 0.00019291946179483132 0.0046384672485089342 0 0.0021090888401281522 0.0059966893170745866 0 0.0027456210935487228 0.0040206813986201628 0 0.0037566847415194996 0.0054154219912909921 0 0.0021090888401281522 0.0059966893170745866 0 0.0021090888401281522 0.0059966893170745866 0 0.0027084536032720456 0.007388984593102106 0 0.0035205380598481218 0.0066304458249512085 0 0.0021090888401281522 0.0059966893170745866 0 0.0015413376163194708 0.007502738314415767 0 0.0027084536032720456 0.007388984593102106 0 0.0027084536032720456 0.007388984593102106 0 0.0035874899431283152 0.0074925811748212893 0 0.0035205380598481218 0.0066304458249512085 0 0.0037566847415194996 0.0054154219912909921 0 0.0021090888401281522 0.0059966893170745866 0 0.0035205380598481218 0.0066304458249512085 0 0.0037566847415194996 0.0054154219912909921 0 0.0035205380598481218 0.0066304458249512085 0 0.0044264247419937225 0.0064663364961008466 0 0.0037566847415194996 0.0054154219912909921 0 0.0044264247419937225 0.0064663364961008466 0 0.0053206607901261083 0.0059447281756425299 0 0.0035205380598481218 0.0066304458249512085 0 0.0044264247419937225 0.0064663364961008466 0 0.0043609854617411023 0.0071544893161012346 0 0.0035874899431283152 0.0074925811748212893 0 0.0035205380598481218 0.0066304458249512085 0 0.0043609854617411023 0.0071544893161012346 0 0.0042401650954770895 0.0080537840650376034 0 0.0035874899431283152 0.0074925811748212893 0 0.0043609854617411023 0.0071544893161012346 0 0.0052383790374390263 0.0079644409583145316 0 0.0043609854617411023 0.0071544893161012346 0 0.0061507459117471795 0.0069281209852549682 0 -0.00020421263923277126 0.023828551399021205 0 -0.0006292685875803599 0.024180540949645935 0 0.0044264247419937225 0.0064663364961008466 0 0.0043609854617411023 0.0071544893161012346 0 0.0050698333505134049 0.0072002166487517699 0 -0.0006292685875803599 0.024180540949645935 0 -0.0036362874888978053 0.026698758464772047 0 0.0066124028044760507 0.0080253711205350593 0 0.0061507459117471795 0.0069281209852549682 0 0.0084729804565292534 0.0069480598057447152 0 -0.0039525171236498438 0.027170409895232849 0 -0.0021967404672556035 0.027237077130322435 0 -0.0034371538832580861 0.024592317264998373 0 -0.022290547601544902 0.048503522001127959 0 -0.023479331350205673 0.045985245913511962 0 -0.020450716312069323 0.04620461573949701 0 -0.0036362874888978053 0.026698758464772047 0 -0.0021973409393058131 0.022894226249087612 0 0.0044264247419937225 0.0064663364961008466 0 0.0050698333505134049 0.0072002166487517699 0 0.0053206607901261083 0.0059447281756425299 0 -0.0006292685875803599 0.024180540949645935 0 -0.0021973409393058131 0.022894226249087612 0 -0.022290547601544902 0.048503522001127959 0 -0.020450716312069323 0.04620461573949701 0 -0.017772590606057126 0.048717903228116081 0 -0.0036362874888978053 0.026698758464772047 0 -0.0098971848174855045 0.03511491929585385 0 -0.020450716312069323 0.04620461573949701 0 -0.019301703456480284 0.043950973444750623 0 -0.017779190541310629 0.045868927137723656 0 -0.020450716312069323 0.04620461573949701 0 -0.021267106866646887 0.043744103914432945 0 -0.019301703456480284 0.043950973444750623 0 -0.023479331350205673 0.045985245913511962 0 -0.020450716312069323 0.04620461573949701 0 -0.021267106866646887 0.043744103914432945 0 -0.021267106866646887 0.043744103914432945 0 -0.019301703456480284 0.043950973444750623 0 -0.020128522679448573 0.041611399421135765 0 0.0043462438274685282 0.0040288863367678738 0 0.0051872581324249887 0.0058946077554647546 0 0.0056569897318813241 0.0030905768078682474 0 -0.023479331350205673 0.045985245913511962 0 -0.021267106866646887 0.043744103914432945 0 -0.022507337718368353 0.04056474728792326 0 -0.0029619935596898002 0.016457716673513097 0 -0.0021973409393058131 0.022894226249087612 0 -0.0021973409393058131 0.022894226249087612 0 -0.0044194823665457197 0.021000176175451944 0 0.0043716301274844722 0.0024315939268035854 0 0.0043462438274685282 0.0040288863367678738 0 0.0056569897318813241 0.0030905768078682474 0 -0.021267106866646887 0.043744103914432945 0 -0.022507337718368353 0.04056474728792326 0 -0.020128522679448573 0.041611399421135765 0 -0.019301703456480284 0.043950973444750623 0 -0.020128522679448573 0.041611399421135765 0 -0.017786295907777697 0.041129559720573236 0 -0.020128522679448573 0.041611399421135765 0 -0.019759826292603932 0.038635153278086039 0 -0.017786295907777697 0.041129559720573236 0 -0.022507337718368353 0.04056474728792326 0 -0.020128522679448573 0.041611399421135765 0 -0.019759826292603932 0.038635153278086039 0 -0.021658110665164775 0.034985809528079177 0 -0.022507337718368353 0.04056474728792326 0 -0.019759826292603932 0.038635153278086039 0 -0.0027073677572823475 0.012934461445266695 0 -0.0044194823665457197 0.021000176175451944 0 0.0060850249269663297 0.00050607104273253341 0 0.0043716301274844722 0.0024315939268035854 0 0.0056569897318813241 0.0030905768078682474 0 -0.0027073677572823475 0.012934461445266695 0 0.0027606517283708396 0.0059658837127737601 0 0.0042011086562447108 0.0015188440206033694 0 0.004097672518583631 0.0012414113535588369 0 0.0043716301274844722 0.0024315939268035854 0 -0.015441584055577415 0.039555764296806503 0 -0.014113244566762604 0.037019315960230594 0 -0.012927875708141945 0.040411915231727165 0 -0.014113244566762604 0.037019315960230594 0 -0.012927875708141945 0.040411915231727165 0 -0.01093880545699143 0.038892075127493889 0 -0.015441584055577415 0.039555764296806503 0 -0.014113244566762604 0.037019315960230594 0 -0.017187170442017174 0.037855155139969954 0 -0.019759826292603932 0.038635153278086039 0 -0.017187170442017174 0.037855155139969954 0 -0.017786295907777697 0.041129559720573236 0 -0.015441584055577415 0.039555764296806503 0 -0.017187170442017174 0.037855155139969954 0 -0.017786295907777697 0.041129559720573236 0 -0.019150523576805651 0.035712322754061089 0 -0.019759826292603932 0.038635153278086039 0 -0.017187170442017174 0.037855155139969954 0 -0.015441584055577415 0.039555764296806503 0 -0.017786295907777697 0.041129559720573236 0 -0.014950369454922013 0.041709338755975496 0 -0.017786295907777697 0.041129559720573236 0 -0.014950369454922013 0.041709338755975496 0 -0.016068969774492823 0.043951700566404357 0 -0.015441584055577415 0.039555764296806503 0 -0.014950369454922013 0.041709338755975496 0 -0.012927875708141945 0.040411915231727165 0 -0.014950369454922013 0.041709338755975496 0 -0.012927875708141945 0.040411915231727165 0 -0.013064809921164395 0.04299679104034685 0 -0.013064809921164395 0.04299679104034685 0 -0.013516899210264026 0.045173423533778026 0 -0.016068969774492823 0.043951700566404357 0 -0.014950369454922013 0.041709338755975496 0 -0.013064809921164395 0.04299679104034685 0 -0.016068969774492823 0.043951700566404357 0 -0.013516899210264026 0.045173423533778026 0 -0.016068969774492823 0.043951700566404357 0 -0.015284765475645418 0.046523849869649796 0 -0.019301703456480284 0.043950973444750623 0 -0.016068969774492823 0.043951700566404357 0 -0.017779190541310629 0.045868927137723656 0 -0.019301703456480284 0.043950973444750623 0 -0.017786295907777697 0.041129559720573236 0 -0.016068969774492823 0.043951700566404357 0 -0.016068969774492823 0.043951700566404357 0 -0.017779190541310629 0.045868927137723656 0 -0.015284765475645418 0.046523849869649796 0 -0.0098971848174855045 0.03511491929585385 0 -0.0099924033979547217 0.038692406203207338 0 -0.017645631142371325 0.048660908687493461 0 -0.015284765475645418 0.046523849869649796 0 -0.01430532212672121 0.048824453030168601 0 -0.020450716312069323 0.04620461573949701 0 -0.017779190541310629 0.045868927137723656 0 -0.017772590606057126 0.048717903228116081 0 -0.017779190541310629 0.045868927137723656 0 -0.017772590606057126 0.048717903228116081 0 -0.015284765475645418 0.046523849869649796 0 -0.0098971848174855045 0.03511491929585385 0 -0.01277633818230426 0.038386631015449514 0 -0.0099924033979547217 0.038692406203207338 0 -0.010077905933933111 0.041228874274482775 0 -0.012824607099768886 0.047005494075611907 0 -0.01430532212672121 0.048824453030168601 0 -0.010873568552253104 0.048969585857951144 0 -0.013516899210264026 0.045173423533778026 0 -0.012824607099768886 0.047005494075611907 0 -0.015284765475645418 0.046523849869649796 0 -0.012824607099768886 0.047005494075611907 0 -0.015284765475645418 0.046523849869649796 0 -0.01430532212672121 0.048824453030168601 0 -0.013516899210264026 0.045173423533778026 0 -0.012824607099768886 0.047005494075611907 0 -0.0098725938063895843 0.045694848116269775 0 -0.012824607099768886 0.047005494075611907 0 -0.010873568552253104 0.048969585857951144 0 -0.0098725938063895843 0.045694848116269775 0 -0.010077905933933111 0.041228874274482775 0 -0.010119796407321122 0.042799597955581206 0 -0.0091858387898391854 0.044545682821826763 0 -0.0089465584827997987 0.043421217107011779 0 -0.0085462452538371519 0.044127908847580694 0 -0.0086795696040742921 0.044571929985226813 0 -0.0091858387898391854 0.044545682821826763 0 -0.0085462452538371519 0.044127908847580694 0 -0.0099732283442347976 0.041297994771938018 0 -0.010077905933933111 0.041228874274482775 0 -0.010119796407321122 0.042799597955581206 0 -0.0099848905529774119 0.042776919881941954 0 -0.0098725938063895843 0.045694848116269775 0 -0.01093593973594067 0.041799189036589066 0 -0.008828073782967261 0.042283724384346452 0 -0.013064809921164395 0.04299679104034685 0 -0.013516899210264026 0.045173423533778026 0 -0.0098725938063895843 0.045694848116269775 0 -0.013064809921164395 0.04299679104034685 0 -0.0098725938063895843 0.045694848116269775 0 -0.01093593973594067 0.041799189036589066 0 -0.0089465584827997987 0.043421217107011779 0 -0.0077228030278800406 0.042845741134866826 0 -0.0079067036112284283 0.043849124909294337 0 -0.0089465584827997987 0.043421217107011779 0 -0.0077228030278800406 0.042845741134866826 0 -0.008828073782967261 0.042283724384346452 0 -0.0089465584827997987 0.043421217107011779 0 -0.0079067036112284283 0.043849124909294337 0 -0.0085462452538371519 0.044127908847580694 0 -0.0080614336168537311 0.044554572865004562 0 -0.0086795696040742921 0.044571929985226813 0 -0.0085462452538371519 0.044127908847580694 0 -0.0073780094995905725 0.044725204306954883 0 -0.0080614336168537311 0.044554572865004562 0 -0.0079067036112284283 0.043849124909294337 0 -0.0080614336168537311 0.044554572865004562 0 -0.0079067036112284283 0.043849124909294337 0 -0.0085462452538371519 0.044127908847580694 0 -0.0073780094995905725 0.044725204306954883 0 -0.0064777009588654283 0.044245803114446598 0 -0.0067697259362886862 0.04332559548328483 0 -0.0073780094995905725 0.044725204306954883 0 -0.0079067036112284283 0.043849124909294337 0 -0.0067697259362886862 0.04332559548328483 0 -0.0057597522776661435 0.044789514474195893 0 -0.0064777009588654283 0.044245803114446598 0 -0.005708362803513025 0.04320730573624644 0 -0.0064777009588654283 0.044245803114446598 0 -0.005708362803513025 0.04320730573624644 0 -0.0067697259362886862 0.04332559548328483 0 -0.0058156378646236264 0.042394103419467213 0 -0.0067697259362886862 0.04332559548328483 0 -0.0062718269647967714 0.041869127098505786 0 -0.005708362803513025 0.04320730573624644 0 -0.0058156378646236264 0.042394103419467213 0 -0.0067697259362886862 0.04332559548328483 0 -0.0077228030278800406 0.042845741134866826 0 -0.0079067036112284283 0.043849124909294337 0 -0.0067697259362886862 0.04332559548328483 0 -0.0077228030278800406 0.042845741134866826 0 -0.0067697259362886862 0.04332559548328483 0 -0.0062718269647967714 0.041869127098505786 0 -0.0077228030278800406 0.042845741134866826 0 -0.0062718269647967714 0.041869127098505786 0 -0.0070604687114569362 0.041233419710115023 0 -0.0062718269647967714 0.041869127098505786 0 -0.0061854785737390046 0.041080667637892469 0 -0.0070604687114569362 0.041233419710115023 0 -0.0061854785737390046 0.041080667637892469 0 -0.0070604687114569362 0.041233419710115023 0 -0.0061724657545879488 0.040286325582929085 0 -0.0062718269647967714 0.041869127098505786 0 -0.0053477659164561887 0.041683637615143751 0 -0.0056668290854138019 0.040941429056641776 0 -0.0058156378646236264 0.042394103419467213 0 -0.0062718269647967714 0.041869127098505786 0 -0.0053477659164561887 0.041683637615143751 0 -0.0062718269647967714 0.041869127098505786 0 -0.0061854785737390046 0.041080667637892469 0 -0.0056668290854138019 0.040941429056641776 0 -0.0053477659164561887 0.041683637615143751 0 -0.0056668290854138019 0.040941429056641776 0 -0.0050420766513779407 0.04104675548070489 0 -0.0056668290854138019 0.040941429056641776 0 -0.0053034082766134543 0.040636198697202905 0 -0.0050420766513779407 0.04104675548070489 0 -0.0056668290854138019 0.040941429056641776 0 -0.0057094497418312571 0.04045623001649077 0 -0.0061724657545879488 0.040286325582929085 0 -0.0056668290854138019 0.040941429056641776 0 -0.0057094497418312571 0.04045623001649077 0 -0.0053034082766134543 0.040636198697202905 0 -0.0061724657545879488 0.040286325582929085 0 -0.00690955675485276 0.039493426153975622 0 -0.0057815371879479677 0.037914731729746041 0 -0.0070604687114569362 0.041233419710115023 0 -0.0061724657545879488 0.040286325582929085 0 -0.00690955675485276 0.039493426153975622 0 -0.0061854785737390046 0.041080667637892469 0 -0.0056668290854138019 0.040941429056641776 0 -0.0061724657545879488 0.040286325582929085 0 -0.0070604687114569362 0.041233419710115023 0 -0.00690955675485276 0.039493426153975622 0 -0.0087295791338965374 0.040369666368810682 0 -0.00690955675485276 0.039493426153975622 0 -0.0089168651545220665 0.038056220136619731 0 -0.0087295791338965374 0.040369666368810682 0 -0.00690955675485276 0.039493426153975622 0 -0.0089168651545220665 0.038056220136619731 0 -0.0078555844025206319 0.035509438050073172 0 -0.0089168651545220665 0.038056220136619731 0 -0.01093880545699143 0.038892075127493889 0 -0.010783711544047586 0.035444827150331197 0 -0.014113244566762604 0.037019315960230594 0 -0.01093880545699143 0.038892075127493889 0 -0.010783711544047586 0.035444827150331197 0 -0.0089168651545220665 0.038056220136619731 0 -0.01093880545699143 0.038892075127493889 0 -0.0087295791338965374 0.040369666368810682 0 -0.012927875708141945 0.040411915231727165 0 -0.01093880545699143 0.038892075127493889 0 -0.01093593973594067 0.041799189036589066 0 -0.01093880545699143 0.038892075127493889 0 -0.01093593973594067 0.041799189036589066 0 -0.0087295791338965374 0.040369666368810682 0 -0.012927875708141945 0.040411915231727165 0 -0.013064809921164395 0.04299679104034685 0 -0.01093593973594067 0.041799189036589066 0 -0.01093593973594067 0.041799189036589066 0 -0.008828073782967261 0.042283724384346452 0 -0.0087295791338965374 0.040369666368810682 0 -0.0077228030278800406 0.042845741134866826 0 -0.0070604687114569362 0.041233419710115023 0 -0.008828073782967261 0.042283724384346452 0 -0.0070604687114569362 0.041233419710115023 0 -0.008828073782967261 0.042283724384346452 0 -0.0087295791338965374 0.040369666368810682 0 0.0061974009041598967 0.052757292192070065 0 0.0057560480258225912 0.053994615939306677 0 0.0044950094368998812 0.052835719216140796 0 -0.0026078123271095076 0.042864056440083523 0 -0.0032789573580084184 0.042561199901528693 0 -0.0032762519429911604 0.041820168001332481 0 0.002366419232525833 0.047264804090792534 0 0.00080749002663414607 0.046595501897532227 0 0.0015693014311461482 0.047817396832731535 0 0.0016821081230451525 0.047588607022641415 0 0.0013456577531340095 0.047683554102568013 0 -0.0026078123271095076 0.042864056440083523 0 -0.0037186829210436615 0.043198635527753423 0 -0.0032789573580084184 0.042561199901528693 0 0.002366419232525833 0.047264804090792534 0 -0.0023864976901312417 0.045391486054151962 0 -0.0023864976901312417 0.045391486054151962 0 -0.0034189216524400448 0.04517060667546937 0 -0.0023864976901312417 0.045391486054151962 0 -0.0035205968430830122 0.042702412976618989 0 -0.0037186829210436615 0.043198635527753423 0 -0.0032789573580084184 0.042561199901528693 0 -0.0041134262994327537 0.042032745000123876 0 -0.0032789573580084184 0.042561199901528693 0 -0.0041134262994327537 0.042032745000123876 0 -0.0032762519429911604 0.041820168001332481 0 -0.0031805471212270325 0.043823029258407149 0 -0.0037509283471655686 0.042238630078117477 0 -0.0044886058607537501 0.04310234420205044 0 -0.0037509283471655686 0.042238630078117477 0 -0.0044886058607537501 0.04310234420205044 0 -0.0049204890485018294 0.042378574298804809 0 -0.0057597522776661435 0.044789514474195893 0 -0.0044886058607537501 0.04310234420205044 0 -0.0035695821458982795 0.044261039839031721 0 -0.0031805471212270325 0.043823029258407149 0 -0.0044886058607537501 0.04310234420205044 0 -0.0037695737889699857 0.043993631458506668 0 -0.0038234549863651436 0.044581174016787357 0 -0.0034189216524400448 0.04517060667546937 0 -0.0057597522776661435 0.044789514474195893 0 -0.005708362803513025 0.04320730573624644 0 -0.0044886058607537501 0.04310234420205044 0 -0.005708362803513025 0.04320730573624644 0 -0.0044886058607537501 0.04310234420205044 0 -0.0049204890485018294 0.042378574298804809 0 -0.0058156378646236264 0.042394103419467213 0 -0.0053477659164561887 0.041683637615143751 0 -0.0049204890485018294 0.042378574298804809 0 -0.005708362803513025 0.04320730573624644 0 -0.0058156378646236264 0.042394103419467213 0 -0.0049204890485018294 0.042378574298804809 0 -0.0053477659164561887 0.041683637615143751 0 -0.0049204890485018294 0.042378574298804809 0 -0.0046884758816334087 0.041633744781670756 0 -0.0053477659164561887 0.041683637615143751 0 -0.0046884758816334087 0.041633744781670756 0 -0.0050420766513779407 0.04104675548070489 0 -0.0053034082766134543 0.040636198697202905 0 -0.0050420766513779407 0.04104675548070489 0 -0.0048500252304047404 0.040665320982977454 0 -0.0050420766513779407 0.04104675548070489 0 -0.0048500252304047404 0.040665320982977454 0 -0.0044367367756025554 0.04093109550881454 0 -0.0046884758816334087 0.041633744781670756 0 -0.0050420766513779407 0.04104675548070489 0 -0.0044367367756025554 0.04093109550881454 0 -0.0035205968430830122 0.042702412976618989 0 -0.003877031840548243 0.041857240932200175 0 -0.0041134262994327537 0.042032745000123876 0 -0.0044367367756025554 0.04093109550881454 0 -0.0039539165799556729 0.040837683836658173 0 -0.0037509283471655686 0.042238630078117477 0 -0.0049204890485018294 0.042378574298804809 0 -0.0046884758816334087 0.041633744781670756 0 -0.0037509283471655686 0.042238630078117477 0 -0.0046884758816334087 0.041633744781670756 0 -0.0044367367756025554 0.04093109550881454 0 -0.00082998816669718973 0.045104133532071433 0 0.00080749002663414607 0.046595501897532227 0 -0.0041134262994327537 0.042032745000123876 0 -0.0039539165799556729 0.040837683836658173 0 -0.0032762519429911604 0.041820168001332481 0 0.0018887845871687161 0.050715424436286204 0 0.0055403275585852183 0.051114462761635809 0 0.0044950094368998812 0.052835719216140796 0 0.0018887845871687161 0.050715424436286204 0 0.0055403275585852183 0.051114462761635809 0 0.0038250453167276003 0.049181935027245723 0 0.0061974009041598967 0.052757292192070065 0 0.0055403275585852183 0.051114462761635809 0 0.0044950094368998812 0.052835719216140796 0 0.0069361664035283753 0.043315184872592609 0 0.0044484303516905896 0.043504108392750922 0 0.0061701754545786178 0.046475850606663399 0 0.0044484303516905896 0.043504108392750922 0 0.003985474418116218 0.046561386733051886 0 0.0061701754545786178 0.046475850606663399 0 0.003985474418116218 0.046561386733051886 0 0.0061701754545786178 0.046475850606663399 0 0.0056107488831397276 0.049245577824159989 0 0.0078641474528764674 0.050476267931320151 0 0.0055403275585852183 0.051114462761635809 0 0.0056107488831397276 0.049245577824159989 0 0.0055403275585852183 0.051114462761635809 0 0.0056107488831397276 0.049245577824159989 0 0.0038250453167276003 0.049181935027245723 0 0.003985474418116218 0.046561386733051886 0 0.0056107488831397276 0.049245577824159989 0 0.0038250453167276003 0.049181935027245723 0 0.003985474418116218 0.046561386733051886 0 0.0038250453167276003 0.049181935027245723 0 0.0020238791112417477 0.047412946756114217 0 0.0018887845871687161 0.050715424436286204 0 0.0038250453167276003 0.049181935027245723 0 0.0020238791112417477 0.047412946756114217 0 0.003985474418116218 0.046561386733051886 0 0.0020238791112417477 0.047412946756114217 0 0.0018502071095676529 0.044025023829035871 0 0.0044484303516905896 0.043504108392750922 0 0.003985474418116218 0.046561386733051886 0 0.0018502071095676529 0.044025023829035871 0 0.0020238791112417477 0.047412946756114217 0 0.0018502071095676529 0.044025023829035871 0 -0.001612609713051857 0.046122253180547447 0 0.0018502071095676529 0.044025023829035871 0 -0.001612609713051857 0.046122253180547447 0 -0.0004186800248469633 0.04067701478403421 0 -0.001612609713051857 0.046122253180547447 0 -0.0044239035662328877 0.039952284091525937 0 -0.0004186800248469633 0.04067701478403421 0 0.0018887845871687161 0.050715424436286204 0 0.0020238791112417477 0.047412946756114217 0 -0.001612609713051857 0.046122253180547447 0 -0.0048500252304047404 0.040665320982977454 0 -0.0044367367756025554 0.04093109550881454 0 -0.0045690007007147954 0.040280532220087213 0 -0.0044367367756025554 0.04093109550881454 0 -0.0039539165799556729 0.040837683836658173 0 -0.0045690007007147954 0.040280532220087213 0 -0.00082998816669718973 0.045104133532071433 0 -0.0024250611513737998 0.043118610095343242 0 -0.0045690007007147954 0.040280532220087213 0 -0.0050567097228855079 0.040464419982477823 0 -0.0049486452293728729 0.040319655179108543 0 -0.0048500252304047404 0.040665320982977454 0 -0.0045690007007147954 0.040280532220087213 0 -0.0050567097228855079 0.040464419982477823 0 -0.0053034082766134543 0.040636198697202905 0 -0.0048500252304047404 0.040665320982977454 0 -0.0050567097228855079 0.040464419982477823 0 -0.0045690007007147954 0.040280532220087213 0 -0.0049486452293728729 0.040319655179108543 0 -0.0044239035662328877 0.039952284091525937 0 -0.0024250611513737998 0.043118610095343242 0 -0.0032807072692090104 0.041826975497328722 0 -0.0049486452293728729 0.040319655179108543 0 -0.0044239035662328877 0.039952284091525937 0 -0.0058011110783627532 0.039272436503792106 0 -0.0044239035662328877 0.039952284091525937 0 -0.002071324965449602 0.038655503040705662 0 -0.0004186800248469633 0.04067701478403421 0 -0.0044239035662328877 0.039952284091525937 0 -0.0034711494211283173 0.037607335222947791 0 -0.002071324965449602 0.038655503040705662 0 -0.0044239035662328877 0.039952284091525937 0 -0.0034711494211283173 0.037607335222947791 0 -0.0058011110783627532 0.039272436503792106 0 -0.0034711494211283173 0.037607335222947791 0 -0.0058011110783627532 0.039272436503792106 0 -0.0040667138877298207 0.033027393400247677 0 -0.0034711494211283173 0.037607335222947791 0 -0.00075884147236200932 0.036589552898130366 0 -0.0040667138877298207 0.033027393400247677 0 -0.0034711494211283173 0.037607335222947791 0 -0.00075884147236200932 0.036589552898130366 0 -0.002071324965449602 0.038655503040705662 0 -0.00075884147236200932 0.036589552898130366 0 0.00079009735533976436 0.038470602964879946 0 -0.002071324965449602 0.038655503040705662 0 -0.00075884147236200932 0.036589552898130366 0 0.00079009735533976436 0.038470602964879946 0 0.002567245212685722 0.036038291537780105 0 0.00079009735533976436 0.038470602964879946 0 -0.002071324965449602 0.038655503040705662 0 -0.0004186800248469633 0.04067701478403421 0 0.0044484303516905896 0.043504108392750922 0 0.0018502071095676529 0.044025023829035871 0 0.0028079382880043975 0.040085906125813572 0 0.00079009735533976436 0.038470602964879946 0 -0.0004186800248469633 0.04067701478403421 0 0.0028079382880043975 0.040085906125813572 0 0.0018502071095676529 0.044025023829035871 0 -0.0004186800248469633 0.04067701478403421 0 0.0028079382880043975 0.040085906125813572 0 0.00079009735533976436 0.038470602964879946 0 0.0028079382880043975 0.040085906125813572 0 0.002567245212685722 0.036038291537780105 0 0.0028079382880043975 0.040085906125813572 0 0.002567245212685722 0.036038291537780105 0 0.0047080089704977747 0.03780947550053107 0 0.002567245212685722 0.036038291537780105 0 0.0047080089704977747 0.03780947550053107 0 0.0051987285738552087 0.035585479370711146 0 0.0047080089704977747 0.03780947550053107 0 0.0071600320247946795 0.036614890603993241 0 0.0051987285738552087 0.035585479370711146 0 0.0047080089704977747 0.03780947550053107 0 0.0071600320247946795 0.036614890603993241 0 0.0069146504059485513 0.038839765007393751 0 0.0047080089704977747 0.03780947550053107 0 0.0069146504059485513 0.038839765007393751 0 0.0054784352772378501 0.040738685337583326 0 0.0077501231665847844 0.04128709969121757 0 0.0069146504059485513 0.038839765007393751 0 0.0054784352772378501 0.040738685337583326 0 0.0028079382880043975 0.040085906125813572 0 0.0047080089704977747 0.03780947550053107 0 0.0054784352772378501 0.040738685337583326 0 0.0044484303516905896 0.043504108392750922 0 0.0028079382880043975 0.040085906125813572 0 0.0054784352772378501 0.040738685337583326 0 0.0069361664035283753 0.043315184872592609 0 0.0044484303516905896 0.043504108392750922 0 0.0054784352772378501 0.040738685337583326 0 0.0069361664035283753 0.043315184872592609 0 0.0077501231665847844 0.04128709969121757 0 0.0054784352772378501 0.040738685337583326 0 -0.0082010846447064124 0.03206711202240671 0 -0.0078555844025206319 0.035509438050073172 0 -0.0045455644731184786 0.032124670788790929 0 -0.0082010846447064124 0.03206711202240671 0 -0.0045455644731184786 0.032124670788790929 0 -0.0067309896695101259 0.028407780488686356 0 -0.0082010846447064124 0.03206711202240671 0 -0.0067309896695101259 0.028407780488686356 0 -0.0098151126972258369 0.028960699707653234 0 -0.0082010846447064124 0.03206711202240671 0 -0.011142539649744376 0.031872997909190418 0 -0.0098151126972258369 0.028960699707653234 0 -0.012920207636403641 0.028066474244730234 0 -0.011142539649744376 0.031872997909190418 0 -0.0098151126972258369 0.028960699707653234 0 -0.0082010846447064124 0.03206711202240671 0 -0.011142539649744376 0.031872997909190418 0 -0.010783711544047586 0.035444827150331197 0 -0.01454364551672473 0.033742110663201715 0 -0.011142539649744376 0.031872997909190418 0 -0.010783711544047586 0.035444827150331197 0 -0.0089168651545220665 0.038056220136619731 0 -0.010783711544047586 0.035444827150331197 0 -0.0078555844025206319 0.035509438050073172 0 -0.00690955675485276 0.039493426153975622 0 -0.0078555844025206319 0.035509438050073172 0 -0.0045455644731184786 0.032124670788790929 0 -0.0082010846447064124 0.03206711202240671 0 -0.010783711544047586 0.035444827150331197 0 -0.0078555844025206319 0.035509438050073172 0 -0.0061264438922062452 0.036595451072906786 0 -0.0057724358963607246 0.03407333123553568 0 -0.00690955675485276 0.039493426153975622 0 -0.0057815371879479677 0.037914731729746041 0 -0.0068503571569655114 0.037547543361481694 0 -0.0059457414576425368 0.039744047507724214 0 -0.0057056589669436386 0.038881562501452645 0 -0.0057094497418312571 0.04045623001649077 0 -0.0061724657545879488 0.040286325582929085 0 -0.0055562506403764511 0.040399154154792075 0 -0.0057094497418312571 0.04045623001649077 0 -0.0053768514716841407 0.040443838945452733 0 -0.0055562506403764511 0.040399154154792075 0 -0.0049486452293728729 0.040319655179108543 0 -0.0053768514716841407 0.040443838945452733 0 -0.0055562506403764511 0.040399154154792075 0 -0.0057094497418312571 0.04045623001649077 0 -0.0053034082766134543 0.040636198697202905 0 -0.0053768514716841407 0.040443838945452733 0 -0.0053034082766134543 0.040636198697202905 0 -0.0050567097228855079 0.040464419982477823 0 -0.0053768514716841407 0.040443838945452733 0 -0.0050567097228855079 0.040464419982477823 0 -0.0049486452293728729 0.040319655179108543 0 -0.0053768514716841407 0.040443838945452733 0 -0.0057815371879479677 0.037914731729746041 0 -0.0061281679482658655 0.036661946381846389 0 -0.0051262589960856765 0.035760282621109814 0 -0.0049486452293728729 0.040319655179108543 0 -0.0055562506403764511 0.040399154154792075 0 -0.0058011110783627532 0.039272436503792106 0 -0.0057056589669436386 0.038881562501452645 0 -0.0052126563043370247 0.036981326325858703 0 -0.0057815371879479677 0.037914731729746041 0 -0.0068503571569655114 0.037547543361481694 0 -0.0061281679482658655 0.036661946381846389 0 -0.0068503571569655114 0.037547543361481694 0 -0.0061281679482658655 0.036661946381846389 0 -0.0069646881163462461 0.035225575007989778 0 -0.0061281679482658655 0.036661946381846389 0 -0.0051262589960856765 0.035760282621109814 0 -0.0069646881163462461 0.035225575007989778 0 -0.0057724358963607246 0.03407333123553568 0 -0.0052426980291890865 0.029472049220307509 0 -0.0051262589960856765 0.035760282621109814 0 -0.0056819379916546306 0.034066510563296869 0 -0.0040667138877298207 0.033027393400247677 0 -0.0052126563043370247 0.036981326325858703 0 -0.004721965544886758 0.03519049883026984 0 -0.0051262589960856765 0.035760282621109814 0 -0.0056819379916546306 0.034066510563296869 0 -0.0069646881163462461 0.035225575007989778 0 -0.0031577800546562017 0.024368682605485859 0 -0.0092151459350632778 0.023756399787513004 0 -0.0057465527509428897 0.020445111341963036 0 -0.0031577800546562017 0.024368682605485859 0 -0.0067309896695101259 0.028407780488686356 0 -0.0092151459350632778 0.023756399787513004 0 -0.0067309896695101259 0.028407780488686356 0 -0.0098151126972258369 0.028960699707653234 0 -0.0092151459350632778 0.023756399787513004 0 -0.0045455644731184786 0.032124670788790929 0 -0.0031577800546562017 0.024368682605485859 0 -0.0067309896695101259 0.028407780488686356 0 -0.012920207636403641 0.028066474244730234 0 -0.0098151126972258369 0.028960699707653234 0 -0.0092151459350632778 0.023756399787513004 0 -0.012920207636403641 0.028066474244730234 0 -0.014233850208259312 0.024527584094984886 0 -0.0092151459350632778 0.023756399787513004 0 -0.014233850208259312 0.024527584094984886 0 -0.0092151459350632778 0.023756399787513004 0 -0.0091458510059096079 0.018326093856944455 0 -0.0065466637753512609 0.0150567898377692 0 -0.005618061177301811 0.014098209130587035 0 -0.00067395080871877401 0.0052416186045766882 0 -0.0027813041772298138 0.0096385722111824029 0 -0.00087895945707109518 0.0084789185955191828 0 -0.0027813041772298138 0.0096385722111824029 0 -0.0012427763952565947 0.010734378594440286 0 -0.00087895945707109518 0.0084789185955191828 0 -0.0027813041772298138 0.0096385722111824029 0 -0.0012427763952565947 0.010734378594440286 0 -0.0021272162674683304 0.012458358515219453 0 -0.0012427763952565947 0.010734378594440286 0 -0.0021272162674683304 0.012458358515219453 0 -0.00086924192613284075 0.012326761333233394 0 -0.005618061177301811 0.014098209130587035 0 -0.0049554479588299304 0.013628312756596645 0 -0.0027813041772298138 0.0096385722111824029 0 -0.0021272162674683304 0.012458358515219453 0 -0.0037203084706583928 0.0138022158987529 0 -0.0091458510059096079 0.018326093856944455 0 -0.002433342936321701 0.016110508912551818 0 -0.0037203084706583928 0.0138022158987529 0 -0.0092151459350632778 0.023756399787513004 0 -0.0091458510059096079 0.018326093856944455 0 -0.0057465527509428897 0.020445111341963036 0 -0.0091458510059096079 0.018326093856944455 0 -0.0057465527509428897 0.020445111341963036 0 -0.002433342936321701 0.016110508912551818 0 -0.0052426980291890865 0.029472049220307509 0 -0.0048063972701572278 0.024695948727685019 0 -0.0031577800546562017 0.024368682605485859 0 -0.0057465527509428897 0.020445111341963036 0 -0.002433342936321701 0.016110508912551818 0 -0.0056819379916546306 0.034066510563296869 0 -0.0069646881163462461 0.035225575007989778 0 -0.00709384945691566 0.031718809930775783 0 -0.0056819379916546306 0.034066510563296869 0 -0.00709384945691566 0.031718809930775783 0 -0.0040667138877298207 0.033027393400247677 0 -0.0044863082104804903 0.02917652075874877 0 -0.00709384945691566 0.031718809930775783 0 -0.0040667138877298207 0.033027393400247677 0 -0.002433342936321701 0.016110508912551818 0 -0.003679163920629073 0.013693961341733072 0 -0.0037203084706583928 0.0138022158987529 0 -0.0044863082104804903 0.02917652075874877 0 -0.00709384945691566 0.031718809930775783 0 -0.0063117738609954222 0.026334203508493564 0 -0.003679163920629073 0.013693961341733072 0 -0.0037203084706583928 0.0138022158987529 0 -0.002665241102907244 0.013853286664129338 0 -0.0048063972701572278 0.024695948727685019 0 -0.0044554405126270707 0.021433290217781134 0 -0.0044863082104804903 0.02917652075874877 0 -0.0063117738609954222 0.026334203508493564 0 -0.0034634158989256744 0.02495847212928486 0 -0.0044863082104804903 0.02917652075874877 0 -0.0034634158989256744 0.02495847212928486 0 -0.0021705104005086354 0.026381543972666257 0 -0.0063117738609954222 0.026334203508493564 0 -0.0034634158989256744 0.02495847212928486 0 -0.0028975078193302787 0.019820288381317042 0 -0.0034634158989256744 0.02495847212928486 0 -0.0021705104005086354 0.026381543972666257 0 -0.001725227211764799 0.023316434258595576 0 -0.0044554405126270707 0.021433290217781134 0 -0.0041631972412568821 0.020492980117069709 0 -0.003679163920629073 0.013693961341733072 0 -0.0022741041994145668 0.016458684721342761 0 -0.0017588864492422073 0.01504363191249542 0 -0.003679163920629073 0.013693961341733072 0 -0.0022741041994145668 0.016458684721342761 0 -0.0028975078193302787 0.019820288381317042 0 -0.0022741041994145668 0.016458684721342761 0 -0.0017588864492422073 0.01504363191249542 0 -0.0010003009871918901 0.016330837740656814 0 -0.0017588864492422073 0.01504363191249542 0 -0.00043618629028130786 0.014912020020159707 0 -0.0013961145505683253 0.013870981406082736 0 -0.0017588864492422073 0.01504363191249542 0 -0.00043618629028130786 0.014912020020159707 0 -0.0010003009871918901 0.016330837740656814 0 -0.00043618629028130786 0.014912020020159707 0 -0.0013961145505683253 0.013870981406082736 0 -0.00042890492056765116 0.013577892385448459 0 -0.0013961145505683253 0.013870981406082736 0 -0.00042890492056765116 0.013577892385448459 0 -0.00086924192613284075 0.012326761333233394 0 -0.0021272162674683304 0.012458358515219453 0 -0.0013961145505683253 0.013870981406082736 0 -0.00086924192613284075 0.012326761333233394 0 -0.0021272162674683304 0.012458358515219453 0 -0.0013961145505683253 0.013870981406082736 0 -0.002665241102907244 0.013853286664129338 0 -0.003679163920629073 0.013693961341733072 0 -0.0017588864492422073 0.01504363191249542 0 -0.002665241102907244 0.013853286664129338 0 -0.0021272162674683304 0.012458358515219453 0 -0.0037203084706583928 0.0138022158987529 0 -0.002665241102907244 0.013853286664129338 0 -0.0017588864492422073 0.01504363191249542 0 -0.0013961145505683253 0.013870981406082736 0 -0.002665241102907244 0.013853286664129338 0 0.0056151839388786078 0.032097565122462902 0 0.0032025086228420143 0.029721710376043941 0 0.0061225512154781834 0.028659494806768885 0 0.0085440117970467903 0.034390758397842024 0 0.0056151839388786078 0.032097565122462902 0 0.0061225512154781834 0.028659494806768885 0 0.0085440117970467903 0.034390758397842024 0 0.0056151839388786078 0.032097565122462902 0 0.006275318391380875 0.034443604625915641 0 0.0071600320247946795 0.036614890603993241 0 0.006275318391380875 0.034443604625915641 0 0.0051987285738552087 0.035585479370711146 0 0.002567245212685722 0.036038291537780105 0 0.0051987285738552087 0.035585479370711146 0 0.0049247612044153212 0.033633833679193578 0 0.006275318391380875 0.034443604625915641 0 0.0051987285738552087 0.035585479370711146 0 0.0049247612044153212 0.033633833679193578 0 0.0056151839388786078 0.032097565122462902 0 0.006275318391380875 0.034443604625915641 0 0.0049247612044153212 0.033633833679193578 0 0.0056151839388786078 0.032097565122462902 0 0.0049247612044153212 0.033633833679193578 0 0.002961436500808442 0.03272859246825343 0 0.002567245212685722 0.036038291537780105 0 0.0049247612044153212 0.033633833679193578 0 0.002961436500808442 0.03272859246825343 0 0.002567245212685722 0.036038291537780105 0 0.002961436500808442 0.03272859246825343 0 0.00014456474721773448 0.033558406445506755 0 0.002961436500808442 0.03272859246825343 0 0.0013685503244632636 0.03094291347771674 0 0.00014456474721773448 0.033558406445506755 0 0.002961436500808442 0.03272859246825343 0 0.0013685503244632636 0.03094291347771674 0 0.0032025086228420143 0.029721710376043941 0 0.0056151839388786078 0.032097565122462902 0 0.002961436500808442 0.03272859246825343 0 0.0032025086228420143 0.029721710376043941 0 0.0013685503244632636 0.03094291347771674 0 0.0032025086228420143 0.029721710376043941 0 0.00088427902345859907 0.028245634804277463 0 -0.00077428496301652782 0.030998232132613518 0 -0.0022704741848831346 0.02923452943513747 0 0.00088427902345859907 0.028245634804277463 0 0.0013685503244632636 0.03094291347771674 0 -0.00077428496301652782 0.030998232132613518 0 0.00088427902345859907 0.028245634804277463 0 0.0013685503244632636 0.03094291347771674 0 -0.00077428496301652782 0.030998232132613518 0 0.00014456474721773448 0.033558406445506755 0 -0.00075884147236200932 0.036589552898130366 0 0.002567245212685722 0.036038291537780105 0 0.00014456474721773448 0.033558406445506755 0 -0.00075884147236200932 0.036589552898130366 0 0.00014456474721773448 0.033558406445506755 0 -0.0040667138877298207 0.033027393400247677 0 -0.00077428496301652782 0.030998232132613518 0 0.00014456474721773448 0.033558406445506755 0 -0.0040667138877298207 0.033027393400247677 0 -0.00077428496301652782 0.030998232132613518 0 -0.0040667138877298207 0.033027393400247677 0 -0.0022704741848831346 0.02923452943513747 0 -0.0044863082104804903 0.02917652075874877 0 -0.0040667138877298207 0.033027393400247677 0 -0.0022704741848831346 0.02923452943513747 0 -0.0022704741848831346 0.02923452943513747 0 -0.0021705104005086354 0.026381543972666257 0 -0.00024277359184023519 0.02576784143647691 0 -0.0044863082104804903 0.02917652075874877 0 -0.0022704741848831346 0.02923452943513747 0 -0.0021705104005086354 0.026381543972666257 0 -0.0021705104005086354 0.026381543972666257 0 -0.00024277359184023519 0.02576784143647691 0 -0.001725227211764799 0.023316434258595576 0 -0.00024277359184023519 0.02576784143647691 0 -9.2225406170333131e-05 0.023369009733658633 0 -0.001725227211764799 0.023316434258595576 0 -0.00024277359184023519 0.02576784143647691 0 0.0013299748881713197 0.024984771967647514 0 -9.2225406170333131e-05 0.023369009733658633 0 -0.00024277359184023519 0.02576784143647691 0 0.00088427902345859907 0.028245634804277463 0 0.0013299748881713197 0.024984771967647514 0 -0.0022704741848831346 0.02923452943513747 0 -0.00024277359184023519 0.02576784143647691 0 0.00088427902345859907 0.028245634804277463 0 0.00088427902345859907 0.028245634804277463 0 0.0029199938832012561 0.027060435667132218 0 0.0013299748881713197 0.024984771967647514 0 0.0032025086228420143 0.029721710376043941 0 0.00088427902345859907 0.028245634804277463 0 0.0029199938832012561 0.027060435667132218 0 0.0013299748881713197 0.024984771967647514 0 0.0032861684957970006 0.024086810559660585 0 0.00082606933105186769 0.023197682951439879 0 0.0029199938832012561 0.027060435667132218 0 0.0013299748881713197 0.024984771967647514 0 0.0032861684957970006 0.024086810559660585 0 0.0016409037527938359 0.02659953339000639 0 0.003675721650366563 0.027221056431499698 0 0.0039657681284639397 0.030473866967172532 0 0.0026698525492081853 0.026345154954109922 0 0.0048049480959198483 0.029949778371155152 0 0.0029199938832012561 0.027060435667132218 0 0.0032861684957970006 0.024086810559660585 0 0.0061225512154781834 0.028659494806768885 0 0.0051760567835458246 0.029257456999765716 0 0.003675721650366563 0.027221056431499698 0 0.0039657681284639397 0.030473866967172532 0 0.0032025086228420143 0.029721710376043941 0 0.0029199938832012561 0.027060435667132218 0 0.0061225512154781834 0.028659494806768885 0 0.00078421261538757906 0.034694691811031964 0 -0.00052322921765260682 0.034309388248851866 0 0.0003165424016502924 0.031799176873362929 0 0.00038403233877597865 0.035684624385650503 0 0.00018027955519709353 0.03382819159113265 0 0.00019682074939458252 0.031501716220804318 0 -5.0327227815293778e-05 0.029646947620188328 0 0.00078421261538757906 0.034694691811031964 0 -4.4273301063642984e-05 0.037768019130877767 0 -0.00052322921765260682 0.034309388248851866 0 0.0016409037527938359 0.02659953339000639 0 0.003675721650366563 0.027221056431499698 0 0.0013560879193446197 0.025090987600599621 0 0.00079232296458623991 0.035491219830191961 0 0.00019682074939458252 0.031501716220804318 0 0.0026698525492081853 0.026345154954109922 0 0.00122562181718502 0.024757600662564282 0 0.0032861684957970006 0.024086810559660585 0 0.00082606933105186769 0.023197682951439879 0 2.587367995767946e-05 0.022248083079685538 0 0.0016409037527938359 0.02659953339000639 0 0.0013560879193446197 0.025090987600599621 0 6.8332060517422286e-05 0.024714540651800537 0 0.00082606933105186769 0.023197682951439879 0 2.587367995767946e-05 0.022248083079685538 0 -1.6019893072559939e-05 0.022450955085733613 0 0.0013560879193446197 0.025090987600599621 0 6.8332060517422286e-05 0.024714540651800537 0 -0.0004752959405925905 0.025107270678783208 0 2.587367995767946e-05 0.022248083079685538 0 -1.6019893072559939e-05 0.022450955085733613 0 9.5022138943233396e-05 0.023319390093375133 0 -1.6019893072559939e-05 0.022450955085733613 0 -0.00033589221208784969 0.022374209658412494 0 9.5022138943233396e-05 0.023319390093375133 0 0.00082606933105186769 0.023197682951439879 0 -1.6019893072559939e-05 0.022450955085733613 0 -9.2225406170333131e-05 0.023369009733658633 0 0.0013299748881713197 0.024984771967647514 0 0.00082606933105186769 0.023197682951439879 0 -9.2225406170333131e-05 0.023369009733658633 0 -1.6019893072559939e-05 0.022450955085733613 0 -9.2225406170333131e-05 0.023369009733658633 0 -0.0009648569467128708 0.022172722155905138 0 -9.2225406170333131e-05 0.023369009733658633 0 -0.001725227211764799 0.023316434258595576 0 -0.0009648569467128708 0.022172722155905138 0 -1.6019893072559939e-05 0.022450955085733613 0 -0.0009648569467128708 0.022172722155905138 0 -0.00033589221208784969 0.022374209658412494 0 -0.0009648569467128708 0.022172722155905138 0 -0.00033589221208784969 0.022374209658412494 0 -0.0028975078193302787 0.019820288381317042 0 -0.00033589221208784969 0.022374209658412494 0 -5.9603042113451884e-05 0.023933996302715175 0 -0.00065155443190481512 0.021470085352082714 0 -0.00033589221208784969 0.022374209658412494 0 -5.9603042113451884e-05 0.023933996302715175 0 9.5022138943233396e-05 0.023319390093375133 0 -5.9603042113451884e-05 0.023933996302715175 0 1.4184293069493842e-06 0.02527448180645573 0 -0.00065155443190481512 0.021470085352082714 0 -5.9603042113451884e-05 0.023933996302715175 0 1.4184293069493842e-06 0.02527448180645573 0 -3.8113327319131345e-05 0.026403373848109823 0 1.4184293069493842e-06 0.02527448180645573 0 -3.8113327319131345e-05 0.026403373848109823 0 -4.3319235872599028e-06 0.028787573918917831 0 -5.9603042113451884e-05 0.023933996302715175 0 -3.8113327319131345e-05 0.026403373848109823 0 9.5022138943233396e-05 0.023319390093375133 0 2.587367995767946e-05 0.022248083079685538 0 -3.8113327319131345e-05 0.026403373848109823 0 9.5022138943233396e-05 0.023319390093375133 0 0.00122562181718502 0.024757600662564282 0 0.00095749883922531824 0.025145452235209333 0 6.8332060517422286e-05 0.024714540651800537 0 -3.8113327319131345e-05 0.026403373848109823 0 -0.0004752959405925905 0.025107270678783208 0 -0.00050662587896493233 0.031603096451932884 0 -2.5823235578698817e-06 0.028805961728988437 0 2.1631035082783817e-06 0.031088966487390741 0 -3.8113327319131345e-05 0.026403373848109823 0 -0.0004752959405925905 0.025107270678783208 0 -4.3319235872599028e-06 0.028787573918917831 0 -5.0327227815293778e-05 0.029646947620188328 0 -3.21919613097881e-07 0.0287976417991615 0 -2.2582117490807826e-07 0.031101533841324629 0 0.00018027955519709353 0.03382819159113265 0 0.00012481222534547738 0.035758968475799714 0 -4.4820657656403163e-06 0.03110408710462086 0 -0.0011229555586932502 0.036367863602785523 0 -0.00050662587896493233 0.031603096451932884 0 2.1631035082783817e-06 0.031088966487390741 0 0.0003165424016502924 0.031799176873362929 0 -0.00052322921765260682 0.034309388248851866 0 -0.00050662587896493233 0.031603096451932884 0 0.0003165424016502924 0.031799176873362929 0 -0.00056815239271234305 0.017457025232077521 0 -0.0028975078193302787 0.019820288381317042 0 -0.00057133856625001369 0.019269718754191093 0 -0.00056815239271234305 0.017457025232077521 0 2.3595437048049061e-05 0.016080557040913469 0 1.8189522153202676e-05 0.015586121410094288 0 -0.00056815239271234305 0.017457025232077521 0 -0.0010003009871918901 0.016330837740656814 0 1.8189522153202676e-05 0.015586121410094288 0 -0.00043618629028130786 0.014912020020159707 0 -0.0010003009871918901 0.016330837740656814 0 1.8189522153202676e-05 0.015586121410094288 0 -0.00056815239271234305 0.017457025232077521 0 -0.0010003009871918901 0.016330837740656814 0 -0.0028975078193302787 0.019820288381317042 0 -0.0022741041994145668 0.016458684721342761 0 -0.0010003009871918901 0.016330837740656814 0 -0.0028975078193302787 0.019820288381317042 0 -0.0034634158989256744 0.02495847212928486 0 -0.001725227211764799 0.023316434258595576 0 -0.0028975078193302787 0.019820288381317042 0 -0.001725227211764799 0.023316434258595576 0 -0.0009648569467128708 0.022172722155905138 0 -0.0028975078193302787 0.019820288381317042 0 -0.00033589221208784969 0.022374209658412494 0 -0.0028975078193302787 0.019820288381317042 0 -0.00065155443190481512 0.021470085352082714 0 -0.0028975078193302787 0.019820288381317042 0 -0.00065155443190481512 0.021470085352082714 0 -0.00057133856625001369 0.019269718754191093 0 1.4184293069493842e-06 0.02527448180645573 0 -0.00065155443190481512 0.021470085352082714 0 -1.0653869868788587e-06 0.021752043980074569 0 -0.00065155443190481512 0.021470085352082714 0 -1.0653869868788587e-06 0.021752043980074569 0 -0.00057133856625001369 0.019269718754191093 0 -1.0653869868788587e-06 0.021752043980074569 0 -0.00057133856625001369 0.019269718754191093 0 -1.3419879697060568e-07 0.01823155247367509 0 -0.00056815239271234305 0.017457025232077521 0 -0.00057133856625001369 0.019269718754191093 0 2.3595437048049061e-05 0.016080557040913469 0 -1.3419879697060568e-07 0.01823155247367509 0 3.7851759261154871e-07 0.014709994998178363 0 2.3595437048049061e-05 0.016080557040913469 0 -0.00057133856625001369 0.019269718754191093 0 -1.3419879697060568e-07 0.01823155247367509 0 2.3595437048049061e-05 0.016080557040913469 0 3.7851759261154871e-07 0.014709994998178363 0 0.0002902791190201234 0.013376187570462222 0 2.3595437048049061e-05 0.016080557040913469 0 3.7851759261154871e-07 0.014709994998178363 0 0.0002902791190201234 0.013376187570462222 0 8.5753112181381302e-07 0.011189152821824802 0 0.0002902791190201234 0.013376187570462222 0 0.000776744400177472 0.012366531474517386 0 8.8266939338670254e-05 0.014203800282302202 0 0.0002902791190201234 0.013376187570462222 0 2.3595437048049061e-05 0.016080557040913469 0 8.8266939338670254e-05 0.014203800282302202 0 8.5753112181381302e-07 0.011189152821824802 0 0.00053064424654849325 0.010711925944409985 0 1.1422169396657088e-06 0.0076670954356245049 0 0.0002902791190201234 0.013376187570462222 0 8.5753112181381302e-07 0.011189152821824802 0 0.00053064424654849325 0.010711925944409985 0 0.0002902791190201234 0.013376187570462222 0 0.00053064424654849325 0.010711925944409985 0 0.000776744400177472 0.012366531474517386 0 0.00053064424654849325 0.010711925944409985 0 0.00071520976487506917 0.011632768273704427 0 0.000776744400177472 0.012366531474517386 0 0.0013401492369082102 0.0080370092804924569 0 0.0013723632876602391 0.008412671703140695 0 0.00071520976487506917 0.011632768273704427 0 0.000776744400177472 0.012366531474517386 0 0.0015381579495417083 0.010165361258055082 0 0.000776744400177472 0.012366531474517386 0 0.0015381579495417083 0.010165361258055082 0 8.8266939338670254e-05 0.014203800282302202 0 0.0015381579495417083 0.010165361258055082 0 8.8266939338670254e-05 0.014203800282302202 0 0.00082245030534470998 0.0094457575087498209 0 0.0015381579495417083 0.010165361258055082 0 0.00082245030534470998 0.0094457575087498209 0 0.0017120291986676619 0.0091535069140536249 0 0.0015381579495417083 0.010165361258055082 0 0.0017120291986676619 0.0091535069140536249 0 0.0018248200324828242 0.0086997784702145132 0 0.0021903008162056392 0.0073651432395145915 0 0.0015381579495417083 0.010165361258055082 0 0.0018248200324828242 0.0086997784702145132 0 2.3595437048049061e-05 0.016080557040913469 0 8.8266939338670254e-05 0.014203800282302202 0 1.8189522153202676e-05 0.015586121410094288 0 0.0008980736299027067 0.012414841004042668 0 0.0013851327494133873 0.011547253974596623 0 8.8266939338670254e-05 0.014203800282302202 0 0.00042392952643101887 0.014807831765484317 0 0.00095386532273674534 0.014553350812764401 0 8.8266939338670254e-05 0.014203800282302202 0 0.00095386532273674534 0.014553350812764401 0 0.001592339010257912 0.01470077952753584 0 -0.00043618629028130786 0.014912020020159707 0 1.8189522153202676e-05 0.015586121410094288 0 0.00042392952643101887 0.014807831765484317 0 8.8266939338670254e-05 0.014203800282302202 0 1.8189522153202676e-05 0.015586121410094288 0 0.00042392952643101887 0.014807831765484317 0 -0.00043618629028130786 0.014912020020159707 0 0.00042392952643101887 0.014807831765484317 0 0.00031753863789567614 0.014020545241963261 0 -0.00043618629028130786 0.014912020020159707 0 0.00031753863789567614 0.014020545241963261 0 -0.00042890492056765116 0.013577892385448459 0 0.00031753863789567614 0.014020545241963261 0 -0.00042890492056765116 0.013577892385448459 0 0.00027099486250520461 0.012638855915364568 0 -0.00042890492056765116 0.013577892385448459 0 0.00027099486250520461 0.012638855915364568 0 -0.00086924192613284075 0.012326761333233394 0 0.00027099486250520461 0.012638855915364568 0 0.0011845721205911363 0.013193885554424779 0 0.0011583855893704028 0.01131324184742854 0 0.0011845721205911363 0.013193885554424779 0 0.0021944316948879607 0.012418822695678806 0 0.0011583855893704028 0.01131324184742854 0 0.00031753863789567614 0.014020545241963261 0 0.00027099486250520461 0.012638855915364568 0 0.0011845721205911363 0.013193885554424779 0 0.0011845721205911363 0.013193885554424779 0 0.00095386532273674534 0.014553350812764401 0 0.0019611681366986668 0.013492842209777898 0 0.00031753863789567614 0.014020545241963261 0 0.0011845721205911363 0.013193885554424779 0 0.00095386532273674534 0.014553350812764401 0 0.00042392952643101887 0.014807831765484317 0 0.00031753863789567614 0.014020545241963261 0 0.00095386532273674534 0.014553350812764401 0 0.001592339010257912 0.01470077952753584 0 0.0019611681366986668 0.013492842209777898 0 0.0040241489840013743 0.012563775604568865 0 0.0013851327494133873 0.011547253974596623 0 0.0020425811894894852 0.010034366789496946 0 0.00095386532273674534 0.014553350812764401 0 0.001592339010257912 0.01470077952753584 0 0.0019611681366986668 0.013492842209777898 0 0.0017120291986676619 0.0091535069140536249 0 0.0016999585879122663 0.0084975760855083293 0 0.0017879026062012908 0.0089726759171835299 0 0.00082245030534470998 0.0094457575087498209 0 0.0017120291986676619 0.0091535069140536249 0 0.0016999585879122663 0.0084975760855083293 0 0.0019611681366986668 0.013492842209777898 0 0.0040241489840013743 0.012563775604568865 0 0.0021944316948879607 0.012418822695678806 0 0.0040241489840013743 0.012563775604568865 0 0.0021944316948879607 0.012418822695678806 0 0.0028726088934296779 0.011088518931581024 0 0.0011845721205911363 0.013193885554424779 0 0.0019611681366986668 0.013492842209777898 0 0.0021944316948879607 0.012418822695678806 0 0.0021944316948879607 0.012418822695678806 0 0.0028726088934296779 0.011088518931581024 0 0.0011583855893704028 0.01131324184742854 0 0.0028726088934296779 0.011088518931581024 0 0.0013024551904042159 0.0090311898435842218 0 0.0011583855893704028 0.01131324184742854 0 0.0019860291614552145 0.0099027074719350312 0 0.0017655577299096898 0.0096631224024568193 0 0.0024707094683114688 0.009441350995907781 0 0.0024460947967761661 0.0088712932252924502 0 0.002755966457770704 0.008735734712204268 0 0.0020425811894894852 0.010034366789496946 0 0.0023406419867912204 0.0095799435299061177 0 0.0020425811894894852 0.010034366789496946 0 0.0019860291614552145 0.0099027074719350312 0 0.0024707094683114688 0.009441350995907781 0 0.001894328447735503 0.0090575347610295336 0 0.0024460947967761661 0.0088712932252924502 0 0.001894328447735503 0.0090575347610295336 0 0.0024460947967761661 0.0088712932252924502 0 0.0022341023070800636 0.0083362441406902976 0 0.0024460947967761661 0.0088712932252924502 0 0.0033072194463562724 0.008389466185136342 0 0.002755966457770704 0.008735734712204268 0 0.0024460947967761661 0.0088712932252924502 0 0.0022341023070800636 0.0083362441406902976 0 0.0033072194463562724 0.008389466185136342 0 0.0022341023070800636 0.0083362441406902976 0 0.0025910183576513721 0.0072144369945298954 0 0.0018334843015222022 0.0074801188912160628 0 0.0036036072682497562 0.0067167962582197101 0 0.0025910183576513721 0.0072144369945298954 0 0.0033072194463562724 0.008389466185136342 0 0.0022341023070800636 0.0083362441406902976 0 0.0025910183576513721 0.0072144369945298954 0 0.0033072194463562724 0.008389466185136342 0 0.001894328447735503 0.0090575347610295336 0 0.0016563751628708709 0.0084141771657907736 0 0.0013024551904042159 0.0090311898435842218 0 0.001894328447735503 0.0090575347610295336 0 0.0022341023070800636 0.0083362441406902976 0 0.0016563751628708709 0.0084141771657907736 0 0.000861731311525539 0.0073467257457677793 0 0.0016563751628708709 0.0084141771657907736 0 0.0013024551904042159 0.0090311898435842218 0 0.0022341023070800636 0.0083362441406902976 0 0.0016563751628708709 0.0084141771657907736 0 0.0018334843015222022 0.0074801188912160628 0 0.000861731311525539 0.0073467257457677793 0 0.0016563751628708709 0.0084141771657907736 0 0.0018334843015222022 0.0074801188912160628 0 0.0013509084981521242 0.0058882532069294124 0 0.00011606771736238145 0.0066970169287544033 0 0.000861731311525539 0.0073467257457677793 0 0.0013024551904042159 0.0090311898435842218 0 0.00024914860131846429 0.0095317757997718175 0 0.000861731311525539 0.0073467257457677793 0 0.00024914860131846429 0.0095317757997718175 0 -0.00087895945707109518 0.0084789185955191828 0 -0.0012427763952565947 0.010734378594440286 0 0.00024914860131846429 0.0095317757997718175 0 -0.00087895945707109518 0.0084789185955191828 0 -0.0012427763952565947 0.010734378594440286 0 0.00024914860131846429 0.0095317757997718175 0 -9.0337718336708028e-05 0.011192800217369316 0 -0.0012427763952565947 0.010734378594440286 0 -0.00086924192613284075 0.012326761333233394 0 -9.0337718336708028e-05 0.011192800217369316 0 0.00027099486250520461 0.012638855915364568 0 -0.00086924192613284075 0.012326761333233394 0 -9.0337718336708028e-05 0.011192800217369316 0 0.00027099486250520461 0.012638855915364568 0 -9.0337718336708028e-05 0.011192800217369316 0 0.0011583855893704028 0.01131324184742854 0 0.0013024551904042159 0.0090311898435842218 0 0.00024914860131846429 0.0095317757997718175 0 0.0011583855893704028 0.01131324184742854 0 0.00024914860131846429 0.0095317757997718175 0 -9.0337718336708028e-05 0.011192800217369316 0 0.0011583855893704028 0.01131324184742854 0 0.0010712847794810743 0.0090625442735605081 0 0.00094821512601964933 0.0085830386878427197 0 0.00044961762295715675 0.0089349439940230799 0 0.0010712847794810743 0.0090625442735605081 0 0.00094821512601964933 0.0085830386878427197 0 0.001420590225975979 0.0087320601392161263 0 0.00094821512601964933 0.0085830386878427197 0 0.001420590225975979 0.0087320601392161263 0 0.001493422792911237 0.0084313865477835034 0 0.00094821512601964933 0.0085830386878427197 0 0.00044961762295715675 0.0089349439940230799 0 0.00040888689225525559 0.0084638873713805511 0 -1.0835807543890253e-05 0.0087343698566921691 0 0.00044961762295715675 0.0089349439940230799 0 0.00040888689225525559 0.0084638873713805511 0 -1.0835807543890253e-05 0.0087343698566921691 0 -7.194267130724964e-05 0.0083245771632345939 0 -0.00043507245388398194 0.0085584712258906809 0 -1.0835807543890253e-05 0.0087343698566921691 0 -7.194267130724964e-05 0.0083245771632345939 0 0.00040888689225525559 0.0084638873713805511 0 -1.0835807543890253e-05 0.0087343698566921691 0 -2.7124625258878347e-05 0.0091929091734709208 0 -0.00038878511003998998 0.0089739097577019901 0 -1.0835807543890253e-05 0.0087343698566921691 0 0.00044961762295715675 0.0089349439940230799 0 -2.7124625258878347e-05 0.0091929091734709208 0 0.0055514597417463864 0.0024692597768648616 0 0.0046624973394069824 0.00085661082298837271 0 0.0003937777603899738 0.0097333549233587936 0 -2.7124625258878347e-05 0.0091929091734709208 0 -0.00054439314205365758 0.0095079197142970834 0 0.00044961762295715675 0.0089349439940230799 0 0.0003937777603899738 0.0097333549233587936 0 -2.7124625258878347e-05 0.0091929091734709208 0 0.0010712847794810743 0.0090625442735605081 0 0.0003937777603899738 0.0097333549233587936 0 0.0016805786815371751 0.009577249082090733 0 0.0055514597417463864 0.0024692597768648616 0 0.0043526520029277382 0.0050918316330586981 0 0.0067615800497918656 0.0065580012370205481 0 0.011216292680707006 0.0076853236071753326 0 0.0073960062445506576 0.0080535324773254105 0 0.0010712847794810743 0.0090625442735605081 0 0.00044961762295715675 0.0089349439940230799 0 0.0003937777603899738 0.0097333549233587936 0 0.0067615800497918656 0.0065580012370205481 0 0.0073960062445506576 0.0080535324773254105 0 0.0033072194463562724 0.008389466185136342 0 0.0010712847794810743 0.0090625442735605081 0 0.0016805786815371751 0.009577249082090733 0 0.0016475219184780537 0.0089852771225003378 0 0.0016805786815371751 0.009577249082090733 0 0.0022034973212394001 0.008945086592608259 0 0.0016475219184780537 0.0089852771225003378 0 0.0022034973212394001 0.008945086592608259 0 0.0033072194463562724 0.008389466185136342 0 0.0025767359102931279 0.0087208308715066539 0 0.0036036072682497562 0.0067167962582197101 0 0.0067615800497918656 0.0065580012370205481 0 0.0033072194463562724 0.008389466185136342 0 0.0016805786815371751 0.009577249082090733 0 0.0022034973212394001 0.008945086592608259 0 0.0033072194463562724 0.008389466185136342 0 0.0043526520029277382 0.0050918316330586981 0 0.0037270574456293375 0.0058276935766046253 0 0.0033072194463562724 0.008389466185136342 0 0.002755966457770704 0.008735734712204268 0 0.0025767359102931279 0.0087208308715066539 0 0.002862322341919949 0.008239840348852662 0 0.002755966457770704 0.008735734712204268 0 0.0021580515892895558 0.0083301128788420623 0 0.002755966457770704 0.008735734712204268 0 0.0025767359102931279 0.0087208308715066539 0 0.0020458354728156384 0.0086904396315151764 0 0.002755966457770704 0.008735734712204268 0 0.0020458354728156384 0.0086904396315151764 0 0.0021580515892895558 0.0083301128788420623 0 0.0016475219184780537 0.0089852771225003378 0 0.001420590225975979 0.0087320601392161263 0 0.0020458354728156384 0.0086904396315151764 0 0.0010712847794810743 0.0090625442735605081 0 0.0016475219184780537 0.0089852771225003378 0 0.001420590225975979 0.0087320601392161263 0 0.0022034973212394001 0.008945086592608259 0 0.0016475219184780537 0.0089852771225003378 0 0.0020458354728156384 0.0086904396315151764 0 0.0022034973212394001 0.008945086592608259 0 0.0025767359102931279 0.0087208308715066539 0 0.0020458354728156384 0.0086904396315151764 0 0.0020458354728156384 0.0086904396315151764 0 0.001493422792911237 0.0084313865477835034 0 0.0021580515892895558 0.0083301128788420623 0 0.001420590225975979 0.0087320601392161263 0 0.0020458354728156384 0.0086904396315151764 0 0.001493422792911237 0.0084313865477835034 0 0.001493422792911237 0.0084313865477835034 0 0.0016084784464195372 0.0081163921923377673 0 0.00085029445312307099 0.0081744715969424946 0 0.0016084784464195372 0.0081163921923377673 0 0.001140645034218222 0.0078664863813915371 0 0.00085029445312307099 0.0081744715969424946 0 0.001493422792911237 0.0084313865477835034 0 0.0016084784464195372 0.0081163921923377673 0 0.0021580515892895558 0.0083301128788420623 0 0.002862322341919949 0.008239840348852662 0 0.0021580515892895558 0.0083301128788420623 0 0.0020618504398567301 0.0077968849533404149 0 0.0016084784464195372 0.0081163921923377673 0 0.0021580515892895558 0.0083301128788420623 0 0.0020618504398567301 0.0077968849533404149 0 0.0020425811894894852 0.010034366789496946 0 0.0016656755756947106 0.0091119835402821685 0 0.0017120291986676619 0.0091535069140536249 0 0.0017879026062012908 0.0089726759171835299 0 0.0018248200324828242 0.0086997784702145132 0 0.0016084784464195372 0.0081163921923377673 0 0.0020618504398567301 0.0077968849533404149 0 0.001140645034218222 0.0078664863813915371 0 0.0020618504398567301 0.0077968849533404149 0 0.001140645034218222 0.0078664863813915371 0 0.0011815861729592122 0.0078025337890271365 0 0.0016656755756947106 0.0091119835402821685 0 0.0015068318360931174 0.008809380775945206 0 0.001140645034218222 0.0078664863813915371 0 0.00068234816107364373 0.0076388090450417653 0 0.0011815861729592122 0.0078025337890271365 0 0.001140645034218222 0.0078664863813915371 0 0.00085029445312307099 0.0081744715969424946 0 0.00032303317548016693 0.0078401526806483688 0 0.00068234816107364373 0.0076388090450417653 0 0.00032303317548016693 0.0078401526806483688 0 0.00019815252211812965 0.0072157902587110878 0 0.001140645034218222 0.0078664863813915371 0 0.00068234816107364373 0.0076388090450417653 0 0.00032303317548016693 0.0078401526806483688 0 0.00085029445312307099 0.0081744715969424946 0 0.00025366327907118034 0.0081388960586952393 0 0.00032303317548016693 0.0078401526806483688 0 0.00085029445312307099 0.0081744715969424946 0 0.00040888689225525559 0.0084638873713805511 0 0.00025366327907118034 0.0081388960586952393 0 0.00094821512601964933 0.0085830386878427197 0 0.00085029445312307099 0.0081744715969424946 0 0.00040888689225525559 0.0084638873713805511 0 0.00094821512601964933 0.0085830386878427197 0 0.001493422792911237 0.0084313865477835034 0 0.00085029445312307099 0.0081744715969424946 0 -7.194267130724964e-05 0.0083245771632345939 0 0.00040888689225525559 0.0084638873713805511 0 0.00025366327907118034 0.0081388960586952393 0 0.00025366327907118034 0.0081388960586952393 0 -0.00023977964849398312 0.0079074351271411821 0 0.00032303317548016693 0.0078401526806483688 0 -7.194267130724964e-05 0.0083245771632345939 0 0.00025366327907118034 0.0081388960586952393 0 -0.00023977964849398312 0.0079074351271411821 0 -0.00023977964849398312 0.0079074351271411821 0 0.00032303317548016693 0.0078401526806483688 0 -0.00053767195485768986 0.007357946969820759 0 0.00032303317548016693 0.0078401526806483688 0 0.00019815252211812965 0.0072157902587110878 0 -0.00053767195485768986 0.007357946969820759 0 -0.00043963127464511173 0.0068780028382565998 0 0.00019815252211812965 0.0072157902587110878 0 -0.00053767195485768986 0.007357946969820759 0 -0.00043963127464511173 0.0068780028382565998 0 0.00019815252211812965 0.0072157902587110878 0 0.00016710071136473125 0.006621673437806396 0 0.00068234816107364373 0.0076388090450417653 0 0.00066649814786268755 0.007145866029505391 0 0.00019815252211812965 0.0072157902587110878 0 0.00068234816107364373 0.0076388090450417653 0 0.00066649814786268755 0.007145866029505391 0 0.0011815861729592122 0.0078025337890271365 0 0.00066649814786268755 0.007145866029505391 0 0.00019815252211812965 0.0072157902587110878 0 0.00016710071136473125 0.006621673437806396 0 0.00066649814786268755 0.007145866029505391 0 0.00016710071136473125 0.006621673437806396 0 0.00052083005808867212 0.0062445549990791157 0 0.00016710071136473125 0.006621673437806396 0 0.00052083005808867212 0.0062445549990791157 0 -3.2011278886889299e-05 0.0056844479492898087 0 0.00016710071136473125 0.006621673437806396 0 -0.00043578864950566648 0.0062819979823789066 0 -3.2011278886889299e-05 0.0056844479492898087 0 -0.00043578864950566648 0.0062819979823789066 0 -0.0006495627255765329 0.0055857229539444031 0 -0.00102972700441624 0.0066904226851475512 0 -0.00043578864950566648 0.0062819979823789066 0 -0.0006495627255765329 0.0055857229539444031 0 -3.2011278886889299e-05 0.0056844479492898087 0 -0.00043963127464511173 0.0068780028382565998 0 -0.00043578864950566648 0.0062819979823789066 0 -0.00102972700441624 0.0066904226851475512 0 -0.00043963127464511173 0.0068780028382565998 0 0.00016710071136473125 0.006621673437806396 0 -0.00043578864950566648 0.0062819979823789066 0 0.0017879026062012908 0.0089726759171835299 0 0.0018248200324828242 0.0086997784702145132 0 0.0011815861729592122 0.0078025337890271365 0 0.0018248200324828242 0.0086997784702145132 0 0.0011815861729592122 0.0078025337890271365 0 0.0012412356709935954 0.0069778551499910142 0 0.00066649814786268755 0.007145866029505391 0 0.0011815861729592122 0.0078025337890271365 0 0.0012412356709935954 0.0069778551499910142 0 0.00066649814786268755 0.007145866029505391 0 0.00052083005808867212 0.0062445549990791157 0 0.0012412356709935954 0.0069778551499910142 0 0.00052083005808867212 0.0062445549990791157 0 0.0012412356709935954 0.0069778551499910142 0 0.00080620621250430762 0.0054620044667327431 0 0.0021903008162056392 0.0073651432395145915 0 0.0018248200324828242 0.0086997784702145132 0 0.0012412356709935954 0.0069778551499910142 0 0.00053064424654849325 0.010711925944409985 0 0.00071520976487506917 0.011632768273704427 0 -0.00051438051634956244 0.0091179856122489827 0 0.0021903008162056392 0.0073651432395145915 0 0.0012412356709935954 0.0069778551499910142 0 0.0015090508065520999 0.0052771515620081361 0 0.0013401492369082102 0.0080370092804924569 0 0.0010018849437280898 0.0066972333887727097 0 0.0012412356709935954 0.0069778551499910142 0 0.0015090508065520999 0.0052771515620081361 0 0.00080620621250430762 0.0054620044667327431 0 0.0010018849437280898 0.0066972333887727097 0 9.1800830990726949e-07 0.0041488521241254484 0 -0.00051438051634956244 0.0091179856122489827 0 -3.2740753823118826e-06 0.0041493253768098686 0 1.1422169396657088e-06 0.0076670954356245049 0 0.0015090508065520999 0.0052771515620081361 0 0.00080620621250430762 0.0054620044667327431 0 5.5238716991081014e-06 0.0041384864268500417 0 0.00053064424654849325 0.010711925944409985 0 -0.00051438051634956244 0.0091179856122489827 0 1.1422169396657088e-06 0.0076670954356245049 0 -0.0011356307386149686 0.0048949678176346311 0 -0.0006495627255765329 0.0055857229539444031 0 -0.00102972700441624 0.0066904226851475512 0 -0.00014326693661682966 0.004775877475661312 0 -0.00093118277250974423 0.0048794392287079364 0 -0.0006495627255765329 0.0055857229539444031 0 -0.00093118277250974423 0.0048794392287079364 0 -0.0016346389826026192 0.0047538768898560393 0 0.0001193241771098136 0.003489314710776592 0 -0.00014326693661682966 0.004775877475661312 0 -0.00093118277250974423 0.0048794392287079364 0 0.0001193241771098136 0.003489314710776592 0 -0.00093118277250974423 0.0048794392287079364 0 -0.0011356307386149686 0.0048949678176346311 0 -0.0006495627255765329 0.0055857229539444031 0 0.00062575225620166083 -0.001407757166575146 0 0.00064609822534715479 -0.0014523436401513207 0 -0.00014326693661682966 0.004775877475661312 0 -0.0006495627255765329 0.0055857229539444031 0 -3.2011278886889299e-05 0.0056844479492898087 0 0.00052083005808867212 0.0062445549990791157 0 -3.2011278886889299e-05 0.0056844479492898087 0 0.00035034839437202359 0.0047940586704630656 0 0.00052083005808867212 0.0062445549990791157 0 0.00080620621250430762 0.0054620044667327431 0 0.00035034839437202359 0.0047940586704630656 0 -0.00014326693661682966 0.004775877475661312 0 -3.2011278886889299e-05 0.0056844479492898087 0 0.00035034839437202359 0.0047940586704630656 0 -0.00014326693661682966 0.004775877475661312 0 0.00035034839437202359 0.0047940586704630656 0 0.0001193241771098136 0.003489314710776592 0 5.5238716991081014e-06 0.0041384864268500417 0 -4.9266872648295139e-06 0.0012556426779601927 0 0.0001193241771098136 0.003489314710776592 0 0.00080620621250430762 0.0054620044667327431 0 5.5238716991081014e-06 0.0041384864268500417 0 0.00035034839437202359 0.0047940586704630656 0 5.5238716991081014e-06 0.0041384864268500417 0 0.00035034839437202359 0.0047940586704630656 0 0.0001193241771098136 0.003489314710776592 0 -0.0016346389826026192 0.0047538768898560393 0 -4.9266872648295139e-06 0.0012556426779601927 0 0.0001193241771098136 0.003489314710776592 0 0.00064609822534715479 -0.0014523436401513207 0 5.584578983102356e-08 0.0012446278325465466 0 -5.4729033571834234e-05 -0.00097634893020186555 0 -1.6170826504689555e-06 0.0012423729935226297 0 1.150658242461821e-06 -0.0020187513217203219 0 -5.4729033571834234e-05 -0.00097634893020186555 0 1.150658242461821e-06 -0.0020187513217203219 0 8.4001495093576715e-05 -0.0028718852923253885 0 0.00064609822534715479 -0.0014523436401513207 0 0.0017223882567342092 -0.0044326373722737358 0 0.005473638257384868 -0.0090845912833369749 0 0.0037588997026672924 -0.0082328246983867492 0 0.0047593556544234363 -0.0072121687736151534 0 0.005473638257384868 -0.0090845912833369749 0 0.0037588997026672924 -0.0082328246983867492 0 0.003548862834837613 -0.0094935837029959877 0 0.0037588997026672924 -0.0082328246983867492 0 0.003548862834837613 -0.0094935837029959877 0 0.0024834258126169477 -0.0085261438871546656 0 1.150658242461821e-06 -0.0020187513217203219 0 8.4001495093576715e-05 -0.0028718852923253885 0 -1.6365581227490902e-07 -0.0052869355590681169 0 0.003548862834837613 -0.0094935837029959877 0 0.0016840014071612722 -0.0098941743268470723 0 0.0018002354762376024 -0.0090534099238379906 0 0.0017223882567342092 -0.0044326373722737358 0 0.0013638159476788171 -0.0064042921701201452 0 8.4001495093576715e-05 -0.0028718852923253885 0 -1.6365581227490902e-07 -0.0052869355590681169 0 -4.5274490603081029e-05 -0.0063284408686037543 0 -1.6365581227490902e-07 -0.0052869355590681169 0 -4.5274490603081029e-05 -0.0063284408686037543 0 -8.8072452193974576e-08 -0.0085553383056945122 0 0.0016840014071612722 -0.0098941743268470723 0 0.0010207009398389313 -0.0093324909898431039 0 0.0018002354762376024 -0.0090534099238379906 0 0.0018002354762376024 -0.0090534099238379906 0 0.0011202905600770534 -0.0084082630331389178 0 0.0024834258126169477 -0.0085261438871546656 0 4.3874279590594377e-05 -0.0081997899095013829 0 0.00097820562925789601 -0.0083269265840020968 0 0.0010207009398389313 -0.0093324909898431039 0 0.0018002354762376024 -0.0090534099238379906 0 0.0011202905600770534 -0.0084082630331389178 0 0.003548862834837613 -0.0094935837029959877 0 0.0018002354762376024 -0.0090534099238379906 0 0.0024834258126169477 -0.0085261438871546656 0 0.0037588997026672924 -0.0082328246983867492 0 0.0024834258126169477 -0.0085261438871546656 0 0.0025136033067068601 -0.0068088586423328025 0 0.00097624031217701565 -0.0083233693072256101 0 0.0024834258126169477 -0.0085261438871546656 0 0.0025136033067068601 -0.0068088586423328025 0 4.3874279590594377e-05 -0.0081997899095013829 0 0.0011659177452074748 -0.001928120858637955 0 -0.0034506657341641152 0.0043636410162983036 0 -0.0031232709178774928 0.0063881986668111691 0 -0.0021163959415791416 0.0057529204952888689 0 -0.0031232709178774928 0.0063881986668111691 0 -0.0021163959415791416 0.0057529204952888689 0 -0.0023327835448221671 0.0074018389084259829 0 0.0037588997026672924 -0.0082328246983867492 0 0.0025136033067068601 -0.0068088586423328025 0 0.0047593556544234363 -0.0072121687736151534 0 0.0011659177452074748 -0.001928120858637955 0 0.00221554676451826 0.0024140647869618195 0 0.0025136033067068601 -0.0068088586423328025 0 0.0047593556544234363 -0.0072121687736151534 0 0.004023512952851192 -0.005300615577311857 0 0.0017141091926331925 -0.00016979712634687517 0 0.00221554676451826 0.0024140647869618195 0 -0.00043963127464511173 0.0068780028382565998 0 -0.00053767195485768986 0.007357946969820759 0 -0.00102972700441624 0.0066904226851475512 0 -0.00053767195485768986 0.007357946969820759 0 -0.00102972700441624 0.0066904226851475512 0 -0.0010187122516414828 0.0076490189303419455 0 0.00064609822534715479 -0.0014523436401513207 0 0.0017141091926331925 -0.00016979712634687517 0 0.00059296286876865082 -0.015717900649220181 0 0.00056969173632235985 -0.015565907882086097 0 0.00049255797033448184 -0.015650315315492089 0 0.00056969173632235985 -0.015565907882086097 0 0.00049255797033448184 -0.015650315315492089 0 0.00039164847541737086 -0.015145697555441826 0 0.00049255797033448184 -0.015650315315492089 0 0.00034169737350363944 -0.015161325137656015 0 0.00039164847541737086 -0.015145697555441826 0 1.8010842315723258e-06 -0.014587858700931843 0 0.00034169737350363944 -0.015161325137656015 0 9.7795600252248069e-07 -0.017355445989466218 0 0.00049255797033448184 -0.015650315315492089 0 0.00034169737350363944 -0.015161325137656015 0 9.7795600252248069e-07 -0.017355445989466218 0 1.8010842315723258e-06 -0.014587858700931843 0 0.00034169737350363944 -0.015161325137656015 0 0.00019503931168839462 -0.014006022424951864 0 0.00034169737350363944 -0.015161325137656015 0 0.00019503931168839462 -0.014006022424951864 0 0.00039164847541737086 -0.015145697555441826 0 1.8010842315723258e-06 -0.014587858700931843 0 0.00019503931168839462 -0.014006022424951864 0 -3.1377393579473407e-06 -0.011827636384006527 0 -0.00047121228280684894 -0.015153119315061954 0 -0.00074393700011615282 -0.015674958172576844 0 0.00019962181273087769 -0.015800524660740316 0 0.00019503931168839462 -0.014006022424951864 0 0.00039164847541737086 -0.015145697555441826 0 -0.00047121228280684894 -0.015153119315061954 0 0.00056969173632235985 -0.015565907882086097 0 0.00039164847541737086 -0.015145697555441826 0 0.00019962181273087769 -0.015800524660740316 0 0.00039164847541737086 -0.015145697555441826 0 -0.00047121228280684894 -0.015153119315061954 0 0.00019962181273087769 -0.015800524660740316 0 0.00019503931168839462 -0.014006022424951864 0 -0.00047121228280684894 -0.015153119315061954 0 -0.0022664465432518368 -0.014171235564674705 0 -0.00047121228280684894 -0.015153119315061954 0 -0.0022664465432518368 -0.014171235564674705 0 -0.0010398998938648174 -0.016224392171997906 0 -0.0024157087302714587 -0.0090428912071300136 0 -0.0021590504551483192 -0.0080701076744350547 0 -1.9874470160256314e-07 -0.011820300156852441 0 1.1424241140312316e-05 -0.010364470272063339 0 -8.8072452193974576e-08 -0.0085553383056945122 0 0.00019503931168839462 -0.014006022424951864 0 -3.1377393579473407e-06 -0.011827636384006527 0 -0.0022664465432518368 -0.014171235564674705 0 -1.4594057579163761e-06 -0.011820164096210546 0 -0.0005101420757078136 -0.010673493427226 0 -1.9874470160256314e-07 -0.011820300156852441 0 1.1424241140312316e-05 -0.010364470272063339 0 0.00011808961358568325 -0.0094501138992627038 0 0.0013638159476788171 -0.0064042921701201452 0 0.00096041987834679732 -0.0072490427607263593 0 0.0010207009398389313 -0.0093324909898431039 0 1.1424241140312316e-05 -0.010364470272063339 0 0.00011808961358568325 -0.0094501138992627038 0 0.0016840014071612722 -0.0098941743268470723 0 0.0010207009398389313 -0.0093324909898431039 0 1.1424241140312316e-05 -0.010364470272063339 0 -4.5274490603081029e-05 -0.0063284408686037543 0 1.1424241140312316e-05 -0.010364470272063339 0 -8.8072452193974576e-08 -0.0085553383056945122 0 4.3874279590594377e-05 -0.0081997899095013829 0 -0.0005101420757078136 -0.010673493427226 0 -0.0039490231316188819 -0.015809221320094255 0 -0.0022664465432518368 -0.014171235564674705 0 -0.0010398998938648174 -0.016224392171997906 0 0.0010207009398389313 -0.0093324909898431039 0 0.0011202905600770534 -0.0084082630331389178 0 0.00011808961358568325 -0.0094501138992627038 0 4.3874279590594377e-05 -0.0081997899095013829 0 -0.0021590504551483192 -0.0080701076744350547 0 -0.0034506657341641152 0.0043636410162983036 0 -0.0043243769348246452 0.0061798327837767056 0 -0.0051445490233771986 0.0045657950653189986 0 -0.0034506657341641152 0.0043636410162983036 0 -0.0031232709178774928 0.0063881986668111691 0 -0.0043243769348246452 0.0061798327837767056 0 0.002155733785662973 -0.015624406328499211 0 0.0018221843071377106 -0.016108975098825924 0 0.0016913379705556641 -0.015774160771458681 0 0.002155733785662973 -0.015624406328499211 0 0.0016913379705556641 -0.015774160771458681 0 0.0016319727196223853 -0.015350843310846043 0 -0.0004275345366189385 -0.0055018202402762739 0 -0.0021590504551483192 -0.0080701076744350547 0 0.0018221843071377106 -0.016108975098825924 0 0.0014304388384601091 -0.01601769341985456 0 0.0016913379705556641 -0.015774160771458681 0 -0.0021590504551483192 -0.0080701076744350547 0 -8.502488984364612e-05 -0.010264857017642414 0 0.0014304388384601091 -0.01601769341985456 0 0.0016913379705556641 -0.015774160771458681 0 0.0014042060513908203 -0.015744143974208424 0 0.0016913379705556641 -0.015774160771458681 0 0.0014042060513908203 -0.015744143974208424 0 0.0016319727196223853 -0.015350843310846043 0 0.0014042060513908203 -0.015744143974208424 0 0.0013078641279757187 -0.017103409093360056 0 0.0011355129235900967 -0.016465647774341886 0 0.0014042060513908203 -0.015744143974208424 0 0.001164857704488836 -0.015437318867450849 0 0.0010648340415249826 -0.015996028099052123 0 0.0014042060513908203 -0.015744143974208424 0 0.0011355129235900967 -0.016465647774341886 0 0.0010648340415249826 -0.015996028099052123 0 0.0014042060513908203 -0.015744143974208424 0 0.00079145055487182673 -0.015769149314051507 0 0.00062476061374286645 -0.015673003764648884 0 -8.502488984364612e-05 -0.010264857017642414 0 0.0004125801234219156 -0.010917415650835125 0 0.0014304388384601091 -0.01601769341985456 0 0.0014042060513908203 -0.015744143974208424 0 0.00079145055487182673 -0.015769149314051507 0 0.0011970856205931139 -0.016786344324056374 0 0.0010328843190684025 -0.017178933605446547 0 0.00056969173632235985 -0.015565907882086097 0 0.00019962181273087769 -0.015800524660740316 0 0.00079145055487182673 -0.015769149314051507 0 0.00059296286876865082 -0.015717900649220181 0 0.00079145055487182673 -0.015769149314051507 0 0.00062476061374286645 -0.015673003764648884 0 0.00059296286876865082 -0.015717900649220181 0 0.00056969173632235985 -0.015565907882086097 0 0.00079145055487182673 -0.015769149314051507 0 0.0014042060513908203 -0.015744143974208424 0 0.001164857704488836 -0.015437318867450849 0 0.0016319727196223853 -0.015350843310846043 0 0.0011730957430319152 -0.014896798691979563 0 0.001164857704488836 -0.015437318867450849 0 0.0016319727196223853 -0.015350843310846043 0 0.00081763043251584287 -0.011672296565341689 0 0.0011744791568509747 -0.010364750956983894 0 0.0011730957430319152 -0.014896798691979563 0 0.0016319727196223853 -0.015350843310846043 0 0.0017019782974419971 -0.014774448177643909 0 0.0016319727196223853 -0.015350843310846043 0 0.0020489387117889383 -0.015090078476581083 0 0.0017019782974419971 -0.014774448177643909 0 0.0020489387117889383 -0.015090078476581083 0 0.0022489023183047906 -0.014595983035098308 0 0.0017019782974419971 -0.014774448177643909 0 0.002155733785662973 -0.015624406328499211 0 0.0016319727196223853 -0.015350843310846043 0 0.0020489387117889383 -0.015090078476581083 0 -0.0004275345366189385 -0.0055018202402762739 0 0.0011089501523294757 -0.0046745837412983876 0 -0.0031232709178774928 0.0063881986668111691 0 -0.0043243769348246452 0.0061798327837767056 0 -0.0034696308935238131 0.0077463952744418283 0 0.002155733785662973 -0.015624406328499211 0 0.0020489387117889383 -0.015090078476581083 0 0.0025147027168357203 -0.015054605571084428 0 0.0020489387117889383 -0.015090078476581083 0 0.0022489023183047906 -0.014595983035098308 0 0.0025147027168357203 -0.015054605571084428 0 0.0026297380787778163 -0.0070410176819099982 0 0.0038415772475073238 -0.005312957652338292 0 0.0030474980658272673 -0.0042934127709640434 0 0.0026297380787778163 -0.0070410176819099982 0 0.0013472251725940216 -0.0056483302740648923 0 0.0030474980658272673 -0.0042934127709640434 0 0.0026297380787778163 -0.0070410176819099982 0 0.0013472251725940216 -0.0056483302740648923 0 0.00068643448631404349 -0.0082003857941174759 0 0.0020225557210513299 -0.0083943818888938797 0 0.0011744791568509747 -0.010364750956983894 0 0.00068643448631404349 -0.0082003857941174759 0 1.8070698122018065e-05 -0.0074237694925684064 0 -0.00042695878695606549 -0.0082607851681269547 0 0.0013472251725940216 -0.0056483302740648923 0 0.00068643448631404349 -0.0082003857941174759 0 1.8070698122018065e-05 -0.0074237694925684064 0 0.0013472251725940216 -0.0056483302740648923 0 1.8070698122018065e-05 -0.0074237694925684064 0 0.00011948960543994294 -0.0062214630620990585 0 1.8070698122018065e-05 -0.0074237694925684064 0 0.00011948960543994294 -0.0062214630620990585 0 -0.00074241551611986523 -0.0074077296880499261 0 1.8070698122018065e-05 -0.0074237694925684064 0 -0.00074241551611986523 -0.0074077296880499261 0 -0.00067378006595716932 -0.0087339512490493543 0 1.8070698122018065e-05 -0.0074237694925684064 0 -0.00042695878695606549 -0.0082607851681269547 0 -0.00067378006595716932 -0.0087339512490493543 0 -0.00044916337953474595 -0.0083797303578780433 0 -0.00042695878695606549 -0.0082607851681269547 0 9.3126659419643783e-05 -0.0086601988699912709 0 -0.00044916337953474595 -0.0083797303578780433 0 0.00068643448631404349 -0.0082003857941174759 0 -0.00042695878695606549 -0.0082607851681269547 0 -0.0011014050907511379 0.0077776949098058096 0 -0.0015003003193787424 0.0080619451081268018 0 -0.0010011467383211688 0.0081255230541082916 0 -0.0011014050907511379 0.0077776949098058096 0 -0.0010011467383211688 0.0081255230541082916 0 -0.00089298262845695353 0.0078975309180963661 0 -0.0011014050907511379 0.0077776949098058096 0 -0.00089298262845695353 0.0078975309180963661 0 -0.00088020311173066213 0.0077319785609685603 0 -0.0011014050907511379 0.0077776949098058096 0 -0.0015003003193787424 0.0080619451081268018 0 -0.0015798931038409837 0.0072357038770662864 0 -0.0015003003193787424 0.0080619451081268018 0 -0.001096456008711312 0.0085164203739993821 0 -0.0015563748482642298 0.0087491117361097603 0 -0.0015003003193787424 0.0080619451081268018 0 -0.0010011467383211688 0.0081255230541082916 0 -0.001096456008711312 0.0085164203739993821 0 -0.0010011467383211688 0.0081255230541082916 0 -0.00076206906840205278 0.0083936882798329154 0 -0.001096456008711312 0.0085164203739993821 0 -0.00076206906840205278 0.0083936882798329154 0 -0.00048042210325411158 0.0081911622833209033 0 -0.00074928415756347585 0.0080977646599512364 0 -0.0010011467383211688 0.0081255230541082916 0 -0.00076206906840205278 0.0083936882798329154 0 -0.00074928415756347585 0.0080977646599512364 0 -7.194267130724964e-05 0.0083245771632345939 0 -0.00048042210325411158 0.0081911622833209033 0 -0.00043507245388398194 0.0085584712258906809 0 -0.00076206906840205278 0.0083936882798329154 0 -0.00048042210325411158 0.0081911622833209033 0 -0.00043507245388398194 0.0085584712258906809 0 -7.194267130724964e-05 0.0083245771632345939 0 -0.00023977964849398312 0.0079074351271411821 0 -0.00048042210325411158 0.0081911622833209033 0 -0.00023977964849398312 0.0079074351271411821 0 -0.00048042210325411158 0.0081911622833209033 0 -0.00064279365073856276 0.0078962605921458952 0 -0.0010011467383211688 0.0081255230541082916 0 -0.00074928415756347585 0.0080977646599512364 0 -0.00089298262845695353 0.0078975309180963661 0 -0.00048042210325411158 0.0081911622833209033 0 -0.00074928415756347585 0.0080977646599512364 0 -0.00064279365073856276 0.0078962605921458952 0 -0.00074928415756347585 0.0080977646599512364 0 -0.00064279365073856276 0.0078962605921458952 0 -0.00089298262845695353 0.0078975309180963661 0 -0.00088020311173066213 0.0077319785609685603 0 -0.00067099109421834766 0.0076740479672281411 0 -0.0010187122516414828 0.0076490189303419455 0 -0.00053767195485768986 0.007357946969820759 0 -0.00067099109421834766 0.0076740479672281411 0 -0.0010187122516414828 0.0076490189303419455 0 -0.00064279365073856276 0.0078962605921458952 0 -0.00089298262845695353 0.0078975309180963661 0 -0.00088020311173066213 0.0077319785609685603 0 -0.00023977964849398312 0.0079074351271411821 0 -0.00053767195485768986 0.007357946969820759 0 -0.00067099109421834766 0.0076740479672281411 0 -0.00064279365073856276 0.0078962605921458952 0 -0.00088020311173066213 0.0077319785609685603 0 -0.00067099109421834766 0.0076740479672281411 0 -0.00023977964849398312 0.0079074351271411821 0 -0.00064279365073856276 0.0078962605921458952 0 -0.00067099109421834766 0.0076740479672281411 0 -0.0021163959415791416 0.0057529204952888689 0 -0.00082919781974450735 0.0071419039069137253 0 -0.0015798931038409837 0.0072357038770662864 0 -0.0011014050907511379 0.0077776949098058096 0 -0.00082919781974450735 0.0071419039069137253 0 -0.0015798931038409837 0.0072357038770662864 0 -0.0011014050907511379 0.0077776949098058096 0 -0.00088020311173066213 0.0077319785609685603 0 -0.00097003234824123035 0.0076374022777941997 0 0.0018781647645443869 0.0031645512390680512 0 0.00221554676451826 0.0024140647869618195 0 0.0022127831701585182 0.0025020518014392964 0 0.00221554676451826 0.0024140647869618195 0 -0.0021163959415791416 0.0057529204952888689 0 -0.0015798931038409837 0.0072357038770662864 0 -0.0023327835448221671 0.0074018389084259829 0 -0.0015003003193787424 0.0080619451081268018 0 -0.0015798931038409837 0.0072357038770662864 0 -0.0023327835448221671 0.0074018389084259829 0 -0.0031232709178774928 0.0063881986668111691 0 -0.0023327835448221671 0.0074018389084259829 0 -0.0034696308935238131 0.0077463952744418283 0 -0.0034696308935238131 0.0077463952744418283 0 -0.0026174875638746878 0.008162439843018076 0 -0.0026397764450878328 0.0091244539102499477 0 -0.0023327835448221671 0.0074018389084259829 0 -0.0034696308935238131 0.0077463952744418283 0 -0.0026174875638746878 0.008162439843018076 0 -0.0015003003193787424 0.0080619451081268018 0 -0.0023327835448221671 0.0074018389084259829 0 -0.0020217033749757121 0.0083473817581082022 0 -0.0023327835448221671 0.0074018389084259829 0 -0.0026174875638746878 0.008162439843018076 0 -0.0020217033749757121 0.0083473817581082022 0 -0.0015003003193787424 0.0080619451081268018 0 -0.0020217033749757121 0.0083473817581082022 0 -0.0015563748482642298 0.0087491117361097603 0 -0.0026174875638746878 0.008162439843018076 0 -0.0020217033749757121 0.0083473817581082022 0 -0.0026397764450878328 0.0091244539102499477 0 -0.0020217033749757121 0.0083473817581082022 0 -0.0026397764450878328 0.0091244539102499477 0 -0.0015563748482642298 0.0087491117361097603 0 0.0034690705215358049 -0.0049851130013504157 0 0.0037036040591307815 -0.0014364268559207984 0 -0.0026397764450878328 0.0091244539102499477 0 -0.0015135902150479627 0.0093316261925062982 0 -0.0015563748482642298 0.0087491117361097603 0 0.0026297380787778163 -0.0070410176819099982 0 0.004588950033439591 -0.0058535146069752901 0 0.0038415772475073238 -0.005312957652338292 0 0.0011089501523294757 -0.0046745837412983876 0 0.0034690705215358049 -0.0049851130013504157 0 0.0020225557210513299 -0.0083943818888938797 0 0.0034690705215358049 -0.0049851130013504157 0 0.0022489023183047906 -0.014595983035098308 0 0.0025147027168357203 -0.015054605571084428 0 0.002853764229238229 -0.014412820683187237 0 0.0034690705215358049 -0.0049851130013504157 0 0.0034834957074194968 -0.0049911009676042476 0 0.0038415772475073238 -0.005312957652338292 0 0.0043492130179435652 -0.0041676624114764345 0 0.0030474980658272673 -0.0042934127709640434 0 0.0038415772475073238 -0.005312957652338292 0 0.0043492130179435652 -0.0041676624114764345 0 0.0047767866501602493 -0.0053002613930729749 0 0.004588950033439591 -0.0058535146069752901 0 0.0038415772475073238 -0.005312957652338292 0 0.0047767866501602493 -0.0053002613930729749 0 0.0044925214047227538 -0.0058674206576491417 0 0.0047767866501602493 -0.0053002613930729749 0 0.0068096862370854517 -0.0051252963127831012 0 0.0056982718171918467 -0.0045083429730257149 0 0.0047767866501602493 -0.0053002613930729749 0 0.0068096862370854517 -0.0051252963127831012 0 0.0043492130179435652 -0.0041676624114764345 0 0.0056982718171918467 -0.0045083429730257149 0 0.0047767866501602493 -0.0053002613930729749 0 0.0043492130179435652 -0.0041676624114764345 0 0.0056982718171918467 -0.0045083429730257149 0 0.0051771710670567997 -0.0030791319664157644 0 0.0037036040591307815 -0.0014364268559207984 0 0.0046624973394069824 0.00085661082298837271 0 0.0056982718171918467 -0.0045083429730257149 0 0.0086232959472464319 -0.0035132605828911987 0 0.0051771710670567997 -0.0030791319664157644 0 0.0056982718171918467 -0.0045083429730257149 0 0.0068096862370854517 -0.0051252963127831012 0 0.0086232959472464319 -0.0035132605828911987 0 0.0068096862370854517 -0.0051252963127831012 0 0.0086232959472464319 -0.0035132605828911987 0 0.0093649543666980747 -0.0044207804743876681 0 -0.0015135902150479627 0.0093316261925062982 0 -0.00084710235959648689 0.0089238325099612915 0 -0.00054439314205365758 0.0095079197142970834 0 -0.0015135902150479627 0.0093316261925062982 0 -0.0015563748482642298 0.0087491117361097603 0 -0.00084710235959648689 0.0089238325099612915 0 -0.001096456008711312 0.0085164203739993821 0 -0.0015563748482642298 0.0087491117361097603 0 -0.00084710235959648689 0.0089238325099612915 0 -0.00076206906840205278 0.0083936882798329154 0 -0.001096456008711312 0.0085164203739993821 0 -0.00084710235959648689 0.0089238325099612915 0 -1.0835807543890253e-05 0.0087343698566921691 0 -0.00043507245388398194 0.0085584712258906809 0 -0.00038878511003998998 0.0089739097577019901 0 -0.00076206906840205278 0.0083936882798329154 0 -0.00043507245388398194 0.0085584712258906809 0 -0.00084710235959648689 0.0089238325099612915 0 -0.00043507245388398194 0.0085584712258906809 0 -0.00084710235959648689 0.0089238325099612915 0 -0.00038878511003998998 0.0089739097577019901 0 -0.00084710235959648689 0.0089238325099612915 0 -0.00038878511003998998 0.0089739097577019901 0 -0.00054439314205365758 0.0095079197142970834 0 -2.7124625258878347e-05 0.0091929091734709208 0 -0.00038878511003998998 0.0089739097577019901 0 -0.00054439314205365758 0.0095079197142970834 0 0.0055514597417463864 0.0024692597768648616 0 0.0063231688514379233 0.00018153015210235429 0 0.011762600316531467 -0.0037952495640471767 0 0.0086232959472464319 -0.0035132605828911987 0 0.0093649543666980747 -0.0044207804743876681 0 0.0053864002456802691 -0.00080317126870921762 0 0.0052975703076889816 -0.00021955631719859309 0 0.0053317167221649609 -0.00078971160552549695 0 0.0052057755154414241 0.00053753812121821879 0 0.0053864002456802691 -0.00080317126870921762 0 0.0052975703076889816 -0.00021955631719859309 0 0.0052975703076889816 -0.00021955631719859309 0 0.0052848388856329802 -0.00028349956514216754 0 0.0053317167221649609 -0.00078971160552549695 0 0.0063231688514379233 0.00018153015210235429 0 0.0057217788987806387 -0.00048788751662552193 0 0.0053864002456802691 -0.00080317126870921762 0 0.0053142426706594961 -0.0015641258530580855 0 0.0053317167221649609 -0.00078971160552549695 0 0.0053864002456802691 -0.00080317126870921762 0 0.0053142426706594961 -0.0015641258530580855 0 0.0051771710670567997 -0.0030791319664157644 0 0.0051684601406005786 -0.0010338415805270728 0 0.0053317167221649609 -0.00078971160552549695 0 0.0052201064450617795 -0.0005163334032703094 0 0.0053142426706594961 -0.0015641258530580855 0 0.0051684601406005786 -0.0010338415805270728 0 0.0053317167221649609 -0.00078971160552549695 0 0.0053142426706594961 -0.0015641258530580855 0 0.0051684601406005786 -0.0010338415805270728 0 0.0049751106144341412 -0.0020132107281006098 0 0.0051926762171872866 -4.8391814195427358e-05 0 0.0052848388856329802 -0.00028349956514216754 0 0.0052201064450617795 -0.0005163334032703094 0 0.0052848388856329802 -0.00028349956514216754 0 0.0053317167221649609 -0.00078971160552549695 0 0.0052201064450617795 -0.0005163334032703094 0 0.0051926762171872866 -4.8391814195427358e-05 0 0.0052201064450617795 -0.0005163334032703094 0 0.0050254821032147713 -0.00051066957613072261 0 0.0051926762171872866 -4.8391814195427358e-05 0 0.0050536303979966954 -0.00040391522484668784 0 0.0050254821032147713 -0.00051066957613072261 0 0.0051684601406005786 -0.0010338415805270728 0 0.0052201064450617795 -0.0005163334032703094 0 0.0050254821032147713 -0.00051066957613072261 0 0.0051684601406005786 -0.0010338415805270728 0 0.0050254821032147713 -0.00051066957613072261 0 0.0046674712178861079 -0.00092794582006500408 0 0.0025552409543915505 -0.0042120061503469561 0 -0.00051556975541204705 -0.0068926204733975628 0 0.00020804854131150388 -0.0040469750478918003 0 0.0029974374454813648 -0.0026108806276798125 0 0.0017139989898744461 -0.0036272033154715715 0 0.0047258197140290416 -0.00047330228438705838 0 0.0046674712178861079 -0.00092794582006500408 0 0.003675731926555298 -0.00069373313782053047 0 0.0050254821032147713 -0.00051066957613072261 0 0.0047258197140290416 -0.00047330228438705838 0 0.0046674712178861079 -0.00092794582006500408 0 0.0046674712178861079 -0.00092794582006500408 0 0.003746453771136768 -0.0015793626416470538 0 0.004492238172945061 -0.0017545242904946049 0 0.0046674712178861079 -0.00092794582006500408 0 0.003746453771136768 -0.0015793626416470538 0 0.003675731926555298 -0.00069373313782053047 0 0.004492238172945061 -0.0017545242904946049 0 0.0041757272390675337 -0.0029958289491554988 0 0.0033164513523497078 -0.0027237582903389184 0 0.003746453771136768 -0.0015793626416470538 0 0.004492238172945061 -0.0017545242904946049 0 0.0033164513523497078 -0.0027237582903389184 0 0.004492238172945061 -0.0017545242904946049 0 0.0049751106144341412 -0.0020132107281006098 0 0.0041757272390675337 -0.0029958289491554988 0 0.0051684601406005786 -0.0010338415805270728 0 0.0046674712178861079 -0.00092794582006500408 0 0.004492238172945061 -0.0017545242904946049 0 0.0051684601406005786 -0.0010338415805270728 0 0.004492238172945061 -0.0017545242904946049 0 0.0049751106144341412 -0.0020132107281006098 0 0.0053142426706594961 -0.0015641258530580855 0 0.0049751106144341412 -0.0020132107281006098 0 0.0051771710670567997 -0.0030791319664157644 0 0.0049751106144341412 -0.0020132107281006098 0 0.0051771710670567997 -0.0030791319664157644 0 0.0041757272390675337 -0.0029958289491554988 0 0.0043492130179435652 -0.0041676624114764345 0 0.0041757272390675337 -0.0029958289491554988 0 0.0030474980658272673 -0.0042934127709640434 0 0.0043492130179435652 -0.0041676624114764345 0 0.0051771710670567997 -0.0030791319664157644 0 0.0041757272390675337 -0.0029958289491554988 0 0.0041757272390675337 -0.0029958289491554988 0 0.0030474980658272673 -0.0042934127709640434 0 0.0033164513523497078 -0.0027237582903389184 0 0.0030474980658272673 -0.0042934127709640434 0 0.0019809461039534556 -0.0038063355478958321 0 0.0033164513523497078 -0.0027237582903389184 0 0.0013472251725940216 -0.0056483302740648923 0 0.0030474980658272673 -0.0042934127709640434 0 0.0019809461039534556 -0.0038063355478958321 0 0.0013472251725940216 -0.0056483302740648923 0 0.0019809461039534556 -0.0038063355478958321 0 0.00013425575469389528 -0.0043093230296294841 0 0.00056893109988515262 -0.0045403457738795337 0 -0.00016009983661801567 -0.0053341133057304138 0 0.0019809461039534556 -0.0038063355478958321 0 0.0019018032102035452 -0.0019826100984217834 0 0.00013425575469389528 -0.0043093230296294841 0 0.003746453771136768 -0.0015793626416470538 0 0.0019018032102035452 -0.0019826100984217834 0 0.0033164513523497078 -0.0027237582903389184 0 0.0019809461039534556 -0.0038063355478958321 0 0.0019018032102035452 -0.0019826100984217834 0 0.0033164513523497078 -0.0027237582903389184 0 -0.00074241551611986523 -0.0074077296880499261 0 -0.001028870407996585 -0.0063111114962177139 0 -0.00097603988352540762 -0.0063015874005385103 0 0.00011948960543994294 -0.0062214630620990585 0 -0.00074241551611986523 -0.0074077296880499261 0 0.00013425575469389528 -0.0043093230296294841 0 -0.00054125389919742605 -0.00586038104922669 0 -0.00016009983661801567 -0.0053341133057304138 0 0.0013472251725940216 -0.0056483302740648923 0 0.00011948960543994294 -0.0062214630620990585 0 0.00013425575469389528 -0.0043093230296294841 0 -0.0020092417037067597 -0.0069444527072453294 0 -0.00097603988352540762 -0.0063015874005385103 0 -0.0014037331402286146 -0.0068738314430740752 0 -0.00097603988352540762 -0.0063015874005385103 0 -0.00092399771485535912 -0.0065294246382095328 0 -0.0014037331402286146 -0.0068738314430740752 0 -0.00049878472092575285 -0.0093839413314370859 0 -0.00037308780982055385 -0.0099219202661428776 0 -0.001028870407996585 -0.0063111114962177139 0 -0.00092399771485535912 -0.0065294246382095328 0 -0.00042458181181132513 -0.006911455618181777 0 -0.001028870407996585 -0.0063111114962177139 0 -0.00097603988352540762 -0.0063015874005385103 0 -0.00092399771485535912 -0.0065294246382095328 0 -0.00092399771485535912 -0.0065294246382095328 0 -0.00042458181181132513 -0.006911455618181777 0 -0.0014037331402286146 -0.0068738314430740752 0 -0.00042458181181132513 -0.006911455618181777 0 -0.0014037331402286146 -0.0068738314430740752 0 -0.0013329954997203393 -0.0077045619431456921 0 -0.0014037331402286146 -0.0068738314430740752 0 -0.0013329954997203393 -0.0077045619431456921 0 -0.0023251617728289441 -0.0067745292622425485 0 -0.00042458181181132513 -0.006911455618181777 0 -0.0013329954997203393 -0.0077045619431456921 0 1.7931993105027293e-05 -0.008573560275027951 0 -0.00037308780982055385 -0.0099219202661428776 0 -0.0002765042169606007 -0.010546310913492471 0 -0.0020092417037067597 -0.0069444527072453294 0 -0.00051556975541204705 -0.0068926204733975628 0 -0.0023251617728289441 -0.0067745292622425485 0 0.00056893109988515262 -0.0045403457738795337 0 0.0017139989898744461 -0.0036272033154715715 0 0.003746453771136768 -0.0015793626416470538 0 0.0019018032102035452 -0.0019826100984217834 0 0.003675731926555298 -0.00069373313782053047 0 -0.0020092417037067597 -0.0069444527072453294 0 -0.0014037331402286146 -0.0068738314430740752 0 -0.0023251617728289441 -0.0067745292622425485 0 -0.0013329954997203393 -0.0077045619431456921 0 -0.0023251617728289441 -0.0067745292622425485 0 -0.0022036611909989068 -0.0082857346259097332 0 -0.0025645603448339305 -0.0066764795821094951 0 -0.0025952781103709471 -0.0067176506421748865 0 -0.0023251617728289441 -0.0067745292622425485 0 -0.003597311226585131 -0.0092630464607252883 0 -0.0022036611909989068 -0.0082857346259097332 0 -0.00051556975541204705 -0.0068926204733975628 0 -0.0023251617728289441 -0.0067745292622425485 0 0.00020804854131150388 -0.0040469750478918003 0 -0.0023251617728289441 -0.0067745292622425485 0 -0.0017709454651551829 -0.0029517605299559887 0 0.00020804854131150388 -0.0040469750478918003 0 -0.0017709454651551829 -0.0029517605299559887 0 0.00020804854131150388 -0.0040469750478918003 0 0.0003795349856046071 -0.0015533095316525415 0 -0.0022036611909989068 -0.0082857346259097332 0 -0.0023612556002736563 -0.010058872575145511 0 -0.0014245008129942704 -0.0091886600502274866 0 -0.003597311226585131 -0.0092630464607252883 0 -0.0022036611909989068 -0.0082857346259097332 0 -0.0023612556002736563 -0.010058872575145511 0 -0.0023612556002736563 -0.010058872575145511 0 -0.0033268243355140748 -0.010743566870609834 0 -0.0024375466567575703 -0.011623029795999598 0 -0.003597311226585131 -0.0092630464607252883 0 -0.0023612556002736563 -0.010058872575145511 0 -0.0033268243355140748 -0.010743566870609834 0 -0.0017709454651551829 -0.0029517605299559887 0 -0.00069364552343763861 -1.317175451169918e-05 0 0.0003795349856046071 -0.0015533095316525415 0 -0.0025952781103709471 -0.0067176506421748865 0 -0.0028069517491804809 -0.0077994247727385963 0 -0.003597311226585131 -0.0092630464607252883 0 -0.0033268243355140748 -0.010743566870609834 0 -0.0041487907108746641 -0.011484894225725935 0 -0.0033268243355140748 -0.010743566870609834 0 -0.0040213282807092859 -0.01141795945737307 0 -0.0033282997327801116 -0.011519206269693971 0 -0.0031039014056149657 -0.0081936445620601657 0 -0.0028069517491804809 -0.0077994247727385963 0 -0.00069364552343763861 -1.317175451169918e-05 0 0.0011418068392149048 -4.8582442010308234e-05 0 0.0003795349856046071 -0.0015533095316525415 0 -0.0013329954997203393 -0.0077045619431456921 0 1.7931993105027293e-05 -0.008573560275027951 0 -0.0014245008129942704 -0.0091886600502274866 0 1.7931993105027293e-05 -0.008573560275027951 0 -0.0014245008129942704 -0.0091886600502274866 0 -0.0012774013229359096 -0.010740710955123125 0 -0.0013329954997203393 -0.0077045619431456921 0 -0.0022036611909989068 -0.0082857346259097332 0 -0.0014245008129942704 -0.0091886600502274866 0 -0.0012774013229359096 -0.010740710955123125 0 -0.0002119347871132921 -0.011660872424039726 0 -0.0011959043846755961 -0.012106534930161509 0 -0.0023612556002736563 -0.010058872575145511 0 -0.0012774013229359096 -0.010740710955123125 0 -0.0024375466567575703 -0.011623029795999598 0 -0.0023612556002736563 -0.010058872575145511 0 -0.0014245008129942704 -0.0091886600502274866 0 -0.0012774013229359096 -0.010740710955123125 0 -0.0002765042169606007 -0.010546310913492471 0 -0.00027601881687920897 -0.011031845395029011 0 1.7931993105027293e-05 -0.008573560275027951 0 -0.0012774013229359096 -0.010740710955123125 0 -0.0002119347871132921 -0.011660872424039726 0 -6.7689473981192208e-05 -0.012246903531080771 0 -0.0002119347871132921 -0.011660872424039726 0 -0.00022058196969985245 -0.011946403647605181 0 -0.0002119347871132921 -0.011660872424039726 0 -0.00015962144931613314 -0.012365707347622613 0 -0.00022058196969985245 -0.011946403647605181 0 -0.0002119347871132921 -0.011660872424039726 0 -0.00015962144931613314 -0.012365707347622613 0 -0.0011959043846755961 -0.012106534930161509 0 -0.00015962144931613314 -0.012365707347622613 0 -0.0011959043846755961 -0.012106534930161509 0 -0.00085661348738338419 -0.012945911459732425 0 -0.0012774013229359096 -0.010740710955123125 0 -0.0011959043846755961 -0.012106534930161509 0 -0.0024375466567575703 -0.011623029795999598 0 -0.0011959043846755961 -0.012106534930161509 0 -0.0024375466567575703 -0.011623029795999598 0 -0.0022217721688857681 -0.012812085885696553 0 -0.0016861663143868367 -0.013176816463556078 0 -0.00085661348738338419 -0.012945911459732425 0 -0.00036209227121402162 -0.01425626962310772 0 -0.0011959043846755961 -0.012106534930161509 0 -0.0016861663143868367 -0.013176816463556078 0 -0.0022217721688857681 -0.012812085885696553 0 -0.0016861663143868367 -0.013176816463556078 0 -0.002405296877880274 -0.013557430829936098 0 -0.0019353752632646289 -0.014375010083867512 0 -0.0016861663143868367 -0.013176816463556078 0 -0.0022217721688857681 -0.012812085885696553 0 -0.002405296877880274 -0.013557430829936098 0 -0.0011959043846755961 -0.012106534930161509 0 -0.0016861663143868367 -0.013176816463556078 0 -0.00085661348738338419 -0.012945911459732425 0 -0.00015962144931613314 -0.012365707347622613 0 -0.00026676897975803741 -0.012412045514798853 0 -0.0001622296407118821 -0.012301639995560765 0 -0.00094244443697734403 -0.01373565214817677 0 -0.0014486998543058788 -0.015313714468511992 0 -0.00015962144931613314 -0.012365707347622613 0 -0.00085661348738338419 -0.012945911459732425 0 -0.00036209227121402162 -0.01425626962310772 0 -0.003790996498646951 -0.0093915995823816434 0 -0.0043417050045663199 -0.011861035675377963 0 -0.0058097345656569826 -0.011261437935602209 0 -0.0028069517491804809 -0.0077994247727385963 0 -0.0039326787948061083 -0.011722863355554346 0 -0.0035146767376344943 -0.012265381183318809 0 -0.0040213282807092859 -0.01141795945737307 0 -0.0044209555803321598 -0.013105440856316014 0 -0.0035146767376344943 -0.012265381183318809 0 -0.0040213282807092859 -0.01141795945737307 0 -0.0033282997327801116 -0.011519206269693971 0 -0.0035146767376344943 -0.012265381183318809 0 -0.0033282997327801116 -0.011519206269693971 0 -0.0024375466567575703 -0.011623029795999598 0 -0.0035146767376344943 -0.012265381183318809 0 -0.0024375466567575703 -0.011623029795999598 0 -0.0034417576097754226 -0.013584443743771591 0 -0.0033268243355140748 -0.010743566870609834 0 -0.0033282997327801116 -0.011519206269693971 0 -0.0024375466567575703 -0.011623029795999598 0 -0.0024375466567575703 -0.011623029795999598 0 -0.0022217721688857681 -0.012812085885696553 0 -0.0034367355060449735 -0.013628604042818869 0 -0.0030577977943162778 -0.012759821060655083 0 -0.003553519812512583 -0.013810719234027737 0 -0.0022217721688857681 -0.012812085885696553 0 -0.002405296877880274 -0.013557430829936098 0 -0.0034367355060449735 -0.013628604042818869 0 -0.002405296877880274 -0.013557430829936098 0 -0.0034367355060449735 -0.013628604042818869 0 -0.0027396328418320677 -0.014113064993979017 0 -0.0035146767376344943 -0.012265381183318809 0 -0.0034417576097754226 -0.013584443743771591 0 -0.0044209555803321598 -0.013105440856316014 0 -0.0043417050045663199 -0.011861035675377963 0 -0.0058097345656569826 -0.011261437935602209 0 -0.0058690431256022716 -0.012947792072554956 0 -0.0058097345656569826 -0.011261437935602209 0 -0.0058690431256022716 -0.012947792072554956 0 -0.0077786665225699622 -0.013119666466138069 0 -0.00069364552343763861 -1.317175451169918e-05 0 0.001619235546245725 0.0012672719272010602 0 0.0011418068392149048 -4.8582442010308234e-05 0 -0.0028069517491804809 -0.0077994247727385963 0 -0.0021092588464598112 -0.0063066727827022382 0 0.001619235546245725 0.0012672719272010602 0 0.0011418068392149048 -4.8582442010308234e-05 0 0.0024385283943323972 0.00040135291145568388 0 0.0011418068392149048 -4.8582442010308234e-05 0 0.0024385283943323972 0.00040135291145568388 0 0.0017597057687016066 -0.00067510558587406059 0 0.001619235546245725 0.0012672719272010602 0 0.0024385283943323972 0.00040135291145568388 0 0.0030061009605280567 0.0010283423685482427 0 0.0024385283943323972 0.00040135291145568388 0 0.0037285191305264148 0.0003849414007269208 0 0.0034176696932898668 -0.00043087102326674757 0 0.0024385283943323972 0.00040135291145568388 0 0.0030061009605280567 0.0010283423685482427 0 0.0037285191305264148 0.0003849414007269208 0 0.0024385283943323972 0.00040135291145568388 0 0.0017597057687016066 -0.00067510558587406059 0 0.0034176696932898668 -0.00043087102326674757 0 0.0030061009605280567 0.0010283423685482427 0 0.0039585143458632822 0.0010822347578357473 0 0.0030678639406771032 0.0019026688910881971 0 -0.0021092588464598112 -0.0063066727827022382 0 -0.0023536919816164771 -0.0063091685811210597 0 0.001619235546245725 0.0012672719272010602 0 0.0030061009605280567 0.0010283423685482427 0 0.0030678639406771032 0.0019026688910881971 0 0.0039585143458632822 0.0010822347578357473 0 0.0030678639406771032 0.0019026688910881971 0 0.0039539265198944244 0.0017273152998358078 0 0.0039585143458632822 0.0010822347578357473 0 0.0046180273105971923 0.001191217694504488 0 0.0039539265198944244 0.0017273152998358078 0 0.0030061009605280567 0.0010283423685482427 0 0.0039585143458632822 0.0010822347578357473 0 0.0037285191305264148 0.0003849414007269208 0 0.0048827537792482832 0.0011704251224344958 0 0.0046180273105971923 0.001191217694504488 0 0.0047516932779379014 0.0016847270540013305 0 0.0048827537792482832 0.0011704251224344958 0 0.0046180273105971923 0.001191217694504488 0 0.004942937577802742 0.00074259401831626892 0 0.0051969015389106074 0.001153277879264007 0 0.0048827537792482832 0.0011704251224344958 0 0.004942937577802742 0.00074259401831626892 0 0.0039585143458632822 0.0010822347578357473 0 0.0046180273105971923 0.001191217694504488 0 0.0046300445670819619 0.00063730938904676233 0 0.0039585143458632822 0.0010822347578357473 0 0.0046300445670819619 0.00063730938904676233 0 0.0044950501009361765 0.00032858052094941151 0 0.0046180273105971923 0.001191217694504488 0 0.0046300445670819619 0.00063730938904676233 0 0.004942937577802742 0.00074259401831626892 0 0.0046300445670819619 0.00063730938904676233 0 0.004942937577802742 0.00074259401831626892 0 0.0048991882456590266 3.8088725642917558e-05 0 0.0046300445670819619 0.00063730938904676233 0 0.0044950501009361765 0.00032858052094941151 0 0.0048991882456590266 3.8088725642917558e-05 0 0.0044950501009361765 0.00032858052094941151 0 0.0048991882456590266 3.8088725642917558e-05 0 0.0046374658789286299 -0.00030541775819524085 0 0.0037285191305264148 0.0003849414007269208 0 0.0046374658789286299 -0.00030541775819524085 0 0.0034176696932898668 -0.00043087102326674757 0 0.0039585143458632822 0.0010822347578357473 0 0.0044950501009361765 0.00032858052094941151 0 0.0037285191305264148 0.0003849414007269208 0 0.0044950501009361765 0.00032858052094941151 0 0.0037285191305264148 0.0003849414007269208 0 0.0046374658789286299 -0.00030541775819524085 0 0.0046374658789286299 -0.00030541775819524085 0 0.0045812090992573863 -0.00092615360780616139 0 0.0034176696932898668 -0.00043087102326674757 0 0.0050536303979966954 -0.00040391522484668784 0 0.0046374658789286299 -0.00030541775819524085 0 0.0045812090992573863 -0.00092615360780616139 0 0.0050536303979966954 -0.00040391522484668784 0 0.0048991882456590266 3.8088725642917558e-05 0 0.0046374658789286299 -0.00030541775819524085 0 0.0050536303979966954 -0.00040391522484668784 0 0.0050254821032147713 -0.00051066957613072261 0 0.0045812090992573863 -0.00092615360780616139 0 0.0050254821032147713 -0.00051066957613072261 0 0.0047258197140290416 -0.00047330228438705838 0 0.0045812090992573863 -0.00092615360780616139 0 0.0025552409543915505 -0.0042120061503469561 0 0.0045812090992573863 -0.00092615360780616139 0 0.0022419389245676466 -0.0018668513002037528 0 0.0029974374454813648 -0.0026108806276798125 0 0.0036315123023181652 -0.0020580514828939488 0 0.0025552409543915505 -0.0042120061503469561 0 0.0022419389245676466 -0.0018668513002037528 0 0.00020804854131150388 -0.0040469750478918003 0 0.0022419389245676466 -0.0018668513002037528 0 0.00020804854131150388 -0.0040469750478918003 0 0.0003795349856046071 -0.0015533095316525415 0 0.0022419389245676466 -0.0018668513002037528 0 0.0003795349856046071 -0.0015533095316525415 0 0.0017597057687016066 -0.00067510558587406059 0 0.0011418068392149048 -4.8582442010308234e-05 0 0.0003795349856046071 -0.0015533095316525415 0 0.0017597057687016066 -0.00067510558587406059 0 0.0022419389245676466 -0.0018668513002037528 0 0.0017597057687016066 -0.00067510558587406059 0 0.0034176696932898668 -0.00043087102326674757 0 0.0045812090992573863 -0.00092615360780616139 0 0.0022419389245676466 -0.0018668513002037528 0 0.0034176696932898668 -0.00043087102326674757 0 0.0046181773938999207 -0.011586831819152849 0 0.0072949692828716871 -0.010779669693728958 0 0.0068752233824364009 -0.013381589122901449 0 0.0046181773938999207 -0.011586831819152849 0 0.0068752233824364009 -0.013381589122901449 0 0.0048215192882322226 -0.013516744356526712 0 0.0046181773938999207 -0.011586831819152849 0 0.0048215192882322226 -0.013516744356526712 0 0.0031886424346121716 -0.013215148961805489 0 -0.00051421284586497355 -0.012229981492701679 0 -0.00059539614649502281 -0.012383269429207739 0 -0.00036787922089044444 -0.012348270332492339 0 0.0025604584852833411 -0.013726896196449234 0 0.0042883101272555508 -0.015885091249338783 0 -0.00059539614649502281 -0.012383269429207739 0 -0.00078669862830250882 -0.012358161056891817 0 -0.0007051345272775794 -0.012493244830357974 0 -0.00051421284586497355 -0.012229981492701679 0 -0.00059539614649502281 -0.012383269429207739 0 -0.00078669862830250882 -0.012358161056891817 0 0.0040652493395113018 -0.020271060890039893 0 0.0041133268647844511 -0.020512164337125098 0 0.0040871927244836544 -0.020385716368772573 0 0.0072949692828716871 -0.010779669693728958 0 0.0083157632262925545 -0.011605569214443888 0 0.0097140068918785995 -0.010015303827976213 0 0.0042883101272555508 -0.015885091249338783 0 0.0049452600496577969 -0.022259431358539299 0 0.006352211012394895 -0.018038785217573017 0 0.0049452600496577969 -0.022259431358539299 0 0.0040652493395113018 -0.020271060890039893 0 0.0040871927244836544 -0.020385716368772573 0 0.0041481714007310646 -0.020290634977969971 0 0.0040652493395113018 -0.020271060890039893 0 0.0040171692557332463 -0.020312397881461886 0 0.0041481714007310646 -0.020290634977969971 0 0.0072949692828716871 -0.010779669693728958 0 0.0083157632262925545 -0.011605569214443888 0 0.0068752233824364009 -0.013381589122901449 0 0.0040652493395113018 -0.020271060890039893 0 0.0040171692557332463 -0.020312397881461886 0 0.0037654067041130415 -0.020229470818691614 0 0.006352211012394895 -0.018038785217573017 0 0.005568313644083266 -0.017629328664470229 0 0.0039589906309218589 -0.02041957737180514 0 0.0040171692557332463 -0.020312397881461886 0 0.0037654067041130415 -0.020229470818691614 0 0.0039589906309218589 -0.02041957737180514 0 0.00376159615837963 -0.020458141810173254 0 0.0037654067041130415 -0.020229470818691614 0 0.0040171692557332463 -0.020312397881461886 0 0.0041481714007310646 -0.020290634977969971 0 0.0041885787063739724 -0.020492765755195482 0 0.0039589906309218589 -0.02041957737180514 0 0.0040171692557332463 -0.020312397881461886 0 0.0041885787063739724 -0.020492765755195482 0 0.0039589906309218589 -0.02041957737180514 0 0.0040819028485243958 -0.020674613729682191 0 0.0041885787063739724 -0.020492765755195482 0 0.0040819028485243958 -0.020674613729682191 0 0.00376159615837963 -0.020458141810173254 0 0.0038575262295536595 -0.020677388671335142 0 0.0039589906309218589 -0.02041957737180514 0 0.0040819028485243958 -0.020674613729682191 0 0.00376159615837963 -0.020458141810173254 0 0.00376159615837963 -0.020458141810173254 0 0.0037654067041130415 -0.020229470818691614 0 0.0033002048539293762 -0.020266512842873667 0 0.00376159615837963 -0.020458141810173254 0 0.0033002048539293762 -0.020266512842873667 0 0.0035504524561103226 -0.02064826220574692 0 0.005568313644083266 -0.017629328664470229 0 0.0044210055643629743 -0.018262343828879365 0 0.0068752233824364009 -0.013381589122901449 0 0.0048215192882322226 -0.013516744356526712 0 0.005363504000585763 -0.015373384999872416 0 0.0048215192882322226 -0.013516744356526712 0 0.005363504000585763 -0.015373384999872416 0 0.0032562610780167383 -0.01460739122401959 0 0.005363504000585763 -0.015373384999872416 0 0.0032562610780167383 -0.01460739122401959 0 0.003718838249135225 -0.01765840165690551 0 0.0032562610780167383 -0.01460739122401959 0 0.0013373682842434712 -0.015837238895473997 0 0.003718838249135225 -0.01765840165690551 0 0.0032562610780167383 -0.01460739122401959 0 0.0013373682842434712 -0.015837238895473997 0 0.0015257640186959072 -0.013895820744652209 0 0.0013373682842434712 -0.015837238895473997 0 0.0015257640186959072 -0.013895820744652209 0 0.00014253055748993153 -0.014723086393384474 0 0.0015257640186959072 -0.013895820744652209 0 0.0031886424346121716 -0.013215148961805489 0 0.0014880908374601317 -0.012558858807220998 0 0.0015257640186959072 -0.013895820744652209 0 0.00057648447834782548 -0.012528067456728856 0 0.0014880908374601317 -0.012558858807220998 0 0.0032562610780167383 -0.01460739122401959 0 0.0015257640186959072 -0.013895820744652209 0 0.0031886424346121716 -0.013215148961805489 0 0.0048215192882322226 -0.013516744356526712 0 0.0032562610780167383 -0.01460739122401959 0 0.0031886424346121716 -0.013215148961805489 0 -0.0021618537033314903 -0.015015659854592703 0 -0.0041841798509598778 -0.017239978059707027 0 -0.00096616311151066065 -0.016522431721369461 0 -0.00075504624203922015 -0.014111697431452104 0 -0.0014486998543058788 -0.015313714468511992 0 0.0013373682842434712 -0.015837238895473997 0 0.00014253055748993153 -0.014723086393384474 0 -0.00096616311151066065 -0.016522431721369461 0 -0.0021618537033314903 -0.015015659854592703 0 0.00014253055748993153 -0.014723086393384474 0 -0.00096616311151066065 -0.016522431721369461 0 0.0015257640186959072 -0.013895820744652209 0 0.00014253055748993153 -0.014723086393384474 0 0.00057648447834782548 -0.012528067456728856 0 0.00033885243408459797 -0.01303964980378544 0 0.0010193406874468437 -0.013135621451223481 0 -0.00026676897975803741 -0.012412045514798853 0 0.00057648447834782548 -0.012528067456728856 0 -0.00020456022634247767 -0.01228858130377828 0 0.00057648447834782548 -0.012528067456728856 0 -0.00020456022634247767 -0.01228858130377828 0 0.0014880908374601317 -0.012558858807220998 0 -0.0021618537033314903 -0.015015659854592703 0 0.00014253055748993153 -0.014723086393384474 0 0.00057648447834782548 -0.012528067456728856 0 -0.00075504624203922015 -0.014111697431452104 0 -0.00017553634248794825 -0.013431163522522009 0 -0.00015962144931613314 -0.012365707347622613 0 -0.00020456022634247767 -0.01228858130377828 0 -0.00022058196969985245 -0.011946403647605181 0 -0.00015962144931613314 -0.012365707347622613 0 -0.00026676897975803741 -0.012412045514798853 0 -0.00020456022634247767 -0.01228858130377828 0 -0.00020456022634247767 -0.01228858130377828 0 -0.00022058196969985245 -0.011946403647605181 0 -0.00023809922152543544 -0.012140245475327023 0 -0.00022058196969985245 -0.011946403647605181 0 -0.00023809922152543544 -0.012140245475327023 0 -0.00024206938985031645 -0.012150159580715279 0 -0.00023809922152543544 -0.012140245475327023 0 -0.00024206938985031645 -0.012150159580715279 0 -0.00028909415320269906 -0.012200409185416363 0 -0.00020456022634247767 -0.01228858130377828 0 -0.00023809922152543544 -0.012140245475327023 0 -0.00028595476617301825 -0.012136613324250664 0 -0.00027753379280144136 -0.012274937686829308 0 -0.00024206938985031645 -0.012150159580715279 0 -0.00028909415320269906 -0.012200409185416363 0 -0.00027753379280144136 -0.012274937686829308 0 -0.00028909415320269906 -0.012200409185416363 0 -0.00033629123159283064 -0.012325497963596889 0 -0.00027753379280144136 -0.012274937686829308 0 -0.00024206938985031645 -0.012150159580715279 0 -0.000201532719767057 -0.012374406526305533 0 -6.7689473981192208e-05 -0.012246903531080771 0 -0.00022058196969985245 -0.011946403647605181 0 -0.00024206938985031645 -0.012150159580715279 0 -6.7689473981192208e-05 -0.012246903531080771 0 -0.00024206938985031645 -0.012150159580715279 0 -0.000201532719767057 -0.012374406526305533 0 0.0046181773938999207 -0.011586831819152849 0 0.0031886424346121716 -0.013215148961805489 0 0.0014880908374601317 -0.012558858807220998 0 0.0025604584852833411 -0.013726896196449234 0 0.0010193406874468437 -0.013135621451223481 0 -0.00051421284586497355 -0.012229981492701679 0 -0.00028595476617301825 -0.012136613324250664 0 -0.00034168679589160832 -0.012232717561732534 0 -0.00023809922152543544 -0.012140245475327023 0 -0.00028595476617301825 -0.012136613324250664 0 -0.00028909415320269906 -0.012200409185416363 0 -0.00028595476617301825 -0.012136613324250664 0 -0.00028909415320269906 -0.012200409185416363 0 -0.00034168679589160832 -0.012232717561732534 0 -0.00028909415320269906 -0.012200409185416363 0 -0.00045519291387856119 -0.012314842659135612 0 -0.00033629123159283064 -0.012325497963596889 0 -0.00028909415320269906 -0.012200409185416363 0 -0.00036787922089044444 -0.012348270332492339 0 -0.00034168679589160832 -0.012232717561732534 0 -0.00038648439095634481 -0.012321719542073135 0 -0.00044777378294434596 -0.012371707032167381 0 -0.00051421284586497355 -0.012229981492701679 0 -0.00036787922089044444 -0.012348270332492339 0 -0.00034168679589160832 -0.012232717561732534 0 -0.00045519291387856119 -0.012314842659135612 0 -0.00037343285723420033 -0.012478924986123069 0 -0.00052253784663653388 -0.012565655719965641 0 -0.00044777378294434596 -0.012371707032167381 0 -0.0005717363918958196 -0.012471643621888833 0 -0.00033629123159283064 -0.012325497963596889 0 -0.00037343285723420033 -0.012478924986123069 0 -0.00029186633787032064 -0.012400552258379806 0 -0.00045519291387856119 -0.012314842659135612 0 -0.00033629123159283064 -0.012325497963596889 0 -0.00037343285723420033 -0.012478924986123069 0 -0.00037343285723420033 -0.012478924986123069 0 -0.00027397724214685916 -0.012562074615121911 0 -0.00039914430314882368 -0.012632657675331159 0 -0.00037343285723420033 -0.012478924986123069 0 -0.00039914430314882368 -0.012632657675331159 0 -0.00052253784663653388 -0.012565655719965641 0 -0.00015581808309774077 -0.012537550944871603 0 -6.7689473981192208e-05 -0.012246903531080771 0 -0.000201532719767057 -0.012374406526305533 0 -0.00027753379280144136 -0.012274937686829308 0 -0.000201532719767057 -0.012374406526305533 0 -0.00029186633787032064 -0.012400552258379806 0 -0.00027753379280144136 -0.012274937686829308 0 -0.00033629123159283064 -0.012325497963596889 0 -0.00029186633787032064 -0.012400552258379806 0 -0.00037343285723420033 -0.012478924986123069 0 -0.00029186633787032064 -0.012400552258379806 0 -0.00027397724214685916 -0.012562074615121911 0 -0.000201532719767057 -0.012374406526305533 0 -0.00029186633787032064 -0.012400552258379806 0 -0.00027397724214685916 -0.012562074615121911 0 -0.00015581808309774077 -0.012537550944871603 0 -0.000201532719767057 -0.012374406526305533 0 -0.00027397724214685916 -0.012562074615121911 0 -0.00054860481571295753 -0.012739518123486832 0 -0.00015581808309774077 -0.012537550944871603 0 -0.00024363503632246489 -0.012614246838390073 0 -0.00015581808309774077 -0.012537550944871603 0 -0.00027397724214685916 -0.012562074615121911 0 -0.00024363503632246489 -0.012614246838390073 0 -0.00027397724214685916 -0.012562074615121911 0 -0.00024363503632246489 -0.012614246838390073 0 -0.00026051326105083652 -0.012680962756161708 0 -0.00024363503632246489 -0.012614246838390073 0 -0.0001851214540067795 -0.012287722748593403 0 -0.00026051326105083652 -0.012680962756161708 0 0.00045630958952162033 -0.012959956576841772 0 0.0008482168572165929 -0.013160449594065496 0 -0.0001851214540067795 -0.012287722748593403 0 0.0029391200483015862 -0.012038182722214722 0 0.0013159557834771199 -0.011012397020201037 0 -0.0001851214540067795 -0.012287722748593403 0 -7.0494386983010964e-05 -0.010615203697005084 0 0.0013159557834771199 -0.011012397020201037 0 -0.00054860481571295753 -0.012739518123486832 0 -0.0001851214540067795 -0.012287722748593403 0 -7.0494386983010964e-05 -0.010615203697005084 0 -0.00054860481571295753 -0.012739518123486832 0 -0.00024363503632246489 -0.012614246838390073 0 -0.0001851214540067795 -0.012287722748593403 0 -0.00039914430314882368 -0.012632657675331159 0 -0.00048046366896804712 -0.012816701203844382 0 -0.00059214586492322677 -0.012729380744973592 0 -0.00039914430314882368 -0.012632657675331159 0 -0.00059214586492322677 -0.012729380744973592 0 -0.00052253784663653388 -0.012565655719965641 0 -0.00027397724214685916 -0.012562074615121911 0 -0.00039914430314882368 -0.012632657675331159 0 -0.00026051326105083652 -0.012680962756161708 0 0.0008482168572165929 -0.013160449594065496 0 0.0006245679244107318 -0.013972069184750821 0 -0.00039914430314882368 -0.012632657675331159 0 -0.00026051326105083652 -0.012680962756161708 0 -0.00048046366896804712 -0.012816701203844382 0 0.0029391200483015862 -0.012038182722214722 0 0.0025493711580358951 -0.011760605519029521 0 0.0029442523158573629 -0.012400226254385657 0 0.0025493711580358951 -0.011760605519029521 0 -0.00069336482226910504 -0.012197681516737443 0 0.00025857088622082726 -0.013125297339576274 0 0.0006245679244107318 -0.013972069184750821 0 -0.00060044902592768803 -0.015982938775709461 0 -0.00048046366896804712 -0.012816701203844382 0 -0.00072239132178322449 -0.012929324526224906 0 -0.00059214586492322677 -0.012729380744973592 0 -0.00072239132178322449 -0.012929324526224906 0 -0.0007598219290230919 -0.012782622756263868 0 -0.00059214586492322677 -0.012729380744973592 0 -0.0007598219290230919 -0.012782622756263868 0 -0.00059214586492322677 -0.012729380744973592 0 -0.00074565180968452392 -0.012572549961368256 0 -0.00059214586492322677 -0.012729380744973592 0 -0.00052253784663653388 -0.012565655719965641 0 -0.00074565180968452392 -0.012572549961368256 0 -0.00052253784663653388 -0.012565655719965641 0 -0.00074565180968452392 -0.012572549961368256 0 -0.00058738859033758166 -0.012431747521547106 0 -0.00070597341669514533 -0.012576912930420044 0 -0.0005717363918958196 -0.012471643621888833 0 -0.0007248012557381794 -0.01265313527822782 0 -0.0007051345272775794 -0.012493244830357974 0 -0.00053621188243932146 -0.012509416894680313 0 -0.00059539614649502281 -0.012383269429207739 0 -0.0007051345272775794 -0.012493244830357974 0 -0.00053621188243932146 -0.012509416894680313 0 -0.00045519291387856119 -0.012314842659135612 0 -0.00052253784663653388 -0.012565655719965641 0 -0.00058738859033758166 -0.012431747521547106 0 -0.00059539614649502281 -0.012383269429207739 0 -0.00036787922089044444 -0.012348270332492339 0 -0.00053621188243932146 -0.012509416894680313 0 -0.00087922112993141309 -0.012563297058396091 0 -0.0010302115022294053 -0.012670985733202999 0 -0.0010582761314985526 -0.012490804493142426 0 -0.00078669862830250882 -0.012358161056891817 0 -0.00087922112993141309 -0.012563297058396091 0 -0.0010582761314985526 -0.012490804493142426 0 -0.00078669862830250882 -0.012358161056891817 0 -0.0007051345272775794 -0.012493244830357974 0 -0.00087922112993141309 -0.012563297058396091 0 -0.0007248012557381794 -0.01265313527822782 0 -0.0007051345272775794 -0.012493244830357974 0 -0.00087922112993141309 -0.012563297058396091 0 -0.0007248012557381794 -0.01265313527822782 0 -0.00087922112993141309 -0.012563297058396091 0 -0.0009125193084758939 -0.01276656527565357 0 -0.00070597341669514533 -0.012576912930420044 0 -0.00078128756062021884 -0.01263469039749582 0 -0.00087922112993141309 -0.012563297058396091 0 -0.0010302115022294053 -0.012670985733202999 0 -0.0009125193084758939 -0.01276656527565357 0 -0.0010302115022294053 -0.012670985733202999 0 -0.0009125193084758939 -0.01276656527565357 0 -0.0011004814942806248 -0.012841370292650235 0 -0.0009125193084758939 -0.01276656527565357 0 -0.00099248871300331625 -0.012899684568258048 0 -0.0011004814942806248 -0.012841370292650235 0 -0.0009125193084758939 -0.01276656527565357 0 -0.00086792687827368217 -0.012883246177249348 0 -0.00099248871300331625 -0.012899684568258048 0 -0.0007598219290230919 -0.012782622756263868 0 -0.0009125193084758939 -0.01276656527565357 0 -0.00086792687827368217 -0.012883246177249348 0 -0.0007598219290230919 -0.012782622756263868 0 -0.00074565180968452392 -0.012572549961368256 0 -0.0009125193084758939 -0.01276656527565357 0 -0.00072239132178322449 -0.012929324526224906 0 -0.0007598219290230919 -0.012782622756263868 0 -0.00086792687827368217 -0.012883246177249348 0 -0.00069336482226910504 -0.012197681516737443 0 -0.0043539037220974254 -0.012702374043658654 0 -0.0019629989031933735 -0.012658754510570129 0 -0.00060044902592768803 -0.015982938775709461 0 -0.0022334442615691845 -0.02041265220068449 0 -0.00072239132178322449 -0.012929324526224906 0 -0.00086792687827368217 -0.012883246177249348 0 -0.00097820220634434749 -0.013036927635207279 0 -0.00099248871300331625 -0.012899684568258048 0 -0.00097820220634434749 -0.013036927635207279 0 -0.0011087593629046562 -0.012977883016901122 0 -0.00086792687827368217 -0.012883246177249348 0 -0.00099248871300331625 -0.012899684568258048 0 -0.00097820220634434749 -0.013036927635207279 0 -0.0043539037220974254 -0.012702374043658654 0 -0.0036797605895205745 -0.015323392611908506 0 -0.0059046904963962702 -0.01452051391514329 0 -0.0034643181678312568 -0.015003932070124385 0 -0.0048528791351935855 -0.017481044473242446 0 -0.0031407566104869711 -0.016926248674178971 0 -0.0018079174271932962 -0.017568369804638943 0 -0.0024489715545648631 -0.021268306033036154 0 -0.0036797605895205745 -0.015323392611908506 0 -0.0059046904963962702 -0.01452051391514329 0 -0.0058589386188876618 -0.015836478807278516 0 -0.0036797605895205745 -0.015323392611908506 0 -0.0055482221510953214 -0.017945539787030215 0 -0.0058589386188876618 -0.015836478807278516 0 -0.0019698695379594781 -0.016579439469258557 0 -0.0019173645586317563 -0.015036802174044052 0 -0.0009779164000954816 -0.016313046449262264 0 -0.0019698695379594781 -0.016579439469258557 0 -0.0019173645586317563 -0.015036802174044052 0 -0.0031407566104869711 -0.016926248674178971 0 -0.0034643181678312568 -0.015003932070124385 0 -0.0019173645586317563 -0.015036802174044052 0 -0.0031407566104869711 -0.016926248674178971 0 -0.0043539037220974254 -0.012702374043658654 0 -0.0036797605895205745 -0.015323392611908506 0 -0.0019629989031933735 -0.012658754510570129 0 -0.0019173645586317563 -0.015036802174044052 0 -0.0019629989031933735 -0.012658754510570129 0 -0.0010063671439674725 -0.013504091556987586 0 -0.0018079174271932962 -0.017568369804638943 0 -0.0013464931633015422 -0.016092138045149411 0 -0.0034643181678312568 -0.015003932070124385 0 -0.0019173645586317563 -0.015036802174044052 0 -0.0019629989031933735 -0.012658754510570129 0 -0.00069336482226910504 -0.012197681516737443 0 -0.0019629989031933735 -0.012658754510570129 0 -0.0010063671439674725 -0.013504091556987586 0 -0.00069336482226910504 -0.012197681516737443 0 0.00025857088622082726 -0.013125297339576274 0 -0.0010063671439674725 -0.013504091556987586 0 0.00025857088622082726 -0.013125297339576274 0 0.0010702322923191326 -0.013952678601748928 0 -0.00072122654773530996 -0.014474399982868778 0 0.00025857088622082726 -0.013125297339576274 0 -0.0010063671439674725 -0.013504091556987586 0 -0.00072122654773530996 -0.014474399982868778 0 -0.0019173645586317563 -0.015036802174044052 0 -0.0010063671439674725 -0.013504091556987586 0 -0.00072122654773530996 -0.014474399982868778 0 0.0025493711580358951 -0.011760605519029521 0 0.00025857088622082726 -0.013125297339576274 0 0.0010702322923191326 -0.013952678601748928 0 0.0010702322923191326 -0.013952678601748928 0 0.0015140457798658667 -0.015882966057898094 0 0.0023601973194161598 -0.013995099783940717 0 0.0010702322923191326 -0.013952678601748928 0 0.00048353651924098686 -0.016076474624375208 0 -5.7943599233639066e-05 -0.01521960653134948 0 0.0010702322923191326 -0.013952678601748928 0 0.00048353651924098686 -0.016076474624375208 0 0.0015140457798658667 -0.015882966057898094 0 0.0010702322923191326 -0.013952678601748928 0 -0.00072122654773530996 -0.014474399982868778 0 -5.7943599233639066e-05 -0.01521960653134948 0 -0.00072122654773530996 -0.014474399982868778 0 -5.7943599233639066e-05 -0.01521960653134948 0 -0.0009779164000954816 -0.016313046449262264 0 -0.0019173645586317563 -0.015036802174044052 0 -0.00072122654773530996 -0.014474399982868778 0 -0.0009779164000954816 -0.016313046449262264 0 0.00048353651924098686 -0.016076474624375208 0 -5.7943599233639066e-05 -0.01521960653134948 0 -0.0009779164000954816 -0.016313046449262264 0 -0.0009779164000954816 -0.016313046449262264 0 -0.00031533601650489342 -0.018134417249571509 0 -0.001856497382362419 -0.018082968559085935 0 0.00048353651924098686 -0.016076474624375208 0 -0.0009779164000954816 -0.016313046449262264 0 -0.00031533601650489342 -0.018134417249571509 0 -0.00031533601650489342 -0.018134417249571509 0 -0.0011118591634844844 -0.019072233373793233 0 -0.001856497382362419 -0.018082968559085935 0 0.0015140457798658667 -0.015882966057898094 0 0.00075147174391390116 -0.017695016507799248 0 0.0019264997437173929 -0.017547769640439095 0 0.00048353651924098686 -0.016076474624375208 0 -0.00031533601650489342 -0.018134417249571509 0 0.00075147174391390116 -0.017695016507799248 0 0.00048353651924098686 -0.016076474624375208 0 0.0015140457798658667 -0.015882966057898094 0 0.00075147174391390116 -0.017695016507799248 0 -0.00031533601650489342 -0.018134417249571509 0 0.00075147174391390116 -0.017695016507799248 0 0.00086190277650950026 -0.01959009552588371 0 0.00075147174391390116 -0.017695016507799248 0 0.0013531845023021416 -0.018566231193388065 0 0.00086190277650950026 -0.01959009552588371 0 0.0013531845023021416 -0.018566231193388065 0 0.0019264997437173929 -0.017547769640439095 0 0.0019235677737651359 -0.019401264827436308 0 0.00075147174391390116 -0.017695016507799248 0 0.0013531845023021416 -0.018566231193388065 0 0.0019264997437173929 -0.017547769640439095 0 0.00086190277650950026 -0.01959009552588371 0 0.0018088837855712307 -0.021215949412736686 0 0.00029542610010272537 -0.021882668938238651 0 0.0013531845023021416 -0.018566231193388065 0 0.00086190277650950026 -0.01959009552588371 0 0.0019235677737651359 -0.019401264827436308 0 0.00086190277650950026 -0.01959009552588371 0 0.0019235677737651359 -0.019401264827436308 0 0.0018088837855712307 -0.021215949412736686 0 0.00086190277650950026 -0.01959009552588371 0 -0.00046670863381240157 -0.02003380762940676 0 0.00029542610010272537 -0.021882668938238651 0 -0.00031533601650489342 -0.018134417249571509 0 -0.0011118591634844844 -0.019072233373793233 0 -0.00046670863381240157 -0.02003380762940676 0 -0.0011118591634844844 -0.019072233373793233 0 -0.00046670863381240157 -0.02003380762940676 0 -0.0017787197423383399 -0.020020540898522315 0 -0.00031533601650489342 -0.018134417249571509 0 0.00086190277650950026 -0.01959009552588371 0 -0.00046670863381240157 -0.02003380762940676 0 -0.00046670863381240157 -0.02003380762940676 0 -0.0017787197423383399 -0.020020540898522315 0 -0.00086119885818961635 -0.021428687516708594 0 -0.0011118591634844844 -0.019072233373793233 0 -0.0017787197423383399 -0.020020540898522315 0 -0.001856497382362419 -0.018082968559085935 0 -0.0017787197423383399 -0.020020540898522315 0 -0.003323518376215613 -0.020680998110408983 0 -0.0031848417719245372 -0.018885104410058601 0 -0.0017787197423383399 -0.020020540898522315 0 -0.0031848417719245372 -0.018885104410058601 0 -0.001856497382362419 -0.018082968559085935 0 -0.0017787197423383399 -0.020020540898522315 0 -0.003323518376215613 -0.020680998110408983 0 -0.0019778279605328049 -0.022006221207392651 0 -0.003323518376215613 -0.020680998110408983 0 -0.0045214775162851599 -0.019581061135063957 0 -0.0047793851181517546 -0.021044127649164988 0 -0.003323518376215613 -0.020680998110408983 0 -0.0045214775162851599 -0.019581061135063957 0 -0.0031848417719245372 -0.018885104410058601 0 -0.0045214775162851599 -0.019581061135063957 0 -0.0031848417719245372 -0.018885104410058601 0 -0.0048528791351935855 -0.017481044473242446 0 -0.0031848417719245372 -0.018885104410058601 0 -0.0048528791351935855 -0.017481044473242446 0 -0.0031407566104869711 -0.016926248674178971 0 -0.0019698695379594781 -0.016579439469258557 0 -0.0031407566104869711 -0.016926248674178971 0 -0.001856497382362419 -0.018082968559085935 0 -0.0019698695379594781 -0.016579439469258557 0 -0.0009779164000954816 -0.016313046449262264 0 -0.001856497382362419 -0.018082968559085935 0 -0.0031848417719245372 -0.018885104410058601 0 -0.0031407566104869711 -0.016926248674178971 0 -0.001856497382362419 -0.018082968559085935 0 -0.00042695878695606549 -0.0082607851681269547 0 9.3126659419643783e-05 -0.0086601988699912709 0 -0.00067378006595716932 -0.0087339512490493543 0 9.3126659419643783e-05 -0.0086601988699912709 0 -0.00067378006595716932 -0.0087339512490493543 0 0.00076143573850139044 -0.0096646619435009178 0 -0.00067378006595716932 -0.0087339512490493543 0 -7.0494386983010964e-05 -0.010615203697005084 0 0.00076143573850139044 -0.0096646619435009178 0 -0.00074241551611986523 -0.0074077296880499261 0 -0.001028870407996585 -0.0063111114962177139 0 -0.00067378006595716932 -0.0087339512490493543 0 -0.00054860481571295753 -0.012739518123486832 0 -0.00067378006595716932 -0.0087339512490493543 0 -7.0494386983010964e-05 -0.010615203697005084 0 -0.00049878472092575285 -0.0093839413314370859 0 -0.00052057514027221421 -0.0089787332447818589 0 -7.0494386983010964e-05 -0.010615203697005084 0 0.00076143573850139044 -0.0096646619435009178 0 0.0013159557834771199 -0.011012397020201037 0 0.0029391200483015862 -0.012038182722214722 0 0.0013159557834771199 -0.011012397020201037 0 0.0022679886741771788 -0.011061135729221426 0 0.00076143573850139044 -0.0096646619435009178 0 0.0013159557834771199 -0.011012397020201037 0 0.0022679886741771788 -0.011061135729221426 0 9.3126659419643783e-05 -0.0086601988699912709 0 0.0016608062914182072 -0.0096543718584631687 0 0.00079315480192367516 -0.0076684500386959677 0 9.3126659419643783e-05 -0.0086601988699912709 0 0.00076143573850139044 -0.0096646619435009178 0 0.0016608062914182072 -0.0096543718584631687 0 0.00076143573850139044 -0.0096646619435009178 0 0.0022679886741771788 -0.011061135729221426 0 0.0016608062914182072 -0.0096543718584631687 0 0.0016608062914182072 -0.0096543718584631687 0 0.0037282778032351445 -0.011992111785233614 0 0.0036915069986205146 -0.0089392728592234336 0 0.0020864068511550859 -0.013332427824339107 0 0.0019059156806380329 -0.013713488931163463 0 0.0022679886741771788 -0.011061135729221426 0 0.0016608062914182072 -0.0096543718584631687 0 0.0037282778032351445 -0.011992111785233614 0 0.0037282778032351445 -0.011992111785233614 0 0.0028800930099354039 -0.015513452140346801 0 0.0049351442555832046 -0.015938911856150716 0 0.0029391200483015862 -0.012038182722214722 0 0.0022679886741771788 -0.011061135729221426 0 0.0037282778032351445 -0.011992111785233614 0 0.0029391200483015862 -0.012038182722214722 0 0.0037282778032351445 -0.011992111785233614 0 0.0029442523158573629 -0.012400226254385657 0 0.0037282778032351445 -0.011992111785233614 0 0.0029442523158573629 -0.012400226254385657 0 0.0023601973194161598 -0.013995099783940717 0 0.0010702322923191326 -0.013952678601748928 0 0.0029442523158573629 -0.012400226254385657 0 0.0023601973194161598 -0.013995099783940717 0 0.0025493711580358951 -0.011760605519029521 0 0.0010702322923191326 -0.013952678601748928 0 0.0029442523158573629 -0.012400226254385657 0 0.0037282778032351445 -0.011992111785233614 0 0.0023601973194161598 -0.013995099783940717 0 0.0028800930099354039 -0.015513452140346801 0 0.0015140457798658667 -0.015882966057898094 0 0.0023601973194161598 -0.013995099783940717 0 0.0028800930099354039 -0.015513452140346801 0 0.0015140457798658667 -0.015882966057898094 0 0.0028800930099354039 -0.015513452140346801 0 0.0019264997437173929 -0.017547769640439095 0 0.0028800930099354039 -0.015513452140346801 0 0.003343839267918783 -0.017509962819496336 0 0.0019264997437173929 -0.017547769640439095 0 0.0028800930099354039 -0.015513452140346801 0 0.003343839267918783 -0.017509962819496336 0 0.0049351442555832046 -0.015938911856150716 0 0.003343839267918783 -0.017509962819496336 0 0.0033368406035218364 -0.019531128859190103 0 0.0050807361430041153 -0.019089470229643479 0 0.003343839267918783 -0.017509962819496336 0 0.0026455374192834208 -0.018677050262271684 0 0.0033368406035218364 -0.019531128859190103 0 0.003343839267918783 -0.017509962819496336 0 0.0026455374192834208 -0.018677050262271684 0 0.0019264997437173929 -0.017547769640439095 0 0.0026455374192834208 -0.018677050262271684 0 0.0019264997437173929 -0.017547769640439095 0 0.0019235677737651359 -0.019401264827436308 0 0.0025399639487715575 -0.020376466216810073 0 0.0033368406035218364 -0.019531128859190103 0 0.0031890956233671668 -0.022500423668070556 0 0.0026455374192834208 -0.018677050262271684 0 0.0019235677737651359 -0.019401264827436308 0 0.0025399639487715575 -0.020376466216810073 0 0.0019235677737651359 -0.019401264827436308 0 0.0025399639487715575 -0.020376466216810073 0 0.0018088837855712307 -0.021215949412736686 0 0.0026455374192834208 -0.018677050262271684 0 0.0025399639487715575 -0.020376466216810073 0 0.0033368406035218364 -0.019531128859190103 0 0.0033368406035218364 -0.019531128859190103 0 0.0041380270648636135 -0.01933771832838586 0 0.0031890956233671668 -0.022500423668070556 0 -0.00081904652399834973 -0.015155552990257256 0 -8.4230737617713611e-05 -0.01564828842367235 0 -0.0008450248431890366 -0.016443252792178942 0 0.0012740106597040818 -0.01504210458472589 0 0.00094909711965125688 -0.018463614861665329 0 0.0014480747572688006 -0.015141423432461854 0 0.0012740106597040818 -0.01504210458472589 0 0.0035658001747495066 -0.007030034359156564 0 0.0036915069986205146 -0.0089392728592234336 0 0.00079315480192367516 -0.0076684500386959677 0 0.003343839267918783 -0.017509962819496336 0 0.0050807361430041153 -0.019089470229643479 0 0.0049351442555832046 -0.015938911856150716 0 0.0012740106597040818 -0.01504210458472589 0 0.0019059156806380329 -0.013713488931163463 0 0.0012740106597040818 -0.01504210458472589 0 0.0010204104054885195 -0.012933279325592873 0 0.0016608062914182072 -0.0096543718584631687 0 0.0036915069986205146 -0.0089392728592234336 0 0.00079315480192367516 -0.0076684500386959677 0 0.00033692126204118943 -0.01497137989390551 0 -8.4230737617713611e-05 -0.01564828842367235 0 0.00063573934772696318 -0.015803504329705276 0 -0.00081904652399834973 -0.015155552990257256 0 0.00033692126204118943 -0.01497137989390551 0 -8.4230737617713611e-05 -0.01564828842367235 0 0.001164857704488836 -0.015437318867450849 0 0.00033692126204118943 -0.01497137989390551 0 0.00063573934772696318 -0.015803504329705276 0 0.001164857704488836 -0.015437318867450849 0 0.0010648340415249826 -0.015996028099052123 0 0.00063573934772696318 -0.015803504329705276 0 0.0011730957430319152 -0.014896798691979563 0 0.001164857704488836 -0.015437318867450849 0 0.00033692126204118943 -0.01497137989390551 0 -0.00044916337953474595 -0.0083797303578780433 0 9.3126659419643783e-05 -0.0086601988699912709 0 0.00079315480192367516 -0.0076684500386959677 0 0.00081763043251584287 -0.011672296565341689 0 0.0010204104054885195 -0.012933279325592873 0 0.0013078641279757187 -0.017103409093360056 0 0.00075999143645749093 -0.017301873320470198 0 0.0009845196311733227 -0.016899799655013585 0 0.00075999143645749093 -0.017301873320470198 0 0.0009845196311733227 -0.016899799655013585 0 0.00076235530273666195 -0.01657047871989633 0 0.00075999143645749093 -0.017301873320470198 0 0.00076235530273666195 -0.01657047871989633 0 0.00018858857717736724 -0.017208106896890594 0 0.0013078641279757187 -0.017103409093360056 0 0.0009845196311733227 -0.016899799655013585 0 0.0011355129235900967 -0.016465647774341886 0 0.0009845196311733227 -0.016899799655013585 0 0.0011355129235900967 -0.016465647774341886 0 0.00076235530273666195 -0.01657047871989633 0 0.0011355129235900967 -0.016465647774341886 0 0.0010648340415249826 -0.015996028099052123 0 0.00076235530273666195 -0.01657047871989633 0 0.0010648340415249826 -0.015996028099052123 0 0.00063573934772696318 -0.015803504329705276 0 0.00076235530273666195 -0.01657047871989633 0 0.00063573934772696318 -0.015803504329705276 0 0.00076235530273666195 -0.01657047871989633 0 0.00015222462040725087 -0.016312110659570112 0 -8.4230737617713611e-05 -0.01564828842367235 0 0.00015222462040725087 -0.016312110659570112 0 -0.0008450248431890366 -0.016443252792178942 0 0.00015222462040725087 -0.016312110659570112 0 0.00018858857717736724 -0.017208106896890594 0 -0.0008450248431890366 -0.016443252792178942 0 -8.4230737617713611e-05 -0.01564828842367235 0 0.00063573934772696318 -0.015803504329705276 0 0.00015222462040725087 -0.016312110659570112 0 0.00076235530273666195 -0.01657047871989633 0 0.00015222462040725087 -0.016312110659570112 0 0.00018858857717736724 -0.017208106896890594 0 0.00018858857717736724 -0.017208106896890594 0 -0.0008450248431890366 -0.016443252792178942 0 -0.00075207440303034178 -0.018241610904242329 0 0.0031890956233671668 -0.022500423668070556 0 0.0014863217143362105 -0.023921796202651831 0 0.0012135427964807015 -0.024014183855775768 0 0.00094909711965125688 -0.018463614861665329 0 0.00045736566240533463 -0.020124306111894606 0 0.0025399639487715575 -0.020376466216810073 0 0.0031890956233671668 -0.022500423668070556 0 0.0018088837855712307 -0.021215949412736686 0 0.0031890956233671668 -0.022500423668070556 0 0.0018088837855712307 -0.021215949412736686 0 0.0012261598524655171 -0.023105032040746043 0 0.0031890956233671668 -0.022500423668070556 0 0.0014863217143362105 -0.023921796202651831 0 0.0012261598524655171 -0.023105032040746043 0 0.0014863217143362105 -0.023921796202651831 0 0.00099299746402112797 -0.023865118443497507 0 0.0012135427964807015 -0.024014183855775768 0 0.0014863217143362105 -0.023921796202651831 0 0.00099299746402112797 -0.023865118443497507 0 0.00074028474625223927 -0.025044478933848251 0 0.00099299746402112797 -0.023865118443497507 0 9.702588800431769e-09 -0.020974016727383742 0 1.9569216383627514e-06 -0.024776251749907188 0 -4.5990770808776045e-06 -0.02095732344510258 0 -0.00075207440303034178 -0.018241610904242329 0 4.1397613265009948e-06 -0.020130905030709904 0 0.00099299746402112797 -0.023865118443497507 0 9.702588800431769e-09 -0.020974016727383742 0 0.0012135427964807015 -0.024014183855775768 0 8.8697593129901372e-07 -0.020966967690125043 0 0.00045736566240533463 -0.020124306111894606 0 0.00018858857717736724 -0.017208106896890594 0 -0.00075207440303034178 -0.018241610904242329 0 0.00073844859095240946 -0.018604539311933597 0 0.00075999143645749093 -0.017301873320470198 0 0.00018858857717736724 -0.017208106896890594 0 0.00073844859095240946 -0.018604539311933597 0 4.9865280254438975e-07 -0.020117945918175312 0 0.00069721811482552831 -0.018204175113202516 0 -1.9261373211101819e-06 -0.02011647780501816 0 9.7795600252248069e-07 -0.017355445989466218 0 -9.4003854048456089e-05 -0.016347237384329569 0 -0.00075207440303034178 -0.018241610904242329 0 4.1397613265009948e-06 -0.020130905030709904 0 0.00073844859095240946 -0.018604539311933597 0 0.00049255797033448184 -0.015650315315492089 0 9.7795600252248069e-07 -0.017355445989466218 0 -9.4003854048456089e-05 -0.016347237384329569 0 0.0010328843190684025 -0.017178933605446547 0 0.00069721811482552831 -0.018204175113202516 0 0.0013078641279757187 -0.017103409093360056 0 0.00075999143645749093 -0.017301873320470198 0 0.00073844859095240946 -0.018604539311933597 0 0.00059296286876865082 -0.015717900649220181 0 0.00049255797033448184 -0.015650315315492089 0 -9.4003854048456089e-05 -0.016347237384329569 0 0.00059296286876865082 -0.015717900649220181 0 0.00062476061374286645 -0.015673003764648884 0 -9.4003854048456089e-05 -0.016347237384329569 0 -0.0016236085769488911 -0.024252401902386068 0 -0.0008016422326685811 -0.022859373671963928 0 0.00013520982630705876 -0.024061828645956365 0 -0.0016236085769488911 -0.024252401902386068 0 0.00013520982630705876 -0.024061828645956365 0 -0.00031795109398663149 -0.026931630170741915 0 -0.0016236085769488911 -0.024252401902386068 0 -0.0034787468086891976 -0.022657947782693089 0 -0.003989693454685115 -0.026588543811342832 0 -0.0016236085769488911 -0.024252401902386068 0 -0.0034787468086891976 -0.022657947782693089 0 -0.0019778279605328049 -0.022006221207392651 0 -0.003323518376215613 -0.020680998110408983 0 -0.0034787468086891976 -0.022657947782693089 0 -0.0047793851181517546 -0.021044127649164988 0 -0.003323518376215613 -0.020680998110408983 0 -0.0034787468086891976 -0.022657947782693089 0 -0.0019778279605328049 -0.022006221207392651 0 -0.0016236085769488911 -0.024252401902386068 0 -0.0019778279605328049 -0.022006221207392651 0 -0.0008016422326685811 -0.022859373671963928 0 -0.0019778279605328049 -0.022006221207392651 0 -0.0008016422326685811 -0.022859373671963928 0 -0.00086119885818961635 -0.021428687516708594 0 -0.0017787197423383399 -0.020020540898522315 0 -0.0019778279605328049 -0.022006221207392651 0 -0.00086119885818961635 -0.021428687516708594 0 -0.0008016422326685811 -0.022859373671963928 0 0.00029542610010272537 -0.021882668938238651 0 0.00013520982630705876 -0.024061828645956365 0 -0.00046670863381240157 -0.02003380762940676 0 -0.00086119885818961635 -0.021428687516708594 0 0.00029542610010272537 -0.021882668938238651 0 -0.0008016422326685811 -0.022859373671963928 0 -0.00086119885818961635 -0.021428687516708594 0 0.00029542610010272537 -0.021882668938238651 0 0.0018088837855712307 -0.021215949412736686 0 0.00029542610010272537 -0.021882668938238651 0 0.0012261598524655171 -0.023105032040746043 0 0.0014863217143362105 -0.023921796202651831 0 0.0012261598524655171 -0.023105032040746043 0 0.00074028474625223927 -0.025044478933848251 0 0.00029542610010272537 -0.021882668938238651 0 0.0012261598524655171 -0.023105032040746043 0 0.00013520982630705876 -0.024061828645956365 0 0.0012261598524655171 -0.023105032040746043 0 0.00013520982630705876 -0.024061828645956365 0 0.00074028474625223927 -0.025044478933848251 0 0.00013520982630705876 -0.024061828645956365 0 0.00074028474625223927 -0.025044478933848251 0 -0.00031795109398663149 -0.026931630170741915 0 0.00099299746402112797 -0.023865118443497507 0 0.00074028474625223927 -0.025044478933848251 0 1.9569216383627514e-06 -0.024776251749907188 0 0.00074028474625223927 -0.025044478933848251 0 1.9569216383627514e-06 -0.024776251749907188 0 2.3509532058835252e-06 -0.028587466971717788 0 0.00074028474625223927 -0.025044478933848251 0 2.3509532058835252e-06 -0.028587466971717788 0 -0.00031795109398663149 -0.026931630170741915 0 2.3509532058835252e-06 -0.028587466971717788 0 -0.00031795109398663149 -0.026931630170741915 0 -9.2988717468252742e-06 -0.032388852904978768 0 -0.0016236085769488911 -0.024252401902386068 0 -0.00031795109398663149 -0.026931630170741915 0 -0.003989693454685115 -0.026588543811342832 0 -0.00031795109398663149 -0.026931630170741915 0 -9.2988717468252742e-06 -0.032388852904978768 0 -0.003989693454685115 -0.026588543811342832 0 -4.0228323682080291e-06 -0.032402224131712141 0 -0.00015095523226129007 -0.034538453343897144 0 1.3403767445124111e-06 -0.035321554077802172 0 -4.0228323682080291e-06 -0.032402224131712141 0 -0.00015095523226129007 -0.034538453343897144 0 -0.0012468861220097775 -0.03789155635253582 0 -2.9317659038476967e-06 -0.032396611154781943 0 -0.001519724083891137 -0.032135850868432646 0 -0.00015095523226129007 -0.034538453343897144 0 7.0507966887913248e-05 -0.036863216406614545 0 -0.00026670073804619792 -0.036690486017680664 0 -0.00015095523226129007 -0.034538453343897144 0 1.3403767445124111e-06 -0.035321554077802172 0 7.0507966887913248e-05 -0.036863216406614545 0 1.3403767445124111e-06 -0.035321554077802172 0 7.0507966887913248e-05 -0.036863216406614545 0 0.00022145761703735517 -0.037508677262754656 0 7.0507966887913248e-05 -0.036863216406614545 0 0.00032016683043278426 -0.038331581200616048 0 0.00022145761703735517 -0.037508677262754656 0 7.0507966887913248e-05 -0.036863216406614545 0 -0.00022327346857921445 -0.03747591414311837 0 -0.00026670073804619792 -0.036690486017680664 0 7.0507966887913248e-05 -0.036863216406614545 0 -0.00022327346857921445 -0.03747591414311837 0 9.4011479674928607e-05 -0.038049742614433266 0 -0.00022327346857921445 -0.03747591414311837 0 9.4011479674928607e-05 -0.038049742614433266 0 -0.00026095935733472161 -0.038408415097823931 0 7.0507966887913248e-05 -0.036863216406614545 0 9.4011479674928607e-05 -0.038049742614433266 0 0.00032016683043278426 -0.038331581200616048 0 -0.0013674793690207274 -0.036057296890818824 0 -0.0015629036991299308 -0.036174869055410203 0 -0.00015095523226129007 -0.034538453343897144 0 -0.0012468861220097775 -0.03789155635253582 0 -0.00073589543248761633 -0.038630943570721783 0 -0.00015095523226129007 -0.034538453343897144 0 -0.00026670073804619792 -0.036690486017680664 0 -0.0010209136628169233 -0.038012731896921545 0 -0.00022327346857921445 -0.03747591414311837 0 -0.00026670073804619792 -0.036690486017680664 0 -0.0010209136628169233 -0.038012731896921545 0 -0.00022327346857921445 -0.03747591414311837 0 -0.0010209136628169233 -0.038012731896921545 0 -0.00026095935733472161 -0.038408415097823931 0 -0.0010209136628169233 -0.038012731896921545 0 -0.00026095935733472161 -0.038408415097823931 0 -0.00067680679097808269 -0.039213948714433199 0 -0.0034787468086891976 -0.022657947782693089 0 -0.003989693454685115 -0.026588543811342832 0 -0.0058790016367017903 -0.022551734794419444 0 -0.001519724083891137 -0.032135850868432646 0 -0.0024597041298114962 -0.032203207373334694 0 -0.0015629036991299308 -0.036174869055410203 0 -0.0024597041298114962 -0.032203207373334694 0 -0.0012468861220097775 -0.03789155635253582 0 -0.00073589543248761633 -0.038630943570721783 0 -0.00052464329382384339 -0.042285898982888773 0 9.4011479674928607e-05 -0.038049742614433266 0 0.00035337615907148973 -0.0388752378791535 0 0.00032016683043278426 -0.038331581200616048 0 9.4011479674928607e-05 -0.038049742614433266 0 -0.00026095935733472161 -0.038408415097823931 0 0.00035337615907148973 -0.0388752378791535 0 -0.00026095935733472161 -0.038408415097823931 0 -0.00067680679097808269 -0.039213948714433199 0 0.00035337615907148973 -0.0388752378791535 0 -0.0036578544358814107 -0.034262851357828868 0 -0.0033437736750551138 -0.030112964712758736 0 0.00035337615907148973 -0.0388752378791535 0 0.00053810763878111645 -0.038642235154506141 0 0.00036202139363086187 -0.038704352734521053 0 -0.00067680679097808269 -0.039213948714433199 0 0.00035337615907148973 -0.0388752378791535 0 -0.00049922204952455201 -0.040012764357010573 0 -0.0024597041298114962 -0.032203207373334694 0 -0.0032362307990742331 -0.028189949017904958 0 -0.0034787468086891976 -0.022657947782693089 0 -0.0058790016367017903 -0.022551734794419444 0 -0.0047793851181517546 -0.021044127649164988 0 -0.0058790016367017903 -0.022551734794419444 0 -0.0063398505124787983 -0.019867772856485829 0 -0.0047793851181517546 -0.021044127649164988 0 -0.0024597041298114962 -0.032203207373334694 0 -0.0033437736750551138 -0.030112964712758736 0 0.00018262687626318245 -0.038867349685164074 0 1.0327988184067429e-05 -0.038810368263515631 0 0.00011706052494403536 -0.038666118986673985 0 0.00018262687626318245 -0.038867349685164074 0 0.00025980131979254692 -0.03874953473224732 0 0.00011706052494403536 -0.038666118986673985 0 0.00025980131979254692 -0.03874953473224732 0 0.00035337615907148973 -0.0388752378791535 0 0.00036202139363086187 -0.038704352734521053 0 0.00018262687626318245 -0.038867349685164074 0 0.00025980131979254692 -0.03874953473224732 0 0.00035337615907148973 -0.0388752378791535 0 0.00035337615907148973 -0.0388752378791535 0 0.00028936917000781391 -0.039161709606066596 0 0.00032016683043278426 -0.038331581200616048 0 0.00018262687626318245 -0.038867349685164074 0 0.00035337615907148973 -0.0388752378791535 0 0.00028936917000781391 -0.039161709606066596 0 0.00031349004368399287 -0.04038118150011652 0 0.00023580315556496223 -0.040546649337453201 0 0.00018262687626318245 -0.038867349685164074 0 0.00028936917000781391 -0.039161709606066596 0 -5.8542995218735699e-05 -0.039032553318282058 0 0.00028936917000781391 -0.039161709606066596 0 0.0002493271195020532 -0.039541153860544159 0 0.0001038047218908604 -0.040802952148335202 0 0.00028936917000781391 -0.039161709606066596 0 0.0002493271195020532 -0.039541153860544159 0 0.00032016683043278426 -0.038331581200616048 0 0.0002493271195020532 -0.039541153860544159 0 0.00032016683043278426 -0.038331581200616048 0 0.00022145761703735517 -0.037508677262754656 0 0.0002493271195020532 -0.039541153860544159 0 6.1258526774381403e-07 -0.038249281714488929 0 0.00022145761703735517 -0.037508677262754656 0 1.3403767445124111e-06 -0.035321554077802172 0 6.1258526774381403e-07 -0.038249281714488929 0 0.00022145761703735517 -0.037508677262754656 0 0.0002493271195020532 -0.039541153860544159 0 6.1258526774381403e-07 -0.038249281714488929 0 1.5914459256710181e-07 -0.041167343349735909 0 0.0002493271195020532 -0.039541153860544159 0 1.5914459256710181e-07 -0.041167343349735909 0 3.3251189971074757e-05 -0.040687080406126952 0 8.8761258351951251e-07 -0.041175504265873429 0 0.0005194104458610191 -0.042471642656091158 0 1.5914459256710181e-07 -0.041167343349735909 0 3.3251189971074757e-05 -0.040687080406126952 0 0.00017579244103354584 -0.040844010548896359 0 -6.1627355010729092e-07 -0.04117437812650214 0 -8.2104256477506851e-08 -0.044661916867244175 0 -0.00010142091886356788 -0.044760894366982634 0 3.3251189971074757e-05 -0.040687080406126952 0 0.00017579244103354584 -0.040844010548896359 0 0.0002171179289444369 -0.041128223288101742 0 3.3251189971074757e-05 -0.040687080406126952 0 0.0002171179289444369 -0.041128223288101742 0 0.00014266178176250476 -0.040733284034067549 0 0.0002171179289444369 -0.041128223288101742 0 0.00039740494459272822 -0.041564556005881048 0 0.00014266178176250476 -0.040733284034067549 0 0.0002493271195020532 -0.039541153860544159 0 3.3251189971074757e-05 -0.040687080406126952 0 0.00014266178176250476 -0.040733284034067549 0 0.0002493271195020532 -0.039541153860544159 0 0.00014266178176250476 -0.040733284034067549 0 0.0001038047218908604 -0.040802952148335202 0 3.3183234963659887e-06 -0.048149127427752854 0 0.00029096059992135288 -0.047152667381388763 0 0.00070368187001939653 -0.046832071663564713 0 -8.2104256477506851e-08 -0.044661916867244175 0 -0.00010142091886356788 -0.044760894366982634 0 0.00070368187001939653 -0.046832071663564713 0 0.00017579244103354584 -0.040844010548896359 0 0.0002171179289444369 -0.041128223288101742 0 0.00080151959344244037 -0.04233438018063735 0 -8.2104256477506851e-08 -0.044661916867244175 0 3.3183234963659887e-06 -0.048149127427752854 0 0.00070368187001939653 -0.046832071663564713 0 0.0005194104458610191 -0.042471642656091158 0 0.00031016577406075126 -0.043227268894612307 0 0.0002171179289444369 -0.041128223288101742 0 0.00039740494459272822 -0.041564556005881048 0 0.00080151959344244037 -0.04233438018063735 0 0.00039740494459272822 -0.041564556005881048 0 0.00080151959344244037 -0.04233438018063735 0 0.00074262766611594641 -0.042512590843863086 0 0.00031016577406075126 -0.043227268894612307 0 -4.2301707931077956e-05 -0.043416009234965351 0 0.00080151959344244037 -0.04233438018063735 0 0.00052786363655142696 -0.043636156936115562 0 9.0564151393041301e-05 -0.045148874797627477 0 0.00029096059992135288 -0.047152667381388763 0 0.00070368187001939653 -0.046832071663564713 0 9.0564151393041301e-05 -0.045148874797627477 0 0.00080151959344244037 -0.04233438018063735 0 0.00052786363655142696 -0.043636156936115562 0 0.00074262766611594641 -0.042512590843863086 0 0.00048794170363122233 -0.042670334863695848 0 0.00074262766611594641 -0.042512590843863086 0 0.00066314799997262196 -0.042387749322264127 0 0.00048794170363122233 -0.042670334863695848 0 0.00052786363655142696 -0.043636156936115562 0 0.00074262766611594641 -0.042512590843863086 0 0.00039740494459272822 -0.041564556005881048 0 0.00074262766611594641 -0.042512590843863086 0 0.00051116249284715307 -0.042070253596926226 0 -0.00039231566565652124 -0.038788972129726151 0 -0.00056515474161799271 -0.038843850242858566 0 -0.00031279435139612159 -0.038932292562401188 0 -0.00019906758314774896 -0.041492331851912839 0 6.9588822499340322e-05 -0.040931203694554032 0 0.00074262766611594641 -0.042512590843863086 0 0.00066314799997262196 -0.042387749322264127 0 0.00051116249284715307 -0.042070253596926226 0 -0.00085672678727366383 -0.042444763587824563 0 -0.00061108838009265426 -0.042937078997175103 0 -0.00026023527370347638 -0.042762778200569382 0 0.00016562073683468382 -0.043559340483442635 0 0.00054175991012560634 -0.042965631862330433 0 -0.00024996582054915032 -0.04310387946938038 0 -0.00019906758314774896 -0.041492331851912839 0 -0.00011071575596427546 -0.041657337312075125 0 0.00054175991012560634 -0.042965631862330433 0 -0.00026023527370347638 -0.042762778200569382 0 -0.00024996582054915032 -0.04310387946938038 0 -0.00033678448589728315 -0.042274042159721442 0 -0.00019906758314774896 -0.041492331851912839 0 0.00039740494459272822 -0.041564556005881048 0 0.0001038047218908604 -0.040802952148335202 0 0.00051116249284715307 -0.042070253596926226 0 0.00023580315556496223 -0.040546649337453201 0 6.9588822499340322e-05 -0.040931203694554032 0 0.00039740494459272822 -0.041564556005881048 0 0.00014266178176250476 -0.040733284034067549 0 0.0001038047218908604 -0.040802952148335202 0 -0.00039231566565652124 -0.038788972129726151 0 -0.00031279435139612159 -0.038932292562401188 0 -0.00024184861032038271 -0.038736680297365336 0 -0.00031279435139612159 -0.038932292562401188 0 -0.00012956335032729091 -0.038846825286139433 0 -0.00024184861032038271 -0.038736680297365336 0 -5.8542995218735699e-05 -0.039032553318282058 0 -0.00031279435139612159 -0.038932292562401188 0 -0.00012956335032729091 -0.038846825286139433 0 -5.8542995218735699e-05 -0.039032553318282058 0 -0.00012956335032729091 -0.038846825286139433 0 1.0327988184067429e-05 -0.038810368263515631 0 -0.00012956335032729091 -0.038846825286139433 0 1.0327988184067429e-05 -0.038810368263515631 0 -6.7335282483147894e-05 -0.03866818288487419 0 0.00018262687626318245 -0.038867349685164074 0 -5.8542995218735699e-05 -0.039032553318282058 0 1.0327988184067429e-05 -0.038810368263515631 0 1.0327988184067429e-05 -0.038810368263515631 0 -6.7335282483147894e-05 -0.03866818288487419 0 0.00011706052494403536 -0.038666118986673985 0 -6.7335282483147894e-05 -0.03866818288487419 0 1.4270836538754729e-05 -0.038535740073797439 0 -8.2042230411660588e-05 -0.038517852854853582 0 -6.7335282483147894e-05 -0.03866818288487419 0 1.4270836538754729e-05 -0.038535740073797439 0 0.00011706052494403536 -0.038666118986673985 0 -6.7335282483147894e-05 -0.03866818288487419 0 -0.00017253017588012901 -0.038555907386269447 0 -8.2042230411660588e-05 -0.038517852854853582 0 -0.00012956335032729091 -0.038846825286139433 0 -6.7335282483147894e-05 -0.03866818288487419 0 -0.00024184861032038271 -0.038736680297365336 0 -0.00024184861032038271 -0.038736680297365336 0 -0.00017253017588012901 -0.038555907386269447 0 -0.00036557507150959971 -0.038611949953128187 0 -0.00039231566565652124 -0.038788972129726151 0 -0.00024184861032038271 -0.038736680297365336 0 -0.00036557507150959971 -0.038611949953128187 0 -6.7335282483147894e-05 -0.03866818288487419 0 -0.00024184861032038271 -0.038736680297365336 0 -0.00017253017588012901 -0.038555907386269447 0 -0.0027256511807560624 -0.044591629664983944 0 -0.0018045980750940487 -0.043453526326792717 0 -0.0018702447029233071 -0.044341571580830484 0 -0.00017253017588012901 -0.038555907386269447 0 -0.00016670370151020659 -0.038392663142010251 0 -0.00036557507150959971 -0.038611949953128187 0 -0.0011487760556392009 -0.043485888406702061 0 -0.00055425763853010916 -0.041944390087122342 0 -0.00017253017588012901 -0.038555907386269447 0 -0.00016670370151020659 -0.038392663142010251 0 -0.00011230556130515729 -0.038412794765169379 0 -0.0011487760556392009 -0.043485888406702061 0 -0.0011612250534558846 -0.04342975455742866 0 -0.00016295086972478533 -0.038396288880501006 0 -0.00011230556130515729 -0.038412794765169379 0 -5.0654055187698127e-05 -0.038387052296969211 0 -0.00011230556130515729 -0.038412794765169379 0 -3.8635282698045046e-05 -0.038455006480478331 0 -8.2042230411660588e-05 -0.038517852854853582 0 -0.00011230556130515729 -0.038412794765169379 0 -3.8635282698045046e-05 -0.038455006480478331 0 -5.0654055187698127e-05 -0.038387052296969211 0 -3.8635282698045046e-05 -0.038455006480478331 0 1.4270836538754729e-05 -0.038535740073797439 0 3.7686668726019395e-05 -0.038423320774809235 0 -3.8635282698045046e-05 -0.038455006480478331 0 -5.0654055187698127e-05 -0.038387052296969211 0 3.7686668726019395e-05 -0.038423320774809235 0 -3.8635282698045046e-05 -0.038455006480478331 0 1.4270836538754729e-05 -0.038535740073797439 0 -8.2042230411660588e-05 -0.038517852854853582 0 -0.00017253017588012901 -0.038555907386269447 0 -0.00011230556130515729 -0.038412794765169379 0 -8.2042230411660588e-05 -0.038517852854853582 0 -0.00085672678727366383 -0.042444763587824563 0 -0.00061108838009265426 -0.042937078997175103 0 -0.00099726058975472274 -0.04329448461827113 0 -0.0003600308026057804 -0.043341190892071668 0 -0.00061108838009265426 -0.042937078997175103 0 -0.00026023527370347638 -0.042762778200569382 0 -0.0003600308026057804 -0.043341190892071668 0 -0.00061108838009265426 -0.042937078997175103 0 -0.00099726058975472274 -0.04329448461827113 0 -0.00019906758314774896 -0.041492331851912839 0 -0.00055425763853010916 -0.041944390087122342 0 -0.00039231566565652124 -0.038788972129726151 0 -0.00056515474161799271 -0.038843850242858566 0 -0.00036557507150959971 -0.038611949953128187 0 -0.00085672678727366383 -0.042444763587824563 0 -0.00099726058975472274 -0.04329448461827113 0 -0.0018045980750940487 -0.043453526326792717 0 -0.00099726058975472274 -0.04329448461827113 0 -0.0018045980750940487 -0.043453526326792717 0 -0.0011967981071219333 -0.044385181246610408 0 -0.0018045980750940487 -0.043453526326792717 0 -0.0018702447029233071 -0.044341571580830484 0 -0.0011967981071219333 -0.044385181246610408 0 -0.0018702447029233071 -0.044341571580830484 0 -0.0011967981071219333 -0.044385181246610408 0 -0.001781581047729204 -0.044905037271737676 0 -0.0003600308026057804 -0.043341190892071668 0 -0.00099726058975472274 -0.04329448461827113 0 -0.0011967981071219333 -0.044385181246610408 0 -0.0006400165310308794 -0.044067929913269348 0 -0.0011967981071219333 -0.044385181246610408 0 -0.00063865216380488467 -0.044614074466175248 0 0.0002110361582830632 -0.04526075758936058 0 -1.0796376076909702e-05 -0.04514377756567569 0 -0.00061181403433332743 -0.045049201132443963 0 -0.00097423603045762662 -0.04511119969710338 0 -0.00025852860878008418 -0.045395853250945813 0 -0.0011967981071219333 -0.044385181246610408 0 -0.00063865216380488467 -0.044614074466175248 0 -0.0010018431976469703 -0.045140236275520065 0 -0.00063865216380488467 -0.044614074466175248 0 -0.00061181403433332743 -0.045049201132443963 0 -0.0010018431976469703 -0.045140236275520065 0 -0.00029750376873497445 -0.048259678465997422 0 -0.00028918353529183873 -0.048412961215626951 0 -0.00083369674985802895 -0.04602775793033461 0 -0.00091150049186641369 -0.04599130697956192 0 -0.00095425828457967985 -0.046037514883772022 0 -0.00028918353529183873 -0.048412961215626951 0 -0.00089288952393719203 -0.048138555268174642 0 -0.00028918353529183873 -0.048412961215626951 0 -0.0009792804280332407 -0.045821368802157245 0 -0.0011967981071219333 -0.044385181246610408 0 -0.0010018431976469703 -0.045140236275520065 0 -0.001781581047729204 -0.044905037271737676 0 0.00030171608831224065 -0.065272986927611396 0 0.0012900555630239821 -0.065107198307571681 0 0.00078448250059408959 -0.064508984367854377 0 -0.00028918353529183873 -0.048412961215626951 0 0.00079409173256475801 -0.052371997142415992 0 0.00030171608831224065 -0.065272986927611396 0 -0.00047807004778375897 -0.064986775858638199 0 -0.00013485084561432276 -0.064387774887408336 0 0.00030171608831224065 -0.065272986927611396 0 -0.00013485084561432276 -0.064387774887408336 0 0.00078448250059408959 -0.064508984367854377 0 -0.00016295086972478533 -0.038396288880501006 0 -5.0654055187698127e-05 -0.038387052296969211 0 2.9009323449109723e-05 -0.038302971385229263 0 -0.00098663843091768952 -0.045958942607085801 0 -0.00095425828457967985 -0.046037514883772022 0 -0.0010689692442384796 -0.046049752800861349 0 -0.0011487760556392009 -0.043485888406702061 0 -0.001588162948384464 -0.043536558003233694 0 -0.00016295086972478533 -0.038396288880501006 0 3.6462205644360845e-05 -0.038164665159159603 0 2.9009323449109723e-05 -0.038302971385229263 0 -5.0654055187698127e-05 -0.038387052296969211 0 2.9009323449109723e-05 -0.038302971385229263 0 3.7686668726019395e-05 -0.038423320774809235 0 -0.00098663843091768952 -0.045958942607085801 0 -0.00091150049186641369 -0.04599130697956192 0 -0.00095425828457967985 -0.046037514883772022 0 -0.0011487760556392009 -0.043485888406702061 0 -0.0009792804280332407 -0.045821368802157245 0 -0.0027256511807560624 -0.044591629664983944 0 -0.0018702447029233071 -0.044341571580830484 0 -0.001781581047729204 -0.044905037271737676 0 0.0012900555630239821 -0.065107198307571681 0 0.0016557211829883584 -0.064299829718458337 0 0.00078448250059408959 -0.064508984367854377 0 0.0012900555630239821 -0.065107198307571681 0 0.0023204768449632024 -0.064912493667400872 0 0.0016557211829883584 -0.064299829718458337 0 -0.00089288952393719203 -0.048138555268174642 0 -0.001588162948384464 -0.043536558003233694 0 -0.0023922658306509107 -0.039397344839855443 0 -0.0012384150973734338 -0.039191902620067443 0 -0.001568871079211185 -0.038447316925156072 0 -0.001588162948384464 -0.043536558003233694 0 -0.00136116425801929 -0.038113959427085807 0 -0.001588162948384464 -0.043536558003233694 0 -0.0019177253138927108 -0.045392015254781953 0 3.6462205644360845e-05 -0.038164665159159603 0 0.00023637661350542119 -0.038269760290425288 0 0.00022948482202483729 -0.038124280433989841 0 2.9009323449109723e-05 -0.038302971385229263 0 0.00014639282950523961 -0.038382303282334759 0 0.00023637661350542119 -0.038269760290425288 0 3.6462205644360845e-05 -0.038164665159159603 0 2.9009323449109723e-05 -0.038302971385229263 0 0.00023637661350542119 -0.038269760290425288 0 2.9009323449109723e-05 -0.038302971385229263 0 0.00014639282950523961 -0.038382303282334759 0 3.7686668726019395e-05 -0.038423320774809235 0 0.00023637661350542119 -0.038269760290425288 0 0.00048469882606917583 -0.038366279158411426 0 0.00028142589739562469 -0.038444952527264931 0 0.00014639282950523961 -0.038382303282334759 0 0.00023637661350542119 -0.038269760290425288 0 0.00028142589739562469 -0.038444952527264931 0 -0.00136116425801929 -0.038113959427085807 0 -0.0020686191827134453 -0.03266787839067465 0 0.00023637661350542119 -0.038269760290425288 0 0.00022948482202483729 -0.038124280433989841 0 0.00041886467137955044 -0.038082792091669794 0 -0.0012384150973734338 -0.039191902620067443 0 -0.00062026031757606459 -0.038890094167108431 0 -0.00010027418041622862 -0.038978290628767766 0 -0.0010481297890752945 -0.038716566397873353 0 -0.0012384150973734338 -0.039191902620067443 0 -0.001568871079211185 -0.038447316925156072 0 -0.0010481297890752945 -0.038716566397873353 0 -0.0012384150973734338 -0.039191902620067443 0 -0.00062026031757606459 -0.038890094167108431 0 -0.00062026031757606459 -0.038890094167108431 0 -0.00010027418041622862 -0.038978290628767766 0 -0.00013010806085920299 -0.038844801691607207 0 -0.0022145503436478411 -0.033471539152344659 0 -0.0014850697028453961 -0.0334145273120183 0 -0.0023130587687113296 -0.03302156317610299 0 -0.00062026031757606459 -0.038890094167108431 0 -0.00012624210106214237 -0.038850203229641216 0 -0.00019289232241892482 -0.038549772992503069 0 -0.0093213930640315898 -0.013460529994794532 0 -0.0080210716385122963 -0.014623106678401393 0 -0.0085093779267172275 -0.015868509125811316 0 -0.0020686191827134453 -0.03266787839067465 0 -0.0041760791099213369 -0.026208252687150196 0 -0.0019115191985506965 -0.032606474528565681 0 -0.0020169727968149323 -0.032465676213775371 0 -0.0020169727968149323 -0.032465676213775371 0 -0.0019631579040266596 -0.034664326523390659 0 -0.0093213930640315898 -0.013460529994794532 0 -0.009384065001670697 -0.01317272556906895 0 -0.0083196779066047003 -0.013086174355832265 0 -0.0020686191827134453 -0.03266787839067465 0 -0.0020169727968149323 -0.032465676213775371 0 -0.0093213930640315898 -0.013460529994794532 0 -0.0081292501538981765 -0.01330725030268733 0 -0.0077775449870382662 -0.013923619852418656 0 -0.0093213930640315898 -0.013460529994794532 0 -0.0083196779066047003 -0.013086174355832265 0 -0.0081292501538981765 -0.01330725030268733 0 -0.0020169727968149323 -0.032465676213775371 0 -0.0039798993673628618 -0.030143322832412507 0 -0.0039798993673628618 -0.030143322832412507 0 -0.0040401065451922289 -0.030051434001126635 0 -0.0093213930640315898 -0.013460529994794532 0 -0.0080210716385122963 -0.014623106678401393 0 -0.0077775449870382662 -0.013923619852418656 0 -0.0043539037220974254 -0.012702374043658654 0 -0.0083216339295448319 -0.013085930884642993 0 -0.0069738604234603216 -0.01365810211966865 0 -0.0022334442615691845 -0.02041265220068449 0 -0.0039798993673628618 -0.030143322832412507 0 -0.0043539037220974254 -0.012702374043658654 0 -0.0069738604234603216 -0.01365810211966865 0 -0.0059046904963962702 -0.01452051391514329 0 -0.0081292501538981765 -0.01330725030268733 0 -0.0069738604234603216 -0.01365810211966865 0 -0.0077775449870382662 -0.013923619852418656 0 -0.0083216339295448319 -0.013085930884642993 0 -0.0081292501538981765 -0.01330725030268733 0 -0.0069738604234603216 -0.01365810211966865 0 -0.0069738604234603216 -0.01365810211966865 0 -0.0073530100407230596 -0.014412270308361362 0 -0.0077775449870382662 -0.013923619852418656 0 -0.0080210716385122963 -0.014623106678401393 0 -0.0073530100407230596 -0.014412270308361362 0 -0.0077775449870382662 -0.013923619852418656 0 -0.0080210716385122963 -0.014623106678401393 0 -0.0074976058471270257 -0.014877682220264372 0 -0.0077010189028695322 -0.015369321588806745 0 -0.0080210716385122963 -0.014623106678401393 0 -0.0073530100407230596 -0.014412270308361362 0 -0.0074976058471270257 -0.014877682220264372 0 -0.0073530100407230596 -0.014412270308361362 0 -0.0074976058471270257 -0.014877682220264372 0 -0.006918721066328762 -0.015104915972012928 0 -0.0073530100407230596 -0.014412270308361362 0 -0.0059046904963962702 -0.01452051391514329 0 -0.006918721066328762 -0.015104915972012928 0 -0.0069738604234603216 -0.01365810211966865 0 -0.0073530100407230596 -0.014412270308361362 0 -0.0059046904963962702 -0.01452051391514329 0 -0.0073496408697491774 -0.0168390723047579 0 -0.007931996088450537 -0.015976839491431104 0 -0.0077011309544071614 -0.018325296367953509 0 -0.005203632715080596 -0.021348380946744846 0 -0.0047073549312742439 -0.023737141300179988 0 -0.0059046904963962702 -0.01452051391514329 0 -0.0058589386188876618 -0.015836478807278516 0 -0.006918721066328762 -0.015104915972012928 0 -0.0058589386188876618 -0.015836478807278516 0 -0.007085390772613151 -0.015950063330932639 0 -0.006918721066328762 -0.015104915972012928 0 -0.007085390772613151 -0.015950063330932639 0 -0.006918721066328762 -0.015104915972012928 0 -0.0077010189028695322 -0.015369321588806745 0 -0.0074976058471270257 -0.014877682220264372 0 -0.006918721066328762 -0.015104915972012928 0 -0.0077010189028695322 -0.015369321588806745 0 -0.007085390772613151 -0.015950063330932639 0 -0.0077010189028695322 -0.015369321588806745 0 -0.007931996088450537 -0.015976839491431104 0 -0.007085390772613151 -0.015950063330932639 0 -0.0073496408697491774 -0.0168390723047579 0 -0.007931996088450537 -0.015976839491431104 0 -0.0073496408697491774 -0.0168390723047579 0 -0.0066421083871241061 -0.016746182304525223 0 -0.006929281357474117 -0.017820828991465986 0 -0.007085390772613151 -0.015950063330932639 0 -0.0073496408697491774 -0.0168390723047579 0 -0.0066421083871241061 -0.016746182304525223 0 -0.0058589386188876618 -0.015836478807278516 0 -0.007085390772613151 -0.015950063330932639 0 -0.0066421083871241061 -0.016746182304525223 0 -0.0055482221510953214 -0.017945539787030215 0 -0.0058589386188876618 -0.015836478807278516 0 -0.0066421083871241061 -0.016746182304525223 0 -0.0029880255269473608 -0.029184608440863419 0 -0.0029994556948203829 -0.029926647469591467 0 -0.0035037438982151747 -0.028478713889672963 0 -0.0024348840052848589 -0.031365904525159923 0 -0.0029880255269473608 -0.029184608440863419 0 -0.0029994556948203829 -0.029926647469591467 0 -0.007931996088450537 -0.015976839491431104 0 -0.0085093779267172275 -0.015868509125811316 0 -0.0076701347924045997 -0.018676202640601703 0 -0.0020686191827134453 -0.03266787839067465 0 -0.0021337706174291283 -0.032996787156933334 0 -0.0041760791099213369 -0.026208252687150196 0 -0.0047073549312742439 -0.023737141300179988 0 0.00023637661350542119 -0.038269760290425288 0 0.00041886467137955044 -0.038082792091669794 0 0.00048469882606917583 -0.038366279158411426 0 -0.0080210716385122963 -0.014623106678401393 0 -0.0077010189028695322 -0.015369321588806745 0 -0.0085093779267172275 -0.015868509125811316 0 -0.0077010189028695322 -0.015369321588806745 0 -0.007931996088450537 -0.015976839491431104 0 -0.0085093779267172275 -0.015868509125811316 0 -0.0029880255269473608 -0.029184608440863419 0 -0.0035037438982151747 -0.028478713889672963 0 -0.0035241789637535841 -0.027005826234698146 0 -0.0021337706174291283 -0.032996787156933334 0 -0.0033437736750551138 -0.030112964712758736 0 0.00048469882606917583 -0.038366279158411426 0 0.00038325330946029464 -0.038551780768643962 0 0.00028142589739562469 -0.038444952527264931 0 0.00048469882606917583 -0.038366279158411426 0 0.00038325330946029464 -0.038551780768643962 0 0.00053810763878111645 -0.038642235154506141 0 -0.0055482221510953214 -0.017945539787030215 0 -0.007399714380692507 -0.019266563721546184 0 -0.0074609387113354396 -0.020535001662936678 0 -0.0024489715545648631 -0.021268306033036154 0 -0.0032362307990742331 -0.028189949017904958 0 -0.0055482221510953214 -0.017945539787030215 0 -0.0066421083871241061 -0.016746182304525223 0 -0.006929281357474117 -0.017820828991465986 0 -0.0055482221510953214 -0.017945539787030215 0 -0.006929281357474117 -0.017820828991465986 0 -0.007399714380692507 -0.019266563721546184 0 -0.0073496408697491774 -0.0168390723047579 0 -0.006929281357474117 -0.017820828991465986 0 -0.0077011309544071614 -0.018325296367953509 0 -0.0076957529836169103 -0.018336241040871115 0 -0.007399714380692507 -0.019266563721546184 0 -0.0074609387113354396 -0.020535001662936678 0 -0.006929281357474117 -0.017820828991465986 0 -0.0077011309544071614 -0.018325296367953509 0 -0.007399714380692507 -0.019266563721546184 0 -0.0047073549312742439 -0.023737141300179988 0 -0.0032362307990742331 -0.028189949017904958 0 -0.0047073549312742439 -0.023737141300179988 0 -0.0048409192467320878 -0.023389356595871002 0 -0.0045214775162851599 -0.019581061135063957 0 -0.0048528791351935855 -0.017481044473242446 0 -0.0063398505124787983 -0.019867772856485829 0 -0.0031697857960292027 -0.031324443550884637 0 -0.003256704232250445 -0.030431194233094906 0 -0.0033367476967274584 -0.030537370984872969 0 -0.0035037438982151747 -0.028478713889672963 0 -0.0036671664891517151 -0.027199312847744326 0 -0.0035241789637535841 -0.027005826234698146 0 -0.0032362307990742331 -0.028189949017904958 0 -0.0033437736750551138 -0.030112964712758736 0 -0.0045214775162851599 -0.019581061135063957 0 -0.0063398505124787983 -0.019867772856485829 0 -0.0047793851181517546 -0.021044127649164988 0 0.00038325330946029464 -0.038551780768643962 0 0.00053810763878111645 -0.038642235154506141 0 0.00036202139363086187 -0.038704352734521053 0 0.00038325330946029464 -0.038551780768643962 0 0.00036202139363086187 -0.038704352734521053 0 0.00024891460676112917 -0.038595657902189086 0 0.00025980131979254692 -0.03874953473224732 0 0.00036202139363086187 -0.038704352734521053 0 0.00024891460676112917 -0.038595657902189086 0 0.00025980131979254692 -0.03874953473224732 0 0.00024891460676112917 -0.038595657902189086 0 0.00011706052494403536 -0.038666118986673985 0 1.4270836538754729e-05 -0.038535740073797439 0 0.00011706052494403536 -0.038666118986673985 0 0.00014184931457345519 -0.038507805980561798 0 0.00024891460676112917 -0.038595657902189086 0 0.00011706052494403536 -0.038666118986673985 0 0.00014184931457345519 -0.038507805980561798 0 1.4270836538754729e-05 -0.038535740073797439 0 0.00014184931457345519 -0.038507805980561798 0 3.7686668726019395e-05 -0.038423320774809235 0 0.00014639282950523961 -0.038382303282334759 0 0.00014184931457345519 -0.038507805980561798 0 3.7686668726019395e-05 -0.038423320774809235 0 0.00014639282950523961 -0.038382303282334759 0 0.00014184931457345519 -0.038507805980561798 0 0.00028142589739562469 -0.038444952527264931 0 0.00038325330946029464 -0.038551780768643962 0 0.00024891460676112917 -0.038595657902189086 0 0.00028142589739562469 -0.038444952527264931 0 0.00024891460676112917 -0.038595657902189086 0 0.00014184931457345519 -0.038507805980561798 0 0.00028142589739562469 -0.038444952527264931 0 2.6956497700736186e-06 -0.064992631816006077 0 0.0003374993251468161 -0.063533504965767457 0 0.00017292950576787262 -0.064586902012025868 0 2.6956497700736186e-06 -0.064992631816006077 0 -8.343254957134415e-07 -0.065001135089949855 0 0.00017292950576787262 -0.064586902012025868 0 0.0003374993251468161 -0.063533504965767457 0 -3.6403511789985408e-05 -0.064156162538974937 0 0.00017292950576787262 -0.064586902012025868 0 -0.00034499221241961073 -0.06419946058281413 0 -0.00011363689458507122 -0.064617472048656532 0 2.6956497700736186e-06 -0.064992631816006077 0 0.0003374993251468161 -0.063533504965767457 0 -4.07092946347592e-06 -0.058048327759524058 0 0.0003374993251468161 -0.063533504965767457 0 -0.00049515008261814364 -0.061887161962680175 0 -0.00069704162042347867 -0.063295051565390142 0 0.0003374993251468161 -0.063533504965767457 0 -4.07092946347592e-06 -0.058048327759524058 0 -0.00049515008261814364 -0.061887161962680175 0 -1.0625265065724088e-06 -0.058033706077093059 0 -0.00076336377308428081 -0.057788504651938202 0 -4.07092946347592e-06 -0.058048327759524058 0 -0.00049515008261814364 -0.061887161962680175 0 -0.0021894074885214412 -0.062079950388478321 0 -0.00049515008261814364 -0.061887161962680175 0 -0.00069704162042347867 -0.063295051565390142 0 -0.0021894074885214412 -0.062079950388478321 0 -0.00069704162042347867 -0.063295051565390142 0 -0.00093693231557834039 -0.063997945767529957 0 -0.0015692055235715973 -0.063472122022931995 0 -0.00053574585678361803 -0.063941675845491583 0 -0.00034499221241961073 -0.06419946058281413 0 0.0003374993251468161 -0.063533504965767457 0 -0.00069704162042347867 -0.063295051565390142 0 -3.6403511789985408e-05 -0.064156162538974937 0 -0.00033657593684338112 -0.063972914786219429 0 -0.00093693231557834039 -0.063997945767529957 0 -0.00045819396189111821 -0.064482157428313105 0 -0.00069704162042347867 -0.063295051565390142 0 -0.00033657593684338112 -0.063972914786219429 0 -0.00093693231557834039 -0.063997945767529957 0 -0.00093693231557834039 -0.063997945767529957 0 -0.0018115398828104168 -0.063873815313777976 0 -0.0015692055235715973 -0.063472122022931995 0 -0.00093693231557834039 -0.063997945767529957 0 -0.0018115398828104168 -0.063873815313777976 0 -0.001011529886899317 -0.064580869938012805 0 -0.0018115398828104168 -0.063873815313777976 0 -0.0021001924849848776 -0.063514667674745881 0 -0.0015692055235715973 -0.063472122022931995 0 -0.0013437559400429522 -0.057010964979722287 0 -9.961771693548352e-05 -0.052187556027212277 0 -0.0018115398828104168 -0.063873815313777976 0 -0.0021001924849848776 -0.063514667674745881 0 -0.0019949072111956172 -0.06396484376520141 0 6.5450146429709482e-05 -0.054542394288636567 0 7.5529342884364349e-05 -0.054558339412329487 0 7.8899456444583117e-05 -0.054564094905046635 0 6.5450146429709482e-05 -0.054542394288636567 0 7.5529342884364349e-05 -0.054558339412329487 0 0.00014311094103738314 -0.054514477569102021 0 -0.00069704162042347867 -0.063295051565390142 0 -0.0015692055235715973 -0.063472122022931995 0 -0.0021894074885214412 -0.062079950388478321 0 -0.0021001924849848776 -0.063514667674745881 0 -0.0015692055235715973 -0.063472122022931995 0 -0.0021894074885214412 -0.062079950388478321 0 -0.0013437559400429522 -0.057010964979722287 0 -0.00076336377308428081 -0.057788504651938202 0 -2.0736804266661123e-06 -0.058029970223286605 0 7.8899456444583117e-05 -0.054564094905046635 0 2.0289468194806724e-06 -0.054836239373343927 0 2.0289468194806724e-06 -0.054836239373343927 0 0.0002291257293991137 -0.054046185986783749 0 -1.9844455005031468e-06 -0.051642122319223965 0 7.8899456444583117e-05 -0.054564094905046635 0 2.0289468194806724e-06 -0.054836239373343927 0 0.0002291257293991137 -0.054046185986783749 0 7.5529342884364349e-05 -0.054558339412329487 0 7.8899456444583117e-05 -0.054564094905046635 0 0.0002291257293991137 -0.054046185986783749 0 7.5529342884364349e-05 -0.054558339412329487 0 0.0002291257293991137 -0.054046185986783749 0 -0.00043570309327356147 -0.054270970227003029 0 -0.0022178827982876539 -0.0459223401616927 0 -0.00019821769253740203 -0.04655101682666412 0 -0.0008765490772378239 -0.044610950555849051 0 -0.0022178827982876539 -0.0459223401616927 0 -5.9501254309079102e-06 -0.051631604484401628 0 -7.3309084068533343e-05 -0.048355368777465338 0 0.0002291257293991137 -0.054046185986783749 0 -0.00043570309327356147 -0.054270970227003029 0 -1.9844455005031468e-06 -0.051642122319223965 0 -0.00036177633665822025 -0.050252826374031119 0 -8.6486838497984247e-07 -0.051635760349650277 0 3.3183234963659887e-06 -0.048149127427752854 0 -5.9501254309079102e-06 -0.051631604484401628 0 -7.3309084068533343e-05 -0.048355368777465338 0 3.3183234963659887e-06 -0.048149127427752854 0 0.00029096059992135288 -0.047152667381388763 0 -7.3309084068533343e-05 -0.048355368777465338 0 0.00029096059992135288 -0.047152667381388763 0 -0.00019821769253740203 -0.04655101682666412 0 9.0564151393041301e-05 -0.045148874797627477 0 0.00029096059992135288 -0.047152667381388763 0 -7.3309084068533343e-05 -0.048355368777465338 0 -0.00019821769253740203 -0.04655101682666412 0 -0.0022178827982876539 -0.0459223401616927 0 -7.3309084068533343e-05 -0.048355368777465338 0 -0.00019821769253740203 -0.04655101682666412 0 -0.00019821769253740203 -0.04655101682666412 0 9.0564151393041301e-05 -0.045148874797627477 0 -0.0008765490772378239 -0.044610950555849051 0 -0.00023681627497082645 -0.044545840460161905 0 9.0564151393041301e-05 -0.045148874797627477 0 -0.0008765490772378239 -0.044610950555849051 0 0.00052786363655142696 -0.043636156936115562 0 -0.00023681627497082645 -0.044545840460161905 0 9.0564151393041301e-05 -0.045148874797627477 0 0.00048794170363122233 -0.042670334863695848 0 0.00052786363655142696 -0.043636156936115562 0 -0.00023681627497082645 -0.044545840460161905 0 -0.00033678448589728315 -0.042274042159721442 0 -0.00046259804457969241 -0.042641420114998878 0 0.00016562073683468382 -0.043559340483442635 0 -0.00058376204793236417 -0.043543555854228928 0 -0.00024996582054915032 -0.04310387946938038 0 0.00016562073683468382 -0.043559340483442635 0 -0.00023681627497082645 -0.044545840460161905 0 -0.00058376204793236417 -0.043543555854228928 0 -0.00023681627497082645 -0.044545840460161905 0 -0.00058376204793236417 -0.043543555854228928 0 -0.0008765490772378239 -0.044610950555849051 0 7.5529342884364349e-05 -0.054558339412329487 0 -0.00043570309327356147 -0.054270970227003029 0 -0.00029508236385255811 -0.054909993539432121 0 -0.00036177633665822025 -0.050252826374031119 0 -0.00037050222889435793 -0.049392111843274772 0 -0.0022178827982876539 -0.0459223401616927 0 -0.0008765490772378239 -0.044610950555849051 0 -0.0017383022428221549 -0.043219763004487301 0 -0.00088116634707992856 -0.050440165783839273 0 -0.00037050222889435793 -0.049392111843274772 0 -0.00058376204793236417 -0.043543555854228928 0 -0.0008765490772378239 -0.044610950555849051 0 -0.0017383022428221549 -0.043219763004487301 0 6.5450146429709482e-05 -0.054542394288636567 0 0.00014311094103738314 -0.054514477569102021 0 0.00014380645491244843 -0.054419755295958855 0 -0.00037050222889435793 -0.049392111843274772 0 -9.961771693548352e-05 -0.052187556027212277 0 0.00014636114802297259 -0.043414126730779073 0 -0.00020793052974818713 -0.043740486346861278 0 0.00018087714831961982 -0.04383649992202187 0 -0.00037050222889435793 -0.049392111843274772 0 0.00038786586556799818 -0.046223886396011785 0 -0.00058376204793236417 -0.043543555854228928 0 -0.00034470958133614362 -0.042641373498244414 0 -0.00024996582054915032 -0.04310387946938038 0 -0.00058376204793236417 -0.043543555854228928 0 -0.0017383022428221549 -0.043219763004487301 0 -0.00034470958133614362 -0.042641373498244414 0 -0.00034470958133614362 -0.042641373498244414 0 -0.00026023527370347638 -0.042762778200569382 0 -0.00024996582054915032 -0.04310387946938038 0 -0.00021534059268275924 -0.044030606217973375 0 0.00018087714831961982 -0.04383649992202187 0 -0.00022198753556930525 -0.044490973936139773 0 -0.0006400165310308794 -0.044067929913269348 0 -0.00020793052974818713 -0.043740486346861278 0 -0.00021534059268275924 -0.044030606217973375 0 -0.0003600308026057804 -0.043341190892071668 0 -0.00034470958133614362 -0.042641373498244414 0 -0.00026023527370347638 -0.042762778200569382 0 0.0002110361582830632 -0.04526075758936058 0 0.00038786586556799818 -0.046223886396011785 0 -0.00020793052974818713 -0.043740486346861278 0 -0.00021534059268275924 -0.044030606217973375 0 0.00018087714831961982 -0.04383649992202187 0 -9.961771693548352e-05 -0.052187556027212277 0 0.0015263657910414878 -0.047753597308647748 0 -9.961771693548352e-05 -0.052187556027212277 0 0.00070839432443044041 -0.054177304863120786 0 0.00031931927358990972 -0.043786315178358327 0 0.00039212246917277161 -0.044686394025576295 0 -0.00022198753556930525 -0.044490973936139773 0 -0.0006400165310308794 -0.044067929913269348 0 -0.00021534059268275924 -0.044030606217973375 0 -0.00022198753556930525 -0.044490973936139773 0 -0.0006400165310308794 -0.044067929913269348 0 -0.00063865216380488467 -0.044614074466175248 0 -0.00022198753556930525 -0.044490973936139773 0 -0.00063865216380488467 -0.044614074466175248 0 -0.00061181403433332743 -0.045049201132443963 0 -0.00018347723453115763 -0.044943099040133251 0 0.00039212246917277161 -0.044686394025576295 0 -0.00022198753556930525 -0.044490973936139773 0 -0.00018347723453115763 -0.044943099040133251 0 -0.00063865216380488467 -0.044614074466175248 0 -0.00022198753556930525 -0.044490973936139773 0 -0.00018347723453115763 -0.044943099040133251 0 -0.00061181403433332743 -0.045049201132443963 0 -0.00018347723453115763 -0.044943099040133251 0 -0.00025852860878008418 -0.045395853250945813 0 -0.00018347723453115763 -0.044943099040133251 0 -0.00025852860878008418 -0.045395853250945813 0 0.00047130056151793124 -0.045692751414243449 0 0.00079409173256475801 -0.052371997142415992 0 0.0025017801212944869 -0.055144712527581026 0 -0.00047807004778375897 -0.064986775858638199 0 -0.0011844185294040699 -0.064704642300373219 0 -0.00092638506397689643 -0.064414164770317958 0 0.0025017801212944869 -0.055144712527581026 0 0.0024645964330623563 -0.055223430487625638 0 -0.0011894898693749455 -0.064704382631584609 0 -0.0011927414892775115 -0.064605243918528024 0 -0.0013679922270345192 -0.064603575538161512 0 0.0025017801212944869 -0.055144712527581026 0 0.0024939121240606047 -0.055273241097828656 0 0.00039212246917277161 -0.044686394025576295 0 -0.00018347723453115763 -0.044943099040133251 0 0.00047130056151793124 -0.045692751414243449 0 0.00070839432443044041 -0.054177304863120786 0 0.0025017801212944869 -0.055144712527581026 0 -0.0017498238116929498 -0.064322946135469253 0 -0.0014228509435533303 -0.064549707633261552 0 -0.0014512231362065189 -0.064354786257250468 0 -0.0017498238116929498 -0.064322946135469253 0 -0.0014391033751826514 -0.064585588550727865 0 -0.0014228509435533303 -0.064549707633261552 0 -0.0014228509435533303 -0.064549707633261552 0 -0.0013703380586024844 -0.064596277680852826 0 -0.0013685122506163769 -0.064553102346426611 0 -0.0014228509435533303 -0.064549707633261552 0 -0.0013679922270345192 -0.064603575538161512 0 -0.0013685122506163769 -0.064553102346426611 0 -0.0014391033751826514 -0.064585588550727865 0 -0.0014228509435533303 -0.064549707633261552 0 -0.0013679922270345192 -0.064603575538161512 0 -0.0014228509435533303 -0.064549707633261552 0 -0.0012740577838009576 -0.064569556701718586 0 -0.0013703380586024844 -0.064596277680852826 0 -0.0014228509435533303 -0.064549707633261552 0 -0.0014512231362065189 -0.064354786257250468 0 -0.0012740577838009576 -0.064569556701718586 0 -0.0014512231362065189 -0.064354786257250468 0 -0.0016813946878362872 -0.064113930103418343 0 -0.0012718440767811074 -0.064037859678922782 0 -0.0019949072111956172 -0.06396484376520141 0 -0.0017498238116929498 -0.064322946135469253 0 -0.0016813946878362872 -0.064113930103418343 0 -0.0017498238116929498 -0.064322946135469253 0 -0.0014512231362065189 -0.064354786257250468 0 -0.0016813946878362872 -0.064113930103418343 0 -0.0018115398828104168 -0.063873815313777976 0 -0.0019949072111956172 -0.06396484376520141 0 -0.0016813946878362872 -0.064113930103418343 0 -0.0013668865604599097 -0.06411175900838216 0 -0.0010980464321495337 -0.064296751047830655 0 -0.0018115398828104168 -0.063873815313777976 0 -0.0016813946878362872 -0.064113930103418343 0 -0.0012718440767811074 -0.064037859678922782 0 -0.00093693231557834039 -0.063997945767529957 0 -0.001011529886899317 -0.064580869938012805 0 -0.00045819396189111821 -0.064482157428313105 0 -0.001011529886899317 -0.064580869938012805 0 -0.00045819396189111821 -0.064482157428313105 0 -0.00036677181048096116 -0.064896125579658848 0 -0.0010980464321495337 -0.064296751047830655 0 -0.00071352152320705987 -0.064549917401937967 0 -0.0012718440767811074 -0.064037859678922782 0 -0.00082442417655231544 -0.064257549624992749 0 -0.0011629693818126319 -0.06437581249719071 0 -0.0014512231362065189 -0.064354786257250468 0 -0.0012718440767811074 -0.064037859678922782 0 -0.0011629693818126319 -0.06437581249719071 0 -0.0014512231362065189 -0.064354786257250468 0 -0.0011629693818126319 -0.06437581249719071 0 -0.0012740577838009576 -0.064569556701718586 0 -0.0011629693818126319 -0.06437581249719071 0 -0.0012740577838009576 -0.064569556701718586 0 -0.00090004568212251877 -0.064676069533609243 0 -0.0012740577838009576 -0.064569556701718586 0 -0.0011190373386343868 -0.064735500133840218 0 -0.0013703380586024844 -0.064596277680852826 0 -0.0012740577838009576 -0.064569556701718586 0 -0.00090004568212251877 -0.064676069533609243 0 -0.0011190373386343868 -0.064735500133840218 0 -0.00090004568212251877 -0.064676069533609243 0 -0.00059595802956907077 -0.065043840587792973 0 -0.0011190373386343868 -0.064735500133840218 0 -0.00082442417655231544 -0.064257549624992749 0 -0.0011629693818126319 -0.06437581249719071 0 -0.00090004568212251877 -0.064676069533609243 0 -0.00071352152320705987 -0.064549917401937967 0 -0.00051358350950272524 -0.064686264174988656 0 -0.00082442417655231544 -0.064257549624992749 0 -0.00090004568212251877 -0.064676069533609243 0 -0.000217496147151693 -0.064845139947542943 0 -0.00090004568212251877 -0.064676069533609243 0 -0.000217496147151693 -0.064845139947542943 0 -0.00059595802956907077 -0.065043840587792973 0 -9.7333158265027748e-08 -0.065000268576990844 0 -0.000217496147151693 -0.064845139947542943 0 -0.00059595802956907077 -0.065043840587792973 0 -9.7333158265027748e-08 -0.065000268576990844 0 -2.4593001088479459e-07 -0.064999775242848765 0 -0.000217496147151693 -0.064845139947542943 0 -2.4593001088479459e-07 -0.064999775242848765 0 -0.000217496147151693 -0.064845139947542943 0 1.6443574710519195e-07 -0.064999320884141037 0 -0.00036677181048096116 -0.064896125579658848 0 1.6443574710519195e-07 -0.064999320884141037 0 -0.00011112650522126721 -0.064559725392603212 0 -0.00036677181048096116 -0.064896125579658848 0 -0.000217496147151693 -0.064845139947542943 0 1.6443574710519195e-07 -0.064999320884141037 0 -0.00045819396189111821 -0.064482157428313105 0 -0.00036677181048096116 -0.064896125579658848 0 -0.00011112650522126721 -0.064559725392603212 0 -0.00033657593684338112 -0.063972914786219429 0 -0.00045819396189111821 -0.064482157428313105 0 -0.00011112650522126721 -0.064559725392603212 0 9.0623758535061938e-08 -0.064999439421367933 0 -0.00011363689458507122 -0.064617472048656532 0 -7.5257390423267263e-09 -0.064999958015833553 0 -1.5448865161571993e-05 -0.064962409679954147 0 -8.376864653907649e-06 -0.064967739316048462 0 -1.5448865161571993e-05 -0.064962409679954147 0 -2.0415197974698287e-05 -0.064933194443609552 0 -8.376864653907649e-06 -0.064967739316048462 0 -7.5257390423267263e-09 -0.064999958015833553 0 -1.5448865161571993e-05 -0.064962409679954147 0 -1.3039019210795557e-08 -0.064999961449988361 0 -2.5165680813967121e-10 -0.064999981906276275 0 -1.3039019210795557e-08 -0.064999961449988361 0 -1.3444737972763487e-05 -0.064971992113950897 0 -3.0343210684444386e-07 -0.064999707177336705 0 -0.00026639237572699352 -0.064863691842641347 0 -1.5448865161571993e-05 -0.064962409679954147 0 -1.3039019210795557e-08 -0.064999961449988361 0 -1.3444737972763487e-05 -0.064971992113950897 0 -1.5448865161571993e-05 -0.064962409679954147 0 -1.3444737972763487e-05 -0.064971992113950897 0 -2.7956868455829045e-05 -0.064937881817414667 0 -0.00026639237572699352 -0.064863691842641347 0 -0.0004928664574174261 -0.0646418925626914 0 -0.00059595802956907077 -0.065043840587792973 0 -0.0011190373386343868 -0.064735500133840218 0 -0.0012105780497048647 -0.06479410984878084 0 -0.0011190373386343868 -0.064735500133840218 0 -0.0012105780497048647 -0.06479410984878084 0 -0.0013703380586024844 -0.064596277680852826 0 -2.7956868455829045e-05 -0.064937881817414667 0 -3.015130964195703e-05 -0.064925725620476674 0 -4.3460480915267455e-05 -0.064916070059803183 0 -1.5448865161571993e-05 -0.064962409679954147 0 -2.7956868455829045e-05 -0.064937881817414667 0 -3.015130964195703e-05 -0.064925725620476674 0 -1.5448865161571993e-05 -0.064962409679954147 0 -3.015130964195703e-05 -0.064925725620476674 0 -2.0415197974698287e-05 -0.064933194443609552 0 -3.015130964195703e-05 -0.064925725620476674 0 -2.0415197974698287e-05 -0.064933194443609552 0 -3.4481488190363566e-05 -0.06488016831568269 0 -2.0415197974698287e-05 -0.064933194443609552 0 -3.4481488190363566e-05 -0.06488016831568269 0 -2.2184169257595515e-05 -0.064896746670331906 0 -3.4481488190363566e-05 -0.06488016831568269 0 -4.3246760895008525e-05 -0.064812136429847636 0 -2.3555250602250649e-05 -0.06480934046594472 0 -4.3246760895008525e-05 -0.064812136429847636 0 -4.3460480915267455e-05 -0.064916070059803183 0 5.1315190757086072e-06 -0.064927028634580011 0 -0.00057476454954768629 -0.064252814311896014 0 -0.00044129518619862962 -0.063597817463844089 0 -3.015130964195703e-05 -0.064925725620476674 0 -3.4481488190363566e-05 -0.06488016831568269 0 -4.3460480915267455e-05 -0.064916070059803183 0 -3.4481488190363566e-05 -0.06488016831568269 0 -4.3246760895008525e-05 -0.064812136429847636 0 -4.3460480915267455e-05 -0.064916070059803183 0 -0.0012105780497048647 -0.06479410984878084 0 -0.0014284804257144149 -0.064238202135814229 0 -0.0013703380586024844 -0.064596277680852826 0 -0.0004928664574174261 -0.0646418925626914 0 -0.00057476454954768629 -0.064252814311896014 0 -0.0013703380586024844 -0.064596277680852826 0 -0.0013685122506163769 -0.064553102346426611 0 -0.0012918160187114398 -0.064360372481625253 0 -0.0012857065823988155 -0.064497674862121601 0 -0.0013685122506163769 -0.064553102346426611 0 -0.0012918160187114398 -0.064360372481625253 0 -0.0013679922270345192 -0.064603575538161512 0 -0.0012857065823988155 -0.064497674862121601 0 -0.0013685122506163769 -0.064553102346426611 0 -0.0011927414892775115 -0.064605243918528024 0 -0.0013679922270345192 -0.064603575538161512 0 -0.0012857065823988155 -0.064497674862121601 0 -0.0012857065823988155 -0.064497674862121601 0 -0.0012918160187114398 -0.064360372481625253 0 -0.001175218305466147 -0.064465024571059473 0 -0.0014284804257144149 -0.064238202135814229 0 -0.0012918160187114398 -0.064360372481625253 0 -0.0010414419210558294 -0.064015361346564534 0 -0.0014284804257144149 -0.064238202135814229 0 -0.0013703380586024844 -0.064596277680852826 0 -0.0012918160187114398 -0.064360372481625253 0 -0.0014284804257144149 -0.064238202135814229 0 -0.0010414419210558294 -0.064015361346564534 0 -0.00098491614719224988 -0.063440698380147181 0 -0.0010414419210558294 -0.064015361346564534 0 -0.00066591568847192422 -0.063948988709580212 0 -0.00098491614719224988 -0.063440698380147181 0 -0.0010414419210558294 -0.064015361346564534 0 -0.00092638506397689643 -0.064414164770317958 0 -0.00066591568847192422 -0.063948988709580212 0 -0.0012918160187114398 -0.064360372481625253 0 -0.00092638506397689643 -0.064414164770317958 0 -0.001175218305466147 -0.064465024571059473 0 -0.0012918160187114398 -0.064360372481625253 0 -0.0010414419210558294 -0.064015361346564534 0 -0.00092638506397689643 -0.064414164770317958 0 -0.0011927414892775115 -0.064605243918528024 0 -0.00092638506397689643 -0.064414164770317958 0 -0.001175218305466147 -0.064465024571059473 0 -0.0011844185294040699 -0.064704642300373219 0 -0.0011927414892775115 -0.064605243918528024 0 -0.00092638506397689643 -0.064414164770317958 0 -0.0011927414892775115 -0.064605243918528024 0 -0.0012857065823988155 -0.064497674862121601 0 -0.001175218305466147 -0.064465024571059473 0 -0.00047807004778375897 -0.064986775858638199 0 -0.00092638506397689643 -0.064414164770317958 0 -0.00013485084561432276 -0.064387774887408336 0 -0.00092638506397689643 -0.064414164770317958 0 -0.00066591568847192422 -0.063948988709580212 0 -0.00013485084561432276 -0.064387774887408336 0 -0.00066591568847192422 -0.063948988709580212 0 -0.00098491614719224988 -0.063440698380147181 0 -0.00012417323168848059 -0.063522258980078961 0 -0.00066591568847192422 -0.063948988709580212 0 -0.00013485084561432276 -0.064387774887408336 0 -0.00012417323168848059 -0.063522258980078961 0 -0.00044129518619862962 -0.063597817463844089 0 -0.00013384274694751828 -0.06247095835276574 0 -0.00098491614719224988 -0.063440698380147181 0 -0.00012417323168848059 -0.063522258980078961 0 -9.7467104256024014e-05 -0.062718533103430313 0 -4.3246760895008525e-05 -0.064812136429847636 0 5.1315190757086072e-06 -0.064927028634580011 0 -1.8442315086373568e-05 -0.064594976048011093 0 5.1315190757086072e-06 -0.064927028634580011 0 -1.8442315086373568e-05 -0.064594976048011093 0 0.00036791559630770283 -0.064902393630130645 0 -1.8442315086373568e-05 -0.064594976048011093 0 0.00036791559630770283 -0.064902393630130645 0 0.00042651381474046661 -0.064396195977252157 0 -1.8442315086373568e-05 -0.064594976048011093 0 0.00026639920770051218 -0.063737280309223307 0 0.00042651381474046661 -0.064396195977252157 0 -4.3246760895008525e-05 -0.064812136429847636 0 -1.8442315086373568e-05 -0.064594976048011093 0 -2.3555250602250649e-05 -0.06480934046594472 0 -1.8442315086373568e-05 -0.064594976048011093 0 -2.7527601838191634e-05 -0.0647536425158875 0 -2.3555250602250649e-05 -0.06480934046594472 0 -2.7527601838191634e-05 -0.0647536425158875 0 -4.5376713814462034e-05 -0.064825667724050795 0 -2.3676454697127052e-05 -0.064815399756335212 0 -2.7527601838191634e-05 -0.0647536425158875 0 -0.00013357921114950014 -0.064754714806308303 0 -7.9654214892891154e-05 -0.064800972691784586 0 -1.8442315086373568e-05 -0.064594976048011093 0 -2.7527601838191634e-05 -0.0647536425158875 0 -0.00013357921114950014 -0.064754714806308303 0 -0.00022140400554158309 -0.063565020853618356 0 -2.9423641836352901e-05 -0.063056259811122034 0 -0.00013357921114950014 -0.064754714806308303 0 -0.00011529570933614942 -0.064814455530322654 0 -7.9654214892891154e-05 -0.064800972691784586 0 -0.00011529570933614942 -0.064814455530322654 0 -7.9654214892891154e-05 -0.064800972691784586 0 -8.0061386273575359e-05 -0.064837311284130936 0 -0.00011529570933614942 -0.064814455530322654 0 -8.0061386273575359e-05 -0.064837311284130936 0 -0.00010734780215154954 -0.064849641277504033 0 -8.0061386273575359e-05 -0.064837311284130936 0 -0.00010734780215154954 -0.064849641277504033 0 -7.523325717648359e-05 -0.064874307705255388 0 -0.00010734780215154954 -0.064849641277504033 0 -7.523325717648359e-05 -0.064874307705255388 0 -0.0001059986233725464 -0.064889432783985207 0 -5.3651259353974425e-05 -0.064890409071650695 0 -5.0165641035555643e-05 -0.064861315949227685 0 -3.1606422339229793e-05 -0.064889316700407956 0 -7.523325717648359e-05 -0.064874307705255388 0 -5.3651259353974425e-05 -0.064890409071650695 0 -6.3530007474406968e-05 -0.064901138369212283 0 -7.523325717648359e-05 -0.064874307705255388 0 -5.3651259353974425e-05 -0.064890409071650695 0 -5.0165641035555643e-05 -0.064861315949227685 0 -8.0061386273575359e-05 -0.064837311284130936 0 -7.523325717648359e-05 -0.064874307705255388 0 -5.0165641035555643e-05 -0.064861315949227685 0 -5.0165641035555643e-05 -0.064861315949227685 0 -4.5376713814462034e-05 -0.064825667724050795 0 -3.0435860025219805e-05 -0.064852998547752283 0 -8.0061386273575359e-05 -0.064837311284130936 0 -5.0165641035555643e-05 -0.064861315949227685 0 -4.5376713814462034e-05 -0.064825667724050795 0 -2.7527601838191634e-05 -0.0647536425158875 0 -7.9654214892891154e-05 -0.064800972691784586 0 -4.5376713814462034e-05 -0.064825667724050795 0 -7.9654214892891154e-05 -0.064800972691784586 0 -8.0061386273575359e-05 -0.064837311284130936 0 -4.5376713814462034e-05 -0.064825667724050795 0 -4.5376713814462034e-05 -0.064825667724050795 0 -3.0435860025219805e-05 -0.064852998547752283 0 -2.3676454697127052e-05 -0.064815399756335212 0 -3.0435860025219805e-05 -0.064852998547752283 0 -3.1606422339229793e-05 -0.064889316700407956 0 -1.707217635768717e-05 -0.064869000212070496 0 -3.0435860025219805e-05 -0.064852998547752283 0 -1.707217635768717e-05 -0.064869000212070496 0 -2.3676454697127052e-05 -0.064815399756335212 0 -5.0165641035555643e-05 -0.064861315949227685 0 -3.0435860025219805e-05 -0.064852998547752283 0 -3.1606422339229793e-05 -0.064889316700407956 0 -5.3651259353974425e-05 -0.064890409071650695 0 -3.1606422339229793e-05 -0.064889316700407956 0 -4.1567970758235539e-05 -0.064903130640087292 0 -3.1606422339229793e-05 -0.064889316700407956 0 -1.5202937819925544e-05 -0.064911209157217639 0 -2.7149712057875432e-05 -0.064913027522954109 0 -3.1606422339229793e-05 -0.064889316700407956 0 -1.5202937819925544e-05 -0.064911209157217639 0 -1.707217635768717e-05 -0.064869000212070496 0 -1.5202937819925544e-05 -0.064911209157217639 0 -1.707217635768717e-05 -0.064869000212070496 0 -7.9760570067319981e-06 -0.064917688906907731 0 -1.707217635768717e-05 -0.064869000212070496 0 -2.3555250602250649e-05 -0.06480934046594472 0 -1.333272790157593e-05 -0.064891731515282061 0 -2.3555250602250649e-05 -0.06480934046594472 0 -2.2184169257595515e-05 -0.064896746670331906 0 -1.333272790157593e-05 -0.064891731515282061 0 -2.7527601838191634e-05 -0.0647536425158875 0 -2.3676454697127052e-05 -0.064815399756335212 0 -2.3555250602250649e-05 -0.06480934046594472 0 -1.707217635768717e-05 -0.064869000212070496 0 -2.3676454697127052e-05 -0.064815399756335212 0 -2.3555250602250649e-05 -0.06480934046594472 0 -3.4481488190363566e-05 -0.06488016831568269 0 -2.3555250602250649e-05 -0.06480934046594472 0 -2.2184169257595515e-05 -0.064896746670331906 0 -2.0415197974698287e-05 -0.064933194443609552 0 -2.2184169257595515e-05 -0.064896746670331906 0 -8.6635532888199672e-06 -0.064938665325997749 0 -2.2184169257595515e-05 -0.064896746670331906 0 -8.6635532888199672e-06 -0.064938665325997749 0 -1.333272790157593e-05 -0.064891731515282061 0 -1.707217635768717e-05 -0.064869000212070496 0 -1.333272790157593e-05 -0.064891731515282061 0 -7.9760570067319981e-06 -0.064917688906907731 0 -8.6635532888199672e-06 -0.064938665325997749 0 -1.333272790157593e-05 -0.064891731515282061 0 -7.9760570067319981e-06 -0.064917688906907731 0 -1.5202937819925544e-05 -0.064911209157217639 0 -7.9760570067319981e-06 -0.064917688906907731 0 -6.4562348236539898e-06 -0.0649438844892362 0 -7.9760570067319981e-06 -0.064917688906907731 0 -2.2942206127355924e-06 -0.064953914841516455 0 -6.4562348236539898e-06 -0.0649438844892362 0 -8.6635532888199672e-06 -0.064938665325997749 0 -7.9760570067319981e-06 -0.064917688906907731 0 -2.2942206127355924e-06 -0.064953914841516455 0 -8.6635532888199672e-06 -0.064938665325997749 0 -2.2942206127355924e-06 -0.064953914841516455 0 -1.430025076609304e-06 -0.064970030398177309 0 -2.2942206127355924e-06 -0.064953914841516455 0 -1.430025076609304e-06 -0.064970030398177309 0 9.873313095703306e-07 -0.064980517200220744 0 -2.2942206127355924e-06 -0.064953914841516455 0 9.873313095703306e-07 -0.064980517200220744 0 -2.77433618090051e-07 -0.064973896781948204 0 9.873313095703306e-07 -0.064980517200220744 0 1.6828705021582606e-09 -0.06499996041538765 0 2.9515839220836584e-09 -0.064999970757958075 0 -1.430025076609304e-06 -0.064970030398177309 0 9.873313095703306e-07 -0.064980517200220744 0 1.6828705021582606e-09 -0.06499996041538765 0 -1.430025076609304e-06 -0.064970030398177309 0 1.6828705021582606e-09 -0.06499996041538765 0 -4.2580965353931602e-09 -0.06499995369346398 0 -8.6635532888199672e-06 -0.064938665325997749 0 -1.430025076609304e-06 -0.064970030398177309 0 -4.2580965353931602e-09 -0.06499995369346398 0 -8.6635532888199672e-06 -0.064938665325997749 0 -4.2580965353931602e-09 -0.06499995369346398 0 -8.376864653907649e-06 -0.064967739316048462 0 -2.0415197974698287e-05 -0.064933194443609552 0 -8.6635532888199672e-06 -0.064938665325997749 0 -8.376864653907649e-06 -0.064967739316048462 0 -7.5257390423267263e-09 -0.064999958015833553 0 -4.2580965353931602e-09 -0.06499995369346398 0 -8.376864653907649e-06 -0.064967739316048462 0 -0.0018257295024354011 -0.058846995145488773 0 0.00044605298186091143 -0.058910157199798079 0 -0.0023815081439866334 -0.055371145705997868 0 -0.0018257295024354011 -0.058846995145488773 0 -0.0022852339523249765 -0.059955466497655811 0 -0.0033999170985825802 -0.055318860225112274 0 -6.5693766675695189e-05 -0.038599637289283187 0 -0.0001857757335109934 -0.038785427421689368 0 -6.5693766675695189e-05 -0.038599637289283187 0 -0.0010101479059638134 -0.039853108563415729 0 -0.0018257295024354011 -0.058846995145488773 0 -0.0022852339523249765 -0.059955466497655811 0 -0.00060120384150473603 -0.0592199603837111 0 -0.0016476400255544205 -0.059652631827920029 0 -0.00060120384150473603 -0.0592199603837111 0 -0.00052847951674473727 -0.06033136716161408 0 0.0026282122200768591 -0.062846177597716268 0 0.0026906717305606532 -0.06339348115447703 0 0.0021312433876119643 -0.063299200068796677 0 0.00044605298186091143 -0.058910157199798079 0 -0.00060120384150473603 -0.0592199603837111 0 0.00034802790125478591 -0.060230860836024608 0 -0.0018257295024354011 -0.058846995145488773 0 0.00044605298186091143 -0.058910157199798079 0 -0.00060120384150473603 -0.0592199603837111 0 -0.00052847951674473727 -0.06033136716161408 0 0.00034802790125478591 -0.060230860836024608 0 0.0004252273350044192 -0.061008606943132426 0 0.00034802790125478591 -0.060230860836024608 0 0.0004252273350044192 -0.061008606943132426 0 0.0017682161015328398 -0.06186444762742932 0 0.00044605298186091143 -0.058910157199798079 0 0.00034802790125478591 -0.060230860836024608 0 0.0017682161015328398 -0.06186444762742932 0 -0.00060120384150473603 -0.0592199603837111 0 -0.00052847951674473727 -0.06033136716161408 0 0.00034802790125478591 -0.060230860836024608 0 0.0004252273350044192 -0.061008606943132426 0 -0.0011358758397463948 -0.061465331418821545 0 0.00033842517879888965 -0.061844643969574682 0 -0.00052847951674473727 -0.06033136716161408 0 0.0004252273350044192 -0.061008606943132426 0 -0.0011358758397463948 -0.061465331418821545 0 0.0037363875947508383 -0.020793948876621539 0 0.0038251837019918507 -0.020622923610251347 0 0.0037073908391724738 -0.020597655641428594 0 -0.0016476400255544205 -0.059652631827920029 0 -0.00052847951674473727 -0.06033136716161408 0 -0.0011358758397463948 -0.061465331418821545 0 -6.5693766675695189e-05 -0.038599637289283187 0 0.0016802721138316865 -0.041498537858164194 0 -6.5693766675695189e-05 -0.038599637289283187 0 0.0031069008463968199 -0.029505889539683864 0 0.0037363875947508383 -0.020793948876621539 0 0.0038251837019918507 -0.020622923610251347 0 0.0039471245203197194 -0.020668900765492978 0 0.0038251837019918507 -0.020622923610251347 0 0.0039471245203197194 -0.020668900765492978 0 0.0039041564597372229 -0.020507372674053833 0 0.0039471245203197194 -0.020668900765492978 0 0.0040129280872136302 -0.020499903785230315 0 0.0039041564597372229 -0.020507372674053833 0 0.0031069008463968199 -0.029505889539683864 0 0.0049452600496577969 -0.022259431358539299 0 0.0039471245203197194 -0.020668900765492978 0 0.0041133268647844511 -0.020512164337125098 0 0.0040129280872136302 -0.020499903785230315 0 0.0019132403673000667 -0.029709668999207597 0 0.0055627824151594559 -0.028388954897701147 0 0.0024223904411644105 -0.032019424826352769 0 0.0049452600496577969 -0.022259431358539299 0 0.0032393116037546066 -0.027517951211879665 0 -0.0010302115022294053 -0.012670985733202999 0 -0.0012146017027386624 -0.012687519506059881 0 -0.0011004814942806248 -0.012841370292650235 0 -0.0010302115022294053 -0.012670985733202999 0 -0.0010582761314985526 -0.012490804493142426 0 -0.0012146017027386624 -0.012687519506059881 0 -0.0017250195775085184 -0.031025812141406147 0 0.0019132403673000667 -0.029709668999207597 0 0.0024223904411644105 -0.032019424826352769 0 0.0032393116037546066 -0.027517951211879665 0 -0.0001857757335109934 -0.038785427421689368 0 -0.0017250195775085184 -0.031025812141406147 0 0.0024223904411644105 -0.032019424826352769 0 -0.00070889166679161846 -0.03563355462820654 0 -0.0012146017027386624 -0.012687519506059881 0 -0.0012468817666876656 -0.012869785372285728 0 -0.0013786427860619003 -0.012900655185599201 0 -0.0012468817666876656 -0.012869785372285728 0 -0.0013523642571036431 -0.013020755293054577 0 -0.0013786427860619003 -0.012900655185599201 0 -0.0020870293824600383 -0.035903984832567098 0 -0.0001857757335109934 -0.038785427421689368 0 -0.0012146017027386624 -0.012687519506059881 0 -0.0012468817666876656 -0.012869785372285728 0 -0.0011004814942806248 -0.012841370292650235 0 -0.0012468817666876656 -0.012869785372285728 0 -0.0011004814942806248 -0.012841370292650235 0 -0.0012250608962768958 -0.012992308637606477 0 -0.00097820220634434749 -0.013036927635207279 0 -0.0012504529156094483 -0.013128066803344223 0 -0.0011087593629046562 -0.012977883016901122 0 -0.00099248871300331625 -0.012899684568258048 0 -0.0011004814942806248 -0.012841370292650235 0 -0.0011087593629046562 -0.012977883016901122 0 -0.0011004814942806248 -0.012841370292650235 0 -0.0011087593629046562 -0.012977883016901122 0 -0.0012250608962768958 -0.012992308637606477 0 -0.0012504529156094483 -0.013128066803344223 0 -0.0011087593629046562 -0.012977883016901122 0 -0.0012250608962768958 -0.012992308637606477 0 -0.0019153012422764549 -0.037441785631409694 0 -0.0015185035858954468 -0.037908130356428142 0 -0.0010349910027730763 -0.041358414318001649 0 -0.0022031210858839577 -0.035569364642202971 0 -0.0022095145407411282 -0.035559644326954722 0 -0.0022007133230171508 -0.03562240727989293 0 -0.0020870293824600383 -0.035903984832567098 0 -0.0016769228820574806 -0.037411645485923045 0 -0.0012468817666876656 -0.012869785372285728 0 -0.0013523642571036431 -0.013020755293054577 0 -0.0012250608962768958 -0.012992308637606477 0 -0.0012504529156094483 -0.013128066803344223 0 -0.0013523642571036431 -0.013020755293054577 0 -0.0012250608962768958 -0.012992308637606477 0 -0.0020870293824600383 -0.035903984832567098 0 -0.0019631579040266596 -0.034664326523390659 0 -0.0014850697028453961 -0.0334145273120183 0 -0.0024846804526905048 -0.032237003862542787 0 -0.0023130587687113296 -0.03302156317610299 0 -0.0039798993673628618 -0.030143322832412507 0 -0.0020870293824600383 -0.035903984832567098 0 -0.0016769228820574806 -0.037411645485923045 0 -0.0019631579040266596 -0.034664326523390659 0 -0.00062026031757606459 -0.038890094167108431 0 -0.00019289232241892482 -0.038549772992503069 0 -0.00076814532867538316 -0.038336556978763925 0 0.0033545417219071573 -0.063706613764411626 0 0.0026364220664482118 -0.063721494644994048 0 0.0028420732372505036 -0.064315773799947226 0 -0.00039021333094646217 -0.037928392136333436 0 -0.00019289232241892482 -0.038549772992503069 0 -0.00076814532867538316 -0.038336556978763925 0 -0.0010481297890752945 -0.038716566397873353 0 -0.00062026031757606459 -0.038890094167108431 0 -0.00076814532867538316 -0.038336556978763925 0 -0.0010481297890752945 -0.038716566397873353 0 -0.00076814532867538316 -0.038336556978763925 0 -0.001568871079211185 -0.038447316925156072 0 -0.00076814532867538316 -0.038336556978763925 0 -0.00074756323621774146 -0.037509063451769478 0 -0.001568871079211185 -0.038447316925156072 0 -0.00089075233803712702 -0.042938632223835219 0 -0.0019177253138927108 -0.045392015254781953 0 -0.00039021333094646217 -0.037928392136333436 0 -0.00076814532867538316 -0.038336556978763925 0 -0.00074756323621774146 -0.037509063451769478 0 -0.0016769228820574806 -0.037411645485923045 0 -0.00089075233803712702 -0.042938632223835219 0 -0.0016769228820574806 -0.037411645485923045 0 -0.00068158347431764932 -0.040871285146663341 0 0.00053956848651721566 -0.047810608083819768 0 -0.00068158347431764932 -0.040871285146663341 0 -0.0018257295024354011 -0.058846995145488773 0 -0.0030990384441402039 -0.054967602561252785 0 -0.0033999170985825802 -0.055318860225112274 0 -0.0015185035858954468 -0.037908130356428142 0 -0.00057707235930910025 -0.040828433379286627 0 -0.0010349910027730763 -0.041358414318001649 0 0.003556968100253001 -0.055799300591140112 0 -0.00089075233803712702 -0.042938632223835219 0 -0.0012003760064407214 -0.040766911116116376 0 -0.00049497998401289102 -0.042960490818466528 0 8.8748919243898433e-05 -0.042285519388805842 0 -0.0018257295024354011 -0.058846995145488773 0 -0.0027791718007738192 -0.055827468471611831 0 -0.0023815081439866334 -0.055371145705997868 0 -0.00068158347431764932 -0.040871285146663341 0 -0.00089075233803712702 -0.042938632223835219 0 -0.00068158347431764932 -0.040871285146663341 0 -0.0001857757335109934 -0.038785427421689368 0 0.0026364220664482118 -0.063721494644994048 0 0.0022219047098147294 -0.064048907646415756 0 0.0021312433876119643 -0.063299200068796677 0 0.0033545417219071573 -0.063706613764411626 0 0.0026906717305606532 -0.06339348115447703 0 0.0026364220664482118 -0.063721494644994048 0 0.0026282122200768591 -0.062846177597716268 0 0.0033545417219071573 -0.063706613764411626 0 0.0026906717305606532 -0.06339348115447703 0 0.0026906717305606532 -0.06339348115447703 0 0.0026364220664482118 -0.063721494644994048 0 0.0021312433876119643 -0.063299200068796677 0 0.0023204768449632024 -0.064912493667400872 0 0.0028420732372505036 -0.064315773799947226 0 0.0022219047098147294 -0.064048907646415756 0 0.0026364220664482118 -0.063721494644994048 0 0.0028420732372505036 -0.064315773799947226 0 0.0022219047098147294 -0.064048907646415756 0 0.0023204768449632024 -0.064912493667400872 0 0.0022219047098147294 -0.064048907646415756 0 0.0016557211829883584 -0.064299829718458337 0 0.0022219047098147294 -0.064048907646415756 0 0.0016557211829883584 -0.064299829718458337 0 0.0017492631207121374 -0.063729156826909147 0 0.0016557211829883584 -0.064299829718458337 0 0.0011152723194734187 -0.063806341810388856 0 0.0017492631207121374 -0.063729156826909147 0 0.0016557211829883584 -0.064299829718458337 0 0.0011152723194734187 -0.063806341810388856 0 0.00078448250059408959 -0.064508984367854377 0 0.0011152723194734187 -0.063806341810388856 0 0.00074320192348328483 -0.063115148110677685 0 0.0014832894311449438 -0.063133061207331531 0 0.0011152723194734187 -0.063806341810388856 0 0.0017492631207121374 -0.063729156826909147 0 0.0014832894311449438 -0.063133061207331531 0 0.0021312433876119643 -0.063299200068796677 0 0.0017492631207121374 -0.063729156826909147 0 0.0014832894311449438 -0.063133061207331531 0 0.0022219047098147294 -0.064048907646415756 0 0.0021312433876119643 -0.063299200068796677 0 0.0017492631207121374 -0.063729156826909147 0 -0.00013485084561432276 -0.064387774887408336 0 0.00078448250059408959 -0.064508984367854377 0 0.00044601608964617387 -0.063917827693782542 0 0.0011152723194734187 -0.063806341810388856 0 0.00078448250059408959 -0.064508984367854377 0 0.00044601608964617387 -0.063917827693782542 0 0.0011152723194734187 -0.063806341810388856 0 0.00044601608964617387 -0.063917827693782542 0 0.00074320192348328483 -0.063115148110677685 0 0.00044601608964617387 -0.063917827693782542 0 -0.00012417323168848059 -0.063522258980078961 0 0.00074320192348328483 -0.063115148110677685 0 -0.00013485084561432276 -0.064387774887408336 0 0.00044601608964617387 -0.063917827693782542 0 -0.00012417323168848059 -0.063522258980078961 0 -0.00012417323168848059 -0.063522258980078961 0 0.00074320192348328483 -0.063115148110677685 0 -9.7467104256024014e-05 -0.062718533103430313 0 0.0013035461440435998 -0.064720389435366996 0 0.00036791559630770283 -0.064902393630130645 0 0.00082535025903874486 -0.06445256565249842 0 0.00014902589477250216 -0.060361304239495414 0 -0.00013384274694751828 -0.06247095835276574 0 0.00074320192348328483 -0.063115148110677685 0 0.0010027923672941987 -0.062068353757206519 0 -9.7467104256024014e-05 -0.062718533103430313 0 0.00036791559630770283 -0.064902393630130645 0 0.00042651381474046661 -0.064396195977252157 0 0.00082535025903874486 -0.06445256565249842 0 0.0021312433876119643 -0.063299200068796677 0 0.0018711642078694548 -0.062699035578568776 0 0.0014832894311449438 -0.063133061207331531 0 0.0026282122200768591 -0.062846177597716268 0 0.0021312433876119643 -0.063299200068796677 0 0.0018711642078694548 -0.062699035578568776 0 0.00074320192348328483 -0.063115148110677685 0 0.0014832894311449438 -0.063133061207331531 0 0.0013821903381764215 -0.062526208620393584 0 0.0018711642078694548 -0.062699035578568776 0 0.0014832894311449438 -0.063133061207331531 0 0.0013821903381764215 -0.062526208620393584 0 0.0010027923672941987 -0.062068353757206519 0 0.0013821903381764215 -0.062526208620393584 0 0.0017682161015328398 -0.06186444762742932 0 0.00074320192348328483 -0.063115148110677685 0 0.0010027923672941987 -0.062068353757206519 0 0.0013821903381764215 -0.062526208620393584 0 0.0018711642078694548 -0.062699035578568776 0 0.0013821903381764215 -0.062526208620393584 0 0.0017682161015328398 -0.06186444762742932 0 0.003556968100253001 -0.055799300591140112 0 0.0038513586760571586 -0.058262809313571223 0 0.0004252273350044192 -0.061008606943132426 0 0.0017682161015328398 -0.06186444762742932 0 0.0011119193534366914 -0.06166596417281197 0 0.0026282122200768591 -0.062846177597716268 0 0.0018711642078694548 -0.062699035578568776 0 0.0017682161015328398 -0.06186444762742932 0 0.0017682161015328398 -0.06186444762742932 0 0.0017536706660493115 -0.061934893181225019 0 0.0011119193534366914 -0.06166596417281197 0 0.0017536706660493115 -0.061934893181225019 0 0.0011119193534366914 -0.06166596417281197 0 0.00033842517879888965 -0.061844643969574682 0 0.0013035461440435998 -0.064720389435366996 0 0.0023883933323156784 -0.064241425993503548 0 0.0013056763397866213 -0.064281263352483201 0 0.0023883933323156784 -0.064241425993503548 0 0.0023675265934904079 -0.063883774139336102 0 0.0013056763397866213 -0.064281263352483201 0 0.0010027923672941987 -0.062068353757206519 0 0.0017682161015328398 -0.06186444762742932 0 0.0017536706660493115 -0.061934893181225019 0 0.0027218785514080543 -0.053857125210467961 0 0.0017173957247134919 -0.056409734015667977 0 0.00014902589477250216 -0.060361304239495414 0 0.00031736378387561094 -0.055964783933781383 0 0.0062281164203389075 -0.063487809390208205 0 0.0037371993669236265 -0.062771161013162255 0 0.0013056763397866213 -0.064281263352483201 0 0.0037371993669236265 -0.062771161013162255 0 0.0021800975014588005 -0.06306180140298874 0 0.0013056763397866213 -0.064281263352483201 0 0.0037371993669236265 -0.062771161013162255 0 0.0021800975014588005 -0.06306180140298874 0 0.0019856324923827736 -0.061623449839187924 0 0.0021800975014588005 -0.06306180140298874 0 0.0019856324923827736 -0.061623449839187924 0 0.0013145609574455733 -0.063670745460258332 0 0.0037371993669236265 -0.062771161013162255 0 0.0019856324923827736 -0.061623449839187924 0 0.0031569347619216054 -0.059856177215454213 0 0.0037371993669236265 -0.062771161013162255 0 0.0054811671028635071 -0.061407949253600921 0 0.0031569347619216054 -0.059856177215454213 0 0.0054811671028635071 -0.061407949253600921 0 0.007158850202264937 -0.061936926791880356 0 0.0081336550234544069 -0.060087761471500904 0 0.0062281164203389075 -0.063487809390208205 0 0.007158850202264937 -0.061936926791880356 0 0.0056458903053165956 -0.062402641217784528 0 0.0037371993669236265 -0.062771161013162255 0 0.0054811671028635071 -0.061407949253600921 0 0.0056458903053165956 -0.062402641217784528 0 0.0062281164203389075 -0.063487809390208205 0 0.0037371993669236265 -0.062771161013162255 0 0.0056458903053165956 -0.062402641217784528 0 0.0054811671028635071 -0.061407949253600921 0 0.007158850202264937 -0.061936926791880356 0 0.0056458903053165956 -0.062402641217784528 0 0.00042651381474046661 -0.064396195977252157 0 0.00076794014342285622 -0.064111079007319841 0 0.00082535025903874486 -0.06445256565249842 0 0.00042651381474046661 -0.064396195977252157 0 0.00076794014342285622 -0.064111079007319841 0 0.00057185109005565668 -0.063952365754038065 0 0.0009827454868670735 -0.064067886104585137 0 0.00082535025903874486 -0.06445256565249842 0 0.0013056763397866213 -0.064281263352483201 0 0.0009827454868670735 -0.064067886104585137 0 0.0013145609574455733 -0.063670745460258332 0 0.00092180836327087517 -0.063771389904494033 0 0.00076794014342285622 -0.064111079007319841 0 0.0009827454868670735 -0.064067886104585137 0 0.00082535025903874486 -0.06445256565249842 0 0.00076794014342285622 -0.064111079007319841 0 0.0009827454868670735 -0.064067886104585137 0 0.00092180836327087517 -0.063771389904494033 0 0.0013035461440435998 -0.064720389435366996 0 0.00082535025903874486 -0.06445256565249842 0 0.0013056763397866213 -0.064281263352483201 0 0.0009827454868670735 -0.064067886104585137 0 0.0013056763397866213 -0.064281263352483201 0 0.0013145609574455733 -0.063670745460258332 0 0.0021800975014588005 -0.06306180140298874 0 0.0013056763397866213 -0.064281263352483201 0 0.0013145609574455733 -0.063670745460258332 0 0.0013145609574455733 -0.063670745460258332 0 0.00092180836327087517 -0.063771389904494033 0 0.00086884285467835585 -0.063538737535864837 0 0.0019856324923827736 -0.061623449839187924 0 0.0013145609574455733 -0.063670745460258332 0 -0.00088254623696856847 -0.060192676025360881 0 0.0019856324923827736 -0.061623449839187924 0 -0.00088254623696856847 -0.060192676025360881 0 0.0031569347619216054 -0.059856177215454213 0 0.0011705001729201015 -0.061491780328360758 0 0.00079420030417149561 -0.060537746973084679 0 0.00092180836327087517 -0.063771389904494033 0 0.00079793169146550377 -0.063652894171163363 0 0.00086884285467835585 -0.063538737535864837 0 0.00071704014374680835 -0.06069999219653658 0 0.00079420030417149561 -0.060537746973084679 0 0.00026639920770051218 -0.063737280309223307 0 0.00042651381474046661 -0.064396195977252157 0 0.00057185109005565668 -0.063952365754038065 0 0.00026639920770051218 -0.063737280309223307 0 0.00079793169146550377 -0.063652894171163363 0 0.00071099212129826605 -0.063077805738021395 0 0.0007651809496750044 -0.063848540727438216 0 0.00079793169146550377 -0.063652894171163363 0 0.00057185109005565668 -0.063952365754038065 0 0.00076794014342285622 -0.064111079007319841 0 0.0007651809496750044 -0.063848540727438216 0 0.00057185109005565668 -0.063952365754038065 0 0.00076794014342285622 -0.064111079007319841 0 0.00092180836327087517 -0.063771389904494033 0 0.0007651809496750044 -0.063848540727438216 0 0.00092180836327087517 -0.063771389904494033 0 0.0007651809496750044 -0.063848540727438216 0 0.00079793169146550377 -0.063652894171163363 0 0.00026639920770051218 -0.063737280309223307 0 0.00079793169146550377 -0.063652894171163363 0 0.00057185109005565668 -0.063952365754038065 0 -2.9423641836352901e-05 -0.063056259811122034 0 0.00091785022105535306 -0.060972873619998397 0 -0.00013357921114950014 -0.064754714806308303 0 -0.00011529570933614942 -0.064814455530322654 0 -0.00016466078517947232 -0.06482612009459332 0 0.00079793169146550377 -0.063652894171163363 0 0.00071099212129826605 -0.063077805738021395 0 0.00094338564750671007 -0.063457809299619236 0 -0.00011529570933614942 -0.064814455530322654 0 -0.00010734780215154954 -0.064849641277504033 0 -0.00016466078517947232 -0.06482612009459332 0 0.00091785022105535306 -0.060972873619998397 0 0.00079420030417149561 -0.060537746973084679 0 0.00079420030417149561 -0.060537746973084679 0 0.0013730512643890583 -0.056459438183597367 0 0.0013780841500149299 -0.057616014326481134 0 0.0012909629957775298 -0.057479530832224852 0 0.001095229740782945 -0.057726890826040697 0 -0.00088254623696856847 -0.060192676025360881 0 0.0031569347619216054 -0.059856177215454213 0 0.0021341461486567874 -0.056087482874250874 0 0.00091785022105535306 -0.060972873619998397 0 0.0016283408784632425 -0.058893360660507002 0 0.0013780841500149299 -0.057616014326481134 0 0.0012045588716661226 -0.057863902885485118 0 0.001095229740782945 -0.057726890826040697 0 0.0017502588619824359 -0.057128987575841804 0 0.0013670975642696859 -0.057651063169988581 0 0.0017244123017497131 -0.057798253950206623 0 -0.00010734780215154954 -0.064849641277504033 0 -0.00016466078517947232 -0.06482612009459332 0 -0.0001059986233725464 -0.064889432783985207 0 0.0017502588619824359 -0.057128987575841804 0 0.0017244123017497131 -0.057798253950206623 0 0.002098190042510354 -0.057664429603050064 0 0.00091785022105535306 -0.060972873619998397 0 0.00096915622991233536 -0.061323036832606516 0 0.0054811671028635071 -0.061407949253600921 0 0.006232661334799822 -0.057108991803106482 0 0.0031569347619216054 -0.059856177215454213 0 0.0054811671028635071 -0.061407949253600921 0 0.006232661334799822 -0.057108991803106482 0 0.0081336550234544069 -0.060087761471500904 0 0.006232661334799822 -0.057108991803106482 0 0.0031569347619216054 -0.059856177215454213 0 0.0021341461486567874 -0.056087482874250874 0 0.0013730512643890583 -0.056459438183597367 0 0.0021430798844740335 -0.051688580940189043 0 0.006232661334799822 -0.057108991803106482 0 0.0021341461486567874 -0.056087482874250874 0 0.0051483224171439907 -0.051967985246310106 0 0.0012045588716661226 -0.057863902885485118 0 0.001095229740782945 -0.057726890826040697 0 0.00085763874691959473 -0.058015098564553044 0 0.006232661334799822 -0.057108991803106482 0 0.0092681102412951605 -0.052720122694401073 0 0.0051483224171439907 -0.051967985246310106 0 0.0050503050409618942 -0.040522555566287116 0 0.0055166727256540935 -0.038570814233440248 0 0.0048324950397766351 -0.020816882655951361 0 0.0050172738870517637 -0.020573607201078935 0 0.0051654216169231418 -0.021001170546237402 0 0.006232661334799822 -0.057108991803106482 0 0.010309178181080235 -0.057575333840657265 0 0.0092681102412951605 -0.052720122694401073 0 0.0048324950397766351 -0.020816882655951361 0 0.0047174422466658593 -0.02060732874945714 0 0.0050172738870517637 -0.020573607201078935 0 0.0048324950397766351 -0.020816882655951361 0 0.0047174422466658593 -0.02060732874945714 0 0.0046180680314652917 -0.020828671866620827 0 0.0047174422466658593 -0.02060732874945714 0 0.0047555141159077701 -0.020406380733821176 0 0.0050172738870517637 -0.020573607201078935 0 0.0047555141159077701 -0.020406380733821176 0 0.0050172738870517637 -0.020573607201078935 0 0.0049026402790030782 -0.020200098841271684 0 0.0047174422466658593 -0.02060732874945714 0 0.0047555141159077701 -0.020406380733821176 0 0.0045635891288058183 -0.020462895419929704 0 0.006232661334799822 -0.057108991803106482 0 0.010309178181080235 -0.057575333840657265 0 0.0081336550234544069 -0.060087761471500904 0 0.010309178181080235 -0.057575333840657265 0 0.0081336550234544069 -0.060087761471500904 0 0.011361782636904648 -0.062398481689927073 0 0.0050503050409618942 -0.040522555566287116 0 0.0036152610501447198 -0.045220195585840117 0 0.0027218785514080543 -0.053857125210467961 0 0.0036152610501447198 -0.045220195585840117 0 0.007158850202264937 -0.061936926791880356 0 0.0081336550234544069 -0.060087761471500904 0 0.011361782636904648 -0.062398481689927073 0 0.0062281164203389075 -0.063487809390208205 0 0.007158850202264937 -0.061936926791880356 0 0.011361782636904648 -0.062398481689927073 0 0.0023675265934904079 -0.063883774139336102 0 0.0036667672330481394 -0.063494508515487491 0 0.0036951748219875677 -0.063626284441606479 0 0.0047555141159077701 -0.020406380733821176 0 0.0047052722973843341 -0.020216286271164334 0 0.0049026402790030782 -0.020200098841271684 0 0.0047555141159077701 -0.020406380733821176 0 0.0047052722973843341 -0.020216286271164334 0 0.0045624639976906169 -0.020226175091309046 0 0.0051344692447609103 -0.041700647812678245 0 0.0036390469863076288 -0.045029784746901926 0 0.0038000888824222877 -0.020362448724665982 0 0.0036769356535140268 -0.020434727154159216 0 0.0037972026651643025 -0.020490958554305671 0 0.0046696454392003116 -0.043111981633467973 0 0.0032466349262496841 -0.043405757505619702 0 0.0033133276268676277 -0.043707178404670602 0 0.0051344692447609103 -0.041700647812678245 0 0.0036152610501447198 -0.045220195585840117 0 0.0036152610501447198 -0.045220195585840117 0 0.0036390469863076288 -0.045029784746901926 0 0.0036390469863076288 -0.045029784746901926 0 0.0016802721138316865 -0.041498537858164194 0 0.0036769356535140268 -0.020434727154159216 0 0.0037972026651643025 -0.020490958554305671 0 0.0037073908391724738 -0.020597655641428594 0 -0.00067099777329143002 -0.063123768890950005 0 -0.0011358758397463948 -0.061465331418821545 0 0.00033842517879888965 -0.061844643969574682 0 0.0038251837019918507 -0.020622923610251347 0 0.0037972026651643025 -0.020490958554305671 0 0.0037073908391724738 -0.020597655641428594 0 0.0017536706660493115 -0.061934893181225019 0 -0.00067099777329143002 -0.063123768890950005 0 0.00033842517879888965 -0.061844643969574682 0 0.0023883933323156784 -0.064241425993503548 0 0.0023675265934904079 -0.063883774139336102 0 0.0036951748219875677 -0.063626284441606479 0 0.00031736378387561094 -0.055964783933781383 0 0.0036390469863076288 -0.045029784746901926 0 0.0004252273350044192 -0.061008606943132426 0 0.0011119193534366914 -0.06166596417281197 0 0.00033842517879888965 -0.061844643969574682 0 0.0040013097368386931 -0.020404881543089403 0 0.0040871927244836544 -0.020385716368772573 0 0.0040129280872136302 -0.020499903785230315 0 0.0041133268647844511 -0.020512164337125098 0 0.0040871927244836544 -0.020385716368772573 0 0.0040129280872136302 -0.020499903785230315 0 0.0040013097368386931 -0.020404881543089403 0 0.0040129280872136302 -0.020499903785230315 0 0.0039041564597372229 -0.020507372674053833 0 0.0038251837019918507 -0.020622923610251347 0 0.0037972026651643025 -0.020490958554305671 0 0.0039041564597372229 -0.020507372674053833 0 0.0038000888824222877 -0.020362448724665982 0 0.0037972026651643025 -0.020490958554305671 0 0.0038794822436296955 -0.020420526491374168 0 0.0037972026651643025 -0.020490958554305671 0 0.0039041564597372229 -0.020507372674053833 0 0.0038794822436296955 -0.020420526491374168 0 0.0040013097368386931 -0.020404881543089403 0 0.0039041564597372229 -0.020507372674053833 0 0.0038794822436296955 -0.020420526491374168 0 0.0040013097368386931 -0.020404881543089403 0 0.0038794822436296955 -0.020420526491374168 0 0.0038933321838094948 -0.020329957157060183 0 0.0051344692447609103 -0.041700647812678245 0 0.0057264373924437494 -0.03872789791390998 0 0.0038000888824222877 -0.020362448724665982 0 0.0038794822436296955 -0.020420526491374168 0 0.0038933321838094948 -0.020329957157060183 0 0.0057264373924437494 -0.03872789791390998 0 0.0061479486852089229 -0.035834437207569882 0 0.0040013097368386931 -0.020404881543089403 0 0.0038933321838094948 -0.020329957157060183 0 0.0041481714007310646 -0.020290634977969971 0 0.0040013097368386931 -0.020404881543089403 0 0.0040871927244836544 -0.020385716368772573 0 0.0041481714007310646 -0.020290634977969971 0 0.0045624639976906169 -0.020226175091309046 0 0.0041481714007310646 -0.020290634977969971 0 0.0043321383483919014 -0.020462745632313022 0 0.0041481714007310646 -0.020290634977969971 0 0.0043321383483919014 -0.020462745632313022 0 0.0041885787063739724 -0.020492765755195482 0 0.0043321383483919014 -0.020462745632313022 0 0.0041885787063739724 -0.020492765755195482 0 0.0044391661375398498 -0.020606391642403347 0 0.0047174422466658593 -0.02060732874945714 0 0.0045635891288058183 -0.020462895419929704 0 0.0044391661375398498 -0.020606391642403347 0 0.0045624639976906169 -0.020226175091309046 0 0.0043321383483919014 -0.020462745632313022 0 0.0045635891288058183 -0.020462895419929704 0 0.0047555141159077701 -0.020406380733821176 0 0.0045624639976906169 -0.020226175091309046 0 0.0045635891288058183 -0.020462895419929704 0 0.0043321383483919014 -0.020462745632313022 0 0.0045635891288058183 -0.020462895419929704 0 0.0044391661375398498 -0.020606391642403347 0 0.0047174422466658593 -0.02060732874945714 0 0.0044391661375398498 -0.020606391642403347 0 0.0046180680314652917 -0.020828671866620827 0 0.0044391661375398498 -0.020606391642403347 0 0.0046180680314652917 -0.020828671866620827 0 0.0043603100357904288 -0.020832699424343529 0 0.0040819028485243958 -0.020674613729682191 0 0.0041885787063739724 -0.020492765755195482 0 0.0043603100357904288 -0.020832699424343529 0 0.0041885787063739724 -0.020492765755195482 0 0.0044391661375398498 -0.020606391642403347 0 0.0043603100357904288 -0.020832699424343529 0 0.0040819028485243958 -0.020674613729682191 0 0.0043603100357904288 -0.020832699424343529 0 0.0042303294953523803 -0.021006410849574771 0 0.0043603100357904288 -0.020832699424343529 0 0.0044370531005574355 -0.021172363463041612 0 0.0042303294953523803 -0.021006410849574771 0 0.0043603100357904288 -0.020832699424343529 0 0.0045985967139354307 -0.021066561870686829 0 0.0044370531005574355 -0.021172363463041612 0 0.0046180680314652917 -0.020828671866620827 0 0.0043603100357904288 -0.020832699424343529 0 0.0045985967139354307 -0.021066561870686829 0 0.0046180680314652917 -0.020828671866620827 0 0.0045985967139354307 -0.021066561870686829 0 0.0048000860171079161 -0.021043886423098162 0 0.0046357613934139771 -0.021251078141252686 0 0.0044650829729259512 -0.021355493231230451 0 0.0048047402130480046 -0.021420951984745425 0 0.0045985967139354307 -0.021066561870686829 0 0.0046357613934139771 -0.021251078141252686 0 0.0044370531005574355 -0.021172363463041612 0 0.0046357613934139771 -0.021251078141252686 0 0.0044370531005574355 -0.021172363463041612 0 0.0044650829729259512 -0.021355493231230451 0 0.0044370531005574355 -0.021172363463041612 0 0.0042952849128300198 -0.021210099628480941 0 0.0042303294953523803 -0.021006410849574771 0 0.0044370531005574355 -0.021172363463041612 0 0.0042952849128300198 -0.021210099628480941 0 0.0044650829729259512 -0.021355493231230451 0 0.0048855871903635889 -0.021889427930617496 0 0.0054613275025022267 -0.021538170934167454 0 0.0053894959980165212 -0.022565810530817548 0 0.0052804320420241522 -0.027799268637990118 0 0.0049020260818794298 -0.026690325161558698 0 0.0042952849128300198 -0.021210099628480941 0 0.0044650829729259512 -0.021355493231230451 0 0.0041557400903706829 -0.021368026434241471 0 0.0048855871903635889 -0.021889427930617496 0 0.0054613275025022267 -0.021538170934167454 0 0.004394871279929464 -0.02148705357614639 0 0.0054613275025022267 -0.021538170934167454 0 0.004394871279929464 -0.02148705357614639 0 0.0041557400903706829 -0.021368026434241471 0 0.0048855871903635889 -0.021889427930617496 0 0.0053894959980165212 -0.022565810530817548 0 0.0040985254275201491 -0.021867098491577759 0 0.0042886674914554028 -0.030187099675636181 0 0.0032905620975903016 -0.025838150976004965 0 0.0052804320420241522 -0.027799268637990118 0 0.005931722471105425 -0.031593184170209489 0 0.0054613275025022267 -0.021538170934167454 0 0.0063853311154493586 -0.022015557328730645 0 0.0067403091034053467 -0.021591290269480878 0 0.0054613275025022267 -0.021538170934167454 0 0.0063853311154493586 -0.022015557328730645 0 0.0061978889117921127 -0.022441062246142316 0 0.0054613275025022267 -0.021538170934167454 0 0.0061978889117921127 -0.022441062246142316 0 0.0053894959980165212 -0.022565810530817548 0 0.0042886674914554028 -0.030187099675636181 0 0.0069285557855948447 -0.036928747177238354 0 0.0039778653773906653 -0.031187682126145869 0 0.0043444036413943302 -0.031371599424792937 0 0.0040273688281655205 -0.031430916879737883 0 0.0061978889117921127 -0.022441062246142316 0 0.0053894959980165212 -0.022565810530817548 0 0.0065941730633874368 -0.023192531868012022 0 0.0039778653773906653 -0.031187682126145869 0 0.0036109546331226476 -0.031004815926383971 0 0.0037362725171247507 -0.031280946898951695 0 0.0039778653773906653 -0.031187682126145869 0 0.0038743753120289459 -0.031381541140142757 0 0.0040273688281655205 -0.031430916879737883 0 0.0039778653773906653 -0.031187682126145869 0 0.0038743753120289459 -0.031381541140142757 0 0.0037362725171247507 -0.031280946898951695 0 0.0038743753120289459 -0.031381541140142757 0 0.0037362725171247507 -0.031280946898951695 0 0.0037401561408640024 -0.031430832116236311 0 0.0099467570977041786 -0.046987944334444094 0 0.011533636936328294 -0.047780530800028601 0 0.010518946666781983 -0.048269308854240647 0 0.0099467570977041786 -0.046987944334444094 0 0.010518946666781983 -0.048269308854240647 0 0.0095642102992513928 -0.048380927713616406 0 0.0099467570977041786 -0.046987944334444094 0 0.011533636936328294 -0.047780530800028601 0 0.01155942844704737 -0.046127361989798971 0 0.011533636936328294 -0.047780530800028601 0 0.01155942844704737 -0.046127361989798971 0 0.012671367246455279 -0.04694164813192326 0 0.011533636936328294 -0.047780530800028601 0 0.01129288939744748 -0.049007629794998793 0 0.01320134329837655 -0.049342374027924518 0 0.011533636936328294 -0.047780530800028601 0 0.01129288939744748 -0.049007629794998793 0 0.010518946666781983 -0.048269308854240647 0 0.01129288939744748 -0.049007629794998793 0 0.010518946666781983 -0.048269308854240647 0 0.010296975789284495 -0.049340173195021944 0 0.010518946666781983 -0.048269308854240647 0 0.0096582204605436851 -0.048841852736596893 0 0.0095642102992513928 -0.048380927713616406 0 0.010296975789284495 -0.049340173195021944 0 0.0096582204605436851 -0.048841852736596893 0 0.0094726798473984755 -0.049455614606617314 0 0.010518946666781983 -0.048269308854240647 0 0.010296975789284495 -0.049340173195021944 0 0.0096582204605436851 -0.048841852736596893 0 0.0079828833306501475 -0.037566366327389085 0 0.0078615510991674638 -0.038639183838652162 0 0.0099467570977041786 -0.046987944334444094 0 0.0095642102992513928 -0.048380927713616406 0 0.0081273662527104138 -0.049423838578995294 0 0.0096582204605436851 -0.048841852736596893 0 0.0095642102992513928 -0.048380927713616406 0 0.0081273662527104138 -0.049423838578995294 0 0.0096582204605436851 -0.048841852736596893 0 0.0081273662527104138 -0.049423838578995294 0 0.0094726798473984755 -0.049455614606617314 0 0.0069285557855948447 -0.036928747177238354 0 0.0078599196110614722 -0.034944962865486123 0 0.0065941730633874368 -0.023192531868012022 0 0.006600553423709383 -0.02268490507259157 0 0.0069849558915934615 -0.022676537325257585 0 0.0065679808858516648 -0.023275424142338685 0 0.0069849558915934615 -0.022676537325257585 0 0.0067083964522997785 -0.02333792540678058 0 0.0069285557855948447 -0.036928747177238354 0 0.0078615510991674638 -0.038639183838652162 0 0.0061978889117921127 -0.022441062246142316 0 0.0065941730633874368 -0.023192531868012022 0 0.006600553423709383 -0.02268490507259157 0 0.006622881650722604 -0.02242835209956404 0 0.0069849558915934615 -0.022676537325257585 0 0.0068860228110557923 -0.022183607863732902 0 0.006600553423709383 -0.02268490507259157 0 0.006622881650722604 -0.02242835209956404 0 0.0069849558915934615 -0.022676537325257585 0 0.0061978889117921127 -0.022441062246142316 0 0.006600553423709383 -0.02268490507259157 0 0.006622881650722604 -0.02242835209956404 0 0.0073605741391508253 -0.022390751683958977 0 0.0069849558915934615 -0.022676537325257585 0 0.0067083964522997785 -0.02333792540678058 0 0.0073605741391508253 -0.022390751683958977 0 0.0069849558915934615 -0.022676537325257585 0 0.0068860228110557923 -0.022183607863732902 0 0.0073605741391508253 -0.022390751683958977 0 0.0068860228110557923 -0.022183607863732902 0 0.0071260292750847352 -0.022023903921306383 0 0.0068860228110557923 -0.022183607863732902 0 0.0071260292750847352 -0.022023903921306383 0 0.0067403091034053467 -0.021591290269480878 0 0.0073605741391508253 -0.022390751683958977 0 0.0071260292750847352 -0.022023903921306383 0 0.0073571526871631958 -0.021850856018189719 0 0.0063853311154493586 -0.022015557328730645 0 0.0068860228110557923 -0.022183607863732902 0 0.0067403091034053467 -0.021591290269480878 0 0.0063853311154493586 -0.022015557328730645 0 0.006622881650722604 -0.02242835209956404 0 0.0068860228110557923 -0.022183607863732902 0 0.0063853311154493586 -0.022015557328730645 0 0.0061978889117921127 -0.022441062246142316 0 0.006622881650722604 -0.02242835209956404 0 0.0071260292750847352 -0.022023903921306383 0 0.0067403091034053467 -0.021591290269480878 0 0.0073571526871631958 -0.021850856018189719 0 0.005931722471105425 -0.031593184170209489 0 0.0061592261502171697 -0.039681946330512502 0 0.0067403091034053467 -0.021591290269480878 0 0.0073571526871631958 -0.021850856018189719 0 0.0079608697217283253 -0.021596944786931332 0 0.0073605741391508253 -0.022390751683958977 0 0.0073571526871631958 -0.021850856018189719 0 0.0079608697217283253 -0.021596944786931332 0 0.0079828833306501475 -0.037566366327389085 0 0.0061592261502171697 -0.039681946330512502 0 0.01155942844704737 -0.046127361989798971 0 0.012130443064053649 -0.044537943159838958 0 0.012671367246455279 -0.04694164813192326 0 0.0099467570977041786 -0.046987944334444094 0 0.01155942844704737 -0.046127361989798971 0 0.01173775305352032 -0.044555645793657214 0 0.01155942844704737 -0.046127361989798971 0 0.01173775305352032 -0.044555645793657214 0 0.012130443064053649 -0.044537943159838958 0 0.0061592261502171697 -0.039681946330512502 0 0.0057837172811340352 -0.041001751878294558 0 0.0025557767983222135 -0.040727689602282034 0 0.0042088203192843969 -0.040655041998095651 0 0.0038359802816716822 -0.039040013036427353 0 0.0057454170358766481 -0.040579543260731259 0 0.0055166727256540935 -0.038570814233440248 0 0.0052130468389063982 -0.021474430368006021 0 0.0052489663568574324 -0.021431919108762108 0 0.0049103767793204148 -0.021229382695985968 0 0.0057454170358766481 -0.040579543260731259 0 0.0026997180602207423 -0.033102345697982101 0 0.0053094419802268682 -0.021555900770345481 0 0.0049090698305317513 -0.021327648963685216 0 0.0051654216169231418 -0.021001170546237402 0 0.0057837172811340352 -0.041001751878294558 0 0.0057454170358766481 -0.040579543260731259 0 0.0061592261502171697 -0.039681946330512502 0 0.0057454170358766481 -0.040579543260731259 0 0.002148642224949507 -0.031016316382072209 0 0.0026997180602207423 -0.033102345697982101 0 0.0046357613934139771 -0.021251078141252686 0 0.0048047402130480046 -0.021420951984745425 0 0.0049103767793204148 -0.021229382695985968 0 0.0045985967139354307 -0.021066561870686829 0 0.0046357613934139771 -0.021251078141252686 0 0.0049103767793204148 -0.021229382695985968 0 0.0048047402130480046 -0.021420951984745425 0 0.0052130468389063982 -0.021474430368006021 0 0.0049103767793204148 -0.021229382695985968 0 0.0045985967139354307 -0.021066561870686829 0 0.0049090698305317513 -0.021327648963685216 0 0.0048000860171079161 -0.021043886423098162 0 0.0048324950397766351 -0.020816882655951361 0 0.0048000860171079161 -0.021043886423098162 0 0.0051654216169231418 -0.021001170546237402 0 0.0049090698305317513 -0.021327648963685216 0 0.0048000860171079161 -0.021043886423098162 0 0.0051654216169231418 -0.021001170546237402 0 0.0048324950397766351 -0.020816882655951361 0 0.0046180680314652917 -0.020828671866620827 0 0.0048000860171079161 -0.021043886423098162 0 0.0082045436598189303 -0.047827015355716547 0 0.0092681102412951605 -0.052720122694401073 0 0.0051483224171439907 -0.051967985246310106 0 0.0016283408784632425 -0.058893360660507002 0 0.0016059040539351394 -0.05860813318868377 0 0.0012045588716661226 -0.057863902885485118 0 0.00085763874691959473 -0.058015098564553044 0 0.0010055901427078529 -0.058168948067600951 0 0.00085763874691959473 -0.058015098564553044 0 0.0010055901427078529 -0.058168948067600951 0 0.00082053806595482873 -0.058300630334642535 0 0.0010055901427078529 -0.058168948067600951 0 0.0011983635864742195 -0.05840470474355243 0 0.0013236792581763407 -0.058244477274383692 0 0.0010055901427078529 -0.058168948067600951 0 0.0011983635864742195 -0.05840470474355243 0 0.0010346839156763945 -0.058420817553981111 0 0.0011983635864742195 -0.05840470474355243 0 0.0010346839156763945 -0.058420817553981111 0 0.0012352342478059539 -0.058599816291742352 0 0.0010346839156763945 -0.058420817553981111 0 0.00082053806595482873 -0.058300630334642535 0 0.00082221495458276346 -0.058433021116902545 0 0.0010055901427078529 -0.058168948067600951 0 0.0010346839156763945 -0.058420817553981111 0 0.00082053806595482873 -0.058300630334642535 0 0.00056894508573863056 -0.058367723220543136 0 0.00085763874691959473 -0.058015098564553044 0 0.00082053806595482873 -0.058300630334642535 0 0.0057454170358766481 -0.040579543260731259 0 0.0021430798844740335 -0.051688580940189043 0 0.00082053806595482873 -0.058300630334642535 0 0.00065692599172779054 -0.058416052975506096 0 0.00082221495458276346 -0.058433021116902545 0 0.00056894508573863056 -0.058367723220543136 0 0.00082053806595482873 -0.058300630334642535 0 0.00065692599172779054 -0.058416052975506096 0 0.0057454170358766481 -0.040579543260731259 0 0.0052767547449995315 -0.042170687412170858 0 0.001974060729155314 -0.0580418367456529 0 0.0017244123017497131 -0.057798253950206623 0 0.002098190042510354 -0.057664429603050064 0 0.001974060729155314 -0.0580418367456529 0 0.0017244123017497131 -0.057798253950206623 0 0.0016411088465115892 -0.058183847179334072 0 0.0013670975642696859 -0.057651063169988581 0 0.0010055901427078529 -0.058168948067600951 0 0.0014074218789466707 -0.058009841622407972 0 0.0017244123017497131 -0.057798253950206623 0 0.0014074218789466707 -0.058009841622407972 0 0.0016411088465115892 -0.058183847179334072 0 0.0013670975642696859 -0.057651063169988581 0 0.0017244123017497131 -0.057798253950206623 0 0.0014074218789466707 -0.058009841622407972 0 0.0010055901427078529 -0.058168948067600951 0 0.0014074218789466707 -0.058009841622407972 0 0.0013236792581763407 -0.058244477274383692 0 0.0011983635864742195 -0.05840470474355243 0 0.0014483479875747377 -0.058458867236642967 0 0.0012352342478059539 -0.058599816291742352 0 0.0011983635864742195 -0.05840470474355243 0 0.0013236792581763407 -0.058244477274383692 0 0.0014483479875747377 -0.058458867236642967 0 0.0014483479875747377 -0.058458867236642967 0 0.0017508942343347515 -0.058407142078268554 0 0.0016789309326490157 -0.058611536017495011 0 0.0014483479875747377 -0.058458867236642967 0 0.0016411088465115892 -0.058183847179334072 0 0.0017508942343347515 -0.058407142078268554 0 0.0013236792581763407 -0.058244477274383692 0 0.0014483479875747377 -0.058458867236642967 0 0.0016411088465115892 -0.058183847179334072 0 0.0014074218789466707 -0.058009841622407972 0 0.0013236792581763407 -0.058244477274383692 0 0.0016411088465115892 -0.058183847179334072 0 0.0016411088465115892 -0.058183847179334072 0 0.0017508942343347515 -0.058407142078268554 0 0.0019709317535461595 -0.058316661667106529 0 0.0017508942343347515 -0.058407142078268554 0 0.0019709317535461595 -0.058316661667106529 0 0.0019885638974511404 -0.058614450326831984 0 0.0019709317535461595 -0.058316661667106529 0 0.0019885638974511404 -0.058614450326831984 0 0.0022596261274353976 -0.058472992485834457 0 0.001974060729155314 -0.0580418367456529 0 0.0019709317535461595 -0.058316661667106529 0 0.0021176945442580226 -0.058235998811358491 0 0.001974060729155314 -0.0580418367456529 0 0.0016411088465115892 -0.058183847179334072 0 0.0019709317535461595 -0.058316661667106529 0 0.0019885638974511404 -0.058614450326831984 0 0.0018118113936908906 -0.058899014715199094 0 0.002119598149823669 -0.058953241071524762 0 0.0017508942343347515 -0.058407142078268554 0 0.0019885638974511404 -0.058614450326831984 0 0.0016789309326490157 -0.058611536017495011 0 0.0016789309326490157 -0.058611536017495011 0 0.0018118113936908906 -0.058899014715199094 0 0.001463443756468525 -0.058742091463970691 0 0.0019885638974511404 -0.058614450326831984 0 0.0016789309326490157 -0.058611536017495011 0 0.0018118113936908906 -0.058899014715199094 0 0.0033344090202791854 -0.05492413022422437 0 0.0033683246707860684 -0.051406002243234279 0 0.001463443756468525 -0.058742091463970691 0 0.0015595886950098702 -0.059107153498931878 0 0.001027534355182839 -0.058807137423118973 0 0.0018118113936908906 -0.058899014715199094 0 0.001463443756468525 -0.058742091463970691 0 0.0015595886950098702 -0.059107153498931878 0 0.0014483479875747377 -0.058458867236642967 0 0.0016789309326490157 -0.058611536017495011 0 0.001463443756468525 -0.058742091463970691 0 0.001463443756468525 -0.058742091463970691 0 0.0012352342478059539 -0.058599816291742352 0 0.001027534355182839 -0.058807137423118973 0 0.0014483479875747377 -0.058458867236642967 0 0.001463443756468525 -0.058742091463970691 0 0.0012352342478059539 -0.058599816291742352 0 0.0017635783961734712 -0.059647267434743446 0 0.0019890342334585201 -0.059603185508137965 0 0.0016379203679812216 -0.059430977223261912 0 0.0017635783961734712 -0.059647267434743446 0 0.0018898587324636617 -0.059828264099522396 0 0.0016162063756131777 -0.059822380188262192 0 0.0017635783961734712 -0.059647267434743446 0 0.0018898587324636617 -0.059828264099522396 0 0.0019890342334585201 -0.059603185508137965 0 0.0018118113936908906 -0.058899014715199094 0 0.002119598149823669 -0.058953241071524762 0 0.0020882463132121626 -0.059437773768676073 0 0.0018898587324636617 -0.059828264099522396 0 0.0019890342334585201 -0.059603185508137965 0 0.0023333643967274262 -0.059743018789540588 0 0.0033344090202791854 -0.05492413022422437 0 0.0033269123867216881 -0.056648741351170241 0 0.0018118113936908906 -0.058899014715199094 0 0.0015595886950098702 -0.059107153498931878 0 0.0020882463132121626 -0.059437773768676073 0 0.0052767547449995315 -0.042170687412170858 0 0.0033683246707860684 -0.051406002243234279 0 0.0058960539367346673 -0.047932983572743573 0 0.0064390962622160788 -0.04819236814136079 0 0.0058731689942581825 -0.04830917314323771 0 0.00064242327674516589 -0.058415004912133764 0 0.00082221495458276346 -0.058433021116902545 0 0.0010927348775499667 -0.058698114524116995 0 0.0057837172811340352 -0.041001751878294558 0 0.0057219939752602977 -0.047264368041272167 0 0.0057922713581077898 -0.047935286508220099 0 0.0058960539367346673 -0.047932983572743573 0 0.0058731689942581825 -0.04830917314323771 0 0.0057837172811340352 -0.041001751878294558 0 0.0052767547449995315 -0.042170687412170858 0 0.0060807555316543431 -0.042178387604096867 0 0.0061627441887401333 -0.042533308736353616 0 0.0054451220215774674 -0.042207499636841166 0 0.0052767547449995315 -0.042170687412170858 0 0.0046892158840338028 -0.042694235321631004 0 0.0010346839156763945 -0.058420817553981111 0 0.00082221495458276346 -0.058433021116902545 0 0.0010927348775499667 -0.058698114524116995 0 0.0010346839156763945 -0.058420817553981111 0 0.0012352342478059539 -0.058599816291742352 0 0.0010927348775499667 -0.058698114524116995 0 0.0028281818978730671 -0.052122034386065982 0 0.0033683246707860684 -0.051406002243234279 0 0.0017635783961734712 -0.059647267434743446 0 0.0016379203679812216 -0.059430977223261912 0 0.0016162063756131777 -0.059822380188262192 0 0.0033683246707860684 -0.051406002243234279 0 0.0048299967698149631 -0.052748379981532617 0 0.0016379203679812216 -0.059430977223261912 0 0.0016162063756131777 -0.059822380188262192 0 0.0012407064271032736 -0.059828995160374938 0 0.0064390962622160788 -0.04819236814136079 0 0.0058731689942581825 -0.04830917314323771 0 0.0059538711708637315 -0.048679979837248068 0 0.0057219939752602977 -0.047264368041272167 0 0.0048299967698149631 -0.052748379981532617 0 0.011533636936328294 -0.047780530800028601 0 0.012671367246455279 -0.04694164813192326 0 0.01320134329837655 -0.049342374027924518 0 0.0012407064271032736 -0.059828995160374938 0 0.0014791154692257603 -0.060026780643912814 0 0.0013586796773246632 -0.060284637092332581 0 0.0013161954117134876 -0.060022064232277489 0 0.0012448926245484395 -0.060258453406492461 0 0.0013586796773246632 -0.060284637092332581 0 0.0048299967698149631 -0.052748379981532617 0 0.0047373189608564403 -0.055868836013648643 0 0.0016162063756131777 -0.059822380188262192 0 0.0012407064271032736 -0.059828995160374938 0 0.0014791154692257603 -0.060026780643912814 0 0.0016798238772919056 -0.060160007633359339 0 0.0014791154692257603 -0.060026780643912814 0 0.0013586796773246632 -0.060284637092332581 0 0.0018898587324636617 -0.059828264099522396 0 0.0016162063756131777 -0.059822380188262192 0 0.0016798238772919056 -0.060160007633359339 0 0.0016162063756131777 -0.059822380188262192 0 0.0016798238772919056 -0.060160007633359339 0 0.0014791154692257603 -0.060026780643912814 0 0.0016798238772919056 -0.060160007633359339 0 0.0017117246962137778 -0.060484491771110552 0 0.0014370284683771 -0.060489801592786621 0 0.0016798238772919056 -0.060160007633359339 0 0.0013586796773246632 -0.060284637092332581 0 0.0014370284683771 -0.060489801592786621 0 0.0013586796773246632 -0.060284637092332581 0 0.0014370284683771 -0.060489801592786621 0 0.001225102571749603 -0.060439932354517577 0 0.0012448926245484395 -0.060258453406492461 0 0.0013586796773246632 -0.060284637092332581 0 0.001225102571749603 -0.060439932354517577 0 0.0018898587324636617 -0.059828264099522396 0 0.0019993773467611 -0.060044957882248298 0 0.0023333643967274262 -0.059743018789540588 0 0.0019993773467611 -0.060044957882248298 0 0.002202363724654354 -0.060156714635147213 0 0.0023333643967274262 -0.059743018789540588 0 0.002202363724654354 -0.060156714635147213 0 0.0023333643967274262 -0.059743018789540588 0 0.0024229765619146184 -0.060077031188572362 0 0.0018898587324636617 -0.059828264099522396 0 0.0016798238772919056 -0.060160007633359339 0 0.0019993773467611 -0.060044957882248298 0 0.0016798238772919056 -0.060160007633359339 0 0.0019993773467611 -0.060044957882248298 0 0.0019371661266421689 -0.060321513806446451 0 0.0016798238772919056 -0.060160007633359339 0 0.0019371661266421689 -0.060321513806446451 0 0.0017117246962137778 -0.060484491771110552 0 0.0019993773467611 -0.060044957882248298 0 0.0019371661266421689 -0.060321513806446451 0 0.002202363724654354 -0.060156714635147213 0 0.0019371661266421689 -0.060321513806446451 0 0.002188222882020184 -0.060425334433863574 0 0.002202363724654354 -0.060156714635147213 0 0.002188222882020184 -0.060425334433863574 0 0.002202363724654354 -0.060156714635147213 0 0.0023713111817066992 -0.060299273161152099 0 0.0021819359905824523 -0.060654440523906658 0 0.001946662869602486 -0.060703831430458932 0 0.0022818913837710153 -0.060858760020889281 0 0.0019371661266421689 -0.060321513806446451 0 0.002188222882020184 -0.060425334433863574 0 0.001946662869602486 -0.060703831430458932 0 0.0021819359905824523 -0.060654440523906658 0 0.0022818913837710153 -0.060858760020889281 0 0.0024409911566958585 -0.060570303474656161 0 0.002188222882020184 -0.060425334433863574 0 0.0021819359905824523 -0.060654440523906658 0 0.0024409911566958585 -0.060570303474656161 0 0.002188222882020184 -0.060425334433863574 0 0.0021819359905824523 -0.060654440523906658 0 0.001946662869602486 -0.060703831430458932 0 0.0017117246962137778 -0.060484491771110552 0 0.001946662869602486 -0.060703831430458932 0 0.0015782437169114762 -0.060708574691831163 0 0.0019371661266421689 -0.060321513806446451 0 0.0017117246962137778 -0.060484491771110552 0 0.001946662869602486 -0.060703831430458932 0 0.0017573886819724363 -0.060853711892645379 0 0.0020794992533896871 -0.061002187073526899 0 0.0018359932568145442 -0.061073935197564128 0 0.001946662869602486 -0.060703831430458932 0 0.0017573886819724363 -0.060853711892645379 0 0.0015782437169114762 -0.060708574691831163 0 0.001946662869602486 -0.060703831430458932 0 0.0017573886819724363 -0.060853711892645379 0 0.0020794992533896871 -0.061002187073526899 0 0.0017573886819724363 -0.060853711892645379 0 0.0015270561231522659 -0.060911707667674515 0 0.0018359932568145442 -0.061073935197564128 0 0.001946662869602486 -0.060703831430458932 0 0.0020794992533896871 -0.061002187073526899 0 0.0022818913837710153 -0.060858760020889281 0 0.0020794992533896871 -0.061002187073526899 0 0.0022818913837710153 -0.060858760020889281 0 0.002501616344141516 -0.061046687702310677 0 0.0012539517051579816 -0.060626311761765472 0 0.0014370284683771 -0.060489801592786621 0 0.001225102571749603 -0.060439932354517577 0 0.0013630654704976221 -0.060680380531973693 0 0.0012539517051579816 -0.060626311761765472 0 0.0012338736439790241 -0.060775242215519582 0 0.0013630654704976221 -0.060680380531973693 0 0.0012539517051579816 -0.060626311761765472 0 0.0014370284683771 -0.060489801592786621 0 0.0017117246962137778 -0.060484491771110552 0 0.0014370284683771 -0.060489801592786621 0 0.0015782437169114762 -0.060708574691831163 0 0.0013630654704976221 -0.060680380531973693 0 0.0014370284683771 -0.060489801592786621 0 0.0015782437169114762 -0.060708574691831163 0 0.0013630654704976221 -0.060680380531973693 0 0.0015782437169114762 -0.060708574691831163 0 0.0013588352624784503 -0.060868035503959111 0 0.0015782437169114762 -0.060708574691831163 0 0.0015270561231522659 -0.060911707667674515 0 0.0013588352624784503 -0.060868035503959111 0 0.0017573886819724363 -0.060853711892645379 0 0.0015782437169114762 -0.060708574691831163 0 0.0015270561231522659 -0.060911707667674515 0 0.0015270561231522659 -0.060911707667674515 0 0.0013588352624784503 -0.060868035503959111 0 0.0014002482664185599 -0.06098088824747535 0 0.0013630654704976221 -0.060680380531973693 0 0.0013588352624784503 -0.060868035503959111 0 0.0012338736439790241 -0.060775242215519582 0 0.0013588352624784503 -0.060868035503959111 0 0.0012125283385434234 -0.060930468211037099 0 0.0013016920247666854 -0.061005013459201986 0 0.0013588352624784503 -0.060868035503959111 0 0.0012338736439790241 -0.060775242215519582 0 0.0012125283385434234 -0.060930468211037099 0 0.0012125283385434234 -0.060930468211037099 0 0.0011020264463894307 -0.060860833688469465 0 0.0011030503255209478 -0.061007084231993094 0 0.0011020264463894307 -0.060860833688469465 0 0.0010341057797661605 -0.060978265576089034 0 0.0011030503255209478 -0.061007084231993094 0 0.0012338736439790241 -0.060775242215519582 0 0.0012125283385434234 -0.060930468211037099 0 0.0011020264463894307 -0.060860833688469465 0 0.0012338736439790241 -0.060775242215519582 0 0.0011020264463894307 -0.060860833688469465 0 0.0011413051380411638 -0.060660770575809549 0 0.0012539517051579816 -0.060626311761765472 0 0.0012338736439790241 -0.060775242215519582 0 0.0011413051380411638 -0.060660770575809549 0 0.0011413051380411638 -0.060660770575809549 0 0.0010731715019349731 -0.06055837179220127 0 0.0010407476042411325 -0.060734576461277653 0 0.0011020264463894307 -0.060860833688469465 0 0.0011413051380411638 -0.060660770575809549 0 0.0010407476042411325 -0.060734576461277653 0 0.0011413051380411638 -0.060660770575809549 0 0.0010731715019349731 -0.06055837179220127 0 0.001225102571749603 -0.060439932354517577 0 0.0012539517051579816 -0.060626311761765472 0 0.0011413051380411638 -0.060660770575809549 0 0.001225102571749603 -0.060439932354517577 0 0.0010731715019349731 -0.06055837179220127 0 0.00089035264050589828 -0.060629500777173044 0 0.0010407476042411325 -0.060734576461277653 0 0.00089035264050589828 -0.060629500777173044 0 0.0010407476042411325 -0.060734576461277653 0 0.00097248214445923786 -0.060843784743295166 0 0.0011020264463894307 -0.060860833688469465 0 0.0010407476042411325 -0.060734576461277653 0 0.00097248214445923786 -0.060843784743295166 0 0.0011020264463894307 -0.060860833688469465 0 0.00097248214445923786 -0.060843784743295166 0 0.0010341057797661605 -0.060978265576089034 0 0.00097248214445923786 -0.060843784743295166 0 0.00097267925630561806 -0.061011998342149536 0 0.0010341057797661605 -0.060978265576089034 0 0.00089035264050589828 -0.060629500777173044 0 0.00097248214445923786 -0.060843784743295166 0 0.00087723223671261536 -0.06094434530496344 0 0.0010387829639250086 -0.06131460831384692 0 0.0010110366712216374 -0.061330943374521288 0 0.0010280589009273085 -0.061339970500674003 0 0.00097248214445923786 -0.060843784743295166 0 0.00087723223671261536 -0.06094434530496344 0 0.00097267925630561806 -0.061011998342149536 0 0.0010110366712216374 -0.061330943374521288 0 0.0010280589009273085 -0.061339970500674003 0 0.0011339103431605817 -0.061299876219635258 0 0.0053703802786544772 -0.057186197581604627 0 0.0037545987437394074 -0.05779680711019089 0 0.0032428758106760008 -0.059315338059418875 0 0.0030895107442352422 -0.058749879462026658 0 0.0022802595356652753 -0.059779634120432169 0 0.0053703802786544772 -0.057186197581604627 0 0.0037545987437394074 -0.05779680711019089 0 0.0044118038326553238 -0.056272295215652621 0 0.0037545987437394074 -0.05779680711019089 0 0.0031240260873980907 -0.056281296583585522 0 0.0044118038326553238 -0.056272295215652621 0 0.0038839239193222902 -0.044295802050237323 0 0.0048239556651798778 -0.041605913943745951 0 0.0031240260873980907 -0.056281296583585522 0 0.0048905392832048885 -0.05499192559726411 0 0.0054835685725469494 -0.052800651234688675 0 0.0037589034719752849 -0.032157988610983165 0 0.0040441607225371332 -0.031759978508104331 0 0.0037712322625473803 -0.031853140417879532 0 0.0031240260873980907 -0.056281296583585522 0 0.0044118038326553238 -0.056272295215652621 0 0.0048905392832048885 -0.05499192559726411 0 0.0053703802786544772 -0.057186197581604627 0 0.0044118038326553238 -0.056272295215652621 0 0.0048905392832048885 -0.05499192559726411 0 0.0076392860227835133 -0.054871133882730086 0 0.0053703802786544772 -0.057186197581604627 0 0.0048905392832048885 -0.05499192559726411 0 0.0076392860227835133 -0.054871133882730086 0 0.0048905392832048885 -0.05499192559726411 0 0.0058445673376051662 -0.054001876286344404 0 0.0041393178376086439 -0.057231569619231155 0 0.0021547000144423525 -0.060264626910388551 0 0.0041393178376086439 -0.057231569619231155 0 0.0030895107442352422 -0.058749879462026658 0 0.0076392860227835133 -0.054871133882730086 0 0.0065796993829013595 -0.053333938293964732 0 0.0077811361305226328 -0.052744789043179911 0 0.0076392860227835133 -0.054871133882730086 0 0.0065796993829013595 -0.053333938293964732 0 0.0058445673376051662 -0.054001876286344404 0 0.0065796993829013595 -0.053333938293964732 0 0.0058445673376051662 -0.054001876286344404 0 0.0054835685725469494 -0.052800651234688675 0 0.0048905392832048885 -0.05499192559726411 0 0.0058445673376051662 -0.054001876286344404 0 0.0054835685725469494 -0.052800651234688675 0 0.0065796993829013595 -0.053333938293964732 0 0.0054835685725469494 -0.052800651234688675 0 0.0064083995571396933 -0.05222193309180681 0 0.0065796993829013595 -0.053333938293964732 0 0.0064083995571396933 -0.05222193309180681 0 0.0077811361305226328 -0.052744789043179911 0 0.0064083995571396933 -0.05222193309180681 0 0.0075424796323708514 -0.051976570205880153 0 0.0077811361305226328 -0.052744789043179911 0 0.0040441607225371332 -0.031759978508104331 0 0.0037712322625473803 -0.031853140417879532 0 0.0038992085529550875 -0.031683334787059106 0 0.0040441607225371332 -0.031759978508104331 0 0.0038992085529550875 -0.031683334787059106 0 0.0040345025530145904 -0.031575611873179268 0 0.0037712322625473803 -0.031853140417879532 0 0.0038992085529550875 -0.031683334787059106 0 0.0037621529866286659 -0.031680180720326828 0 0.0038703367831566002 -0.031562158688664285 0 0.0036725334553217959 -0.031564608610712273 0 0.0037401561408640024 -0.031430832116236311 0 0.0037621529866286659 -0.031680180720326828 0 0.0038703367831566002 -0.031562158688664285 0 0.0036725334553217959 -0.031564608610712273 0 0.0038992085529550875 -0.031683334787059106 0 0.0037621529866286659 -0.031680180720326828 0 0.0038703367831566002 -0.031562158688664285 0 0.0038992085529550875 -0.031683334787059106 0 0.0038703367831566002 -0.031562158688664285 0 0.0040345025530145904 -0.031575611873179268 0 0.0038703367831566002 -0.031562158688664285 0 0.0040345025530145904 -0.031575611873179268 0 0.0040273688281655205 -0.031430916879737883 0 0.0038703367831566002 -0.031562158688664285 0 0.0038743753120289459 -0.031381541140142757 0 0.0040273688281655205 -0.031430916879737883 0 0.0038703367831566002 -0.031562158688664285 0 0.0038743753120289459 -0.031381541140142757 0 0.0037401561408640024 -0.031430832116236311 0 0.0043444036413943302 -0.031371599424792937 0 0.0040345025530145904 -0.031575611873179268 0 0.0040273688281655205 -0.031430916879737883 0 0.0069285557855948447 -0.036928747177238354 0 0.0048239556651798778 -0.041605913943745951 0 0.0043444036413943302 -0.031371599424792937 0 0.0040441607225371332 -0.031759978508104331 0 0.0040345025530145904 -0.031575611873179268 0 0.0064083995571396933 -0.05222193309180681 0 0.0083332992795287931 -0.04958102494852127 0 0.0078137669877525132 -0.051239450989965039 0 0.0082064798397271134 -0.048977065546455895 0 0.0054835685725469494 -0.052800651234688675 0 0.0064083995571396933 -0.05222193309180681 0 0.005484660640934 -0.043942374215709415 0 0.0078615510991674638 -0.038639183838652162 0 0.0064083995571396933 -0.05222193309180681 0 0.0075424796323708514 -0.051976570205880153 0 0.0078137669877525132 -0.051239450989965039 0 0.0083332992795287931 -0.04958102494852127 0 0.0085381986340623654 -0.050557388549409138 0 0.0078137669877525132 -0.051239450989965039 0 0.0082064798397271134 -0.048977065546455895 0 0.0064083995571396933 -0.05222193309180681 0 0.0085784082525046101 -0.049147110299035096 0 0.0083332992795287931 -0.04958102494852127 0 0.0085381986340623654 -0.050557388549409138 0 0.0089404551727350397 -0.050210084478823684 0 0.008167102532697498 -0.051702944365197422 0 0.0094814526157394191 -0.050847347566669136 0 0.0077811361305226328 -0.052744789043179911 0 0.0085381986340623654 -0.050557388549409138 0 0.0078137669877525132 -0.051239450989965039 0 0.0085546369308272755 -0.051136484030940739 0 0.0078137669877525132 -0.051239450989965039 0 0.0085546369308272755 -0.051136484030940739 0 0.008167102532697498 -0.051702944365197422 0 0.0075424796323708514 -0.051976570205880153 0 0.0078137669877525132 -0.051239450989965039 0 0.008167102532697498 -0.051702944365197422 0 0.0085546369308272755 -0.051136484030940739 0 0.008167102532697498 -0.051702944365197422 0 0.0094814526157394191 -0.050847347566669136 0 0.0085546369308272755 -0.051136484030940739 0 0.0089032260557894861 -0.050787421304931586 0 0.0094814526157394191 -0.050847347566669136 0 0.0085381986340623654 -0.050557388549409138 0 0.0085546369308272755 -0.051136484030940739 0 0.0089032260557894861 -0.050787421304931586 0 0.0089032260557894861 -0.050787421304931586 0 0.0094814526157394191 -0.050847347566669136 0 0.0090928407761992677 -0.050481722115502545 0 0.0081273662527104138 -0.049423838578995294 0 0.0094726798473984755 -0.049455614606617314 0 0.0098037622121053981 -0.050216159752033203 0 0.0083332992795287931 -0.04958102494852127 0 0.0089404551727350397 -0.050210084478823684 0 0.0098037622121053981 -0.050216159752033203 0 0.0090928407761992677 -0.050481722115502545 0 0.0089404551727350397 -0.050210084478823684 0 0.0098037622121053981 -0.050216159752033203 0 0.0094814526157394191 -0.050847347566669136 0 0.0090928407761992677 -0.050481722115502545 0 0.0098037622121053981 -0.050216159752033203 0 0.0078615510991674638 -0.038639183838652162 0 0.0086449186053304504 -0.03952359770135716 0 0.0085381986340623654 -0.050557388549409138 0 0.0090928407761992677 -0.050481722115502545 0 0.0089404551727350397 -0.050210084478823684 0 0.0085381986340623654 -0.050557388549409138 0 0.0089032260557894861 -0.050787421304931586 0 0.0090928407761992677 -0.050481722115502545 0 0.01320134329837655 -0.049342374027924518 0 0.011007209155823948 -0.050288657497694456 0 0.010286617613163199 -0.052289746176714225 0 0.010296975789284495 -0.049340173195021944 0 0.0094726798473984755 -0.049455614606617314 0 0.0098037622121053981 -0.050216159752033203 0 0.01129288939744748 -0.049007629794998793 0 0.010296975789284495 -0.049340173195021944 0 0.011007209155823948 -0.050288657497694456 0 0.0013161954117134876 -0.060022064232277489 0 0.0012448926245484395 -0.060258453406492461 0 0.0010752897927112767 -0.060304310674664977 0 0.010296975789284495 -0.049340173195021944 0 0.011007209155823948 -0.050288657497694456 0 0.0098037622121053981 -0.050216159752033203 0 0.0048299967698149631 -0.052748379981532617 0 0.0047355722377204427 -0.055305079907206581 0 0.0094814526157394191 -0.050847347566669136 0 0.0098037622121053981 -0.050216159752033203 0 0.010141972079389517 -0.050906241956761952 0 0.011007209155823948 -0.050288657497694456 0 0.0098037622121053981 -0.050216159752033203 0 0.010141972079389517 -0.050906241956761952 0 0.01129288939744748 -0.049007629794998793 0 0.01320134329837655 -0.049342374027924518 0 0.011007209155823948 -0.050288657497694456 0 0.011007209155823948 -0.050288657497694456 0 0.010141972079389517 -0.050906241956761952 0 0.010286617613163199 -0.052289746176714225 0 0.0094814526157394191 -0.050847347566669136 0 0.010141972079389517 -0.050906241956761952 0 0.010286617613163199 -0.052289746176714225 0 0.0012448926245484395 -0.060258453406492461 0 0.0010752897927112767 -0.060304310674664977 0 0.001225102571749603 -0.060439932354517577 0 0.0010731715019349731 -0.06055837179220127 0 0.0010752897927112767 -0.060304310674664977 0 0.001225102571749603 -0.060439932354517577 0 0.0072210591557722971 -0.0553095116147291 0 0.0094814526157394191 -0.050847347566669136 0 0.010286617613163199 -0.052289746176714225 0 0.0041393178376086439 -0.057231569619231155 0 0.0047355722377204427 -0.055305079907206581 0 0.0010731715019349731 -0.06055837179220127 0 0.00089035264050589828 -0.060629500777173044 0 0.0010752897927112767 -0.060304310674664977 0 0.0041393178376086439 -0.057231569619231155 0 0.0067649967879035459 -0.05321618283893053 0 0.0076392860227835133 -0.054871133882730086 0 0.0094814526157394191 -0.050847347566669136 0 0.0077811361305226328 -0.052744789043179911 0 0.0075424796323708514 -0.051976570205880153 0 0.008167102532697498 -0.051702944365197422 0 0.0077811361305226328 -0.052744789043179911 0 5.0039290908795837e-09 -0.064999997081596553 0 2.8342166887451881e-06 -0.06499771981670123 0 2.0572762304822539e-09 -0.064999994593900767 0 2.7055040348322668e-06 -0.06499765358494905 0 2.8342166887451881e-06 -0.06499771981670123 0 2.0572762304822539e-09 -0.064999994593900767 0 2.7055040348322668e-06 -0.06499765358494905 0 7.4450822068491447e-06 -0.064996253525837294 0 1.1549360911825891e-05 -0.064994323324318121 0 2.7055040348322668e-06 -0.06499765358494905 0 7.4450822068491447e-06 -0.064996253525837294 0 2.8342166887451881e-06 -0.06499771981670123 0 6.0010780152138686e-06 -0.064994863220228113 0 2.8342166887451881e-06 -0.06499771981670123 0 1.4425226404388877e-06 -0.064993134022527668 0 7.4450822068491447e-06 -0.064996253525837294 0 6.0010780152138686e-06 -0.064994863220228113 0 2.8342166887451881e-06 -0.06499771981670123 0 5.0039290908795837e-09 -0.064999997081596553 0 2.8342166887451881e-06 -0.06499771981670123 0 1.4425226404388877e-06 -0.064993134022527668 0 5.0039290908795837e-09 -0.064999997081596553 0 1.7514012965338808e-06 -0.064989185821250073 0 2.9515839220836584e-09 -0.064999970757958075 0 5.0039290908795837e-09 -0.064999997081596553 0 1.7514012965338808e-06 -0.064989185821250073 0 1.4425226404388877e-06 -0.064993134022527668 0 9.873313095703306e-07 -0.064980517200220744 0 1.7514012965338808e-06 -0.064989185821250073 0 2.9515839220836584e-09 -0.064999970757958075 0 9.873313095703306e-07 -0.064980517200220744 0 1.7514012965338808e-06 -0.064989185821250073 0 -2.77433618090051e-07 -0.064973896781948204 0 -2.77433618090051e-07 -0.064973896781948204 0 1.4425226404388877e-06 -0.064993134022527668 0 -3.5809240148181859e-06 -0.064967291436058575 0 6.0010780152138686e-06 -0.064994863220228113 0 1.4425226404388877e-06 -0.064993134022527668 0 1.4015575564584927e-05 -0.064998757568061588 0 1.7514012965338808e-06 -0.064989185821250073 0 -2.77433618090051e-07 -0.064973896781948204 0 1.4425226404388877e-06 -0.064993134022527668 0 1.7855820480042503e-05 -0.06494169039512579 0 2.2002713245667755e-05 -0.064929897955717075 0 6.0010780152138686e-06 -0.064994863220228113 0 1.4015575564584927e-05 -0.064998757568061588 0 2.6712970323297149e-05 -0.064990377350419945 0 -2.2942206127355924e-06 -0.064953914841516455 0 -2.77433618090051e-07 -0.064973896781948204 0 -3.2308708674539708e-06 -0.064959842402134177 0 -3.5809240148181859e-06 -0.064967291436058575 0 -3.2308708674539708e-06 -0.064959842402134177 0 -6.4562348236539898e-06 -0.0649438844892362 0 -2.2942206127355924e-06 -0.064953914841516455 0 -3.2308708674539708e-06 -0.064959842402134177 0 -6.4562348236539898e-06 -0.0649438844892362 0 -2.77433618090051e-07 -0.064973896781948204 0 -3.5809240148181859e-06 -0.064967291436058575 0 -3.2308708674539708e-06 -0.064959842402134177 0 -6.4562348236539898e-06 -0.0649438844892362 0 -1.3609830136084442e-05 -0.064945120766143602 0 -1.6491147057561094e-05 -0.064928373794787261 0 -1.5202937819925544e-05 -0.064911209157217639 0 -6.4562348236539898e-06 -0.0649438844892362 0 -1.6491147057561094e-05 -0.064928373794787261 0 2.2002713245667755e-05 -0.064929897955717075 0 3.9421222131061823e-05 -0.064892553903803885 0 2.6712970323297149e-05 -0.064990377350419945 0 4.4455291366243375e-05 -0.064982001831241448 0 3.8686007539488919e-05 -0.06499980520747603 0 1.4015575564584927e-05 -0.064998757568061588 0 2.6712970323297149e-05 -0.064990377350419945 0 3.8686007539488919e-05 -0.06499980520747603 0 -3.5809240148181859e-06 -0.064967291436058575 0 -6.4562348236539898e-06 -0.0649438844892362 0 -1.3609830136084442e-05 -0.064945120766143602 0 2.871884936747957e-05 -0.064973941453253456 0 2.6712970323297149e-05 -0.064990377350419945 0 4.4455291366243375e-05 -0.064982001831241448 0 -0.00011086162694273883 -0.064652604610157371 0 -8.4185744489785001e-05 -0.064482319506468905 0 6.0010780152138686e-06 -0.064994863220228113 0 2.871884936747957e-05 -0.064973941453253456 0 2.6712970323297149e-05 -0.064990377350419945 0 7.4450822068491447e-06 -0.064996253525837294 0 6.0010780152138686e-06 -0.064994863220228113 0 2.0415384480703165e-05 -0.064998778109299049 0 7.4450822068491447e-06 -0.064996253525837294 0 2.0415384480703165e-05 -0.064998778109299049 0 1.1549360911825891e-05 -0.064994323324318121 0 2.0415384480703165e-05 -0.064998778109299049 0 3.3286470606496934e-05 -0.064987465483019188 0 2.5623982412204699e-05 -0.064989150140790458 0 2.0415384480703165e-05 -0.064998778109299049 0 1.9102708115678454e-05 -0.06499168504595515 0 2.5623982412204699e-05 -0.064989150140790458 0 2.0415384480703165e-05 -0.064998778109299049 0 1.1549360911825891e-05 -0.064994323324318121 0 1.9102708115678454e-05 -0.06499168504595515 0 2.871884936747957e-05 -0.064973941453253456 0 5.9644912571958708e-05 -0.064953901330124506 0 4.8848834267678375e-05 -0.06497227519722383 0 -8.4185744489785001e-05 -0.064482319506468905 0 0.00034364234288698065 -0.063673171012270754 0 2.0415384480703165e-05 -0.064998778109299049 0 4.1144613925849026e-05 -0.064990355497686808 0 3.3286470606496934e-05 -0.064987465483019188 0 5.9644912571958708e-05 -0.064953901330124506 0 6.2865095056237663e-05 -0.064979325477881891 0 4.8848834267678375e-05 -0.06497227519722383 0 0.0008008583242864937 -0.062914380645933243 0 0.0010124755221754913 -0.06223794377074085 0 0.00034364234288698065 -0.063673171012270754 0 0.00021849147896081374 -0.064533088338173158 0 -8.9851326591196325e-05 -0.064815500071315646 0 -7.5640746191273011e-05 -0.064808352265782784 0 -8.3574172589635031e-05 -0.06487052213034436 0 -7.5640746191273011e-05 -0.064808352265782784 0 -8.3574172589635031e-05 -0.06487052213034436 0 -4.9649955040827284e-05 -0.064867369515447443 0 0.00034364234288698065 -0.063673171012270754 0 0.0008008583242864937 -0.062914380645933243 0 -8.3574172589635031e-05 -0.06487052213034436 0 -6.0340963765007689e-05 -0.064894214211960385 0 -4.9649955040827284e-05 -0.064867369515447443 0 6.2865095056237663e-05 -0.064979325477881891 0 4.8848834267678375e-05 -0.06497227519722383 0 4.4455291366243375e-05 -0.064982001831241448 0 6.2865095056237663e-05 -0.064979325477881891 0 4.4455291366243375e-05 -0.064982001831241448 0 5.3217161801712926e-05 -0.064989826662745845 0 2.871884936747957e-05 -0.064973941453253456 0 4.8848834267678375e-05 -0.06497227519722383 0 4.4455291366243375e-05 -0.064982001831241448 0 4.4455291366243375e-05 -0.064982001831241448 0 5.3217161801712926e-05 -0.064989826662745845 0 3.8686007539488919e-05 -0.06499980520747603 0 -1.3609830136084442e-05 -0.064945120766143602 0 -2.5858496564105487e-05 -0.064927653969009236 0 -4.0563745267840745e-05 -0.064928695864778022 0 3.9421222131061823e-05 -0.064892553903803885 0 0.0001002028811551605 -0.064818769102710352 0 5.3217161801712926e-05 -0.064989826662745845 0 3.8686007539488919e-05 -0.06499980520747603 0 6.614938092584678e-05 -0.065002246484876874 0 -1.3609830136084442e-05 -0.064945120766143602 0 -1.6491147057561094e-05 -0.064928373794787261 0 -2.5858496564105487e-05 -0.064927653969009236 0 -1.6491147057561094e-05 -0.064928373794787261 0 -2.5858496564105487e-05 -0.064927653969009236 0 -2.7149712057875432e-05 -0.064913027522954109 0 -1.5202937819925544e-05 -0.064911209157217639 0 -1.6491147057561094e-05 -0.064928373794787261 0 -2.7149712057875432e-05 -0.064913027522954109 0 -3.1606422339229793e-05 -0.064889316700407956 0 -2.7149712057875432e-05 -0.064913027522954109 0 -4.1567970758235539e-05 -0.064903130640087292 0 -2.7149712057875432e-05 -0.064913027522954109 0 -4.1567970758235539e-05 -0.064903130640087292 0 -4.2872021813386836e-05 -0.064916189049301132 0 -2.5858496564105487e-05 -0.064927653969009236 0 -4.2872021813386836e-05 -0.064916189049301132 0 -4.0563745267840745e-05 -0.064928695864778022 0 -2.5858496564105487e-05 -0.064927653969009236 0 -2.7149712057875432e-05 -0.064913027522954109 0 -4.2872021813386836e-05 -0.064916189049301132 0 -4.1567970758235539e-05 -0.064903130640087292 0 -4.2872021813386836e-05 -0.064916189049301132 0 -5.3087039890235112e-05 -0.064904527609985496 0 0.00021849147896081374 -0.064533088338173158 0 0.0001002028811551605 -0.064818769102710352 0 -4.2872021813386836e-05 -0.064916189049301132 0 -4.3301003908520051e-05 -0.064919668931648633 0 -5.6151538712277815e-05 -0.064912194170255816 0 -7.4609606466841783e-05 -0.06491169510862381 0 -6.0340963765007689e-05 -0.064894214211960385 0 -5.6151538712277815e-05 -0.064912194170255816 0 0.0001002028811551605 -0.064818769102710352 0 8.2909465471874954e-05 -0.064820423964200957 0 -8.3574172589635031e-05 -0.06487052213034436 0 -7.4609606466841783e-05 -0.06491169510862381 0 -6.0340963765007689e-05 -0.064894214211960385 0 6.2865095056237663e-05 -0.064979325477881891 0 5.3217161801712926e-05 -0.064989826662745845 0 6.614938092584678e-05 -0.065002246484876874 0 9.8602877730950099e-05 -0.064823364285996082 0 0.0001002028811551605 -0.064818769102710352 0 -6.0340963765007689e-05 -0.064894214211960385 0 -5.7034184532381986e-05 -0.064910342071437407 0 -4.9649955040827284e-05 -0.064867369515447443 0 -6.0340963765007689e-05 -0.064894214211960385 0 -5.6151538712277815e-05 -0.064912194170255816 0 -5.7034184532381986e-05 -0.064910342071437407 0 0.0010296614486803187 -0.061734074442637427 0 0.0010124755221754913 -0.06223794377074085 0 -5.6151538712277815e-05 -0.064912194170255816 0 -6.3530007474406968e-05 -0.064901138369212283 0 -5.3087039890235112e-05 -0.064904527609985496 0 -4.2872021813386836e-05 -0.064916189049301132 0 -5.6151538712277815e-05 -0.064912194170255816 0 -5.3087039890235112e-05 -0.064904527609985496 0 -5.6151538712277815e-05 -0.064912194170255816 0 -6.3530007474406968e-05 -0.064901138369212283 0 -5.7034184532381986e-05 -0.064910342071437407 0 -5.3651259353974425e-05 -0.064890409071650695 0 -4.1567970758235539e-05 -0.064903130640087292 0 -5.3087039890235112e-05 -0.064904527609985496 0 -5.3651259353974425e-05 -0.064890409071650695 0 -6.3530007474406968e-05 -0.064901138369212283 0 -5.3087039890235112e-05 -0.064904527609985496 0 0.00096915622991233536 -0.061323036832606516 0 0.0010296614486803187 -0.061734074442637427 0 -6.3530007474406968e-05 -0.064901138369212283 0 -0.0001059986233725464 -0.064889432783985207 0 -5.7034184532381986e-05 -0.064910342071437407 0 0.002098190042510354 -0.057664429603050064 0 0.0022671240725209377 -0.058114311220005065 0 0.0025045361506336704 -0.058298229668189414 0 -7.523325717648359e-05 -0.064874307705255388 0 -6.3530007474406968e-05 -0.064901138369212283 0 -0.0001059986233725464 -0.064889432783985207 0 0.001974060729155314 -0.0580418367456529 0 0.002098190042510354 -0.057664429603050064 0 0.0022671240725209377 -0.058114311220005065 0 0.0022671240725209377 -0.058114311220005065 0 0.0021176945442580226 -0.058235998811358491 0 0.0022596261274353976 -0.058472992485834457 0 0.0022671240725209377 -0.058114311220005065 0 0.0022596261274353976 -0.058472992485834457 0 0.0026847029461937251 -0.058828841213533441 0 0.0022671240725209377 -0.058114311220005065 0 0.0025045361506336704 -0.058298229668189414 0 0.0026544124703910313 -0.059026484978196604 0 0.001974060729155314 -0.0580418367456529 0 0.0022671240725209377 -0.058114311220005065 0 0.0021176945442580226 -0.058235998811358491 0 0.0016354555927862138 -0.059128682457784486 0 0.0016057402995593114 -0.059874754690324959 0 0.0019709317535461595 -0.058316661667106529 0 0.0021176945442580226 -0.058235998811358491 0 0.0022596261274353976 -0.058472992485834457 0 0.0019885638974511404 -0.058614450326831984 0 0.0022596261274353976 -0.058472992485834457 0 0.0022958042853954172 -0.058787734772467765 0 0.0019885638974511404 -0.058614450326831984 0 0.0022958042853954172 -0.058787734772467765 0 0.002119598149823669 -0.058953241071524762 0 0.0022958042853954172 -0.058787734772467765 0 0.002119598149823669 -0.058953241071524762 0 0.0024408163879496461 -0.059080560196259818 0 0.0022958042853954172 -0.058787734772467765 0 0.0026847029461937251 -0.058828841213533441 0 0.0024408163879496461 -0.059080560196259818 0 0.0022596261274353976 -0.058472992485834457 0 0.0022958042853954172 -0.058787734772467765 0 0.0026847029461937251 -0.058828841213533441 0 0.0025045361506336704 -0.058298229668189414 0 0.0029402541631715451 -0.059055467698198798 0 0.0026544124703910313 -0.059026484978196604 0 0.0016057402995593114 -0.059874754690324959 0 0.0013588965049072504 -0.062356472003976413 0 0.0026847029461937251 -0.058828841213533441 0 0.0029309137252111761 -0.059447163759529999 0 0.0024408163879496461 -0.059080560196259818 0 0.003414453859228431 -0.059858725447987524 0 0.0026544124703910313 -0.059026484978196604 0 0.0031086511664432195 -0.060013831053278704 0 0.0029309137252111761 -0.059447163759529999 0 0.0024945934109194727 -0.0594077532632908 0 0.0024408163879496461 -0.059080560196259818 0 0.0026847029461937251 -0.058828841213533441 0 0.0029309137252111761 -0.059447163759529999 0 0.0031561171053352838 -0.059744852427624763 0 0.003414453859228431 -0.059858725447987524 0 0.0029402541631715451 -0.059055467698198798 0 0.0026544124703910313 -0.059026484978196604 0 0.0029309137252111761 -0.059447163759529999 0 0.0027062364991242063 -0.059557816999886395 0 0.0024945934109194727 -0.0594077532632908 0 0.0029309137252111761 -0.059447163759529999 0 0.0027062364991242063 -0.059557816999886395 0 0.0029861332026098713 -0.059851894994273999 0 0.0027062364991242063 -0.059557816999886395 0 0.0024945934109194727 -0.0594077532632908 0 0.0027146225003037293 -0.059842235789442977 0 0.0024945934109194727 -0.0594077532632908 0 0.0020882463132121626 -0.059437773768676073 0 0.0027146225003037293 -0.059842235789442977 0 0.002119598149823669 -0.058953241071524762 0 0.0020882463132121626 -0.059437773768676073 0 0.0024408163879496461 -0.059080560196259818 0 0.0024945934109194727 -0.0594077532632908 0 0.0020882463132121626 -0.059437773768676073 0 0.0024408163879496461 -0.059080560196259818 0 0.0023333643967274262 -0.059743018789540588 0 0.002559544532189944 -0.059972695515459175 0 0.0024229765619146184 -0.060077031188572362 0 0.0033269123867216881 -0.056648741351170241 0 0.0033933390499166147 -0.057196195623500951 0 0.0023333643967274262 -0.059743018789540588 0 0.002559544532189944 -0.059972695515459175 0 0.0027146225003037293 -0.059842235789442977 0 0.002559544532189944 -0.059972695515459175 0 0.0027479450697334407 -0.059954263353003592 0 0.0026092312704800369 -0.060266059605615506 0 0.002559544532189944 -0.059972695515459175 0 0.0024229765619146184 -0.060077031188572362 0 0.0026092312704800369 -0.060266059605615506 0 0.002559544532189944 -0.059972695515459175 0 0.0027146225003037293 -0.059842235789442977 0 0.0027479450697334407 -0.059954263353003592 0 0.0028757217655258176 -0.059890869859301366 0 0.0027479450697334407 -0.059954263353003592 0 0.0029319478165586322 -0.060403676554948299 0 0.0027062364991242063 -0.059557816999886395 0 0.0027146225003037293 -0.059842235789442977 0 0.0029861332026098713 -0.059851894994273999 0 0.0027146225003037293 -0.059842235789442977 0 0.0029861332026098713 -0.059851894994273999 0 0.0027479450697334407 -0.059954263353003592 0 0.0014254962995165592 -0.062318135708385604 0 0.001563591281551016 -0.062216479984504094 0 0.0014509712329141698 -0.06191456541136698 0 0.0014254962995165592 -0.062318135708385604 0 0.0029309137252111761 -0.059447163759529999 0 0.0031561171053352838 -0.059744852427624763 0 0.0029873592560539959 -0.059831500035026949 0 0.0013588965049072504 -0.062356472003976413 0 0.0014254962995165592 -0.062318135708385604 0 0.0027479450697334407 -0.059954263353003592 0 0.0029319478165586322 -0.060403676554948299 0 0.0026092312704800369 -0.060266059605615506 0 0.0014254962995165592 -0.062318135708385604 0 0.0013929989964838014 -0.062671547008697343 0 0.0029319478165586322 -0.060403676554948299 0 0.0026092312704800369 -0.060266059605615506 0 0.0027192395673351537 -0.060627668724747605 0 0.0024229765619146184 -0.060077031188572362 0 0.0026092312704800369 -0.060266059605615506 0 0.0023713111817066992 -0.060299273161152099 0 0.002202363724654354 -0.060156714635147213 0 0.0024229765619146184 -0.060077031188572362 0 0.0023713111817066992 -0.060299273161152099 0 0.002188222882020184 -0.060425334433863574 0 0.0023713111817066992 -0.060299273161152099 0 0.0024409911566958585 -0.060570303474656161 0 0.0026092312704800369 -0.060266059605615506 0 0.0023713111817066992 -0.060299273161152099 0 0.0024409911566958585 -0.060570303474656161 0 0.0026092312704800369 -0.060266059605615506 0 0.0024409911566958585 -0.060570303474656161 0 0.0027192395673351537 -0.060627668724747605 0 0.0024409911566958585 -0.060570303474656161 0 0.0025203715905779385 -0.060817022636596892 0 0.0027192395673351537 -0.060627668724747605 0 0.0022818913837710153 -0.060858760020889281 0 0.0024409911566958585 -0.060570303474656161 0 0.0025203715905779385 -0.060817022636596892 0 0.0022818913837710153 -0.060858760020889281 0 0.0025203715905779385 -0.060817022636596892 0 0.002501616344141516 -0.061046687702310677 0 0.0025203715905779385 -0.060817022636596892 0 0.002501616344141516 -0.061046687702310677 0 0.0027405528345343447 -0.060860083042391946 0 0.0027640093638693648 -0.06104298405857999 0 0.0027405528345343447 -0.060860083042391946 0 0.0029770662612183503 -0.060898979710443883 0 0.0027640093638693648 -0.06104298405857999 0 0.0029770662612183503 -0.060898979710443883 0 0.003001623457920953 -0.061073245138811363 0 0.002501616344141516 -0.061046687702310677 0 0.0027640093638693648 -0.06104298405857999 0 0.0027405528345343447 -0.060860083042391946 0 0.0025203715905779385 -0.060817022636596892 0 0.0027405528345343447 -0.060860083042391946 0 0.0027192395673351537 -0.060627668724747605 0 0.0027405528345343447 -0.060860083042391946 0 0.0027192395673351537 -0.060627668724747605 0 0.0029907437213685059 -0.0609005996427881 0 0.001627525874743817 -0.06313270091779298 0 0.0013812986613408985 -0.063248282883008183 0 0.0029319478165586322 -0.060403676554948299 0 0.0027192395673351537 -0.060627668724747605 0 0.0029907437213685059 -0.0609005996427881 0 0.0013929989964838014 -0.062671547008697343 0 0.0013812986613408985 -0.063248282883008183 0 -0.00012933409040802484 -0.064802406943238355 0 -4.284835185141017e-05 -0.064838976102482529 0 -3.9709838405855262e-05 -0.064914776542969913 0 -0.00012933409040802484 -0.064802406943238355 0 -3.9709838405855262e-05 -0.064914776542969913 0 -7.778950702279095e-05 -0.064993625490923301 0 -4.284835185141017e-05 -0.064838976102482529 0 -1.4156222766018643e-06 -0.064873169549020393 0 -3.9709838405855262e-05 -0.064914776542969913 0 -1.4156222766018643e-06 -0.064873169549020393 0 6.6473773884613522e-05 -0.064766202815893306 0 9.3044091583776005e-07 -0.064814196406460259 0 -4.284835185141017e-05 -0.064838976102482529 0 -1.4156222766018643e-06 -0.064873169549020393 0 9.3044091583776005e-07 -0.064814196406460259 0 -1.4156222766018643e-06 -0.064873169549020393 0 -3.9709838405855262e-05 -0.064914776542969913 0 3.1351277125640603e-05 -0.064955760889127107 0 -3.9709838405855262e-05 -0.064914776542969913 0 -7.778950702279095e-05 -0.064993625490923301 0 1.4140300192946966e-05 -0.064988314270948672 0 -3.9709838405855262e-05 -0.064914776542969913 0 1.4140300192946966e-05 -0.064988314270948672 0 3.1351277125640603e-05 -0.064955760889127107 0 0.0013812986613408985 -0.063248282883008183 0 0.00070815701091495075 -0.063781898998528305 0 0.00034903400693794156 -0.064871898477357776 0 0.00045082974879717924 -0.064810362654229361 0 0.00039157979668551441 -0.064745841744143579 0 0.00070815701091495075 -0.063781898998528305 0 0.0013250797180833569 -0.063366371840566038 0 0.0012402221925603024 -0.063430916330961373 0 0.0014815085056850228 -0.063466922560587974 0 0.0012651113215418055 -0.063608358682038166 0 0.0013812986613408985 -0.063248282883008183 0 0.0013250797180833569 -0.063366371840566038 0 1.4140300192946966e-05 -0.064988314270948672 0 3.1351277125640603e-05 -0.064955760889127107 0 3.6062383775979787e-05 -0.064964210068745712 0 0.00070815701091495075 -0.063781898998528305 0 0.00022792875366879319 -0.064410389563661324 0 0.00034903400693794156 -0.064871898477357776 0 0.00012923777673645069 -0.064842468514169763 0 0.00022397357958490893 -0.064739562170046241 0 0.00070815701091495075 -0.063781898998528305 0 0.00015865133294683996 -0.064305510574795527 0 4.3937648118402835e-05 -0.064957457235284635 0 3.6062383775979787e-05 -0.064964210068745712 0 3.0782164476604284e-05 -0.064962042405216344 0 -1.4156222766018643e-06 -0.064873169549020393 0 3.1351277125640603e-05 -0.064955760889127107 0 6.6473773884613522e-05 -0.064766202815893306 0 0.00048297981837435816 -0.064527959853664246 0 0.0005146296455223572 -0.064368140173503799 0 3.1351277125640603e-05 -0.064955760889127107 0 3.4050902713801253e-05 -0.06496703848259594 0 3.6062383775979787e-05 -0.064964210068745712 0 3.1351277125640603e-05 -0.064955760889127107 0 3.4050902713801253e-05 -0.06496703848259594 0 4.0272053366906221e-05 -0.064971032267918533 0 3.4050902713801253e-05 -0.06496703848259594 0 3.481113316723132e-05 -0.064972633334753824 0 2.7542445528284697e-05 -0.064978716910142245 0 3.9035222584236153e-05 -0.064978482112214644 0 4.0272053366906221e-05 -0.064971032267918533 0 4.0861334675202516e-05 -0.064981031211951867 0 3.4050902713801253e-05 -0.06496703848259594 0 3.481113316723132e-05 -0.064972633334753824 0 4.0272053366906221e-05 -0.064971032267918533 0 0.0005146296455223572 -0.064368140173503799 0 0.00060272561867877686 -0.063791582646264916 0 3.5030062201432761e-05 -0.064976325132104301 0 3.2086740492944995e-05 -0.064982368664742121 0 2.7542445528284697e-05 -0.064978716910142245 0 3.481113316723132e-05 -0.064972633334753824 0 3.5030062201432761e-05 -0.064976325132104301 0 2.7542445528284697e-05 -0.064978716910142245 0 3.5030062201432761e-05 -0.064976325132104301 0 3.9035222584236153e-05 -0.064978482112214644 0 3.2086740492944995e-05 -0.064982368664742121 0 3.5030062201432761e-05 -0.064976325132104301 0 3.9035222584236153e-05 -0.064978482112214644 0 4.0272053366906221e-05 -0.064971032267918533 0 3.481113316723132e-05 -0.064972633334753824 0 3.5030062201432761e-05 -0.064976325132104301 0 4.0272053366906221e-05 -0.064971032267918533 0 9.3044091583776005e-07 -0.064814196406460259 0 -5.392291964366629e-05 -0.064761179147366635 0 -4.8992044518401885e-05 -0.064672356853306551 0 -0.00016816221800043898 -0.064541678145697431 0 -0.00012933409040802484 -0.064802406943238355 0 -4.8992044518401885e-05 -0.064672356853306551 0 6.6473773884613522e-05 -0.064766202815893306 0 9.3044091583776005e-07 -0.064814196406460259 0 -0.00012320900576954453 -0.064574333949106874 0 0.0011890067388620057 -0.063570851621038565 0 0.0012334409281932926 -0.063289751210286543 0 6.6473773884613522e-05 -0.064766202815893306 0 -0.00012320900576954453 -0.064574333949106874 0 3.416062924305512e-05 -0.064471685480902555 0 -4.284835185141017e-05 -0.064838976102482529 0 9.3044091583776005e-07 -0.064814196406460259 0 -5.392291964366629e-05 -0.064761179147366635 0 -0.00012933409040802484 -0.064802406943238355 0 -4.284835185141017e-05 -0.064838976102482529 0 -5.392291964366629e-05 -0.064761179147366635 0 -0.00012933409040802484 -0.064802406943238355 0 -5.392291964366629e-05 -0.064761179147366635 0 -4.8992044518401885e-05 -0.064672356853306551 0 -0.00012320900576954453 -0.064574333949106874 0 3.416062924305512e-05 -0.064471685480902555 0 -0.00011045809818505585 -0.064398379409845871 0 0.0013588965049072504 -0.062356472003976413 0 0.0012334409281932926 -0.063289751210286543 0 -0.00011919120701985912 -0.064516353743044347 0 -0.00016816221800043898 -0.064541678145697431 0 -4.8992044518401885e-05 -0.064672356853306551 0 -0.00025087061286437789 -0.064310351426049836 0 -0.00012320900576954453 -0.064574333949106874 0 -0.00011045809818505585 -0.064398379409845871 0 0.0008008583242864937 -0.062914380645933243 0 0.0013588965049072504 -0.062356472003976413 0 -0.00010297726520026843 -0.064236232773211166 0 -0.00025087061286437789 -0.064310351426049836 0 -0.00011045809818505585 -0.064398379409845871 0 0.0008008583242864937 -0.062914380645933243 0 0.00060272561867877686 -0.063791582646264916 0 0.00034364234288698065 -0.063673171012270754 0 0.00060272561867877686 -0.063791582646264916 0 -0.00010297726520026843 -0.064236232773211166 0 3.416062924305512e-05 -0.064471685480902555 0 -0.00011045809818505585 -0.064398379409845871 0 0.00069523172722877225 -0.062574963955581681 0 0.00029674973866399083 -0.062776117801005824 0 0.00087738513490226531 -0.063721052408502385 0 4.1144613925849026e-05 -0.064990355497686808 0 4.0139083653604541e-05 -0.064981207107316585 0 3.3286470606496934e-05 -0.064987465483019188 0 3.3286470606496934e-05 -0.064987465483019188 0 3.2086740492944995e-05 -0.064982368664742121 0 2.5623982412204699e-05 -0.064989150140790458 0 3.3286470606496934e-05 -0.064987465483019188 0 3.2086740492944995e-05 -0.064982368664742121 0 3.6085936686318486e-05 -0.064982309414928677 0 3.9035222584236153e-05 -0.064978482112214644 0 3.2086740492944995e-05 -0.064982368664742121 0 3.6085936686318486e-05 -0.064982309414928677 0 4.0139083653604541e-05 -0.064981207107316585 0 3.3286470606496934e-05 -0.064987465483019188 0 3.6085936686318486e-05 -0.064982309414928677 0 3.9035222584236153e-05 -0.064978482112214644 0 4.0139083653604541e-05 -0.064981207107316585 0 3.6085936686318486e-05 -0.064982309414928677 0 0.00060891791504407312 -0.063826393563453501 0 0.00060272561867877686 -0.063791582646264916 0 2.370660850406067e-05 -0.06498608696452414 0 1.538792128956194e-05 -0.064987902232053169 0 2.7542445528284697e-05 -0.064978716910142245 0 3.2086740492944995e-05 -0.064982368664742121 0 2.370660850406067e-05 -0.06498608696452414 0 2.5623982412204699e-05 -0.064989150140790458 0 3.2086740492944995e-05 -0.064982368664742121 0 2.370660850406067e-05 -0.06498608696452414 0 2.7542445528284697e-05 -0.064978716910142245 0 1.9102708115678454e-05 -0.06499168504595515 0 2.370660850406067e-05 -0.06498608696452414 0 2.5623982412204699e-05 -0.064989150140790458 0 1.9102708115678454e-05 -0.06499168504595515 0 2.370660850406067e-05 -0.06498608696452414 0 1.538792128956194e-05 -0.064987902232053169 0 1.1549360911825891e-05 -0.064994323324318121 0 1.9102708115678454e-05 -0.06499168504595515 0 1.538792128956194e-05 -0.064987902232053169 0 1.1549360911825891e-05 -0.064994323324318121 0 1.538792128956194e-05 -0.064987902232053169 0 7.6019443502316518e-06 -0.06499327277620609 0 1.538792128956194e-05 -0.064987902232053169 0 2.3824664504909876e-05 -0.064977398486334714 0 1.3254437072850474e-05 -0.064984674326197478 0 1.538792128956194e-05 -0.064987902232053169 0 2.7542445528284697e-05 -0.064978716910142245 0 2.3824664504909876e-05 -0.064977398486334714 0 3.4050902713801253e-05 -0.06496703848259594 0 2.7542445528284697e-05 -0.064978716910142245 0 2.3824664504909876e-05 -0.064977398486334714 0 3.4050902713801253e-05 -0.06496703848259594 0 2.3824664504909876e-05 -0.064977398486334714 0 3.6062383775979787e-05 -0.064964210068745712 0 2.3824664504909876e-05 -0.064977398486334714 0 3.6062383775979787e-05 -0.064964210068745712 0 2.2024528438093611e-05 -0.064973262983102326 0 3.6062383775979787e-05 -0.064964210068745712 0 3.0782164476604284e-05 -0.064962042405216344 0 2.2024528438093611e-05 -0.064973262983102326 0 0.00022792875366879319 -0.064410389563661324 0 5.1996895068722585e-05 -0.064753205046233137 0 3.0782164476604284e-05 -0.064962042405216344 0 2.2024528438093611e-05 -0.064973262983102326 0 1.0129206476248804e-05 -0.064978717514714832 0 1.3254437072850474e-05 -0.064984674326197478 0 2.2024528438093611e-05 -0.064973262983102326 0 1.0129206476248804e-05 -0.064978717514714832 0 2.3824664504909876e-05 -0.064977398486334714 0 1.3254437072850474e-05 -0.064984674326197478 0 2.2024528438093611e-05 -0.064973262983102326 0 1.3254437072850474e-05 -0.064984674326197478 0 5.6098332493198446e-06 -0.064992179235732167 0 1.0129206476248804e-05 -0.064978717514714832 0 1.1411603594279766e-10 -0.064999991728186005 0 5.6098332493198446e-06 -0.064992179235732167 0 1.0129206476248804e-05 -0.064978717514714832 0 1.1411603594279766e-10 -0.064999991728186005 0 4.5588653616163833e-09 -0.064999977098143855 0 1.0129206476248804e-05 -0.064978717514714832 0 1.1411603594279766e-10 -0.064999991728186005 0 5.6098332493198446e-06 -0.064992179235732167 0 8.4537483096096764e-09 -0.064999983194633459 0 4.5452341066166654e-09 -0.064999994332765557 0 3.2316448918211336e-06 -0.06499848094453152 0 5.6098332493198446e-06 -0.064992179235732167 0 8.4537483096096764e-09 -0.064999983194633459 0 7.6019443502316518e-06 -0.06499327277620609 0 1.538792128956194e-05 -0.064987902232053169 0 1.3254437072850474e-05 -0.064984674326197478 0 7.6019443502316518e-06 -0.06499327277620609 0 1.3254437072850474e-05 -0.064984674326197478 0 5.6098332493198446e-06 -0.064992179235732167 0 7.6019443502316518e-06 -0.06499327277620609 0 5.7686396054396547e-06 -0.064998783317134975 0 3.2316448918211336e-06 -0.06499848094453152 0 2.7055040348322668e-06 -0.06499765358494905 0 1.1549360911825891e-05 -0.064994323324318121 0 2.582109523518181e-06 -0.0649970301738233 0 5.6535352913649115e-11 -0.064999998280075841 0 2.582109523518181e-06 -0.0649970301738233 0 2.0572762304822539e-09 -0.064999994593900767 0 2.7055040348322668e-06 -0.06499765358494905 0 2.582109523518181e-06 -0.0649970301738233 0 2.0572762304822539e-09 -0.064999994593900767 0 4.387910476047367e-05 -0.064965237560640529 0 2.478367573288748e-08 -0.064999914175412607 0 2.916018955286621e-05 -0.064999551496286376 0 4.387910476047367e-05 -0.064965237560640529 0 9.1335461690496712e-05 -0.064990487281104473 0 2.916018955286621e-05 -0.064999551496286376 0 4.387910476047367e-05 -0.064965237560640529 0 3.4768294130521625e-05 -0.064953081832883605 0 6.7683024875488614e-05 -0.064916933016700665 0 4.387910476047367e-05 -0.064965237560640529 0 2.478367573288748e-08 -0.064999914175412607 0 3.4768294130521625e-05 -0.064953081832883605 0 0.00018562166052710466 -0.064936346285725491 0 9.1335461690496712e-05 -0.064990487281104473 0 0.00028965107796881948 -0.065047057260818442 0 0.00042174572403919764 -0.064767537342449347 0 7.7492752008038329e-05 -0.064833381178962715 0 9.1062210419564358e-05 -0.064866926292693361 0 4.387910476047367e-05 -0.064965237560640529 0 6.7683024875488614e-05 -0.064916933016700665 0 9.3111016720042231e-05 -0.064934881924621893 0 6.7683024875488614e-05 -0.064916933016700665 0 9.9717568674403555e-05 -0.06490033215252268 0 9.1062210419564358e-05 -0.064866926292693361 0 6.7683024875488614e-05 -0.064916933016700665 0 9.9717568674403555e-05 -0.06490033215252268 0 9.3111016720042231e-05 -0.064934881924621893 0 9.9717568674403555e-05 -0.06490033215252268 0 0.00016254144593397978 -0.064888077674172831 0 9.1062210419564358e-05 -0.064866926292693361 0 9.9717568674403555e-05 -0.06490033215252268 0 0.00016254144593397978 -0.064888077674172831 0 9.3111016720042231e-05 -0.064934881924621893 0 0.00016254144593397978 -0.064888077674172831 0 0.00018562166052710466 -0.064936346285725491 0 9.3111016720042231e-05 -0.064934881924621893 0 0.00018562166052710466 -0.064936346285725491 0 9.3111016720042231e-05 -0.064934881924621893 0 9.1335461690496712e-05 -0.064990487281104473 0 4.387910476047367e-05 -0.064965237560640529 0 9.3111016720042231e-05 -0.064934881924621893 0 9.1335461690496712e-05 -0.064990487281104473 0 9.7962057063410808e-05 -0.064835369119752989 0 0.00022125615254013661 -0.064654363414099233 0 -5.3103790046690012e-05 -0.06472516523990704 0 1.716068826527798e-05 -0.064636077852126148 0 6.6386874335411847e-06 -0.064476437732828462 0 9.1335461690496712e-05 -0.064990487281104473 0 2.916018955286621e-05 -0.064999551496286376 0 5.3794615221650954e-05 -0.065054873774040567 0 9.1335461690496712e-05 -0.064990487281104473 0 5.3794615221650954e-05 -0.065054873774040567 0 0.00028965107796881948 -0.065047057260818442 0 2.3044848747133832e-08 -0.065000056569826173 0 2.916018955286621e-05 -0.064999551496286376 0 5.3794615221650954e-05 -0.065054873774040567 0 2.478367573288748e-08 -0.064999914175412607 0 2.3044848747133832e-08 -0.065000056569826173 0 2.916018955286621e-05 -0.064999551496286376 0 -1.0099060251669194e-07 -0.064999783872785252 0 -2.2733291026729236e-05 -0.064872489999016389 0 -5.3103790046690012e-05 -0.06472516523990704 0 2.3044848747133832e-08 -0.065000056569826173 0 1.2994747399004656e-09 -0.06500003792870683 0 5.3794615221650954e-05 -0.065054873774040567 0 8.9668844482936666e-08 -0.06499975049978704 0 9.7962057063410808e-05 -0.064835369119752989 0 -1.0099060251669194e-07 -0.064999783872785252 0 -1.310094742779524e-08 -0.064999945215250432 0 -2.2733291026729236e-05 -0.064872489999016389 0 -1.310094742779524e-08 -0.064999945215250432 0 -2.2733291026729236e-05 -0.064872489999016389 0 -1.1492032144981221e-05 -0.064850712441215042 0 3.7184545293791746e-08 -0.06499956329645637 0 5.1996895068722585e-05 -0.064753205046233137 0 -2.2733291026729236e-05 -0.064872489999016389 0 -1.1492032144981221e-05 -0.064850712441215042 0 3.0526050028581354e-05 -0.064744170888838992 0 -5.3103790046690012e-05 -0.06472516523990704 0 1.716068826527798e-05 -0.064636077852126148 0 3.0526050028581354e-05 -0.064744170888838992 0 -2.2733291026729236e-05 -0.064872489999016389 0 -5.3103790046690012e-05 -0.06472516523990704 0 3.0526050028581354e-05 -0.064744170888838992 0 1.716068826527798e-05 -0.064636077852126148 0 3.0526050028581354e-05 -0.064744170888838992 0 0.00010240805830568301 -0.064588462481574349 0 0.00012923777673645069 -0.064842468514169763 0 -1.1492032144981221e-05 -0.064850712441215042 0 3.0526050028581354e-05 -0.064744170888838992 0 0.00012923777673645069 -0.064842468514169763 0 0.00015931263610862801 -0.064680168311002165 0 0.00022397357958490893 -0.064739562170046241 0 0.00012923777673645069 -0.064842468514169763 0 3.0526050028581354e-05 -0.064744170888838992 0 0.00015931263610862801 -0.064680168311002165 0 3.0526050028581354e-05 -0.064744170888838992 0 0.00015931263610862801 -0.064680168311002165 0 0.00010240805830568301 -0.064588462481574349 0 0.00015931263610862801 -0.064680168311002165 0 0.00019067762949761017 -0.064521461571377128 0 0.00024245156795469039 -0.06457234008780445 0 0.00015931263610862801 -0.064680168311002165 0 0.00010240805830568301 -0.064588462481574349 0 0.00019067762949761017 -0.064521461571377128 0 0.00010240805830568301 -0.064588462481574349 0 0.00019067762949761017 -0.064521461571377128 0 0.00013295172501575871 -0.064438037122501873 0 0.00010240805830568301 -0.064588462481574349 0 0.00013295172501575871 -0.064438037122501873 0 6.6386874335411847e-06 -0.064476437732828462 0 0.00019067762949761017 -0.064521461571377128 0 0.00013295172501575871 -0.064438037122501873 0 0.00022811899115398658 -0.064356939257354112 0 1.716068826527798e-05 -0.064636077852126148 0 0.00010240805830568301 -0.064588462481574349 0 6.6386874335411847e-06 -0.064476437732828462 0 0.00042174572403919764 -0.064767537342449347 0 0.00078316294440427853 -0.064720704690645656 0 0.00038221453369493256 -0.064481559968653318 0 0.00018786100159756374 -0.064858915878657372 0 5.8601489270169162e-05 -0.064833309010133039 0 0.00016254144593397978 -0.064888077674172831 0 0.00042174572403919764 -0.064767537342449347 0 9.1062210419564358e-05 -0.064866926292693361 0 0.00028965107796881948 -0.065047057260818442 0 0.00042174572403919764 -0.064767537342449347 0 0.00078316294440427853 -0.064720704690645656 0 0.00018562166052710466 -0.064936346285725491 0 0.00028965107796881948 -0.065047057260818442 0 0.00042174572403919764 -0.064767537342449347 0 0.00016254144593397978 -0.064888077674172831 0 0.00018562166052710466 -0.064936346285725491 0 0.00042174572403919764 -0.064767537342449347 0 0.00022125615254013661 -0.064654363414099233 0 0.00039667938811207144 -0.064407611685492819 0 0.00013295172501575871 -0.064438037122501873 0 6.6386874335411847e-06 -0.064476437732828462 0 0.00014132419198535274 -0.064234170792841536 0 0.00013295172501575871 -0.064438037122501873 0 0.00014132419198535274 -0.064234170792841536 0 0.00022811899115398658 -0.064356939257354112 0 0.00027740220608487475 -0.064203377272977938 0 0.00034150682210301364 -0.06427293194646147 0 0.00022811899115398658 -0.064356939257354112 0 0.00014132419198535274 -0.064234170792841536 0 0.00027740220608487475 -0.064203377272977938 0 0.00022811899115398658 -0.064356939257354112 0 0.00034150682210301364 -0.06427293194646147 0 0.00047244645198660028 -0.06417693614510106 0 0.00036714279746800997 -0.064123014985167592 0 0.00027740220608487475 -0.064203377272977938 0 0.00034150682210301364 -0.06427293194646147 0 0.00036714279746800997 -0.064123014985167592 0 0.00034150682210301364 -0.06427293194646147 0 0.00042130573720610131 -0.064393764423172836 0 0.00047244645198660028 -0.06417693614510106 0 0.00034150682210301364 -0.06427293194646147 0 0.00042130573720610131 -0.064393764423172836 0 0.00029961086380342426 -0.064452275447872756 0 0.00042130573720610131 -0.064393764423172836 0 0.00036688853618756619 -0.064489736429286307 0 0.00041336653187461447 -0.064543934310831899 0 0.00042130573720610131 -0.064393764423172836 0 0.00029961086380342426 -0.064452275447872756 0 0.00036688853618756619 -0.064489736429286307 0 0.00029961086380342426 -0.064452275447872756 0 0.00030953492409419931 -0.064546140934135576 0 0.00036688853618756619 -0.064489736429286307 0 0.00034150682210301364 -0.06427293194646147 0 0.00029961086380342426 -0.064452275447872756 0 0.00022811899115398658 -0.064356939257354112 0 0.00019067762949761017 -0.064521461571377128 0 0.00029961086380342426 -0.064452275447872756 0 0.00022811899115398658 -0.064356939257354112 0 0.00019067762949761017 -0.064521461571377128 0 0.00029961086380342426 -0.064452275447872756 0 0.00024245156795469039 -0.06457234008780445 0 0.00024245156795469039 -0.06457234008780445 0 0.00030953492409419931 -0.064546140934135576 0 0.00026177952248921754 -0.064645603488386549 0 0.00029961086380342426 -0.064452275447872756 0 0.00024245156795469039 -0.06457234008780445 0 0.00030953492409419931 -0.064546140934135576 0 0.00026177952248921754 -0.064645603488386549 0 0.0003028721129398828 -0.064690514439284294 0 0.00034455891937763052 -0.064613717565695242 0 0.00030953492409419931 -0.064546140934135576 0 0.00026177952248921754 -0.064645603488386549 0 0.00034455891937763052 -0.064613717565695242 0 0.00015931263610862801 -0.064680168311002165 0 0.00024245156795469039 -0.06457234008780445 0 0.00026177952248921754 -0.064645603488386549 0 0.00026177952248921754 -0.064645603488386549 0 0.00022397357958490893 -0.064739562170046241 0 0.0003028721129398828 -0.064690514439284294 0 0.00034903400693794156 -0.064871898477357776 0 0.00022397357958490893 -0.064739562170046241 0 0.00032763120070431704 -0.064754175248023182 0 0.00015931263610862801 -0.064680168311002165 0 0.00026177952248921754 -0.064645603488386549 0 0.00022397357958490893 -0.064739562170046241 0 0.00022397357958490893 -0.064739562170046241 0 0.0003028721129398828 -0.064690514439284294 0 0.00032763120070431704 -0.064754175248023182 0 0.0003028721129398828 -0.064690514439284294 0 0.00032763120070431704 -0.064754175248023182 0 0.00036202832392030884 -0.064694052437752433 0 0.00045082974879717924 -0.064810362654229361 0 0.00039157979668551441 -0.064745841744143579 0 0.00043663523428283336 -0.064665820040636132 0 0.0013250797180833569 -0.063366371840566038 0 0.001293160686756683 -0.063650500279939987 0 0.00034903400693794156 -0.064871898477357776 0 0.00032763120070431704 -0.064754175248023182 0 0.00039157979668551441 -0.064745841744143579 0 0.00039157979668551441 -0.064745841744143579 0 0.00036202832392030884 -0.064694052437752433 0 0.00043663523428283336 -0.064665820040636132 0 0.00032763120070431704 -0.064754175248023182 0 0.00039157979668551441 -0.064745841744143579 0 0.00036202832392030884 -0.064694052437752433 0 0.0003028721129398828 -0.064690514439284294 0 0.00036202832392030884 -0.064694052437752433 0 0.00034455891937763052 -0.064613717565695242 0 0.00036202832392030884 -0.064694052437752433 0 0.00043663523428283336 -0.064665820040636132 0 0.00038651554833276578 -0.064630758307128069 0 0.00043663523428283336 -0.064665820040636132 0 0.00038651554833276578 -0.064630758307128069 0 0.00041336653187461447 -0.064543934310831899 0 0.001293160686756683 -0.063650500279939987 0 0.0012708228911308651 -0.063771312367194924 0 0.00041990463133156745 -0.064626744660606569 0 0.00041336653187461447 -0.064543934310831899 0 0.00050150531568155681 -0.064574017974795506 0 0.00036202832392030884 -0.064694052437752433 0 0.00038651554833276578 -0.064630758307128069 0 0.00034455891937763052 -0.064613717565695242 0 0.00038651554833276578 -0.064630758307128069 0 0.00034455891937763052 -0.064613717565695242 0 0.00041336653187461447 -0.064543934310831899 0 0.00034455891937763052 -0.064613717565695242 0 0.00036688853618756619 -0.064489736429286307 0 0.00041336653187461447 -0.064543934310831899 0 0.00030953492409419931 -0.064546140934135576 0 0.00034455891937763052 -0.064613717565695242 0 0.00036688853618756619 -0.064489736429286307 0 0.00042130573720610131 -0.064393764423172836 0 0.00041336653187461447 -0.064543934310831899 0 0.00053811407511076604 -0.064478891450438211 0 0.00053811407511076604 -0.064478891450438211 0 0.00050150531568155681 -0.064574017974795506 0 0.0006495915370892067 -0.064657218116709117 0 0.00041336653187461447 -0.064543934310831899 0 0.00053811407511076604 -0.064478891450438211 0 0.00050150531568155681 -0.064574017974795506 0 0.00041990463133156745 -0.064626744660606569 0 0.00050150531568155681 -0.064574017974795506 0 0.0006495915370892067 -0.064657218116709117 0 0.0013250797180833569 -0.063366371840566038 0 0.0013886973464062365 -0.0635212178334158 0 0.001293160686756683 -0.063650500279939987 0 0.0013886973464062365 -0.0635212178334158 0 0.0012462422577409675 -0.063594861813449755 0 0.0012342452336054316 -0.063509290172611241 0 0.0013613812796175293 -0.063520133298535592 0 0.0027640093638693648 -0.06104298405857999 0 0.003001623457920953 -0.061073245138811363 0 0.0025942447019683089 -0.06133897873201382 0 0.002501616344141516 -0.061046687702310677 0 0.0025942447019683089 -0.06133897873201382 0 0.0020842675450183615 -0.061291439448765014 0 0.0013886973464062365 -0.0635212178334158 0 0.0013906645714519192 -0.06302519290455047 0 0.002501616344141516 -0.061046687702310677 0 0.0027640093638693648 -0.06104298405857999 0 0.0025942447019683089 -0.06133897873201382 0 0.0013886973464062365 -0.0635212178334158 0 0.000892835002228427 -0.064015676451771683 0 0.0006495915370892067 -0.064657218116709117 0 0.00070181354956394158 -0.064395831450434329 0 0.00094627721598071729 -0.064479054365513072 0 0.00053811407511076604 -0.064478891450438211 0 0.0006495915370892067 -0.064657218116709117 0 0.00070181354956394158 -0.064395831450434329 0 0.00070181354956394158 -0.064395831450434329 0 0.00055122319956531218 -0.064323041590191851 0 0.0006458298491819987 -0.064171663627012737 0 0.00070181354956394158 -0.064395831450434329 0 0.0006458298491819987 -0.064171663627012737 0 0.00083444859440333493 -0.064191818834431716 0 0.00053811407511076604 -0.064478891450438211 0 0.00070181354956394158 -0.064395831450434329 0 0.00055122319956531218 -0.064323041590191851 0 0.00042130573720610131 -0.064393764423172836 0 0.00055122319956531218 -0.064323041590191851 0 0.00047244645198660028 -0.06417693614510106 0 0.00042130573720610131 -0.064393764423172836 0 0.00053811407511076604 -0.064478891450438211 0 0.00055122319956531218 -0.064323041590191851 0 0.00047244645198660028 -0.06417693614510106 0 0.0006458298491819987 -0.064171663627012737 0 0.00059221976937936941 -0.063957398743275412 0 0.00055122319956531218 -0.064323041590191851 0 0.00047244645198660028 -0.06417693614510106 0 0.0006458298491819987 -0.064171663627012737 0 0.0006458298491819987 -0.064171663627012737 0 0.00075696736142933686 -0.063937228028169257 0 0.00059221976937936941 -0.063957398743275412 0 0.0006458298491819987 -0.064171663627012737 0 0.00075696736142933686 -0.063937228028169257 0 0.00083444859440333493 -0.064191818834431716 0 0.00075696736142933686 -0.063937228028169257 0 0.00062315731434199639 -0.063682686074516409 0 0.00079093151350013633 -0.063538498862218892 0 0.00075696736142933686 -0.063937228028169257 0 0.00059221976937936941 -0.063957398743275412 0 0.00062315731434199639 -0.063682686074516409 0 0.00059221976937936941 -0.063957398743275412 0 0.00050449617964618411 -0.063763495804393763 0 0.00041046849008512568 -0.063849686560872462 0 0.00047244645198660028 -0.06417693614510106 0 0.00059221976937936941 -0.063957398743275412 0 0.00045483715096552197 -0.064031641568755959 0 0.0005052318923691357 -0.064112003533396383 0 0.00047023218286312233 -0.064123966444054936 0 0.00050449617964618411 -0.063763495804393763 0 0.00042276128427592703 -0.063739027697254882 0 0.00041046849008512568 -0.063849686560872462 0 0.00059221976937936941 -0.063957398743275412 0 0.00050449617964618411 -0.063763495804393763 0 0.00062315731434199639 -0.063682686074516409 0 0.00050449617964618411 -0.063763495804393763 0 0.00051066142511042173 -0.063611319653510662 0 0.00062315731434199639 -0.063682686074516409 0 0.00050449617964618411 -0.063763495804393763 0 0.00051066142511042173 -0.063611319653510662 0 0.00042276128427592703 -0.063739027697254882 0 0.00051066142511042173 -0.063611319653510662 0 0.00062315731434199639 -0.063682686074516409 0 0.00062883472439670017 -0.063465879427757055 0 0.00062315731434199639 -0.063682686074516409 0 0.00062883472439670017 -0.063465879427757055 0 0.00079093151350013633 -0.063538498862218892 0 0.00062883472439670017 -0.063465879427757055 0 0.0005642981014723806 -0.063490315547225881 0 0.00080374124913408051 -0.063183333039689302 0 0.00065391075618173122 -0.063347396842345916 0 0.0005642981014723806 -0.063490315547225881 0 0.00080374124913408051 -0.063183333039689302 0 0.00051066142511042173 -0.063611319653510662 0 0.0005642981014723806 -0.063490315547225881 0 0.00037618232402273971 -0.063681316882210875 0 0.00051066142511042173 -0.063611319653510662 0 0.00062883472439670017 -0.063465879427757055 0 0.0005642981014723806 -0.063490315547225881 0 0.0005642981014723806 -0.063490315547225881 0 0.00037618232402273971 -0.063681316882210875 0 0.00033676524207695716 -0.063590993969018864 0 0.00047957974352000684 -0.063671370764182306 0 0.0005642981014723806 -0.063490315547225881 0 0.00035053111051924399 -0.063910303184972095 0 0.0003983524942880361 -0.063710201957722715 0 0.00031753618698237993 -0.063764688297256539 0 0.00031753618698237993 -0.063764688297256539 0 0.00023469915208937448 -0.063839789751276077 0 0.00037618232402273971 -0.063681316882210875 0 0.00033676524207695716 -0.063590993969018864 0 0.00024264157556614892 -0.063758904455677515 0 0.00033676524207695716 -0.063590993969018864 0 0.00024264157556614892 -0.063758904455677515 0 0.00017187199875547709 -0.063754516334843359 0 0.00037618232402273971 -0.063681316882210875 0 0.00024264157556614892 -0.063758904455677515 0 0.000288917091237995 -0.06378757929167278 0 0.000288917091237995 -0.06378757929167278 0 0.00031849832955342178 -0.063824783383963607 0 0.00018715550451602335 -0.063860023270264007 0 0.000288917091237995 -0.06378757929167278 0 0.00034488827275672721 -0.063796586329014041 0 0.00031849832955342178 -0.063824783383963607 0 0.00051066142511042173 -0.063611319653510662 0 0.00037618232402273971 -0.063681316882210875 0 0.00042276128427592703 -0.063739027697254882 0 0.00037618232402273971 -0.063681316882210875 0 0.000288917091237995 -0.06378757929167278 0 0.00034488827275672721 -0.063796586329014041 0 0.00037618232402273971 -0.063681316882210875 0 0.00042276128427592703 -0.063739027697254882 0 0.00034488827275672721 -0.063796586329014041 0 0.00047023218286312233 -0.064123966444054936 0 0.0004622210653140882 -0.064184731186102476 0 0.00034488827275672721 -0.063796586329014041 0 0.00041046849008512568 -0.063849686560872462 0 0.00031647433944722425 -0.063819392679309833 0 0.00045483715096552197 -0.064031641568755959 0 0.00036714279746800997 -0.064123014985167592 0 0.00031024727042510119 -0.064031670080544237 0 0.00046485819272063141 -0.064175158360760778 0 0.0004622210653140882 -0.064184731186102476 0 0.00042276128427592703 -0.063739027697254882 0 0.00034488827275672721 -0.063796586329014041 0 0.00041046849008512568 -0.063849686560872462 0 0.00047244645198660028 -0.06417693614510106 0 0.00045483715096552197 -0.064031641568755959 0 0.00036714279746800997 -0.064123014985167592 0 0.0004622210653140882 -0.064184731186102476 0 0.00035347883069429455 -0.064088325435011584 0 0.00039667938811207144 -0.064407611685492819 0 0.0004622210653140882 -0.064184731186102476 0 0.00014132419198535274 -0.064234170792841536 0 0.00027740220608487475 -0.064203377272977938 0 0.00031024727042510119 -0.064031670080544237 0 0.00027740220608487475 -0.064203377272977938 0 0.00036714279746800997 -0.064123014985167592 0 0.00031024727042510119 -0.064031670080544237 0 0.00078316294440427853 -0.064720704690645656 0 0.0012493501765752438 -0.064343376675776956 0 0.00060450921555653392 -0.064184098743989892 0 0.00078316294440427853 -0.064720704690645656 0 0.00038221453369493256 -0.064481559968653318 0 0.00060450921555653392 -0.064184098743989892 0 0.00038221453369493256 -0.064481559968653318 0 0.00026701442287573767 -0.064245172828527181 0 0.00060450921555653392 -0.064184098743989892 0 0.00042174572403919764 -0.064767537342449347 0 0.00038221453369493256 -0.064481559968653318 0 3.0070440107130219e-05 -0.064482448168515491 0 0.00038221453369493256 -0.064481559968653318 0 0.00026701442287573767 -0.064245172828527181 0 0.00017091412563342075 -0.064350034772732365 0 0.00035347883069429455 -0.064088325435011584 0 0.00020509081348919533 -0.064036455628029107 0 0.00026701442287573767 -0.064245172828527181 0 0.00060450921555653392 -0.064184098743989892 0 8.8923757262681925e-05 -0.063966416865124692 0 0.00018715550451602335 -0.063860023270264007 0 0.0001589570758622611 -0.063848673715148643 0 8.8923757262681925e-05 -0.063966416865124692 0 0.00024264157556614892 -0.063758904455677515 0 0.000288917091237995 -0.06378757929167278 0 0.00018715550451602335 -0.063860023270264007 0 0.00024264157556614892 -0.063758904455677515 0 0.00018715550451602335 -0.063860023270264007 0 0.0001589570758622611 -0.063848673715148643 0 0.00024264157556614892 -0.063758904455677515 0 0.00017187199875547709 -0.063754516334843359 0 0.0001589570758622611 -0.063848673715148643 0 0.00018302185367958547 -0.064058265033471798 0 0.00035053111051924399 -0.063910303184972095 0 0.00015402335252251258 -0.064077433147001109 0 0.00015402335252251258 -0.064077433147001109 0 0.0001460090362144576 -0.06396441126853257 0 0.00014116008909095394 -0.064051944370589378 0 0.00012310894448203959 -0.064126820393943462 0 0.00015402335252251258 -0.064077433147001109 0 0.00014116008909095394 -0.064051944370589378 0 0.00018302185367958547 -0.064058265033471798 0 0.00012310894448203959 -0.064126820393943462 0 0.00015402335252251258 -0.064077433147001109 0 0.00023469915208937448 -0.063839789751276077 0 0.00022067566912947314 -0.063868815396805861 0 0.00017187199875547709 -0.063754516334843359 0 0.0001589570758622611 -0.063848673715148643 0 0.00011855624980532842 -0.063913609053227516 0 0.00017187199875547709 -0.063754516334843359 0 0.00011855624980532842 -0.063913609053227516 0 0.0001460090362144576 -0.06396441126853257 0 0.0001460090362144576 -0.06396441126853257 0 0.00020256261687036112 -0.063989043448721764 0 4.8378557892515053e-05 -0.063925187716918103 0 7.4502732491217813e-05 -0.064573120551883634 0 5.1527592449007072e-05 -0.064618367959903431 0 0.00011855624980532842 -0.063913609053227516 0 0.0001460090362144576 -0.06396441126853257 0 4.8378557892515053e-05 -0.063925187716918103 0 0.0001460090362144576 -0.06396441126853257 0 0.00014116008909095394 -0.064051944370589378 0 0.00020256261687036112 -0.063989043448721764 0 0.00017827799323059601 -0.064133831536506716 0 0.00014116008909095394 -0.064051944370589378 0 0.00020256261687036112 -0.063989043448721764 0 0.00012310894448203959 -0.064126820393943462 0 0.00017827799323059601 -0.064133831536506716 0 0.00014116008909095394 -0.064051944370589378 0 0.00030382642471436729 -0.064256776138180996 0 0.00017827799323059601 -0.064133831536506716 0 0.00020256261687036112 -0.063989043448721764 0 9.5111805776134365e-05 -0.06460934912723397 0 7.4502732491217813e-05 -0.064573120551883634 0 -1.0218500382892597e-10 -0.065000079541733508 0 6.4472979816456884e-06 -0.065002393158825583 0 7.2447064356164239e-09 -0.064999984224328275 0 7.2447064356164239e-09 -0.064999984224328275 0 2.4684193291529992e-06 -0.065000940173200475 0 1.2548418588412424e-10 -0.065000009602706896 0 6.4472979816456884e-06 -0.065002393158825583 0 2.4684193291529992e-06 -0.065000940173200475 0 6.6208665548499874e-07 -0.064999875728871434 0 6.4472979816456884e-06 -0.065002393158825583 0 7.2447064356164239e-09 -0.064999984224328275 0 2.4684193291529992e-06 -0.065000940173200475 0 2.4684193291529992e-06 -0.065000940173200475 0 6.6208665548499874e-07 -0.064999875728871434 0 1.2548418588412424e-10 -0.065000009602706896 0 0.0001589570758622611 -0.063848673715148643 0 0.00011855624980532842 -0.063913609053227516 0 8.8923757262681925e-05 -0.063966416865124692 0 0.00011855624980532842 -0.063913609053227516 0 8.8923757262681925e-05 -0.063966416865124692 0 4.8378557892515053e-05 -0.063925187716918103 0 0.00026701442287573767 -0.064245172828527181 0 8.8923757262681925e-05 -0.063966416865124692 0 0.00011232494501154852 -0.064187724893207482 0 4.8378557892515053e-05 -0.063925187716918103 0 0.00011232494501154852 -0.064187724893207482 0 8.1767160721440285e-05 -0.064269944524873834 0 8.8923757262681925e-05 -0.063966416865124692 0 4.8378557892515053e-05 -0.063925187716918103 0 0.00011232494501154852 -0.064187724893207482 0 0.00038221453369493256 -0.064481559968653318 0 0.00017091412563342075 -0.064350034772732365 0 3.0070440107130219e-05 -0.064482448168515491 0 4.8378557892515053e-05 -0.063925187716918103 0 8.1767160721440285e-05 -0.064269944524873834 0 3.0070440107130219e-05 -0.064482448168515491 0 5.1527592449007072e-05 -0.064618367959903431 0 5.8601489270169162e-05 -0.064833309010133039 0 0.00026701442287573767 -0.064245172828527181 0 0.00011232494501154852 -0.064187724893207482 0 0.00017091412563342075 -0.064350034772732365 0 8.1767160721440285e-05 -0.064269944524873834 0 0.00017091412563342075 -0.064350034772732365 0 3.0070440107130219e-05 -0.064482448168515491 0 0.00011232494501154852 -0.064187724893207482 0 8.1767160721440285e-05 -0.064269944524873834 0 0.00017091412563342075 -0.064350034772732365 0 5.8601489270169162e-05 -0.064833309010133039 0 5.8844093928900073e-05 -0.064834058574587766 0 3.4768294130521625e-05 -0.064953081832883605 0 6.7683024875488614e-05 -0.064916933016700665 0 8.2616902031873156e-05 -0.064885708734099101 0 6.7683024875488614e-05 -0.064916933016700665 0 8.2616902031873156e-05 -0.064885708734099101 0 9.1062210419564358e-05 -0.064866926292693361 0 2.478367573288748e-08 -0.064999914175412607 0 3.4768294130521625e-05 -0.064953081832883605 0 9.2927669490280663e-09 -0.064999911065182381 0 5.8601489270169162e-05 -0.064833309010133039 0 1.6039908431844507e-07 -0.06499972273229547 0 6.6208665548499874e-07 -0.064999875728871434 0 3.141201106715636e-07 -0.064999554768111464 0 1.2548418588412424e-10 -0.065000009602706896 0 3.4768294130521625e-05 -0.064953081832883605 0 8.2616902031873156e-05 -0.064885708734099101 0 9.2927669490280663e-09 -0.064999911065182381 0 0.0010205073819357375 -0.061203453433843091 0 0.00099756410028754134 -0.061317022860223912 0 0.00094910766963591793 -0.061257116791684024 0 0.0010205073819357375 -0.061203453433843091 0 0.00097643404579841398 -0.06120669838488537 0 0.0010015761892295638 -0.061155920937433904 0 0.0010205073819357375 -0.061203453433843091 0 0.00094910766963591793 -0.061257116791684024 0 0.00097643404579841398 -0.06120669838488537 0 0.0010205073819357375 -0.061203453433843091 0 0.0011138706599401475 -0.061221591846994043 0 0.00099756410028754134 -0.061317022860223912 0 0.0010205073819357375 -0.061203453433843091 0 0.0011138706599401475 -0.061221591846994043 0 0.0011461506358166299 -0.061140435443374573 0 0.00099756410028754134 -0.061317022860223912 0 0.00094910766963591793 -0.061257116791684024 0 0.00088358928737057791 -0.061320481888134916 0 0.00094910766963591793 -0.061257116791684024 0 0.0009257390809648497 -0.061227177963401568 0 0.00088358928737057791 -0.061320481888134916 0 0.0009257390809648497 -0.061227177963401568 0 0.00096044522714512008 -0.061227168320158419 0 0.0010137032810749217 -0.061214758178513184 0 0.00094910766963591793 -0.061257116791684024 0 0.0009257390809648497 -0.061227177963401568 0 0.00096044522714512008 -0.061227168320158419 0 0.0009257390809648497 -0.061227177963401568 0 0.0010298286210379474 -0.061188778625205623 0 0.0010137032810749217 -0.061214758178513184 0 0.0010298286210379474 -0.061188778625205623 0 0.0010711452246428249 -0.061124653130805895 0 0.0011362192482611206 -0.061158746802034446 0 0.0009257390809648497 -0.061227177963401568 0 0.0010298286210379474 -0.061188778625205623 0 0.00098326221089741601 -0.061170229973592095 0 0.0010298286210379474 -0.061188778625205623 0 0.0010711452246428249 -0.061124653130805895 0 0.00098326221089741601 -0.061170229973592095 0 0.0010298286210379474 -0.061188778625205623 0 0.0011096719495638106 -0.061217501724412968 0 0.0010137032810749217 -0.061214758178513184 0 0.0010298286210379474 -0.061188778625205623 0 0.0011096719495638106 -0.061217501724412968 0 0.0011362192482611206 -0.061158746802034446 0 0.0011096719495638106 -0.061217501724412968 0 0.0010137032810749217 -0.061214758178513184 0 0.0011206042448950483 -0.061224030865462242 0 0.0010137032810749217 -0.061214758178513184 0 0.0011206042448950483 -0.061224030865462242 0 0.0010459900276307674 -0.061196910568719461 0 0.00094910766963591793 -0.061257116791684024 0 0.00096044522714512008 -0.061227168320158419 0 0.00097643404579841398 -0.06120669838488537 0 0.00096044522714512008 -0.061227168320158419 0 0.0010137032810749217 -0.061214758178513184 0 0.00097643404579841398 -0.06120669838488537 0 0.0010137032810749217 -0.061214758178513184 0 0.00097643404579841398 -0.06120669838488537 0 0.0010459900276307674 -0.061196910568719461 0 0.00097643404579841398 -0.06120669838488537 0 0.00099577266420159327 -0.061173939071769268 0 0.0010015761892295638 -0.061155920937433904 0 0.00097643404579841398 -0.06120669838488537 0 0.00099577266420159327 -0.061173939071769268 0 0.0010459900276307674 -0.061196910568719461 0 0.00099577266420159327 -0.061173939071769268 0 0.0010271452951445981 -0.061186313194487932 0 0.00097790180375195799 -0.061113108308857453 0 0.00099577266420159327 -0.061173939071769268 0 0.00097790180375195799 -0.061113108308857453 0 0.0010015761892295638 -0.061155920937433904 0 0.0011206042448950483 -0.061224030865462242 0 0.0011384018052132752 -0.061189779699089064 0 0.0010459900276307674 -0.061196910568719461 0 0.00099577266420159327 -0.061173939071769268 0 0.0010459900276307674 -0.061196910568719461 0 0.0010271452951445981 -0.061186313194487932 0 0.0011384018052132752 -0.061189779699089064 0 0.0010459900276307674 -0.061196910568719461 0 0.0010271452951445981 -0.061186313194487932 0 0.0011384018052132752 -0.061189779699089064 0 0.0010271452951445981 -0.061186313194487932 0 0.0011850395811369629 -0.06116169242238223 0 0.0010110366712216374 -0.061330943374521288 0 0.0010271452951445981 -0.061186313194487932 0 0.0011339103431605817 -0.061299876219635258 0 0.0010271452951445981 -0.061186313194487932 0 0.0011339103431605817 -0.061299876219635258 0 0.0011850395811369629 -0.06116169242238223 0 0.0021547000144423525 -0.060264626910388551 0 0.0017497959666055881 -0.060817155552394475 0 0.00087723223671261536 -0.06094434530496344 0 0.0010271452951445981 -0.061186313194487932 0 0.00095703907898061743 -0.06106853815503905 0 0.0010271452951445981 -0.061186313194487932 0 0.00097790180375195799 -0.061113108308857453 0 0.00095703907898061743 -0.06106853815503905 0 0.00097790180375195799 -0.061113108308857453 0 0.00095703907898061743 -0.06106853815503905 0 0.00097267925630561806 -0.061011998342149536 0 0.00087723223671261536 -0.06094434530496344 0 0.00095703907898061743 -0.06106853815503905 0 0.00097267925630561806 -0.061011998342149536 0 0.00097267925630561806 -0.061011998342149536 0 0.0010341057797661605 -0.060978265576089034 0 0.0010213931183484148 -0.061073901142744358 0 0.0010341057797661605 -0.060978265576089034 0 0.0010213931183484148 -0.061073901142744358 0 0.0011030503255209478 -0.061007084231993094 0 0.0010213931183484148 -0.061073901142744358 0 0.0010727862160735792 -0.061114555793145391 0 0.0011030503255209478 -0.061007084231993094 0 0.00097790180375195799 -0.061113108308857453 0 0.00097267925630561806 -0.061011998342149536 0 0.0010213931183484148 -0.061073901142744358 0 0.00097790180375195799 -0.061113108308857453 0 0.0010213931183484148 -0.061073901142744358 0 0.0010015761892295638 -0.061155920937433904 0 0.0010205073819357375 -0.061203453433843091 0 0.0010015761892295638 -0.061155920937433904 0 0.0010727862160735792 -0.061114555793145391 0 0.0010213931183484148 -0.061073901142744358 0 0.0010015761892295638 -0.061155920937433904 0 0.0010727862160735792 -0.061114555793145391 0 0.0010205073819357375 -0.061203453433843091 0 0.0011461506358166299 -0.061140435443374573 0 0.0010727862160735792 -0.061114555793145391 0 0.0011461506358166299 -0.061140435443374573 0 0.0010727862160735792 -0.061114555793145391 0 0.0011767814418114605 -0.061053336329014218 0 0.0010727862160735792 -0.061114555793145391 0 0.0011767814418114605 -0.061053336329014218 0 0.0011030503255209478 -0.061007084231993094 0 0.0012125283385434234 -0.060930468211037099 0 0.0011767814418114605 -0.061053336329014218 0 0.0011030503255209478 -0.061007084231993094 0 0.0012125283385434234 -0.060930468211037099 0 0.0011767814418114605 -0.061053336329014218 0 0.0013016920247666854 -0.061005013459201986 0 0.0011767814418114605 -0.061053336329014218 0 0.0013016920247666854 -0.061005013459201986 0 0.0012409401443202917 -0.061086770726505736 0 0.0013016920247666854 -0.061005013459201986 0 0.0013370650772838921 -0.06107741873915578 0 0.0012409401443202917 -0.061086770726505736 0 0.0013016920247666854 -0.061005013459201986 0 0.0013621401600903676 -0.061026242005129169 0 0.0013370650772838921 -0.06107741873915578 0 0.0013016920247666854 -0.061005013459201986 0 0.0014002482664185599 -0.06098088824747535 0 0.0013621401600903676 -0.061026242005129169 0 0.0013588352624784503 -0.060868035503959111 0 0.0013016920247666854 -0.061005013459201986 0 0.0014002482664185599 -0.06098088824747535 0 0.0015270561231522659 -0.060911707667674515 0 0.0014002482664185599 -0.06098088824747535 0 0.001426873923964244 -0.061039740251907344 0 0.0014002482664185599 -0.06098088824747535 0 0.001426873923964244 -0.061039740251907344 0 0.0014043237107672854 -0.061036787394499081 0 0.0014002482664185599 -0.06098088824747535 0 0.0013621401600903676 -0.061026242005129169 0 0.0014043237107672854 -0.061036787394499081 0 0.00097353897194207308 -0.062080304839441297 0 0.00094423028728306388 -0.06250944079640508 0 0.0015270561231522659 -0.060911707667674515 0 0.0015452640659118469 -0.061244493316580377 0 0.0018359932568145442 -0.061073935197564128 0 0.00094423028728306388 -0.06250944079640508 0 0.00094755972347004738 -0.0625063450941859 0 0.0013621401600903676 -0.061026242005129169 0 0.0014043237107672854 -0.061036787394499081 0 0.0013370650772838921 -0.06107741873915578 0 0.0014134967774979417 -0.061036811606267817 0 0.0014043237107672854 -0.061036787394499081 0 0.0013370650772838921 -0.06107741873915578 0 0.00094423028728306388 -0.06250944079640508 0 0.0011449944009889401 -0.062713768872946968 0 0.0014134967774979417 -0.061036811606267817 0 0.0013370650772838921 -0.06107741873915578 0 0.0013492086852397074 -0.061178930431257328 0 0.0013370650772838921 -0.06107741873915578 0 0.0012475460675074991 -0.061159726947712385 0 0.0013492086852397074 -0.061178930431257328 0 0.0013406257483742532 -0.064750152386650953 0 0.0011544914314119531 -0.064559291549165204 0 0.001330789245980165 -0.064422739896997941 0 0.0011138706599401475 -0.061221591846994043 0 0.0011461506358166299 -0.061140435443374573 0 0.0012475460675074991 -0.061159726947712385 0 0.0011461506358166299 -0.061140435443374573 0 0.0011767814418114605 -0.061053336329014218 0 0.0012409401443202917 -0.061086770726505736 0 0.0011461506358166299 -0.061140435443374573 0 0.0012475460675074991 -0.061159726947712385 0 0.0012409401443202917 -0.061086770726505736 0 0.0013370650772838921 -0.06107741873915578 0 0.0012475460675074991 -0.061159726947712385 0 0.0012409401443202917 -0.061086770726505736 0 0.0020794992533896871 -0.061002187073526899 0 0.002501616344141516 -0.061046687702310677 0 0.0020842675450183615 -0.061291439448765014 0 0.0015452640659118469 -0.061244493316580377 0 0.0020842675450183615 -0.061291439448765014 0 0.0018359932568145442 -0.061073935197564128 0 0.00094423028728306388 -0.06250944079640508 0 0.0013906645714519192 -0.06302519290455047 0 0.0013406257483742532 -0.064750152386650953 0 0.00098034372561722457 -0.064718547790042408 0 0.0011544914314119531 -0.064559291549165204 0 0.0020794992533896871 -0.061002187073526899 0 0.0020842675450183615 -0.061291439448765014 0 0.0018359932568145442 -0.061073935197564128 0 0.000634002275699001 -0.064683211776275243 0 0.00098034372561722457 -0.064718547790042408 0 0.00094627721598071729 -0.064479054365513072 0 0.00098034372561722457 -0.064718547790042408 0 0.0011544914314119531 -0.064559291549165204 0 0.00094627721598071729 -0.064479054365513072 0 0.00070181354956394158 -0.064395831450434329 0 0.00094627721598071729 -0.064479054365513072 0 0.00083444859440333493 -0.064191818834431716 0 0.00094627721598071729 -0.064479054365513072 0 0.0011012794401448786 -0.064278198064047262 0 0.00083444859440333493 -0.064191818834431716 0 0.0011544914314119531 -0.064559291549165204 0 0.00094627721598071729 -0.064479054365513072 0 0.0011012794401448786 -0.064278198064047262 0 0.0011012794401448786 -0.064278198064047262 0 0.001330789245980165 -0.064422739896997941 0 0.0013420856092346838 -0.064067589276724471 0 0.0011544914314119531 -0.064559291549165204 0 0.0011012794401448786 -0.064278198064047262 0 0.001330789245980165 -0.064422739896997941 0 0.0011012794401448786 -0.064278198064047262 0 0.0013420856092346838 -0.064067589276724471 0 0.00099891598529148031 -0.063875333885840269 0 0.0011012794401448786 -0.064278198064047262 0 0.00083444859440333493 -0.064191818834431716 0 0.00099891598529148031 -0.063875333885840269 0 0.00075696736142933686 -0.063937228028169257 0 0.00083444859440333493 -0.064191818834431716 0 0.00099891598529148031 -0.063875333885840269 0 0.0011138706599401475 -0.061221591846994043 0 0.0012475460675074991 -0.061159726947712385 0 0.0011972154060734736 -0.061274839740562581 0 0.0013492086852397074 -0.061178930431257328 0 0.0013576360383206901 -0.061357266761144579 0 0.0011972154060734736 -0.061274839740562581 0 0.0011449944009889401 -0.062713768872946968 0 0.0012388980523078093 -0.062710310034732666 0 0.0012475460675074991 -0.061159726947712385 0 0.0013492086852397074 -0.061178930431257328 0 0.0011972154060734736 -0.061274839740562581 0 0.0013576360383206901 -0.061357266761144579 0 0.0011972154060734736 -0.061274839740562581 0 0.0011027820042939407 -0.061531902235462385 0 0.00099756410028754134 -0.061317022860223912 0 0.0011972154060734736 -0.061274839740562581 0 0.0011027820042939407 -0.061531902235462385 0 0.0011138706599401475 -0.061221591846994043 0 0.00099756410028754134 -0.061317022860223912 0 0.0011972154060734736 -0.061274839740562581 0 0.0012388980523078093 -0.062710310034732666 0 0.0012755089327953775 -0.062679292924272892 0 0.0013576360383206901 -0.061357266761144579 0 0.0011027820042939407 -0.061531902235462385 0 0.0014215665598455338 -0.061730859831117951 0 0.0011027820042939407 -0.061531902235462385 0 0.0011126408875527078 -0.062025600836327459 0 0.0014215665598455338 -0.061730859831117951 0 0.0011126408875527078 -0.062025600836327459 0 0.0014215665598455338 -0.061730859831117951 0 0.0012192473656054996 -0.062729904010064369 0 0.0012755089327953775 -0.062679292924272892 0 0.0012750147084684984 -0.062672517900783917 0 0.0011027820042939407 -0.061531902235462385 0 0.0011126408875527078 -0.062025600836327459 0 0.00096987331506489995 -0.061822056389029538 0 0.0011027820042939407 -0.061531902235462385 0 0.00096987331506489995 -0.061822056389029538 0 0.00090806930932733432 -0.061498509513955676 0 0.00075696736142933686 -0.063937228028169257 0 0.00099891598529148031 -0.063875333885840269 0 0.00079093151350013633 -0.063538498862218892 0 0.0013420856092346838 -0.064067589276724471 0 0.0013608130018646788 -0.063611394934900992 0 0.00099891598529148031 -0.063875333885840269 0 0.0013608130018646788 -0.063611394934900992 0 0.0010103066286158212 -0.063321951326660936 0 0.0012192473656054996 -0.062729904010064369 0 0.0013608130018646788 -0.063611394934900992 0 0.00099891598529148031 -0.063875333885840269 0 0.0010103066286158212 -0.063321951326660936 0 0.00099891598529148031 -0.063875333885840269 0 0.0010103066286158212 -0.063321951326660936 0 0.00079093151350013633 -0.063538498862218892 0 0.00062883472439670017 -0.063465879427757055 0 0.00079093151350013633 -0.063538498862218892 0 0.00080374124913408051 -0.063183333039689302 0 0.0010103066286158212 -0.063321951326660936 0 0.00079093151350013633 -0.063538498862218892 0 0.00080374124913408051 -0.063183333039689302 0 0.0010103066286158212 -0.063321951326660936 0 0.00080374124913408051 -0.063183333039689302 0 0.0012192473656054996 -0.062729904010064369 0 0.00085582643435848696 -0.063023559930450349 0 0.00080374124913408051 -0.063183333039689302 0 0.0012192473656054996 -0.062729904010064369 0 0.00097309092081260718 -0.062736509038266455 0 0.00085582643435848696 -0.063023559930450349 0 0.0012192473656054996 -0.062729904010064369 0 0.00085582643435848696 -0.063023559930450349 0 0.00065391075618173122 -0.063347396842345916 0 0.00080374124913408051 -0.063183333039689302 0 0.00096987331506489995 -0.061822056389029538 0 0.0010182885818414554 -0.062308717510347701 0 0.0008486469598449868 -0.061729472953494541 0 0.0011126408875527078 -0.062025600836327459 0 0.00096987331506489995 -0.061822056389029538 0 0.0010182885818414554 -0.062308717510347701 0 0.0010182885818414554 -0.062308717510347701 0 0.00092271810024872913 -0.062193727957890979 0 0.0008486469598449868 -0.061729472953494541 0 0.0011126408875527078 -0.062025600836327459 0 0.0010182885818414554 -0.062308717510347701 0 0.0012192473656054996 -0.062729904010064369 0 0.00097309092081260718 -0.062736509038266455 0 0.0010182885818414554 -0.062308717510347701 0 0.0012192473656054996 -0.062729904010064369 0 0.00097309092081260718 -0.062736509038266455 0 0.0010182885818414554 -0.062308717510347701 0 0.00092271810024872913 -0.062193727957890979 0 0.00091648832986655402 -0.062503333357265531 0 0.00092271810024872913 -0.062193727957890979 0 0.00083505293670827461 -0.062131921197751419 0 0.00092271810024872913 -0.062193727957890979 0 0.00083505293670827461 -0.062131921197751419 0 0.00076129659414221845 -0.061686953932322749 0 0.00083505293670827461 -0.062131921197751419 0 0.00068205982591845195 -0.061734371212809301 0 0.00076129659414221845 -0.061686953932322749 0 0.00072990290600653254 -0.062270289088705175 0 0.00083505293670827461 -0.062131921197751419 0 0.00068205982591845195 -0.061734371212809301 0 0.00068205982591845195 -0.061734371212809301 0 0.00076129659414221845 -0.061686953932322749 0 0.00061955927783094954 -0.061349363901763515 0 0.00076129659414221845 -0.061686953932322749 0 0.00073441000992721564 -0.061435693822165176 0 0.0008486469598449868 -0.061729472953494541 0 0.00076129659414221845 -0.061686953932322749 0 0.00073441000992721564 -0.061435693822165176 0 0.00061955927783094954 -0.061349363901763515 0 0.00092271810024872913 -0.062193727957890979 0 0.00076129659414221845 -0.061686953932322749 0 0.0008486469598449868 -0.061729472953494541 0 0.00096987331506489995 -0.061822056389029538 0 0.0008486469598449868 -0.061729472953494541 0 0.00090806930932733432 -0.061498509513955676 0 0.0008486469598449868 -0.061729472953494541 0 0.0008064755470404692 -0.061396271093074516 0 0.00090806930932733432 -0.061498509513955676 0 0.00073441000992721564 -0.061435693822165176 0 0.0008486469598449868 -0.061729472953494541 0 0.0008064755470404692 -0.061396271093074516 0 0.00073441000992721564 -0.061435693822165176 0 0.0008064755470404692 -0.061396271093074516 0 0.00077939996315315159 -0.061297812075049703 0 0.0008064755470404692 -0.061396271093074516 0 0.00085429163012909026 -0.061267551570566597 0 0.00077939996315315159 -0.061297812075049703 0 0.0008064755470404692 -0.061396271093074516 0 0.00088358928737057791 -0.061320481888134916 0 0.00085429163012909026 -0.061267551570566597 0 0.0008064755470404692 -0.061396271093074516 0 0.00088358928737057791 -0.061320481888134916 0 0.00090806930932733432 -0.061498509513955676 0 0.00099756410028754134 -0.061317022860223912 0 0.00088358928737057791 -0.061320481888134916 0 0.00090806930932733432 -0.061498509513955676 0 0.00099756410028754134 -0.061317022860223912 0 0.0011027820042939407 -0.061531902235462385 0 0.00090806930932733432 -0.061498509513955676 0 0.0010073637482485695 -0.061110986184283879 0 0.00093999595870021047 -0.061105322345689606 0 0.0010599564620615365 -0.061015116503719123 0 0.0010073637482485695 -0.061110986184283879 0 0.00091644111162451425 -0.06118682282335438 0 0.00093999595870021047 -0.061105322345689606 0 0.0010073637482485695 -0.061110986184283879 0 0.0010599564620615365 -0.061015116503719123 0 0.0011354271692216923 -0.061020043983997435 0 0.0010073637482485695 -0.061110986184283879 0 0.0010711452246428249 -0.061124653130805895 0 0.0011354271692216923 -0.061020043983997435 0 0.0010073637482485695 -0.061110986184283879 0 0.00098326221089741601 -0.061170229973592095 0 0.00091644111162451425 -0.06118682282335438 0 0.0010073637482485695 -0.061110986184283879 0 0.0010711452246428249 -0.061124653130805895 0 0.00098326221089741601 -0.061170229973592095 0 0.0009257390809648497 -0.061227177963401568 0 0.00098326221089741601 -0.061170229973592095 0 0.00091644111162451425 -0.06118682282335438 0 0.0009257390809648497 -0.061227177963401568 0 0.00088358928737057791 -0.061320481888134916 0 0.00085429163012909026 -0.061267551570566597 0 0.0009257390809648497 -0.061227177963401568 0 0.00085429163012909026 -0.061267551570566597 0 0.00091644111162451425 -0.06118682282335438 0 0.00091644111162451425 -0.06118682282335438 0 0.00084669964541618265 -0.061211688928418835 0 0.00093999595870021047 -0.061105322345689606 0 0.00085429163012909026 -0.061267551570566597 0 0.00091644111162451425 -0.06118682282335438 0 0.00084669964541618265 -0.061211688928418835 0 0.00084669964541618265 -0.061211688928418835 0 0.00086106679802699882 -0.061081806875304442 0 0.00093999595870021047 -0.061105322345689606 0 0.00085429163012909026 -0.061267551570566597 0 0.00084669964541618265 -0.061211688928418835 0 0.00077939996315315159 -0.061297812075049703 0 0.00084669964541618265 -0.061211688928418835 0 0.00077939996315315159 -0.061297812075049703 0 0.00073225287025144932 -0.061232980118162056 0 0.00073441000992721564 -0.061435693822165176 0 0.00077939996315315159 -0.061297812075049703 0 0.00073225287025144932 -0.061232980118162056 0 0.00084669964541618265 -0.061211688928418835 0 0.00086106679802699882 -0.061081806875304442 0 0.00073225287025144932 -0.061232980118162056 0 0.0009825943453707223 -0.061013258243550618 0 0.00086106679802699882 -0.061081806875304442 0 0.00093999595870021047 -0.061105322345689606 0 0.0009825943453707223 -0.061013258243550618 0 0.00086106679802699882 -0.061081806875304442 0 0.0011075530394675471 -0.060844456942376592 0 0.0009825943453707223 -0.061013258243550618 0 0.00093999595870021047 -0.061105322345689606 0 0.0010599564620615365 -0.061015116503719123 0 0.0010599564620615365 -0.061015116503719123 0 0.0011075530394675471 -0.060844456942376592 0 0.0012214709835792184 -0.060866934890396483 0 0.0009825943453707223 -0.061013258243550618 0 0.0010599564620615365 -0.061015116503719123 0 0.0011075530394675471 -0.060844456942376592 0 0.00086106679802699882 -0.061081806875304442 0 0.00091197666987099396 -0.06091792475546752 0 0.0006579673862278408 -0.06115180427019247 0 0.00086106679802699882 -0.061081806875304442 0 0.0011075530394675471 -0.060844456942376592 0 0.00091197666987099396 -0.06091792475546752 0 0.0011075530394675471 -0.060844456942376592 0 0.00091197666987099396 -0.06091792475546752 0 0.0011356524676020014 -0.060610534004041317 0 0.00073441000992721564 -0.061435693822165176 0 0.00073225287025144932 -0.061232980118162056 0 0.00061955927783094954 -0.061349363901763515 0 0.00086106679802699882 -0.061081806875304442 0 0.00073225287025144932 -0.061232980118162056 0 0.0006579673862278408 -0.06115180427019247 0 0.0006579673862278408 -0.06115180427019247 0 0.00061955927783094954 -0.061349363901763515 0 0.00043694552545535772 -0.061203234892730669 0 0.00073225287025144932 -0.061232980118162056 0 0.0006579673862278408 -0.06115180427019247 0 0.00061955927783094954 -0.061349363901763515 0 0.0006542861319227374 -0.059332510036344266 0 0.00043694552545535772 -0.061203234892730669 0 0.00088138227265084569 -0.060583496789206874 0 0.00068205982591845195 -0.061734371212809301 0 0.00061955927783094954 -0.061349363901763515 0 0.00043694552545535772 -0.061203234892730669 0 0.0006579673862278408 -0.06115180427019247 0 0.00043694552545535772 -0.061203234892730669 0 0.00088138227265084569 -0.060583496789206874 0 0.00048355333567347156 -0.061978830835222355 0 0.00068205982591845195 -0.061734371212809301 0 0.00043694552545535772 -0.061203234892730669 0 0.0011356524676020014 -0.060610534004041317 0 0.00088138227265084569 -0.060583496789206874 0 0.0011922001880814292 -0.060301858486620834 0 0.00091197666987099396 -0.06091792475546752 0 0.0006579673862278408 -0.06115180427019247 0 0.00088138227265084569 -0.060583496789206874 0 0.00091197666987099396 -0.06091792475546752 0 0.0011356524676020014 -0.060610534004041317 0 0.00088138227265084569 -0.060583496789206874 0 0.0010841648582879261 -0.06014572256587386 0 0.00088138227265084569 -0.060583496789206874 0 0.0011922001880814292 -0.060301858486620834 0 0.0010841648582879261 -0.06014572256587386 0 0.0012541224437069777 -0.059989820874149523 0 0.0011922001880814292 -0.060301858486620834 0 0.0011922001880814292 -0.060301858486620834 0 0.0013892750828278328 -0.060098665019283098 0 0.0014089190935099804 -0.060301104836975879 0 0.0012541224437069777 -0.059989820874149523 0 0.0011922001880814292 -0.060301858486620834 0 0.0013892750828278328 -0.060098665019283098 0 0.0011356524676020014 -0.060610534004041317 0 0.0011922001880814292 -0.060301858486620834 0 0.0014089190935099804 -0.060301104836975879 0 0.0014089190935099804 -0.060301104836975879 0 0.0017453537063448173 -0.06006788523511452 0 0.0015172898504076248 -0.060378458595929392 0 0.0013892750828278328 -0.060098665019283098 0 0.0014089190935099804 -0.060301104836975879 0 0.0016203879043563212 -0.059958549322297112 0 0.0019459680197764712 -0.05976478985153439 0 0.0017453537063448173 -0.06006788523511452 0 0.0021744600068657896 -0.059831965756674287 0 0.0019459680197764712 -0.05976478985153439 0 0.0016203879043563212 -0.059958549322297112 0 0.0017453537063448173 -0.06006788523511452 0 0.0017453537063448173 -0.06006788523511452 0 0.0018384550774595537 -0.060168897684045174 0 0.0021744600068657896 -0.059831965756674287 0 0.0014089190935099804 -0.060301104836975879 0 0.0016203879043563212 -0.059958549322297112 0 0.0017453537063448173 -0.06006788523511452 0 0.0017453537063448173 -0.06006788523511452 0 0.0018384550774595537 -0.060168897684045174 0 0.0015172898504076248 -0.060378458595929392 0 0.0018384550774595537 -0.060168897684045174 0 0.0016062408503713279 -0.06042568080006043 0 0.0017081161029588005 -0.060447415327609742 0 0.0018384550774595537 -0.060168897684045174 0 0.0016062408503713279 -0.06042568080006043 0 0.0015172898504076248 -0.060378458595929392 0 0.0016062408503713279 -0.06042568080006043 0 0.0015172898504076248 -0.060378458595929392 0 0.0013427015168568656 -0.060666261743060973 0 0.0012934696408923552 -0.060572696027500643 0 0.0015172898504076248 -0.060378458595929392 0 0.0013427015168568656 -0.060666261743060973 0 0.0011075530394675471 -0.060844456942376592 0 0.0012934696408923552 -0.060572696027500643 0 0.0013427015168568656 -0.060666261743060973 0 0.0011075530394675471 -0.060844456942376592 0 0.0011356524676020014 -0.060610534004041317 0 0.0012934696408923552 -0.060572696027500643 0 0.0011356524676020014 -0.060610534004041317 0 0.0014089190935099804 -0.060301104836975879 0 0.0012934696408923552 -0.060572696027500643 0 0.0014089190935099804 -0.060301104836975879 0 0.0012934696408923552 -0.060572696027500643 0 0.0015172898504076248 -0.060378458595929392 0 0.0024442006366917212 -0.059639610564045299 0 0.0024843470947753916 -0.05973902305871525 0 0.0021744600068657896 -0.059831965756674287 0 0.0024843470947753916 -0.05973902305871525 0 0.0021744600068657896 -0.059831965756674287 0 0.0023724027694902944 -0.05977099061670707 0 0.0018384550774595537 -0.060168897684045174 0 0.0021744600068657896 -0.059831965756674287 0 0.002121327660397309 -0.060024071633393045 0 0.0021744600068657896 -0.059831965756674287 0 0.002121327660397309 -0.060024071633393045 0 0.0023724027694902944 -0.05977099061670707 0 0.0018384550774595537 -0.060168897684045174 0 0.002121327660397309 -0.060024071633393045 0 0.0017081161029588005 -0.060447415327609742 0 0.002121327660397309 -0.060024071633393045 0 0.0023724027694902944 -0.05977099061670707 0 0.0025903061490408072 -0.059575682287062594 0 0.0024843470947753916 -0.05973902305871525 0 0.0023724027694902944 -0.05977099061670707 0 0.0025903061490408072 -0.059575682287062594 0 0.0024843470947753916 -0.05973902305871525 0 0.0025903061490408072 -0.059575682287062594 0 0.0026195397328247815 -0.05969595272282141 0 0.0025903061490408072 -0.059575682287062594 0 0.0023398980047509023 -0.060083614690761573 0 0.0031239971074155377 -0.058942633804557554 0 0.002121327660397309 -0.060024071633393045 0 0.0025903061490408072 -0.059575682287062594 0 0.0023398980047509023 -0.060083614690761573 0 0.0023398980047509023 -0.060083614690761573 0 0.0018915890579569415 -0.06041345483503803 0 0.0019713313154129286 -0.060670327384331174 0 0.002121327660397309 -0.060024071633393045 0 0.0023398980047509023 -0.060083614690761573 0 0.0018915890579569415 -0.06041345483503803 0 0.002121327660397309 -0.060024071633393045 0 0.0018915890579569415 -0.06041345483503803 0 0.0017081161029588005 -0.060447415327609742 0 0.0018915890579569415 -0.06041345483503803 0 0.0019713313154129286 -0.060670327384331174 0 0.0017010789710042368 -0.060720914669258531 0 0.0017067257257582669 -0.06088945936240682 0 0.0019713313154129286 -0.060670327384331174 0 0.0017010789710042368 -0.060720914669258531 0 0.0017067257257582669 -0.06088945936240682 0 0.0019713313154129286 -0.060670327384331174 0 0.0020492336027427695 -0.060957077459139093 0 0.0019713313154129286 -0.060670327384331174 0 0.0023591951279856335 -0.060609040657428281 0 0.0020492336027427695 -0.060957077459139093 0 0.0023398980047509023 -0.060083614690761573 0 0.0023591951279856335 -0.060609040657428281 0 0.0031282966835603616 -0.060382564254178976 0 0.0023398980047509023 -0.060083614690761573 0 0.0019713313154129286 -0.060670327384331174 0 0.0023591951279856335 -0.060609040657428281 0 0.0014131469726643665 -0.060709115408828881 0 0.0012214709835792184 -0.060866934890396483 0 0.0013052850227326469 -0.060912270389822415 0 0.0014131469726643665 -0.060709115408828881 0 0.0015255882120380872 -0.060700831032405117 0 0.0013052850227326469 -0.060912270389822415 0 0.0011075530394675471 -0.060844456942376592 0 0.0012214709835792184 -0.060866934890396483 0 0.0013427015168568656 -0.060666261743060973 0 0.0014131469726643665 -0.060709115408828881 0 0.0012214709835792184 -0.060866934890396483 0 0.0013427015168568656 -0.060666261743060973 0 0.0016062408503713279 -0.06042568080006043 0 0.0014131469726643665 -0.060709115408828881 0 0.0013427015168568656 -0.060666261743060973 0 0.0016062408503713279 -0.06042568080006043 0 0.0014131469726643665 -0.060709115408828881 0 0.0017081161029588005 -0.060447415327609742 0 0.0018915890579569415 -0.06041345483503803 0 0.0017081161029588005 -0.060447415327609742 0 0.0015255882120380872 -0.060700831032405117 0 0.0014131469726643665 -0.060709115408828881 0 0.0017081161029588005 -0.060447415327609742 0 0.0015255882120380872 -0.060700831032405117 0 0.0015255882120380872 -0.060700831032405117 0 0.0014621762303833638 -0.060914765412880954 0 0.0013052850227326469 -0.060912270389822415 0 0.0015255882120380872 -0.060700831032405117 0 0.0017010789710042368 -0.060720914669258531 0 0.0014621762303833638 -0.060914765412880954 0 0.0018915890579569415 -0.06041345483503803 0 0.0015255882120380872 -0.060700831032405117 0 0.0017010789710042368 -0.060720914669258531 0 0.0017067257257582669 -0.06088945936240682 0 0.0014621762303833638 -0.060914765412880954 0 0.0015311632094119805 -0.060994619682319159 0 0.0017067257257582669 -0.06088945936240682 0 0.0017010789710042368 -0.060720914669258531 0 0.0014621762303833638 -0.060914765412880954 0 0.0014621762303833638 -0.060914765412880954 0 0.0013129768989578329 -0.061020471305304573 0 0.0013052850227326469 -0.060912270389822415 0 0.0013129768989578329 -0.061020471305304573 0 0.0013052850227326469 -0.060912270389822415 0 0.001192312028757509 -0.061063500481235197 0 0.0010599564620615365 -0.061015116503719123 0 0.0012214709835792184 -0.060866934890396483 0 0.0011354271692216923 -0.061020043983997435 0 0.0012214709835792184 -0.060866934890396483 0 0.0013052850227326469 -0.060912270389822415 0 0.0011354271692216923 -0.061020043983997435 0 0.0010711452246428249 -0.061124653130805895 0 0.0011354271692216923 -0.061020043983997435 0 0.001192312028757509 -0.061063500481235197 0 0.0013052850227326469 -0.060912270389822415 0 0.0011354271692216923 -0.061020043983997435 0 0.001192312028757509 -0.061063500481235197 0 0.0010711452246428249 -0.061124653130805895 0 0.001192312028757509 -0.061063500481235197 0 0.0011362192482611206 -0.061158746802034446 0 0.001192312028757509 -0.061063500481235197 0 0.0011362192482611206 -0.061158746802034446 0 0.0012543337338540284 -0.061124441445909283 0 0.0013129768989578329 -0.061020471305304573 0 0.001192312028757509 -0.061063500481235197 0 0.0012543337338540284 -0.061124441445909283 0 0.0013129768989578329 -0.061020471305304573 0 0.0012543337338540284 -0.061124441445909283 0 0.0013919978448732632 -0.061055000973030467 0 0.0012543337338540284 -0.061124441445909283 0 0.0012002612463973743 -0.06120965833143651 0 0.0013388827960803382 -0.061192038907186795 0 0.0011096719495638106 -0.061217501724412968 0 0.0011362192482611206 -0.061158746802034446 0 0.0012002612463973743 -0.06120965833143651 0 0.0011362192482611206 -0.061158746802034446 0 0.0012543337338540284 -0.061124441445909283 0 0.0012002612463973743 -0.06120965833143651 0 0.0011096719495638106 -0.061217501724412968 0 0.0011206042448950483 -0.061224030865462242 0 0.001182692655177223 -0.061256062749535413 0 0.0011096719495638106 -0.061217501724412968 0 0.0012002612463973743 -0.06120965833143651 0 0.001182692655177223 -0.061256062749535413 0 0.0012002612463973743 -0.06120965833143651 0 0.001182692655177223 -0.061256062749535413 0 0.0012485925194592445 -0.06126854777315259 0 0.0012002612463973743 -0.06120965833143651 0 0.0012485925194592445 -0.06126854777315259 0 0.0013388827960803382 -0.061192038907186795 0 0.001182692655177223 -0.061256062749535413 0 0.0012260431350945187 -0.061311668760736404 0 0.0012043735675653304 -0.061258424490175052 0 0.001182692655177223 -0.061256062749535413 0 0.0012485925194592445 -0.06126854777315259 0 0.0012260431350945187 -0.061311668760736404 0 0.0012485925194592445 -0.06126854777315259 0 0.0012260431350945187 -0.061311668760736404 0 0.0012474365762558872 -0.061366179908723124 0 0.0012260431350945187 -0.061311668760736404 0 0.0012474365762558872 -0.061366179908723124 0 0.001229448262031325 -0.061341270874851778 0 0.0012260431350945187 -0.061311668760736404 0 0.0012043735675653304 -0.061258424490175052 0 0.001229448262031325 -0.061341270874851778 0 0.0011206042448950483 -0.061224030865462242 0 0.001182692655177223 -0.061256062749535413 0 0.0012043735675653304 -0.061258424490175052 0 0.0014269579564902201 -0.061340666996775234 0 0.0014034649312523108 -0.061425649127513617 0 0.0012474365762558872 -0.061366179908723124 0 0.0014269579564902201 -0.061340666996775234 0 0.0014034649312523108 -0.061425649127513617 0 0.0015887312312497441 -0.061369094282048224 0 0.0014034649312523108 -0.061425649127513617 0 0.0015887312312497441 -0.061369094282048224 0 0.0015730646991159833 -0.061456192031974562 0 0.0014034649312523108 -0.061425649127513617 0 0.0015730646991159833 -0.061456192031974562 0 0.0014713834915444229 -0.061521069950675696 0 0.0014034649312523108 -0.061425649127513617 0 0.0012474365762558872 -0.061366179908723124 0 0.001070389429278935 -0.061474960784508675 0 0.0014269579564902201 -0.061340666996775234 0 0.0012474365762558872 -0.061366179908723124 0 0.0013662564681745906 -0.061277665967056388 0 0.0012485925194592445 -0.06126854777315259 0 0.0013662564681745906 -0.061277665967056388 0 0.0013388827960803382 -0.061192038907186795 0 0.0012485925194592445 -0.06126854777315259 0 0.0012474365762558872 -0.061366179908723124 0 0.0013662564681745906 -0.061277665967056388 0 0.0013662564681745906 -0.061277665967056388 0 0.0014629425689326079 -0.061199518287988967 0 0.0013388827960803382 -0.061192038907186795 0 0.0013662564681745906 -0.061277665967056388 0 0.0015620536253003617 -0.06125816097736507 0 0.0014629425689326079 -0.061199518287988967 0 0.0014269579564902201 -0.061340666996775234 0 0.0013662564681745906 -0.061277665967056388 0 0.0015620536253003617 -0.06125816097736507 0 0.0014269579564902201 -0.061340666996775234 0 0.0015620536253003617 -0.06125816097736507 0 0.0015887312312497441 -0.061369094282048224 0 0.0015620536253003617 -0.06125816097736507 0 0.0014629425689326079 -0.061199518287988967 0 0.0016638579104432888 -0.061114197396791324 0 0.0014821170355899993 -0.061109867992147425 0 0.0015311632094119805 -0.060994619682319159 0 0.0016638579104432888 -0.061114197396791324 0 0.0014629425689326079 -0.061199518287988967 0 0.0014821170355899993 -0.061109867992147425 0 0.0016638579104432888 -0.061114197396791324 0 0.0012543337338540284 -0.061124441445909283 0 0.0013388827960803382 -0.061192038907186795 0 0.0013919978448732632 -0.061055000973030467 0 0.0014821170355899993 -0.061109867992147425 0 0.0013388827960803382 -0.061192038907186795 0 0.0013919978448732632 -0.061055000973030467 0 0.0014629425689326079 -0.061199518287988967 0 0.0014821170355899993 -0.061109867992147425 0 0.0013388827960803382 -0.061192038907186795 0 0.0014621762303833638 -0.060914765412880954 0 0.0013129768989578329 -0.061020471305304573 0 0.0013919978448732632 -0.061055000973030467 0 0.0014621762303833638 -0.060914765412880954 0 0.0013919978448732632 -0.061055000973030467 0 0.0015311632094119805 -0.060994619682319159 0 0.0014821170355899993 -0.061109867992147425 0 0.0013919978448732632 -0.061055000973030467 0 0.0015311632094119805 -0.060994619682319159 0 0.0017067257257582669 -0.06088945936240682 0 0.0015311632094119805 -0.060994619682319159 0 0.0016638579104432888 -0.061114197396791324 0 0.0017067257257582669 -0.06088945936240682 0 0.0020492336027427695 -0.060957077459139093 0 0.0016638579104432888 -0.061114197396791324 0 0.0020492336027427695 -0.060957077459139093 0 0.0016638579104432888 -0.061114197396791324 0 0.0019067918713035479 -0.061223797735821081 0 0.0020492336027427695 -0.060957077459139093 0 0.0023490054382877316 -0.06130071692651435 0 0.0019067918713035479 -0.061223797735821081 0 0.0023591951279856335 -0.060609040657428281 0 0.0020492336027427695 -0.060957077459139093 0 0.0025578581124635134 -0.060886152925969751 0 0.0020492336027427695 -0.060957077459139093 0 0.0025578581124635134 -0.060886152925969751 0 0.0023490054382877316 -0.06130071692651435 0 0.0023490054382877316 -0.06130071692651435 0 0.0023691087622303235 -0.061697687963612469 0 0.0030345669550229069 -0.061642426045199865 0 0.0023490054382877316 -0.06130071692651435 0 0.0018560415870909844 -0.061442717569605024 0 0.0023691087622303235 -0.061697687963612469 0 0.0018560415870909844 -0.061442717569605024 0 0.0016748446586946448 -0.06168366240324881 0 0.0023691087622303235 -0.061697687963612469 0 0.0015620536253003617 -0.06125816097736507 0 0.0016638579104432888 -0.061114197396791324 0 0.0017184801299697705 -0.061299061260087738 0 0.0017184801299697705 -0.061299061260087738 0 0.0019067918713035479 -0.061223797735821081 0 0.0018560415870909844 -0.061442717569605024 0 0.0016638579104432888 -0.061114197396791324 0 0.0017184801299697705 -0.061299061260087738 0 0.0019067918713035479 -0.061223797735821081 0 0.0015620536253003617 -0.06125816097736507 0 0.0017184801299697705 -0.061299061260087738 0 0.0015887312312497441 -0.061369094282048224 0 0.0023490054382877316 -0.06130071692651435 0 0.0019067918713035479 -0.061223797735821081 0 0.0018560415870909844 -0.061442717569605024 0 0.0017184801299697705 -0.061299061260087738 0 0.0018560415870909844 -0.061442717569605024 0 0.0015887312312497441 -0.061369094282048224 0 0.0018560415870909844 -0.061442717569605024 0 0.0015887312312497441 -0.061369094282048224 0 0.0015730646991159833 -0.061456192031974562 0 0.0018560415870909844 -0.061442717569605024 0 0.0015730646991159833 -0.061456192031974562 0 0.0016860504889828223 -0.061521899193841441 0 0.0018560415870909844 -0.061442717569605024 0 0.0016860504889828223 -0.061521899193841441 0 0.0016748446586946448 -0.06168366240324881 0 0.0015730646991159833 -0.061456192031974562 0 0.0016328231526617505 -0.061575704026036911 0 0.0014713834915444229 -0.061521069950675696 0 0.0015730646991159833 -0.061456192031974562 0 0.0016860504889828223 -0.061521899193841441 0 0.0016328231526617505 -0.061575704026036911 0 0.0016328231526617505 -0.061575704026036911 0 0.0016748446586946448 -0.06168366240324881 0 0.0014713834915444229 -0.061521069950675696 0 0.0016860504889828223 -0.061521899193841441 0 0.0016328231526617505 -0.061575704026036911 0 0.0016748446586946448 -0.06168366240324881 0 0.0040182901681871863 -0.049586200658162438 0 0.0021214399140716492 -0.047149725345946865 0 0.0031715916286563783 -0.033107246096280629 0 0.0029175707227404269 -0.032913564084504972 0 0.0026951214101360497 -0.033182680894808317 0 0.0031715916286563783 -0.033107246096280629 0 0.0031016677258409379 -0.032841965094524916 0 0.003232776681673378 -0.032713699298520922 0 0.0031715916286563783 -0.033107246096280629 0 0.0029175707227404269 -0.032913564084504972 0 0.0031016677258409379 -0.032841965094524916 0 0.0026951214101360497 -0.033182680894808317 0 0.0026575516199899185 -0.032751409300841305 0 0.0023345542998617829 -0.03290643513003258 0 0.0029175707227404269 -0.032913564084504972 0 0.0026951214101360497 -0.033182680894808317 0 0.0026575516199899185 -0.032751409300841305 0 0.0026575516199899185 -0.032751409300841305 0 0.0027513431720265252 -0.032464511033061881 0 0.0030065985024539787 -0.032629043065621109 0 0.0029175707227404269 -0.032913564084504972 0 0.0026575516199899185 -0.032751409300841305 0 0.0030065985024539787 -0.032629043065621109 0 0.0026575516199899185 -0.032751409300841305 0 0.0027513431720265252 -0.032464511033061881 0 0.002442023128239153 -0.032418089701074515 0 0.0031016677258409379 -0.032841965094524916 0 0.0030065985024539787 -0.032629043065621109 0 0.003232776681673378 -0.032713699298520922 0 0.0029175707227404269 -0.032913564084504972 0 0.0031016677258409379 -0.032841965094524916 0 0.0030065985024539787 -0.032629043065621109 0 0.0030065985024539787 -0.032629043065621109 0 0.003232776681673378 -0.032713699298520922 0 0.0032603695208243107 -0.032406301731984229 0 0.003232776681673378 -0.032713699298520922 0 0.0034837098690113483 -0.032591011903859039 0 0.0032603695208243107 -0.032406301731984229 0 0.0031715916286563783 -0.033107246096280629 0 0.003232776681673378 -0.032713699298520922 0 0.0034837098690113483 -0.032591011903859039 0 0.0032428758106760008 -0.059315338059418875 0 0.0010931219539733656 -0.059544452990599767 0 0.001372467294212772 -0.061020712214005041 0 0.0037545987437394074 -0.05779680711019089 0 0.0032428758106760008 -0.059315338059418875 0 0.0010931219539733656 -0.059544452990599767 0 0.0011339103431605817 -0.061299876219635258 0 0.001372467294212772 -0.061020712214005041 0 0.0011850395811369629 -0.06116169242238223 0 0.0022802595356652753 -0.059779634120432169 0 0.001905337413940653 -0.060213128656930959 0 0.0011384018052132752 -0.061189779699089064 0 0.0011850395811369629 -0.06116169242238223 0 0.0012554095196865432 -0.0611762242205839 0 0.001372467294212772 -0.061020712214005041 0 0.0011850395811369629 -0.06116169242238223 0 0.0012554095196865432 -0.0611762242205839 0 0.0011384018052132752 -0.061189779699089064 0 0.0012554095196865432 -0.0611762242205839 0 0.0012043735675653304 -0.061258424490175052 0 0.0011206042448950483 -0.061224030865462242 0 0.0011384018052132752 -0.061189779699089064 0 0.0012043735675653304 -0.061258424490175052 0 0.001372467294212772 -0.061020712214005041 0 0.0012554095196865432 -0.0611762242205839 0 0.001229448262031325 -0.061341270874851778 0 0.0012554095196865432 -0.0611762242205839 0 0.0012043735675653304 -0.061258424490175052 0 0.001229448262031325 -0.061341270874851778 0 0.001372467294212772 -0.061020712214005041 0 0.001229448262031325 -0.061341270874851778 0 0.001070389429278935 -0.061474960784508675 0 0.0012474365762558872 -0.061366179908723124 0 0.001229448262031325 -0.061341270874851778 0 0.001070389429278935 -0.061474960784508675 0 0.0040182901681871863 -0.049586200658162438 0 0.003505862226931862 -0.046709532556751684 0 -9.9627584627215061e-06 -0.061647857074506283 0 0.0010931219539733656 -0.059544452990599767 0 0.001372467294212772 -0.061020712214005041 0 -9.9627584627215061e-06 -0.061647857074506283 0 0.001372467294212772 -0.061020712214005041 0 0.001070389429278935 -0.061474960784508675 0 0.0014034649312523108 -0.061425649127513617 0 0.001070389429278935 -0.061474960784508675 0 0.0014713834915444229 -0.061521069950675696 0 0.0016748446586946448 -0.06168366240324881 0 0.001070389429278935 -0.061474960784508675 0 0.0014713834915444229 -0.061521069950675696 0 0.0040182901681871863 -0.049586200658162438 0 0.0030692913044321024 -0.050532449560250541 0 -0.0039177734150229763 -0.034440582621976835 0 -0.0014208583468428644 -0.035573088807042789 0 -0.0052177679543539482 -0.036996092836629142 0 -0.0039177734150229763 -0.034440582621976835 0 -0.0014208583468428644 -0.035573088807042789 0 -0.0023447261352408954 -0.032894560418554 0 -0.0014208583468428644 -0.035573088807042789 0 -0.0052177679543539482 -0.036996092836629142 0 -0.0017932666828498884 -0.038748586112711599 0 -0.0052177679543539482 -0.036996092836629142 0 -0.0076155421686883882 -0.036918545855238419 0 -0.0084318552498155643 -0.040227967898897571 0 -0.0076155421686883882 -0.036918545855238419 0 -0.0097352705001596401 -0.036937181012737311 0 -0.0084318552498155643 -0.040227967898897571 0 -0.0097352705001596401 -0.036937181012737311 0 -0.0070938863163538439 -0.033686185968894569 0 -0.010997625291959062 -0.032929133679791875 0 -0.0076155421686883882 -0.036918545855238419 0 -0.0097352705001596401 -0.036937181012737311 0 -0.0070938863163538439 -0.033686185968894569 0 -0.0052177679543539482 -0.036996092836629142 0 -0.0076155421686883882 -0.036918545855238419 0 -0.0070938863163538439 -0.033686185968894569 0 -0.0039177734150229763 -0.034440582621976835 0 -0.0052177679543539482 -0.036996092836629142 0 -0.0070938863163538439 -0.033686185968894569 0 -0.0070938863163538439 -0.033686185968894569 0 -0.0038538181819097986 -0.031900236757073104 0 -0.0061918429413104275 -0.028906446117641919 0 -0.0070938863163538439 -0.033686185968894569 0 -0.009052602831940133 -0.030511834339513405 0 -0.0061918429413104275 -0.028906446117641919 0 -0.0070938863163538439 -0.033686185968894569 0 -0.009052602831940133 -0.030511834339513405 0 -0.010997625291959062 -0.032929133679791875 0 -0.0027753159137115873 -0.030073011984336786 0 -0.0038538181819097986 -0.031900236757073104 0 -0.0061918429413104275 -0.028906446117641919 0 -0.0027753159137115873 -0.030073011984336786 0 -0.0038538181819097986 -0.031900236757073104 0 -0.002058568122597808 -0.031169848978058454 0 -0.0039177734150229763 -0.034440582621976835 0 -0.0038538181819097986 -0.031900236757073104 0 -0.0023447261352408954 -0.032894560418554 0 -0.0039177734150229763 -0.034440582621976835 0 -0.0070938863163538439 -0.033686185968894569 0 -0.0038538181819097986 -0.031900236757073104 0 -0.0014208583468428644 -0.035573088807042789 0 -0.0023447261352408954 -0.032894560418554 0 -0.00094207968055673344 -0.031445278771102411 0 -0.0038538181819097986 -0.031900236757073104 0 -0.0023447261352408954 -0.032894560418554 0 -0.002058568122597808 -0.031169848978058454 0 -0.0023447261352408954 -0.032894560418554 0 -0.00094207968055673344 -0.031445278771102411 0 -0.002058568122597808 -0.031169848978058454 0 -0.00094207968055673344 -0.031445278771102411 0 -0.002058568122597808 -0.031169848978058454 0 -0.0012033292312441102 -0.029617960112209483 0 -0.0027753159137115873 -0.030073011984336786 0 -0.002058568122597808 -0.031169848978058454 0 -0.0012033292312441102 -0.029617960112209483 0 -0.0027753159137115873 -0.030073011984336786 0 -0.0012033292312441102 -0.029617960112209483 0 -0.0022662387811024712 -0.028166813203697606 0 -0.00012045380856112347 -0.033092298433672521 0 0.0012620955556015699 -0.03124460802745601 0 -0.00033304379783145172 -0.029765330253442752 0 0.00033058121232573424 -0.030180142090063058 0 0.00015795327741079489 -0.028280010279220568 0 -0.0014208583468428644 -0.035573088807042789 0 0.0021009695732268027 -0.032141712189481024 0 0.00208155680507355 -0.032628636805947533 0 -0.0014208583468428644 -0.035573088807042789 0 0.00033058121232573424 -0.030180142090063058 0 0.0022051667787524503 -0.028974373063746776 0 -0.0014208583468428644 -0.035573088807042789 0 -0.00094207968055673344 -0.031445278771102411 0 0.00033058121232573424 -0.030180142090063058 0 -0.00094207968055673344 -0.031445278771102411 0 -0.00033304379783145172 -0.029765330253442752 0 0.00033058121232573424 -0.030180142090063058 0 -0.00094207968055673344 -0.031445278771102411 0 -0.0012033292312441102 -0.029617960112209483 0 -0.00033304379783145172 -0.029765330253442752 0 0.00033058121232573424 -0.030180142090063058 0 0.0022051667787524503 -0.028974373063746776 0 0.0011445783082318401 -0.028622341146093654 0 0.0026575516199899185 -0.032751409300841305 0 0.002442023128239153 -0.032418089701074515 0 0.0023584927576340369 -0.032694905714214649 0 0.00208155680507355 -0.032628636805947533 0 0.002442023128239153 -0.032418089701074515 0 0.0023584927576340369 -0.032694905714214649 0 0.0021009695732268027 -0.032141712189481024 0 0.00208155680507355 -0.032628636805947533 0 0.002442023128239153 -0.032418089701074515 0 0.00208155680507355 -0.032628636805947533 0 0.0023584927576340369 -0.032694905714214649 0 0.0023345542998617829 -0.03290643513003258 0 0.0026575516199899185 -0.032751409300841305 0 0.0023584927576340369 -0.032694905714214649 0 0.0023345542998617829 -0.03290643513003258 0 0.0026951214101360497 -0.033182680894808317 0 0.0023345542998617829 -0.03290643513003258 0 0.00218912102977542 -0.033248327365800912 0 -0.00017207582153768624 -0.037426151148263413 0 -0.0005284755516444604 -0.044656516468119523 0 0.0021214399140716492 -0.047149725345946865 0 -0.0005284755516444604 -0.044656516468119523 0 0.00208155680507355 -0.032628636805947533 0 0.0023345542998617829 -0.03290643513003258 0 0.00218912102977542 -0.033248327365800912 0 -0.0014208583468428644 -0.035573088807042789 0 0.0027633382683384076 -0.037852930682743272 0 -0.0017932666828498884 -0.038748586112711599 0 -0.0014208583468428644 -0.035573088807042789 0 0.00208155680507355 -0.032628636805947533 0 0.0027633382683384076 -0.037852930682743272 0 -0.00086363022060009071 -0.044259755236864144 0 0.003890418510107155 -0.03971471044844057 0 -0.0023924560503851182 -0.040230347848807621 0 -0.00086363022060009071 -0.044259755236864144 0 0.003890418510107155 -0.03971471044844057 0 0.004331456489012315 -0.046074152640886039 0 -0.0005284755516444604 -0.044656516468119523 0 -0.0023797902205980183 -0.042946103471467621 0 0.0023490054382877316 -0.06130071692651435 0 0.0030345669550229069 -0.061642426045199865 0 0.0030212831393847147 -0.061050683630529921 0 -0.0005284755516444604 -0.044656516468119523 0 0.0013990158276436669 -0.051655374278914375 0 0.0025578581124635134 -0.060886152925969751 0 0.0030212831393847147 -0.061050683630529921 0 0.0031282966835603616 -0.060382564254178976 0 0.0025578581124635134 -0.060886152925969751 0 0.0023490054382877316 -0.06130071692651435 0 0.0030212831393847147 -0.061050683630529921 0 -0.00086363022060009071 -0.044259755236864144 0 0.004331456489012315 -0.046074152640886039 0 0.0010629442395771955 -0.048735992588000293 0 0.004331456489012315 -0.046074152640886039 0 0.0010629442395771955 -0.048735992588000293 0 0.0043619935431396762 -0.052677025556763138 0 -0.00086363022060009071 -0.044259755236864144 0 0.0010629442395771955 -0.048735992588000293 0 -0.0020896262703538984 -0.048225433747886938 0 -0.0020896262703538984 -0.048225433747886938 0 -0.0053598065255320675 -0.046842715949497002 0 -0.0040627663005920796 -0.045020454062605984 0 -0.0020896262703538984 -0.048225433747886938 0 -0.0053598065255320675 -0.046842715949497002 0 -0.0033628619515803826 -0.050567311045403927 0 -0.0053598065255320675 -0.046842715949497002 0 -0.0040627663005920796 -0.045020454062605984 0 -0.0064440651794210307 -0.043513856139759041 0 -0.00086363022060009071 -0.044259755236864144 0 -0.0020896262703538984 -0.048225433747886938 0 -0.0040627663005920796 -0.045020454062605984 0 -0.0052177679543539482 -0.036996092836629142 0 -0.0017932666828498884 -0.038748586112711599 0 -0.0084318552498155643 -0.040227967898897571 0 -0.00086363022060009071 -0.044259755236864144 0 -0.0044761311521861183 -0.04243413980865015 0 -0.0023924560503851182 -0.040230347848807621 0 -0.0023797902205980183 -0.042946103471467621 0 -0.0044198947533334899 -0.042591095485427943 0 -0.00086363022060009071 -0.044259755236864144 0 -0.0040627663005920796 -0.045020454062605984 0 -0.0044761311521861183 -0.04243413980865015 0 -0.0044761311521861183 -0.04243413980865015 0 -0.0023924560503851182 -0.040230347848807621 0 -0.0084318552498155643 -0.040227967898897571 0 -0.0040627663005920796 -0.045020454062605984 0 -0.0044761311521861183 -0.04243413980865015 0 -0.0064440651794210307 -0.043513856139759041 0 -0.0097352705001596401 -0.036937181012737311 0 -0.0084318552498155643 -0.040227967898897571 0 -0.010034712714860996 -0.04271542964041454 0 -0.0044761311521861183 -0.04243413980865015 0 -0.0084318552498155643 -0.040227967898897571 0 -0.0064440651794210307 -0.043513856139759041 0 -0.0084318552498155643 -0.040227967898897571 0 -0.0064440651794210307 -0.043513856139759041 0 -0.010034712714860996 -0.04271542964041454 0 0.014058050405922973 0.036742017428917299 0 0.014872003614565164 0.034563071360717741 0 0.016167747065113931 0.033541773233166934 0 0.0013669187897904739 -0.0038648183430269054 0 0.0055955687032325594 -0.0078147472236930714 0 -0.0053598065255320675 -0.046842715949497002 0 -0.010034712714860996 -0.04271542964041454 0 -0.0061757184997893316 -0.050442039842180729 0 0.014058050405922973 0.036742017428917299 0 0.014139024705897099 0.034911803161913502 0 0.014872003614565164 0.034563071360717741 0 -0.0053598065255320675 -0.046842715949497002 0 -0.0064440651794210307 -0.043513856139759041 0 -0.010034712714860996 -0.04271542964041454 0 0.014139024705897099 0.034911803161913502 0 0.014872003614565164 0.034563071360717741 0 0.01513568411781461 0.033065100718588952 0 0.01513568411781461 0.033065100718588952 0 0.016167747065113931 0.033541773233166934 0 0.018087907092947997 0.031225174239642928 0 0.0147295671403651 0.034310113375847585 0 0.014062803421815883 0.03301476039135267 0 0.012668101091085645 0.033941609749948157 0 0.014872003614565164 0.034563071360717741 0 0.01513568411781461 0.033065100718588952 0 0.016167747065113931 0.033541773233166934 0 -0.0053598065255320675 -0.046842715949497002 0 -0.0061757184997893316 -0.050442039842180729 0 -0.0033628619515803826 -0.050567311045403927 0 -0.0020896262703538984 -0.048225433747886938 0 -0.0033628619515803826 -0.050567311045403927 0 -0.00047938235597571216 -0.05232989353067146 0 -0.0028278541193126993 -0.053787636786658301 0 -0.00047938235597571216 -0.05232989353067146 0 -0.00087382375290651038 -0.054982852567682636 0 -0.0033628619515803826 -0.050567311045403927 0 -0.0028278541193126993 -0.053787636786658301 0 -0.00047938235597571216 -0.05232989353067146 0 -0.0061757184997893316 -0.050442039842180729 0 -0.0033628619515803826 -0.050567311045403927 0 -0.0028278541193126993 -0.053787636786658301 0 -0.0061757184997893316 -0.050442039842180729 0 -0.0028278541193126993 -0.053787636786658301 0 -0.001631112761026354 -0.05755481862802491 0 0.016167747065113931 0.033541773233166934 0 0.018087907092947997 0.031225174239642928 0 0.018508975617395538 0.031138515127107365 0 0.0147295671403651 0.034310113375847585 0 0.018087907092947997 0.031225174239642928 0 0.016295094473056909 0.031868632887534061 0 0.014726435807294524 0.033862520545282868 0 0.016056772577263435 0.032619036832393873 0 0.0055955687032325594 -0.0078147472236930714 0 0.0095929429751548632 -0.010384201319374158 0 -0.0028278541193126993 -0.053787636786658301 0 -0.0014459272485475554 -0.055747482709642748 0 -0.001631112761026354 -0.05755481862802491 0 -0.0028278541193126993 -0.053787636786658301 0 -0.0014459272485475554 -0.055747482709642748 0 -0.00087382375290651038 -0.054982852567682636 0 -0.0014459272485475554 -0.055747482709642748 0 -0.001631112761026354 -0.05755481862802491 0 -0.00053660248371858565 -0.056613285984483848 0 0.018087907092947997 0.031225174239642928 0 0.017241400783840618 0.030751010599100573 0 0.018092785270185895 0.030474382753571859 0 0.018087907092947997 0.031225174239642928 0 0.018508975617395538 0.031138515127107365 0 0.018092785270185895 0.030474382753571859 0 0.018087907092947997 0.031225174239642928 0 0.017241400783840618 0.030751010599100573 0 0.016295094473056909 0.031868632887534061 0 0.017241400783840618 0.030751010599100573 0 0.016295094473056909 0.031868632887534061 0 0.016116087952177092 0.030622993446604924 0 0.0147295671403651 0.034310113375847585 0 0.016295094473056909 0.031868632887534061 0 0.015217071115043196 0.032249561850668337 0 0.016295094473056909 0.031868632887534061 0 0.015217071115043196 0.032249561850668337 0 0.016116087952177092 0.030622993446604924 0 0.013751139809515063 0.031530337751107029 0 0.015217071115043196 0.032249561850668337 0 0.016116087952177092 0.030622993446604924 0 0.013751139809515063 0.031530337751107029 0 0.014062803421815883 0.03301476039135267 0 0.015217071115043196 0.032249561850668337 0 0.0147295671403651 0.034310113375847585 0 0.014062803421815883 0.03301476039135267 0 0.015217071115043196 0.032249561850668337 0 0.0013990158276436669 -0.051655374278914375 0 0.0022602510224612442 -0.055026197411357204 0 0.0023591951279856335 -0.060609040657428281 0 0.0025578581124635134 -0.060886152925969751 0 0.0031282966835603616 -0.060382564254178976 0 0.0010629442395771955 -0.048735992588000293 0 0.0043619935431396762 -0.052677025556763138 0 -0.00047938235597571216 -0.05232989353067146 0 0.0043619935431396762 -0.052677025556763138 0 -0.00047938235597571216 -0.05232989353067146 0 0.0013453154410538585 -0.05585330488545865 0 0.0010629442395771955 -0.048735992588000293 0 -0.0020896262703538984 -0.048225433747886938 0 -0.00047938235597571216 -0.05232989353067146 0 -0.00087382375290651038 -0.054982852567682636 0 -0.00053660248371858565 -0.056613285984483848 0 0.0013453154410538585 -0.05585330488545865 0 -0.00047938235597571216 -0.05232989353067146 0 -0.00087382375290651038 -0.054982852567682636 0 0.0013453154410538585 -0.05585330488545865 0 -0.0014459272485475554 -0.055747482709642748 0 -0.00087382375290651038 -0.054982852567682636 0 -0.00053660248371858565 -0.056613285984483848 0 -0.001631112761026354 -0.05755481862802491 0 -0.00039487043208977912 -0.057471559522970492 0 0.00058479223197777184 -0.058436703167535367 0 -0.00053660248371858565 -0.056613285984483848 0 0.0004020487991982942 -0.057366656844400142 0 0.0013453154410538585 -0.05585330488545865 0 -0.001631112761026354 -0.05755481862802491 0 -0.00053660248371858565 -0.056613285984483848 0 -0.00039487043208977912 -0.057471559522970492 0 -0.00053660248371858565 -0.056613285984483848 0 -0.00039487043208977912 -0.057471559522970492 0 0.0004020487991982942 -0.057366656844400142 0 -0.00039487043208977912 -0.057471559522970492 0 0.0004020487991982942 -0.057366656844400142 0 0.00058479223197777184 -0.058436703167535367 0 0.0017483804724100188 -0.058088946055069798 0 0.0013453154410538585 -0.05585330488545865 0 0.0031239971074155377 -0.058942633804557554 0 0.0004020487991982942 -0.057366656844400142 0 0.0017483804724100188 -0.058088946055069798 0 0.0013453154410538585 -0.05585330488545865 0 0.0043619935431396762 -0.052677025556763138 0 0.0013453154410538585 -0.05585330488545865 0 0.0031239971074155377 -0.058942633804557554 0 0.0023398980047509023 -0.060083614690761573 0 0.0031282966835603616 -0.060382564254178976 0 0.0031239971074155377 -0.058942633804557554 0 0.0022602510224612442 -0.055026197411357204 0 0.0024874074239557417 -0.056291389688451383 0 0.0025903061490408072 -0.059575682287062594 0 0.0026195397328247815 -0.05969595272282141 0 0.0031239971074155377 -0.058942633804557554 0 0.0017483804724100188 -0.058088946055069798 0 0.0031239971074155377 -0.058942633804557554 0 0.0023981091746355949 -0.059418127112381855 0 0.0026195397328247815 -0.05969595272282141 0 0.0023981091746355949 -0.059418127112381855 0 0.0022153438051483389 -0.060093438758988781 0 0.0026195397328247815 -0.05969595272282141 0 0.0031239971074155377 -0.058942633804557554 0 0.0023981091746355949 -0.059418127112381855 0 0.018508975617395538 0.031138515127107365 0 0.021300605918733239 0.026903935265851688 0 0.018879924875090943 0.029225895605470478 0 -0.001631112761026354 -0.05755481862802491 0 0.00058479223197777184 -0.058436703167535367 0 0.0019718354346003907 -0.060615479114939273 0 0.0016846354268543948 -0.059442417845882611 0 0.00058479223197777184 -0.058436703167535367 0 0.0019718354346003907 -0.060615479114939273 0 0.0095929429751548632 -0.010384201319374158 0 0.011712139257601123 -0.0064429415394828609 0 0.0023981091746355949 -0.059418127112381855 0 0.0016846354268543948 -0.059442417845882611 0 0.0022153438051483389 -0.060093438758988781 0 0.0023981091746355949 -0.059418127112381855 0 0.0016846354268543948 -0.059442417845882611 0 0.0015436220230442975 -0.058799081356339537 0 0.0017483804724100188 -0.058088946055069798 0 0.0023981091746355949 -0.059418127112381855 0 0.0015436220230442975 -0.058799081356339537 0 0.0016846354268543948 -0.059442417845882611 0 0.0015436220230442975 -0.058799081356339537 0 0.00058479223197777184 -0.058436703167535367 0 0.0004020487991982942 -0.057366656844400142 0 0.0017483804724100188 -0.058088946055069798 0 0.00058479223197777184 -0.058436703167535367 0 0.0017483804724100188 -0.058088946055069798 0 0.0015436220230442975 -0.058799081356339537 0 0.00058479223197777184 -0.058436703167535367 0 0.021300605918733239 0.026903935265851688 0 0.0189270691384733 0.028092571701493381 0 0.018879924875090943 0.029225895605470478 0 0.021300605918733239 0.026903935265851688 0 0.0189270691384733 0.028092571701493381 0 0.018921545824739205 0.026347428367507832 0 0.0016846354268543948 -0.059442417845882611 0 0.0019718354346003907 -0.060615479114939273 0 0.0022153438051483389 -0.060093438758988781 0 0.0023390553010429046 -0.059985237112861439 0 0.0022153438051483389 -0.060093438758988781 0 0.0024831525117928258 -0.05980484873732142 0 0.011712139257601123 -0.0064429415394828609 0 0.011177043983409672 -0.0072816585142392821 0 0.013480304719978053 -0.01581509609274015 0 0.011712139257601123 -0.0064429415394828609 0 0.0026098527737536395 -0.059561882702831463 0 0.0023390553010429046 -0.059985237112861439 0 0.0024831525117928258 -0.05980484873732142 0 0.0026195397328247815 -0.05969595272282141 0 0.0022153438051483389 -0.060093438758988781 0 0.0024831525117928258 -0.05980484873732142 0 0.0024442006366917212 -0.059639610564045299 0 0.0024843470947753916 -0.05973902305871525 0 0.0024831525117928258 -0.05980484873732142 0 0.0024843470947753916 -0.05973902305871525 0 0.0026195397328247815 -0.05969595272282141 0 0.0024831525117928258 -0.05980484873732142 0 0.016377335978756867 0.029089605268573689 0 0.014600709765862072 0.028758156160971538 0 0.017264228827485097 0.027414073091174766 0 0.013751139809515063 0.031530337751107029 0 0.014600709765862072 0.028758156160971538 0 0.016116087952177092 0.030622993446604924 0 0.016377335978756867 0.029089605268573689 0 0.014600709765862072 0.028758156160971538 0 0.016116087952177092 0.030622993446604924 0 0.017241400783840618 0.030751010599100573 0 0.016116087952177092 0.030622993446604924 0 0.017611173980341083 0.029511002717786679 0 0.016377335978756867 0.029089605268573689 0 0.016116087952177092 0.030622993446604924 0 0.017611173980341083 0.029511002717786679 0 0.017241400783840618 0.030751010599100573 0 0.017611173980341083 0.029511002717786679 0 0.018092785270185895 0.030474382753571859 0 0.018508975617395538 0.031138515127107365 0 0.018092785270185895 0.030474382753571859 0 0.018879924875090943 0.029225895605470478 0 0.017611173980341083 0.029511002717786679 0 0.018092785270185895 0.030474382753571859 0 0.018879924875090943 0.029225895605470478 0 0.017611173980341083 0.029511002717786679 0 0.0189270691384733 0.028092571701493381 0 0.017264228827485097 0.027414073091174766 0 0.017611173980341083 0.029511002717786679 0 0.0189270691384733 0.028092571701493381 0 0.018879924875090943 0.029225895605470478 0 0.016377335978756867 0.029089605268573689 0 0.017611173980341083 0.029511002717786679 0 0.017264228827485097 0.027414073091174766 0 0.018191621066514996 0.022940052977041863 0 0.017264228827485097 0.027414073091174766 0 0.018921545824739205 0.026347428367507832 0 0.018191621066514996 0.022940052977041863 0 0.021300605918733239 0.026903935265851688 0 0.018921545824739205 0.026347428367507832 0 0.018191621066514996 0.022940052977041863 0 0.017264228827485097 0.027414073091174766 0 0.015057846983254328 0.025676568457813232 0 0.0189270691384733 0.028092571701493381 0 0.017264228827485097 0.027414073091174766 0 0.018921545824739205 0.026347428367507832 0 0.014600709765862072 0.028758156160971538 0 0.017264228827485097 0.027414073091174766 0 0.015057846983254328 0.025676568457813232 0 0.014600709765862072 0.028758156160971538 0 0.015057846983254328 0.025676568457813232 0 0.011904881221305515 0.026300331650402835 0 0.014600709765862072 0.028758156160971538 0 0.011904881221305515 0.026300331650402835 0 0.010753794545799852 0.029833131291929264 0 0.013751139809515063 0.031530337751107029 0 0.014600709765862072 0.028758156160971538 0 0.010753794545799852 0.029833131291929264 0 0.010753794545799852 0.029833131291929264 0 0.0081094351323040686 0.028242336154491406 0 0.0066753801148266637 0.031423358426028156 0 0.0092372229399298681 0.025361668566687281 0 0.011904881221305515 0.026300331650402835 0 0.0081094351323040686 0.028242336154491406 0 0.011904881221305515 0.026300331650402835 0 0.010753794545799852 0.029833131291929264 0 0.0081094351323040686 0.028242336154491406 0 0.0081094351323040686 0.028242336154491406 0 0.0057425580864358984 0.026523433918880981 0 0.0046730591029883499 0.03018138596647519 0 0.0092372229399298681 0.025361668566687281 0 0.0081094351323040686 0.028242336154491406 0 0.0057425580864358984 0.026523433918880981 0 0.0057425580864358984 0.026523433918880981 0 0.0024311953095432241 0.026760766955898643 0 0.0046730591029883499 0.03018138596647519 0 0.0038116741288007458 0.024789502534118369 0 0.0057425580864358984 0.026523433918880981 0 0.0024311953095432241 0.026760766955898643 0 0.0029312231330971355 0.027758124850636598 0 0.003301463410783368 0.028403121748990717 0 0.0043086185543215576 0.030045593926124801 0 0.0046730591029883499 0.03018138596647519 0 0.004021488774039174 0.03065003706308839 0 0.0046730591029883499 0.03018138596647519 0 0.004021488774039174 0.03065003706308839 0 0.0041292860047690786 0.032171522916766629 0 0.0046730591029883499 0.03018138596647519 0 0.0066753801148266637 0.031423358426028156 0 0.0041292860047690786 0.032171522916766629 0 0.0081094351323040686 0.028242336154491406 0 0.0046730591029883499 0.03018138596647519 0 0.0066753801148266637 0.031423358426028156 0 0.0066753801148266637 0.031423358426028156 0 0.0055298113773435253 0.033756988885285985 0 0.0090244478461840392 0.033088265963350835 0 0.0069552582690468774 0.033780793393044614 0 0.0097142523528679307 0.032900565526635998 0 0.0066753801148266637 0.031423358426028156 0 0.0055298113773435253 0.033756988885285985 0 0.0041292860047690786 0.032171522916766629 0 0.0077132810054879406 0.033784517650591039 0 0.0049870029637959249 0.034767598186429396 0 0.0068281835209272933 0.036227848872153565 0 0.0077132810054879406 0.033784517650591039 0 0.010551914129739319 0.032765744443814311 0 0.0093596256901199437 0.035924927561744556 0 0.011160044595297881 0.034783667157109795 0 0.012668101091085645 0.033941609749948157 0 0.010551914129739319 0.032765744443814311 0 0.011160044595297881 0.034783667157109795 0 0.010551914129739319 0.032765744443814311 0 0.0093596256901199437 0.035924927561744556 0 0.0147295671403651 0.034310113375847585 0 0.012668101091085645 0.033941609749948157 0 0.01209033922740332 0.036448061652843568 0 0.011160044595297881 0.034783667157109795 0 0.012668101091085645 0.033941609749948157 0 0.01209033922740332 0.036448061652843568 0 0.013751139809515063 0.031530337751107029 0 0.014062803421815883 0.03301476039135267 0 0.012668101091085645 0.033941609749948157 0 0.013751139809515063 0.031530337751107029 0 0.012668101091085645 0.033941609749948157 0 0.010551914129739319 0.032765744443814311 0 0.013751139809515063 0.031530337751107029 0 0.010753794545799852 0.029833131291929264 0 0.0090244478461840392 0.033088265963350835 0 0.011473677549289863 0.032335256732388379 0 0.0097142523528679307 0.032900565526635998 0 0.010753794545799852 0.029833131291929264 0 0.0066753801148266637 0.031423358426028156 0 0.0090244478461840392 0.033088265963350835 0 -0.00067640414544733671 0.032943385474235753 0 0.0006439078902430867 0.030877226047642359 0 0.00089610068159333726 0.033508718193782157 0 0.00083993153206005436 0.029794343449577022 0 -0.00015943135135690518 0.029982828491289564 0 0.0006439078902430867 0.030877226047642359 0 0.0006439078902430867 0.030877226047642359 0 0.0019828842340338534 0.031717296946112895 0 0.0024489472286519823 0.029892339754048591 0 0.0010869202968735892 0.029048318332434441 0 0.0016891869958726889 0.028298497138557234 0 0.00083993153206005436 0.029794343449577022 0 0.0006439078902430867 0.030877226047642359 0 0.0023241069246608009 0.02997100333221165 0 0.0006439078902430867 0.030877226047642359 0 0.0019828842340338534 0.031717296946112895 0 0.00089610068159333726 0.033508718193782157 0 0.0019828842340338534 0.031717296946112895 0 0.0031643553770837923 0.031299643471389534 0 0.0026557457395300502 0.033188123159956014 0 0.0019828842340338534 0.031717296946112895 0 0.0031643553770837923 0.031299643471389534 0 0.0024489472286519823 0.029892339754048591 0 0.0031643553770837923 0.031299643471389534 0 0.0024489472286519823 0.029892339754048591 0 0.0036220952191378993 0.030201118485321567 0 0.003920326995023221 0.029184153260508165 0 0.0043086185543215576 0.030045593926124801 0 0.0036220952191378993 0.030201118485321567 0 0.0043086185543215576 0.030045593926124801 0 0.0036220952191378993 0.030201118485321567 0 0.004021488774039174 0.03065003706308839 0 0.0031643553770837923 0.031299643471389534 0 0.004021488774039174 0.03065003706308839 0 0.0041292860047690786 0.032171522916766629 0 0.0031643553770837923 0.031299643471389534 0 0.0036220952191378993 0.030201118485321567 0 0.004021488774039174 0.03065003706308839 0 0.0041292860047690786 0.032171522916766629 0 0.0036076712646655002 0.034447615314469458 0 0.0026557457395300502 0.033188123159956014 0 0.0069552582690468774 0.033780793393044614 0 0.0045901983714890238 0.034581082680134212 0 0.0055298113773435253 0.033756988885285985 0 0.0041292860047690786 0.032171522916766629 0 0.0036076712646655002 0.034447615314469458 0 0.0045901983714890238 0.034581082680134212 0 0.0033840759903944438 0.035019253731923605 0 0.0036076712646655002 0.034447615314469458 0 0.0026557457395300502 0.033188123159956014 0 0.0022119031297606517 0.035738325468893613 0 0.0031643553770837923 0.031299643471389534 0 0.0041292860047690786 0.032171522916766629 0 0.0026557457395300502 0.033188123159956014 0 0.0019828842340338534 0.031717296946112895 0 0.0026557457395300502 0.033188123159956014 0 0.00089610068159333726 0.033508718193782157 0 0.0026557457395300502 0.033188123159956014 0 0.00089610068159333726 0.033508718193782157 0 0.0022119031297606517 0.035738325468893613 0 -0.00086000167087601695 0.034755723746739665 0 0.00089610068159333726 0.033508718193782157 0 0.00022655288395567828 0.036166950123051329 0 0.00089610068159333726 0.033508718193782157 0 0.00022655288395567828 0.036166950123051329 0 0.0022119031297606517 0.035738325468893613 0 0.0010581510326367833 0.038244523832564589 0 0.0022119031297606517 0.035738325468893613 0 0.0028578369355260272 0.039269198844114686 0 -0.00037167805359535506 0.038078831016640079 0 0.0010581510326367833 0.038244523832564589 0 0.00022655288395567828 0.036166950123051329 0 -0.00037167805359535506 0.038078831016640079 0 6.8666628192707809e-05 0.039645680572053442 0 0.0010581510326367833 0.038244523832564589 0 0.0010581510326367833 0.038244523832564589 0 0.00022655288395567828 0.036166950123051329 0 0.0022119031297606517 0.035738325468893613 0 0.0022119031297606517 0.035738325468893613 0 0.0042556101618632458 0.037269592893917083 0 0.0028578369355260272 0.039269198844114686 0 0.0042556101618632458 0.037269592893917083 0 0.0044823006146849078 0.039223808446830849 0 0.0028578369355260272 0.039269198844114686 0 0.0049870029637959249 0.034767598186429396 0 0.0022119031297606517 0.035738325468893613 0 0.0042556101618632458 0.037269592893917083 0 0.0049870029637959249 0.034767598186429396 0 0.0042556101618632458 0.037269592893917083 0 0.0068281835209272933 0.036227848872153565 0 0.0042556101618632458 0.037269592893917083 0 0.0060133139910254763 0.038379839205033385 0 0.0068281835209272933 0.036227848872153565 0 0.0042556101618632458 0.037269592893917083 0 0.0060133139910254763 0.038379839205033385 0 0.0044823006146849078 0.039223808446830849 0 0.0060133139910254763 0.038379839205033385 0 0.0056315912549569185 0.040191356670978395 0 0.0044823006146849078 0.039223808446830849 0 0.0056315912549569185 0.040191356670978395 0 0.0069283141202535195 0.0409839305820099 0 0.0053184664203618521 0.04185248726698975 0 0.0056315912549569185 0.040191356670978395 0 0.0037366528240067752 0.040864716341263423 0 0.0053184664203618521 0.04185248726698975 0 0.0037366528240067752 0.040864716341263423 0 0.0040233438941435599 0.042044719101343775 0 0.0053184664203618521 0.04185248726698975 0 0.0037366528240067752 0.040864716341263423 0 0.0024007496957963118 0.042083595944134529 0 0.0040233438941435599 0.042044719101343775 0 0.0056315912549569185 0.040191356670978395 0 0.0037366528240067752 0.040864716341263423 0 0.0044823006146849078 0.039223808446830849 0 0.0037366528240067752 0.040864716341263423 0 0.0044823006146849078 0.039223808446830849 0 0.0028578369355260272 0.039269198844114686 0 0.0037366528240067752 0.040864716341263423 0 0.0028578369355260272 0.039269198844114686 0 0.0014618404655012084 0.040766955340191438 0 0.0010581510326367833 0.038244523832564589 0 0.0028578369355260272 0.039269198844114686 0 0.0014618404655012084 0.040766955340191438 0 0.0037366528240067752 0.040864716341263423 0 0.0014618404655012084 0.040766955340191438 0 0.0024007496957963118 0.042083595944134529 0 4.1936729434012879e-05 0.041530708800939745 0 0.00060187055005865293 0.042583576866062484 0 0.0014618404655012084 0.040766955340191438 0 6.8666628192707809e-05 0.039645680572053442 0 0.0010581510326367833 0.038244523832564589 0 0.0014618404655012084 0.040766955340191438 0 4.1936729434012879e-05 0.041530708800939745 0 6.8666628192707809e-05 0.039645680572053442 0 0.0014618404655012084 0.040766955340191438 0 0.0098875292468118981 0.038347922204814054 0 0.012024471383321841 0.037666528229713156 0 0.012286758287005707 0.035635880415356661 0 0.0098875292468118981 0.038347922204814054 0 0.01209033922740332 0.036448061652843568 0 0.0093596256901199437 0.035924927561744556 0 0.011448129093462961 0.036998355918395731 0 0.012630005913516609 0.035844909382869182 0 0.014058050405922973 0.036742017428917299 0 0.012024471383321841 0.037666528229713156 0 0.012224269884662246 0.038285789994250356 0 0.014058050405922973 0.036742017428917299 0 0.012958054567666027 0.0364744067411919 0 0.013453292513408767 0.035837860804680932 0 0.014058050405922973 0.036742017428917299 0 0.012024471383321841 0.037666528229713156 0 0.012958054567666027 0.0364744067411919 0 0.012024471383321841 0.037666528229713156 0 0.012958054567666027 0.0364744067411919 0 0.012286758287005707 0.035635880415356661 0 0.014139024705897099 0.034911803161913502 0 0.01513568411781461 0.033065100718588952 0 0.012286758287005707 0.035635880415356661 0 0.014726435807294524 0.033862520545282868 0 0.012630005913516609 0.035844909382869182 0 0.014139024705897099 0.034911803161913502 0 0.012286758287005707 0.035635880415356661 0 0.013453292513408767 0.035837860804680932 0 0.012958054567666027 0.0364744067411919 0 0.012286758287005707 0.035635880415356661 0 0.013453292513408767 0.035837860804680932 0 0.014058050405922973 0.036742017428917299 0 0.014139024705897099 0.034911803161913502 0 0.013453292513408767 0.035837860804680932 0 0.011160044595297881 0.034783667157109795 0 0.01209033922740332 0.036448061652843568 0 0.0093596256901199437 0.035924927561744556 0 0.0077132810054879406 0.033784517650591039 0 0.0093596256901199437 0.035924927561744556 0 0.0068281835209272933 0.036227848872153565 0 0.0093596256901199437 0.035924927561744556 0 0.0068281835209272933 0.036227848872153565 0 0.0080853587601303085 0.038046825494114152 0 0.0060133139910254763 0.038379839205033385 0 0.0068281835209272933 0.036227848872153565 0 0.0080853587601303085 0.038046825494114152 0 0.0098875292468118981 0.038347922204814054 0 0.0093596256901199437 0.035924927561744556 0 0.0080853587601303085 0.038046825494114152 0 0.0098875292468118981 0.038347922204814054 0 0.0080853587601303085 0.038046825494114152 0 0.0093460558561641784 0.039605054991762853 0 0.0080853587601303085 0.038046825494114152 0 0.0093460558561641784 0.039605054991762853 0 0.0074011140771185827 0.039751324533904453 0 0.0093460558561641784 0.039605054991762853 0 0.0074011140771185827 0.039751324533904453 0 0.0082948202782808823 0.040813131027146989 0 0.0060133139910254763 0.038379839205033385 0 0.0080853587601303085 0.038046825494114152 0 0.0074011140771185827 0.039751324533904453 0 0.0060133139910254763 0.038379839205033385 0 0.0056315912549569185 0.040191356670978395 0 0.0074011140771185827 0.039751324533904453 0 0.0069283141202535195 0.0409839305820099 0 0.0080792643966946503 0.042254318342618544 0 0.0053184664203618521 0.04185248726698975 0 0.0056315912549569185 0.040191356670978395 0 0.0074011140771185827 0.039751324533904453 0 0.0069283141202535195 0.0409839305820099 0 0.0074011140771185827 0.039751324533904453 0 0.0069283141202535195 0.0409839305820099 0 0.0082948202782808823 0.040813131027146989 0 0.0069283141202535195 0.0409839305820099 0 0.0082948202782808823 0.040813131027146989 0 0.0080792643966946503 0.042254318342618544 0 0.0093460558561641784 0.039605054991762853 0 0.0082948202782808823 0.040813131027146989 0 0.0096710758206550833 0.041216999039676398 0 0.0032419713654106923 0.024109585485311457 0 0.004170930048115102 0.016561760673726261 0 0.0082948202782808823 0.040813131027146989 0 0.0096710758206550833 0.041216999039676398 0 0.0080792643966946503 0.042254318342618544 0 -0.014006226245580707 -0.034873107419564155 0 -0.014306988547081963 -0.030374428553151357 0 -0.018238635728530662 -0.027307563030611604 0 -0.0028875876338316539 -0.0012158720433745015 0 -0.0050891995730310028 -0.0068157212286161081 0 0.0093460558561641784 0.039605054991762853 0 0.0096710758206550833 0.041216999039676398 0 0.01132554406472594 0.040048979521556657 0 0.01132554406472594 0.040048979521556657 0 0.011928733398918052 0.039747016943029796 0 0.010587612651927222 0.041473702286411722 0 0.010157000248394027 0.040667705008755779 0 0.01132554406472594 0.040048979521556657 0 0.010587612651927222 0.041473702286411722 0 0.0032419713654106923 0.024109585485311457 0 0.0034248593889509476 0.026131819262763312 0 0.0098875292468118981 0.038347922204814054 0 0.012024471383321841 0.037666528229713156 0 0.011000423821162999 0.03897252473803698 0 0.0093460558561641784 0.039605054991762853 0 0.01132554406472594 0.040048979521556657 0 0.011000423821162999 0.03897252473803698 0 0.01132554406472594 0.040048979521556657 0 0.011000423821162999 0.03897252473803698 0 0.011928733398918052 0.039747016943029796 0 0.012024471383321841 0.037666528229713156 0 0.011000423821162999 0.03897252473803698 0 0.012224269884662246 0.038285789994250356 0 0.0098875292468118981 0.038347922204814054 0 0.0093460558561641784 0.039605054991762853 0 0.011000423821162999 0.03897252473803698 0 0.0013669187897904739 -0.0038648183430269054 0 -0.0028875876338316539 -0.0012158720433745015 0 -0.0097352705001596401 -0.036937181012737311 0 -0.010034712714860996 -0.04271542964041454 0 -0.014006226245580707 -0.034873107419564155 0 0.014058050405922973 0.036742017428917299 0 0.012224269884662246 0.038285789994250356 0 0.011928733398918052 0.039747016943029796 0 0.011000423821162999 0.03897252473803698 0 0.012224269884662246 0.038285789994250356 0 0.011928733398918052 0.039747016943029796 0 -0.0097352705001596401 -0.036937181012737311 0 -0.014006226245580707 -0.034873107419564155 0 -0.010997625291959062 -0.032929133679791875 0 -0.014006226245580707 -0.034873107419564155 0 -0.010997625291959062 -0.032929133679791875 0 -0.014306988547081963 -0.030374428553151357 0 -0.009052602831940133 -0.030511834339513405 0 -0.010995971096753029 -0.030145092788958081 0 -0.0096271867108954218 -0.026750741045098014 0 -0.014306988547081963 -0.030374428553151357 0 -0.010995971096753029 -0.030145092788958081 0 -0.0096271867108954218 -0.026750741045098014 0 -0.009052602831940133 -0.030511834339513405 0 -0.010997625291959062 -0.032929133679791875 0 -0.010995971096753029 -0.030145092788958081 0 -0.010997625291959062 -0.032929133679791875 0 -0.014306988547081963 -0.030374428553151357 0 -0.010995971096753029 -0.030145092788958081 0 -0.014306988547081963 -0.030374428553151357 0 -0.018238635728530662 -0.027307563030611604 0 -0.0096271867108954218 -0.026750741045098014 0 -0.0050891995730310028 -0.0068157212286161081 0 -0.0060740113907829596 -0.016245116711159264 0 -0.0033354165641312859 -0.024949417918845022 0 -0.0035664562971643209 -0.025294738017587734 0 -0.0025342538977543082 -0.026083185979264661 0 -0.0026076252281956426 -0.025328773533326063 0 -0.0033354165641312859 -0.024949417918845022 0 -0.0025342538977543082 -0.026083185979264661 0 -0.0033354165641312859 -0.024949417918845022 0 -0.0028679178493318967 -0.024829473488062005 0 -0.0033460598488829763 -0.024490077719108081 0 -0.0026076252281956426 -0.025328773533326063 0 -0.0028679178493318967 -0.024829473488062005 0 -0.0023011800833861585 -0.024909443588342291 0 -0.0026076252281956426 -0.025328773533326063 0 -0.0033354165641312859 -0.024949417918845022 0 -0.0028679178493318967 -0.024829473488062005 0 -0.0033354165641312859 -0.024949417918845022 0 -0.004040180954766521 -0.024658590106123458 0 -0.00390229303714157 -0.024364722682471585 0 -0.0037762611329105297 -0.023600599314890357 0 -0.0036678548003667333 -0.023126610060455549 0 -0.0033354165641312859 -0.024949417918845022 0 -0.0035664562971643209 -0.025294738017587734 0 -0.004040180954766521 -0.024658590106123458 0 -0.0035664562971643209 -0.025294738017587734 0 -0.003838608827012281 -0.026040947753526018 0 -0.0025342538977543082 -0.026083185979264661 0 -0.0035664562971643209 -0.025294738017587734 0 -0.003838608827012281 -0.026040947753526018 0 -0.004040180954766521 -0.024658590106123458 0 -0.0039924020803990476 -0.024137249614909932 0 -0.0046628117001463751 -0.024242189895299644 0 -0.0047566623159484176 -0.023713735969051353 0 0.010157000248394027 0.040667705008755779 0 0.010587612651927222 0.041473702286411722 0 0.0091323838426655892 0.041305602604333497 0 -0.0050891995730310028 -0.0068157212286161081 0 0.004170930048115102 0.016561760673726261 0 0.004170930048115102 0.016561760673726261 0 0.0059461803435417191 0.021519573576812074 0 0.0070900085011747346 0.041902307618174713 0 0.0053184664203618521 0.04185248726698975 0 0.0051683645940527314 0.043217915652636878 0 -0.0046628117001463751 -0.024242189895299644 0 -0.0047566623159484176 -0.023713735969051353 0 -0.0058161623311340279 -0.023680959441490498 0 0.004170930048115102 0.016561760673726261 0 0.0012153699421940457 0.013047955319015956 0 -0.0047566623159484176 -0.023713735969051353 0 -0.0052538938579116444 -0.022863282551513115 0 -0.0058161623311340279 -0.023680959441490498 0 -0.0047566623159484176 -0.023713735969051353 0 -0.004473471425570987 -0.023386290799063628 0 -0.0052538938579116444 -0.022863282551513115 0 -0.0050891995730310028 -0.0068157212286161081 0 -0.0015775450929801363 -0.017148423433252891 0 -0.003838608827012281 -0.026040947753526018 0 -0.004040180954766521 -0.024658590106123458 0 -0.004473471425570987 -0.023386290799063628 0 -0.004040180954766521 -0.024658590106123458 0 -0.004473471425570987 -0.023386290799063628 0 -0.0034223329300678215 -0.022782352635467108 0 -0.0039924020803990476 -0.024137249614909932 0 -0.0047566623159484176 -0.023713735969051353 0 -0.004473471425570987 -0.023386290799063628 0 -0.004473471425570987 -0.023386290799063628 0 -0.0040520041361604905 -0.02238491563999993 0 -0.0034223329300678215 -0.022782352635467108 0 -0.004473471425570987 -0.023386290799063628 0 -0.0040520041361604905 -0.02238491563999993 0 -0.0048195112627271545 -0.022585476098205409 0 -0.0040520041361604905 -0.02238491563999993 0 -0.0048195112627271545 -0.022585476098205409 0 -0.0043427821373313354 -0.021808877399625302 0 -0.004473471425570987 -0.023386290799063628 0 -0.0052538938579116444 -0.022863282551513115 0 -0.0048195112627271545 -0.022585476098205409 0 -0.0048195112627271545 -0.022585476098205409 0 -0.0053065232696349364 -0.022010056937327934 0 -0.0043427821373313354 -0.021808877399625302 0 -0.0052538938579116444 -0.022863282551513115 0 -0.0048195112627271545 -0.022585476098205409 0 -0.0053065232696349364 -0.022010056937327934 0 -0.0052538938579116444 -0.022863282551513115 0 -0.0053065232696349364 -0.022010056937327934 0 -0.00595343241835749 -0.021968276175175813 0 -0.004273744008166035 -0.021775789651527072 0 -0.0039211411684485116 -0.021916262472666651 0 -0.0046184964107130128 -0.021228836884817203 0 -0.0048202014954810682 -0.020015864391898647 0 -0.0027962224473336065 -0.020194144522051406 0 -0.0048202014954810682 -0.020015864391898647 0 -0.0027962224473336065 -0.020194144522051406 0 -0.0044467556787377233 -0.018824623547580556 0 -0.004273744008166035 -0.021775789651527072 0 -0.0034960044446103377 -0.021262711319847735 0 -0.0046184964107130128 -0.021228836884817203 0 -0.0048202014954810682 -0.020015864391898647 0 -0.0056234134217839514 -0.020946657352919101 0 -0.0038035625489026758 -0.021598483514206148 0 -0.0038150729306409099 -0.021647101436388729 0 -0.0036576847986483745 -0.021605138731323029 0 -0.0039211411684485116 -0.021916262472666651 0 -0.0034490405940613479 -0.022088644338715081 0 -0.0040520041361604905 -0.02238491563999993 0 -0.0043427821373313354 -0.021808877399625302 0 -0.0031491909589537203 -0.021472391627854911 0 -0.0039756076136553227 -0.021689913398860391 0 -0.0038035625489026758 -0.021598483514206148 0 -0.0038150729306409099 -0.021647101436388729 0 -0.0034960044446103377 -0.021262711319847735 0 -0.0031812249044654989 -0.021088183835416351 0 -0.0038035625489026758 -0.021598483514206148 0 -0.0036576847986483745 -0.021605138731323029 0 -0.0036350041735750752 -0.021509084728953087 0 -0.0038044931630591681 -0.023385612250162207 0 -0.0029783611573047271 -0.023659708649329637 0 -0.0034333031961760133 -0.0240188664536591 0 -0.0034490405940613479 -0.022088644338715081 0 -0.0031812249044654989 -0.021088183835416351 0 -0.0038044931630591681 -0.023385612250162207 0 -0.0025513700726103174 -0.022909010230638158 0 -0.0029783611573047271 -0.023659708649329637 0 -0.0042082365506495058 -0.023283850038669521 0 -0.0025601347666008071 -0.02287250149498956 0 -0.004025893972447109 -0.022512301107756542 0 -0.0034490405940613479 -0.022088644338715081 0 -0.002667345570080902 -0.02229537377275493 0 -0.0025513700726103174 -0.022909010230638158 0 -0.0029783611573047271 -0.023659708649329637 0 -0.0020498673584248045 -0.023762630677650016 0 -0.0029783611573047271 -0.023659708649329637 0 -0.0027792882419913536 -0.02428423034424004 0 -0.0034333031961760133 -0.0240188664536591 0 -0.0027792882419913536 -0.02428423034424004 0 -0.0033460598488829763 -0.024490077719108081 0 -0.0034333031961760133 -0.0240188664536591 0 -0.0029783611573047271 -0.023659708649329637 0 -0.0027792882419913536 -0.02428423034424004 0 -0.0020498673584248045 -0.023762630677650016 0 -0.0028679178493318967 -0.024829473488062005 0 -0.0027792882419913536 -0.02428423034424004 0 -0.0023011800833861585 -0.024909443588342291 0 -0.0028679178493318967 -0.024829473488062005 0 -0.0027792882419913536 -0.02428423034424004 0 -0.0033460598488829763 -0.024490077719108081 0 -0.0034490405940613479 -0.022088644338715081 0 -0.0036678548003667333 -0.023126610060455549 0 -0.0040520041361604905 -0.02238491563999993 0 -0.0031491909589537203 -0.021472391627854911 0 -0.0034223329300678215 -0.022782352635467108 0 -0.0033354165641312859 -0.024949417918845022 0 -0.0033460598488829763 -0.024490077719108081 0 -0.00390229303714157 -0.024364722682471585 0 -0.0033460598488829763 -0.024490077719108081 0 -0.00390229303714157 -0.024364722682471585 0 -0.0034333031961760133 -0.0240188664536591 0 -0.0038044931630591681 -0.023385612250162207 0 -0.00390229303714157 -0.024364722682471585 0 -0.0034333031961760133 -0.0240188664536591 0 0.00060187055005865293 0.042583576866062484 0 0.00085963746334951458 0.04367618120208356 0 0.0019803751770335258 0.043417009695941984 0 0.00060187055005865293 0.042583576866062484 0 0.0024007496957963118 0.042083595944134529 0 0.0019803751770335258 0.043417009695941984 0 0.00060187055005865293 0.042583576866062484 0 0.0014618404655012084 0.040766955340191438 0 0.0024007496957963118 0.042083595944134529 0 0.0024007496957963118 0.042083595944134529 0 0.0019803751770335258 0.043417009695941984 0 0.0034985409173010225 0.043013562287948379 0 0.0019803751770335258 0.043417009695941984 0 0.0034985409173010225 0.043013562287948379 0 0.0029566295241574112 0.04422486964758289 0 0.0034985409173010225 0.043013562287948379 0 0.0051683645940527314 0.043217915652636878 0 0.0029566295241574112 0.04422486964758289 0 -0.0058161623311340279 -0.023680959441490498 0 -0.0062507778475969691 -0.022715415154562508 0 -0.0086091954440427089 -0.022165856464761949 0 0.0012153699421940457 0.013047955319015956 0 -0.0018247433730933227 0.01284677134942375 0 0.0034985409173010225 0.043013562287948379 0 0.0040233438941435599 0.042044719101343775 0 0.0051683645940527314 0.043217915652636878 0 0.0024007496957963118 0.042083595944134529 0 0.0034985409173010225 0.043013562287948379 0 0.0040233438941435599 0.042044719101343775 0 0.0040233438941435599 0.042044719101343775 0 0.0053184664203618521 0.04185248726698975 0 0.0051683645940527314 0.043217915652636878 0 -0.0052538938579116444 -0.022863282551513115 0 -0.0058161623311340279 -0.023680959441490498 0 -0.0062507778475969691 -0.022715415154562508 0 -0.0052538938579116444 -0.022863282551513115 0 -0.0062507778475969691 -0.022715415154562508 0 -0.00595343241835749 -0.021968276175175813 0 -0.0062507778475969691 -0.022715415154562508 0 -0.00595343241835749 -0.021968276175175813 0 -0.0070622861823906565 -0.022076005908405864 0 -0.00595343241835749 -0.021968276175175813 0 -0.0056234134217839514 -0.020946657352919101 0 -0.0070622861823906565 -0.022076005908405864 0 -0.004273744008166035 -0.021775789651527072 0 -0.0046188724098732217 -0.021907573814769585 0 -0.0046184964107130128 -0.021228836884817203 0 -0.00595343241835749 -0.021968276175175813 0 -0.0056234134217839514 -0.020946657352919101 0 -0.0056234134217839514 -0.020946657352919101 0 -0.0063219448630315441 -0.020097100384055901 0 -0.0070622861823906565 -0.022076005908405864 0 -0.0048202014954810682 -0.020015864391898647 0 -0.0056234134217839514 -0.020946657352919101 0 -0.0063219448630315441 -0.020097100384055901 0 -0.0048202014954810682 -0.020015864391898647 0 -0.0063219448630315441 -0.020097100384055901 0 -0.0056377205832503453 -0.019160082986636854 0 -0.0054348243445280922 -0.018872655407004623 0 -0.0053604468246504439 -0.016390410696790782 0 -0.0063219448630315441 -0.020097100384055901 0 -0.0070622861823906565 -0.022076005908405864 0 -0.0079652102339578569 -0.019525493359045923 0 -0.0062507778475969691 -0.022715415154562508 0 -0.0086091954440427089 -0.022165856464761949 0 -0.0070622861823906565 -0.022076005908405864 0 -0.0086091954440427089 -0.022165856464761949 0 -0.0070622861823906565 -0.022076005908405864 0 -0.0081569863486092714 -0.017025311860689341 0 -0.0018247433730933227 0.01284677134942375 0 -0.0045747768950995683 0.014273522602468036 0 0.0019803751770335258 0.043417009695941984 0 0.0029566295241574112 0.04422486964758289 0 0.0012079075415386269 0.044834494468095322 0 -0.0086091954440427089 -0.022165856464761949 0 -0.012967353410981802 -0.019030960211031095 0 -0.0081569863486092714 -0.017025311860689341 0 0.0003747062780989372 0.044168178231837302 0 0.00085963746334951458 0.04367618120208356 0 0.0012079075415386269 0.044834494468095322 0 0.00085963746334951458 0.04367618120208356 0 0.0019803751770335258 0.043417009695941984 0 0.0012079075415386269 0.044834494468095322 0 -0.01403361678981507 -0.012083149160690468 0 -0.012043729866724685 -0.01258440507864236 0 -0.012670491162533147 -0.01031462392914065 0 -0.012043729866724685 -0.01258440507864236 0 -0.011463237957516114 -0.011032751297532423 0 -0.012670491162533147 -0.01031462392914065 0 -0.01403361678981507 -0.012083149160690468 0 -0.012043729866724685 -0.01258440507864236 0 -0.012537434046684498 -0.015012562755607556 0 -0.015074438337664442 -0.014682564303179008 0 -0.01403361678981507 -0.012083149160690468 0 -0.012537434046684498 -0.015012562755607556 0 -0.015074438337664442 -0.014682564303179008 0 -0.012967353410981802 -0.019030960211031095 0 -0.012537434046684498 -0.015012562755607556 0 -0.012967353410981802 -0.019030960211031095 0 -0.012537434046684498 -0.015012562755607556 0 -0.0081569863486092714 -0.017025311860689341 0 -0.012043729866724685 -0.01258440507864236 0 -0.012537434046684498 -0.015012562755607556 0 -0.0081569863486092714 -0.017025311860689341 0 -0.0041782129623344428 -0.010077890219301585 0 -0.0053604468246504439 -0.016390410696790782 0 -0.012043729866724685 -0.01258440507864236 0 -0.0098411298615688862 -0.011774695491546789 0 -0.0081569863486092714 -0.017025311860689341 0 -0.0090340956896134365 -0.016703784743154388 0 -0.0082369023392791386 -0.017386883508845 0 -0.0079652102339578569 -0.019525493359045923 0 -0.012043729866724685 -0.01258440507864236 0 -0.0098411298615688862 -0.011774695491546789 0 -0.011463237957516114 -0.011032751297532423 0 -0.0090340956896134365 -0.016703784743154388 0 -0.0087036411036597906 -0.016644515764086393 0 -0.0085598148509135972 -0.016881123344557387 0 -0.0090340956896134365 -0.016703784743154388 0 -0.0087036411036597906 -0.016644515764086393 0 -0.0084863383888608389 -0.016188048589376232 0 -0.0087036411036597906 -0.016644515764086393 0 -0.0083078812035749811 -0.016727942475887426 0 -0.0084863383888608389 -0.016188048589376232 0 -0.0087036411036597906 -0.016644515764086393 0 -0.0083078812035749811 -0.016727942475887426 0 -0.0085598148509135972 -0.016881123344557387 0 -0.0090340956896134365 -0.016703784743154388 0 -0.0085598148509135972 -0.016881123344557387 0 -0.0082369023392791386 -0.017386883508845 0 -0.0083078812035749811 -0.016727942475887426 0 -0.0085598148509135972 -0.016881123344557387 0 -0.0082369023392791386 -0.017386883508845 0 -0.007854856914208069 -0.01697015688354225 0 -0.0078479093754686546 -0.016405470040382113 0 -0.0068993887947686365 -0.016564092927045172 0 -0.0083078812035749811 -0.016727942475887426 0 -0.007854856914208069 -0.01697015688354225 0 -0.0082369023392791386 -0.017386883508845 0 -0.0083078812035749811 -0.016727942475887426 0 -0.007854856914208069 -0.01697015688354225 0 -0.0078479093754686546 -0.016405470040382113 0 -0.0083078812035749811 -0.016727942475887426 0 -0.0078479093754686546 -0.016405470040382113 0 -0.0084863383888608389 -0.016188048589376232 0 -0.0068993887947686365 -0.016564092927045172 0 -0.0072553961097134665 -0.017392399118792892 0 -0.0062526918345685656 -0.017399672965237482 0 -0.007854856914208069 -0.01697015688354225 0 -0.0068993887947686365 -0.016564092927045172 0 -0.0072553961097134665 -0.017392399118792892 0 -0.0072553961097134665 -0.017392399118792892 0 -0.0069406282888259951 -0.018693594535978734 0 -0.0062526918345685656 -0.017399672965237482 0 -0.007854856914208069 -0.01697015688354225 0 -0.0072553961097134665 -0.017392399118792892 0 -0.0082369023392791386 -0.017386883508845 0 -0.0072553961097134665 -0.017392399118792892 0 -0.0082369023392791386 -0.017386883508845 0 -0.0069406282888259951 -0.018693594535978734 0 -0.0063219448630315441 -0.020097100384055901 0 -0.0079652102339578569 -0.019525493359045923 0 -0.0069406282888259951 -0.018693594535978734 0 -0.0082369023392791386 -0.017386883508845 0 -0.0079652102339578569 -0.019525493359045923 0 -0.0069406282888259951 -0.018693594535978734 0 -0.0069406282888259951 -0.018693594535978734 0 -0.0056900629753632911 -0.018178801540485942 0 -0.0062526918345685656 -0.017399672965237482 0 -0.0069406282888259951 -0.018693594535978734 0 -0.0056377205832503453 -0.019160082986636854 0 -0.0056900629753632911 -0.018178801540485942 0 -0.0063219448630315441 -0.020097100384055901 0 -0.0069406282888259951 -0.018693594535978734 0 -0.0056377205832503453 -0.019160082986636854 0 -0.0056377205832503453 -0.019160082986636854 0 -0.0056900629753632911 -0.018178801540485942 0 -0.0044467556787377233 -0.018824623547580556 0 -0.0049649917991917685 -0.016809134920043194 0 -0.0044136935121581664 -0.015634303997728357 0 -0.0056900629753632911 -0.018178801540485942 0 -0.0055177209809980522 -0.016714091811567848 0 -0.0044202209240710392 -0.015665196449330281 0 -0.0056900629753632911 -0.018178801540485942 0 -0.0062526918345685656 -0.017399672965237482 0 -0.0055177209809980522 -0.016714091811567848 0 -0.0068993887947686365 -0.016564092927045172 0 -0.0062526918345685656 -0.017399672965237482 0 -0.0055177209809980522 -0.016714091811567848 0 -0.0055177209809980522 -0.016714091811567848 0 -0.0048856259693204557 -0.014783412816624299 0 -0.0044202209240710392 -0.015665196449330281 0 -0.0055177209809980522 -0.016714091811567848 0 -0.0063024252890166044 -0.015484793300272968 0 -0.0049072331379358507 -0.014294462031393451 0 -0.0048559067809368257 -0.015036888707334727 0 -0.0045762944559888091 -0.014002670664022185 0 -0.0068993887947686365 -0.016564092927045172 0 -0.0055177209809980522 -0.016714091811567848 0 -0.0063024252890166044 -0.015484793300272968 0 -0.0063024252890166044 -0.015484793300272968 0 -0.0049072331379358507 -0.014294462031393451 0 -0.0066315396194014777 -0.014270146140907202 0 -0.0043417050045663199 -0.011861035675377963 0 -0.0049072331379358507 -0.014294462031393451 0 -0.0058690431256022716 -0.012947792072554956 0 -0.0049072331379358507 -0.014294462031393451 0 -0.0058690431256022716 -0.012947792072554956 0 -0.0066315396194014777 -0.014270146140907202 0 -0.0058690431256022716 -0.012947792072554956 0 -0.0066315396194014777 -0.014270146140907202 0 -0.0077786665225699622 -0.013119666466138069 0 -0.0066315396194014777 -0.014270146140907202 0 -0.0077786665225699622 -0.013119666466138069 0 -0.0080623423009996125 -0.014687507606487323 0 -0.0080623423009996125 -0.014687507606487323 0 -0.0075102475157667898 -0.015545326451764272 0 -0.0086915489410889259 -0.015574032593783798 0 -0.0063024252890166044 -0.015484793300272968 0 -0.0066315396194014777 -0.014270146140907202 0 -0.0075102475157667898 -0.015545326451764272 0 -0.0066315396194014777 -0.014270146140907202 0 -0.0080623423009996125 -0.014687507606487323 0 -0.0075102475157667898 -0.015545326451764272 0 -0.0078479093754686546 -0.016405470040382113 0 -0.0068993887947686365 -0.016564092927045172 0 -0.0075102475157667898 -0.015545326451764272 0 -0.0068993887947686365 -0.016564092927045172 0 -0.0063024252890166044 -0.015484793300272968 0 -0.0075102475157667898 -0.015545326451764272 0 -0.0078479093754686546 -0.016405470040382113 0 -0.0075102475157667898 -0.015545326451764272 0 -0.0084863383888608389 -0.016188048589376232 0 -0.0075102475157667898 -0.015545326451764272 0 -0.0086915489410889259 -0.015574032593783798 0 -0.0084863383888608389 -0.016188048589376232 0 -0.0038745044001262195 -0.0086840306414251237 0 -0.0038461362786775433 -0.0087555850497784658 0 -0.0038304375554530806 -0.0087415158377800607 0 -0.0041782129623344428 -0.010077890219301585 0 -0.0031719241086781008 -0.0072004578867623766 0 -0.0090340956896134365 -0.016703784743154388 0 -0.0086915489410889259 -0.015574032593783798 0 -0.0096891809485165799 -0.014920437077170556 0 -0.0090340956896134365 -0.016703784743154388 0 -0.0086915489410889259 -0.015574032593783798 0 -0.0084863383888608389 -0.016188048589376232 0 -0.0041782129623344428 -0.010077890219301585 0 -0.0037633406806740002 -0.0076376855515461533 0 -0.0098411298615688862 -0.011774695491546789 0 -0.011463237957516114 -0.011032751297532423 0 -0.01153928101495362 -0.0092807349991900871 0 -0.0031719241086781008 -0.0072004578867623766 0 -0.0037633406806740002 -0.0076376855515461533 0 -0.0080623423009996125 -0.014687507606487323 0 -0.0086915489410889259 -0.015574032593783798 0 -0.0096891809485165799 -0.014920437077170556 0 0.0046180273105971923 0.001191217694504488 0 0.0041484455463500092 0.0027735884922622622 0 0.0039539265198944244 0.0017273152998358078 0 0.0030678639406771032 0.0019026688910881971 0 0.0041484455463500092 0.0027735884922622622 0 0.0039539265198944244 0.0017273152998358078 0 -0.0077786665225699622 -0.013119666466138069 0 -0.0080623423009996125 -0.014687507606487323 0 -0.0096891809485165799 -0.014920437077170556 0 -0.0023536919816164771 -0.0063091685811210597 0 -0.0031719241086781008 -0.0072004578867623766 0 0.0046180273105971923 0.001191217694504488 0 0.0042878438384599 0.0020292371763399992 0 0.0047516932779379014 0.0016847270540013305 0 -0.0022587622723937327 -0.0031760639476701245 0 -0.0031719241086781008 -0.0072004578867623766 0 -0.0044045318352305112 -0.0028713424147264865 0 -0.0037633406806740002 -0.0076376855515461533 0 0.0051969015389106074 0.001153277879264007 0 0.0048827537792482832 0.0011704251224344958 0 0.0047516932779379014 0.0016847270540013305 0 -0.0050188308711094989 0.001736013462650689 0 -0.0044045318352305112 -0.0028713424147264865 0 -0.015134574991748237 -0.0089303444096976454 0 -0.013236106412737156 -0.0067637304728237323 0 -0.01319142852935642 -0.0085743438269648194 0 -0.015134574991748237 -0.0089303444096976454 0 -0.01319142852935642 -0.0085743438269648194 0 -0.012670491162533147 -0.01031462392914065 0 -0.015134574991748237 -0.0089303444096976454 0 -0.01403361678981507 -0.012083149160690468 0 -0.012670491162533147 -0.01031462392914065 0 -0.01319142852935642 -0.0085743438269648194 0 -0.011514462632818113 -0.009262478573393405 0 -0.012670491162533147 -0.01031462392914065 0 0.0042878438384599 0.0020292371763399992 0 0.0047516932779379014 0.0016847270540013305 0 0.0044057453665969195 0.0021364942290391857 0 -0.013236106412737156 -0.0067637304728237323 0 -0.01319142852935642 -0.0085743438269648194 0 -0.011514462632818113 -0.009262478573393405 0 -0.011463237957516114 -0.011032751297532423 0 -0.01153928101495362 -0.0092807349991900871 0 -0.012670491162533147 -0.01031462392914065 0 -0.0037633406806740002 -0.0076376855515461533 0 -0.0044021464315701277 -0.0080815445448513649 0 -0.0016692661705598724 -0.017636927787363171 0 -0.00055043660220262366 -0.016822609969124398 0 -0.0014317268769629653 -0.015904240157365312 0 -0.0024454065856501592 -0.018454266850753461 0 -0.0031812249044654989 -0.021088183835416351 0 -0.0016692661705598724 -0.017636927787363171 0 -0.0029044635877281707 -0.017355977568328386 0 -0.0014317268769629653 -0.015904240157365312 0 -0.0016692661705598724 -0.017636927787363171 0 -0.00055043660220262366 -0.016822609969124398 0 -0.0010912975031081343 -0.019251392003035626 0 -0.0048076802596839392 -0.020278843312843797 0 -0.0031369688510835964 -0.020789813164593881 0 -0.0034901525299859903 -0.022225628666143638 0 -0.0048076802596839392 -0.020278843312843797 0 -0.0031369688510835964 -0.020789813164593881 0 -0.0028213324221550216 -0.019542659890141797 0 -0.0025601347666008071 -0.02287250149498956 0 -0.0027052050511946241 -0.021821563676539531 0 -0.004025893972447109 -0.022512301107756542 0 -0.0048076802596839392 -0.020278843312843797 0 -0.0034901525299859903 -0.022225628666143638 0 -0.0054982903252932024 -0.023266645797113534 0 -0.0030969528647297553 -0.021361900631031799 0 -0.0031812249044654989 -0.021088183835416351 0 -0.0016692661705598724 -0.017636927787363171 0 -0.0010912975031081343 -0.019251392003035626 0 -0.0024715051012399129 -0.018765081456831031 0 -0.0027962224473336065 -0.020194144522051406 0 -0.0010912975031081343 -0.019251392003035626 0 -0.0024715051012399129 -0.018765081456831031 0 -0.0024715051012399129 -0.018765081456831031 0 -0.0044467556787377233 -0.018824623547580556 0 -0.0029044635877281707 -0.017355977568328386 0 -0.0027962224473336065 -0.020194144522051406 0 -0.0024715051012399129 -0.018765081456831031 0 -0.0044467556787377233 -0.018824623547580556 0 -0.0056900629753632911 -0.018178801540485942 0 -0.0044467556787377233 -0.018824623547580556 0 -0.0042045741373076357 -0.017209739125684399 0 -0.0048202014954810682 -0.020015864391898647 0 -0.0056377205832503453 -0.019160082986636854 0 -0.0044467556787377233 -0.018824623547580556 0 -0.0034859758930527486 -0.017705148073490742 0 -0.0028684594813252616 -0.01704981927286877 0 -0.0056900629753632911 -0.018178801540485942 0 -0.0042045741373076357 -0.017209739125684399 0 -0.0045308925708372584 -0.0157789268718042 0 -0.0044467556787377233 -0.018824623547580556 0 -0.0042045741373076357 -0.017209739125684399 0 -0.002936792619655891 -0.017189736485564804 0 -0.0016692661705598724 -0.017636927787363171 0 -0.0024715051012399129 -0.018765081456831031 0 -0.0029044635877281707 -0.017355977568328386 0 -0.0042045741373076357 -0.017209739125684399 0 -0.002936792619655891 -0.017189736485564804 0 -0.0034431410367901012 -0.016147794000733909 0 -0.0028684594813252616 -0.01704981927286877 0 -0.0018774822835643998 -0.015945308373572203 0 -0.0034431410367901012 -0.016147794000733909 0 -0.0030353766298590688 -0.015108128791451483 0 -0.001584239567353734 -0.015675135612343717 0 -0.002936792619655891 -0.017189736485564804 0 -0.0034431410367901012 -0.016147794000733909 0 -0.001584239567353734 -0.015675135612343717 0 -0.0034431410367901012 -0.016147794000733909 0 -0.0045308925708372584 -0.0157789268718042 0 -0.0030353766298590688 -0.015108128791451483 0 -0.0042045741373076357 -0.017209739125684399 0 -0.0034431410367901012 -0.016147794000733909 0 -0.0045308925708372584 -0.0157789268718042 0 -0.0034417576097754226 -0.013584443743771591 0 -0.0044209555803321598 -0.013105440856316014 0 -0.0048856259693204557 -0.014783412816624299 0 -0.003553519812512583 -0.013810719234027737 0 -0.0044136935121581664 -0.015634303997728357 0 -0.0034367355060449735 -0.013628604042818869 0 -0.0045308925708372584 -0.0157789268718042 0 -0.0030353766298590688 -0.015108128791451483 0 -0.0034417576097754226 -0.013584443743771591 0 -0.0048856259693204557 -0.014783412816624299 0 -0.0044202209240710392 -0.015665196449330281 0 -0.0039326787948061083 -0.011722863355554346 0 -0.0045762944559888091 -0.014002670664022185 0 -0.0034367355060449735 -0.013628604042818869 0 -0.0030353766298590688 -0.015108128791451483 0 -0.0027396328418320677 -0.014113064993979017 0 -0.0030353766298590688 -0.015108128791451483 0 -0.0019353752632646289 -0.014375010083867512 0 -0.001584239567353734 -0.015675135612343717 0 -0.0030353766298590688 -0.015108128791451483 0 -0.0027396328418320677 -0.014113064993979017 0 -0.0019353752632646289 -0.014375010083867512 0 -0.002405296877880274 -0.013557430829936098 0 -0.0027396328418320677 -0.014113064993979017 0 -0.0019353752632646289 -0.014375010083867512 0 -0.0018774822835643998 -0.015945308373572203 0 -0.0014486998543058788 -0.015313714468511992 0 -0.0019353752632646289 -0.014375010083867512 0 -0.001584239567353734 -0.015675135612343717 0 -0.00036209227121402162 -0.01425626962310772 0 -0.0016861663143868367 -0.013176816463556078 0 -0.0019353752632646289 -0.014375010083867512 0 -0.00036209227121402162 -0.01425626962310772 0 -0.00055043660220262366 -0.016822609969124398 0 -0.0014317268769629653 -0.015904240157365312 0 -5.7542761059919579e-06 -0.014461385511946293 0 -0.0048076802596839392 -0.020278843312843797 0 -0.0041841798509598778 -0.017239978059707027 0 -0.0028213324221550216 -0.019542659890141797 0 -0.0024454065856501592 -0.018454266850753461 0 -0.0014486998543058788 -0.015313714468511992 0 -0.0041841798509598778 -0.017239978059707027 0 -0.0015033649429268842 -0.018284320713613043 0 -0.00096616311151066065 -0.016522431721369461 0 -0.0015033649429268842 -0.018284320713613043 0 -0.00096616311151066065 -0.016522431721369461 0 0.00059319873230867244 -0.01817929376057997 0 0.0013373682842434712 -0.015837238895473997 0 -0.00096616311151066065 -0.016522431721369461 0 0.00059319873230867244 -0.01817929376057997 0 -0.0015033649429268842 -0.018284320713613043 0 -0.00059776141192794373 -0.019864897850990867 0 0.00059319873230867244 -0.01817929376057997 0 -0.0041841798509598778 -0.017239978059707027 0 -0.0015033649429268842 -0.018284320713613043 0 -0.0028213324221550216 -0.019542659890141797 0 -0.0015033649429268842 -0.018284320713613043 0 -0.00059776141192794373 -0.019864897850990867 0 -0.0028213324221550216 -0.019542659890141797 0 -0.0030969528647297553 -0.021361900631031799 0 -0.0026714015994849924 -0.021234793007820926 0 -0.00059776141192794373 -0.019864897850990867 0 -0.0028213324221550216 -0.019542659890141797 0 -0.0014087757716992144 -0.021127107873938972 0 -0.0031369688510835964 -0.020789813164593881 0 -0.0034901525299859903 -0.022225628666143638 0 -0.0014087757716992144 -0.021127107873938972 0 -0.0031369688510835964 -0.020789813164593881 0 -0.0028213324221550216 -0.019542659890141797 0 -0.0014087757716992144 -0.021127107873938972 0 -0.00059776141192794373 -0.019864897850990867 0 -0.0014087757716992144 -0.021127107873938972 0 -3.9467854504256823e-05 -0.0213339010361158 0 -0.0014087757716992144 -0.021127107873938972 0 -3.9467854504256823e-05 -0.0213339010361158 0 -0.00082735016748021885 -0.022448298496246327 0 -3.9467854504256823e-05 -0.0213339010361158 0 -0.00082735016748021885 -0.022448298496246327 0 0.00070686490402640026 -0.02240235801635931 0 -0.0025601347666008071 -0.02287250149498956 0 -0.00082735016748021885 -0.022448298496246327 0 -0.001842286587391162 -0.022049334178246435 0 -0.0027052050511946241 -0.021821563676539531 0 -0.0014087757716992144 -0.021127107873938972 0 -0.001842286587391162 -0.022049334178246435 0 -0.0014087757716992144 -0.021127107873938972 0 -0.00082735016748021885 -0.022448298496246327 0 -0.001842286587391162 -0.022049334178246435 0 -0.002667345570080902 -0.02229537377275493 0 -0.0020300833421024391 -0.022248550750835049 0 -0.0025601347666008071 -0.02287250149498956 0 -0.0027052050511946241 -0.021821563676539531 0 -0.001842286587391162 -0.022049334178246435 0 0.0020266869210432579 -0.02212098199079144 0 0.00070686490402640026 -0.02240235801635931 0 0.0015163930761399377 -0.023224481301638577 0 0.0020266869210432579 -0.02212098199079144 0 0.00070686490402640026 -0.02240235801635931 0 0.0015051530199116263 -0.020394009170734518 0 -3.9467854504256823e-05 -0.0213339010361158 0 0.00070686490402640026 -0.02240235801635931 0 0.0015051530199116263 -0.020394009170734518 0 -0.00059776141192794373 -0.019864897850990867 0 -3.9467854504256823e-05 -0.0213339010361158 0 0.0015051530199116263 -0.020394009170734518 0 0.0020266869210432579 -0.02212098199079144 0 0.0015051530199116263 -0.020394009170734518 0 0.0025387424024311579 -0.021171533756818704 0 0.0025686426599022491 -0.019870137770860361 0 0.0032586610642660642 -0.019224903267237973 0 0.0015051530199116263 -0.020394009170734518 0 0.0025924718885025188 -0.020326462320995969 0 0.0025387424024311579 -0.021171533756818704 0 0.0015051530199116263 -0.020394009170734518 0 0.00059319873230867244 -0.01817929376057997 0 0.003718838249135225 -0.01765840165690551 0 -0.00059776141192794373 -0.019864897850990867 0 0.0015051530199116263 -0.020394009170734518 0 0.00059319873230867244 -0.01817929376057997 0 0.0013373682842434712 -0.015837238895473997 0 0.00059319873230867244 -0.01817929376057997 0 0.003718838249135225 -0.01765840165690551 0 0.0044210055643629743 -0.018262343828879365 0 0.0032586610642660642 -0.019224903267237973 0 0.0033002048539293762 -0.020266512842873667 0 0.0025924718885025188 -0.020326462320995969 0 0.0035504524561103226 -0.02064826220574692 0 0.0035504524561103226 -0.02064826220574692 0 0.0031856989100884007 -0.020956310514530892 0 0.0039441862346872841 -0.021230251220202636 0 0.0025924718885025188 -0.020326462320995969 0 0.0031856989100884007 -0.020956310514530892 0 0.0025387424024311579 -0.021171533756818704 0 0.0025924718885025188 -0.020326462320995969 0 0.0035504524561103226 -0.02064826220574692 0 0.0031856989100884007 -0.020956310514530892 0 0.0040819028485243958 -0.020674613729682191 0 0.004014605467434906 -0.020965025937621475 0 0.0042303294953523803 -0.021006410849574771 0 0.00376159615837963 -0.020458141810173254 0 0.0035504524561103226 -0.02064826220574692 0 0.0038575262295536595 -0.020677388671335142 0 0.0040819028485243958 -0.020674613729682191 0 0.0038575262295536595 -0.020677388671335142 0 0.004014605467434906 -0.020965025937621475 0 0.0035504524561103226 -0.02064826220574692 0 0.0038575262295536595 -0.020677388671335142 0 0.004014605467434906 -0.020965025937621475 0 0.0035504524561103226 -0.02064826220574692 0 0.004014605467434906 -0.020965025937621475 0 0.0039441862346872841 -0.021230251220202636 0 0.004014605467434906 -0.020965025937621475 0 0.004081933055157967 -0.021244882432816678 0 0.0039441862346872841 -0.021230251220202636 0 0.004014605467434906 -0.020965025937621475 0 0.0041510021158473525 -0.021149959688131933 0 0.0042303294953523803 -0.021006410849574771 0 0.004081933055157967 -0.021244882432816678 0 0.0041510021158473525 -0.021149959688131933 0 0.0041557400903706829 -0.021368026434241471 0 0.004014605467434906 -0.020965025937621475 0 0.004081933055157967 -0.021244882432816678 0 0.0041510021158473525 -0.021149959688131933 0 0.0042952849128300198 -0.021210099628480941 0 0.0041510021158473525 -0.021149959688131933 0 0.0041557400903706829 -0.021368026434241471 0 0.0042952849128300198 -0.021210099628480941 0 0.0041510021158473525 -0.021149959688131933 0 0.0042303294953523803 -0.021006410849574771 0 0.0048855871903635889 -0.021889427930617496 0 0.0040985254275201491 -0.021867098491577759 0 0.004394871279929464 -0.02148705357614639 0 0.0032905620975903016 -0.025838150976004965 0 0.0034571507501444322 -0.025583880701622271 0 0.0041462581321763141 -0.02150978710976004 0 0.004394871279929464 -0.02148705357614639 0 0.0041557400903706829 -0.021368026434241471 0 0.004081933055157967 -0.021244882432816678 0 0.0041462581321763141 -0.02150978710976004 0 0.0041557400903706829 -0.021368026434241471 0 0.0039441862346872841 -0.021230251220202636 0 0.0042581507303097463 -0.021928612788760102 0 0.0037782333020787559 -0.022088616932804329 0 0.0032905620975903016 -0.025838150976004965 0 0.0031324871674208556 -0.024940789718551373 0 0.004081933055157967 -0.021244882432816678 0 0.0041462581321763141 -0.02150978710976004 0 0.0039441862346872841 -0.021230251220202636 0 0.005022603718844768 -0.021659527230311459 0 0.0039441862346872841 -0.021230251220202636 0 0.0042581507303097463 -0.021928612788760102 0 0.0032905620975903016 -0.025838150976004965 0 0.0034184428656579835 -0.026873613965942678 0 0.005022603718844768 -0.021659527230311459 0 0.0042581507303097463 -0.021928612788760102 0 0.0042965249644118719 -0.022685165452087493 0 0.0042581507303097463 -0.021928612788760102 0 0.0037782333020787559 -0.022088616932804329 0 0.0042965249644118719 -0.022685165452087493 0 0.0036109546331226476 -0.031004815926383971 0 0.0037362725171247507 -0.031280946898951695 0 0.0035660386696188735 -0.031378317367331911 0 0.0036109546331226476 -0.031004815926383971 0 0.0035660386696188735 -0.031378317367331911 0 0.0033020532604063325 -0.03136293523793101 0 0.0037362725171247507 -0.031280946898951695 0 0.0037401561408640024 -0.031430832116236311 0 0.0035660386696188735 -0.031378317367331911 0 0.0025387424024311579 -0.021171533756818704 0 0.0032746198182627461 -0.021555806575895675 0 0.0029980458084971199 -0.022260939041884528 0 0.0031856989100884007 -0.020956310514530892 0 0.0025387424024311579 -0.021171533756818704 0 0.0032746198182627461 -0.021555806575895675 0 0.0031856989100884007 -0.020956310514530892 0 0.0039441862346872841 -0.021230251220202636 0 0.0032746198182627461 -0.021555806575895675 0 0.0039441862346872841 -0.021230251220202636 0 0.0032746198182627461 -0.021555806575895675 0 0.0037782333020787559 -0.022088616932804329 0 0.0037782333020787559 -0.022088616932804329 0 0.0029980458084971199 -0.022260939041884528 0 0.0036452609732714257 -0.022970964366179434 0 0.0032746198182627461 -0.021555806575895675 0 0.0037782333020787559 -0.022088616932804329 0 0.0029980458084971199 -0.022260939041884528 0 0.0037782333020787559 -0.022088616932804329 0 0.0036452609732714257 -0.022970964366179434 0 0.0042965249644118719 -0.022685165452087493 0 0.0020266869210432579 -0.02212098199079144 0 0.0029980458084971199 -0.022260939041884528 0 0.0025028906606722068 -0.022930006424496972 0 0.0020266869210432579 -0.02212098199079144 0 0.0025387424024311579 -0.021171533756818704 0 0.0029980458084971199 -0.022260939041884528 0 0.0029980458084971199 -0.022260939041884528 0 0.0025028906606722068 -0.022930006424496972 0 0.0036452609732714257 -0.022970964366179434 0 0.0025028906606722068 -0.022930006424496972 0 0.0036452609732714257 -0.022970964366179434 0 0.0023155020521306337 -0.024256454303106342 0 0.0030709128733084384 -0.023685708493610746 0 0.0024071337295955568 -0.024333571114717956 0 0.0036452609732714257 -0.022970964366179434 0 0.003870461527700801 -0.023895361007579247 0 0.0042965249644118719 -0.022685165452087493 0 0.0031503546810883031 -0.02794279859277525 0 0.0034184428656579835 -0.026873613965942678 0 0.0029811756573978328 -0.031709855824754073 0 0.0033020532604063325 -0.03136293523793101 0 0.0032527337759008356 -0.031666663421480196 0 0.0029811756573978328 -0.031709855824754073 0 0.0031674308944936208 -0.031883020046165791 0 0.0029726074813814425 -0.032001638606766268 0 0.0029811756573978328 -0.031709855824754073 0 0.0031674308944936208 -0.031883020046165791 0 0.0032527337759008356 -0.031666663421480196 0 0.0036452609732714257 -0.022970964366179434 0 0.003870461527700801 -0.023895361007579247 0 0.0031226571949127717 -0.024091003926844396 0 0.003870461527700801 -0.023895361007579247 0 0.0031226571949127717 -0.024091003926844396 0 0.0034540622817537327 -0.025626080375885731 0 0.0036725334553217959 -0.031564608610712273 0 0.0037401561408640024 -0.031430832116236311 0 0.0035660386696188735 -0.031378317367331911 0 0.0036725334553217959 -0.031564608610712273 0 0.0034432399755475189 -0.031585249753022751 0 0.0035967781613156793 -0.031738433527810868 0 0.0036725334553217959 -0.031564608610712273 0 0.0035660386696188735 -0.031378317367331911 0 0.0034432399755475189 -0.031585249753022751 0 0.0034432399755475189 -0.031585249753022751 0 0.0033020532604063325 -0.03136293523793101 0 0.0032527337759008356 -0.031666663421480196 0 0.0035660386696188735 -0.031378317367331911 0 0.0034432399755475189 -0.031585249753022751 0 0.0033020532604063325 -0.03136293523793101 0 0.0031674308944936208 -0.031883020046165791 0 0.003369895834168201 -0.031793896797319282 0 0.0033422725887214768 -0.03199521613708696 0 0.0031674308944936208 -0.031883020046165791 0 0.0032527337759008356 -0.031666663421480196 0 0.003369895834168201 -0.031793896797319282 0 0.0034432399755475189 -0.031585249753022751 0 0.003369895834168201 -0.031793896797319282 0 0.0035967781613156793 -0.031738433527810868 0 0.0034432399755475189 -0.031585249753022751 0 0.0032527337759008356 -0.031666663421480196 0 0.003369895834168201 -0.031793896797319282 0 0.003369895834168201 -0.031793896797319282 0 0.0035967781613156793 -0.031738433527810868 0 0.003547196243898727 -0.031971921309760933 0 0.0037712322625473803 -0.031853140417879532 0 0.0035967781613156793 -0.031738433527810868 0 0.003547196243898727 -0.031971921309760933 0 0.0037621529866286659 -0.031680180720326828 0 0.0036725334553217959 -0.031564608610712273 0 0.0035967781613156793 -0.031738433527810868 0 0.0037712322625473803 -0.031853140417879532 0 0.0037621529866286659 -0.031680180720326828 0 0.0035967781613156793 -0.031738433527810868 0 0.0037589034719752849 -0.032157988610983165 0 0.0037712322625473803 -0.031853140417879532 0 0.003547196243898727 -0.031971921309760933 0 0.0037589034719752849 -0.032157988610983165 0 0.003547196243898727 -0.031971921309760933 0 0.0034339447132196769 -0.03220382426544742 0 0.003547196243898727 -0.031971921309760933 0 0.0033422725887214768 -0.03199521613708696 0 0.0034339447132196769 -0.03220382426544742 0 0.003369895834168201 -0.031793896797319282 0 0.003547196243898727 -0.031971921309760933 0 0.0033422725887214768 -0.03199521613708696 0 0.0031674308944936208 -0.031883020046165791 0 0.0033422725887214768 -0.03199521613708696 0 0.0031927802015691907 -0.032130426323950315 0 0.0033422725887214768 -0.03199521613708696 0 0.0034339447132196769 -0.03220382426544742 0 0.0031927802015691907 -0.032130426323950315 0 0.0034837098690113483 -0.032591011903859039 0 0.0032603695208243107 -0.032406301731984229 0 0.0034339447132196769 -0.03220382426544742 0 0.0032603695208243107 -0.032406301731984229 0 0.0034339447132196769 -0.03220382426544742 0 0.0031927802015691907 -0.032130426323950315 0 0.0038839239193222902 -0.044295802050237323 0 0.003505862226931862 -0.046709532556751684 0 0.0037589034719752849 -0.032157988610983165 0 0.0034837098690113483 -0.032591011903859039 0 0.0034339447132196769 -0.03220382426544742 0 0.0037545987437394074 -0.05779680711019089 0 0.0031240260873980907 -0.056281296583585522 0 0.0010931219539733656 -0.059544452990599767 0 0.0031503546810883031 -0.02794279859277525 0 0.0025422652040906677 -0.029260068186482142 0 0.0029811756573978328 -0.031709855824754073 0 0.002636072249004202 -0.032040025418043884 0 0.0029726074813814425 -0.032001638606766268 0 0.002636072249004202 -0.032040025418043884 0 0.0029726074813814425 -0.032001638606766268 0 0.0029033181445461023 -0.032253054972168682 0 0.0031674308944936208 -0.031883020046165791 0 0.0029726074813814425 -0.032001638606766268 0 0.0031927802015691907 -0.032130426323950315 0 0.0029726074813814425 -0.032001638606766268 0 0.0031927802015691907 -0.032130426323950315 0 0.0029033181445461023 -0.032253054972168682 0 0.0030065985024539787 -0.032629043065621109 0 0.0032603695208243107 -0.032406301731984229 0 0.0029033181445461023 -0.032253054972168682 0 0.0032603695208243107 -0.032406301731984229 0 0.0031927802015691907 -0.032130426323950315 0 0.0029033181445461023 -0.032253054972168682 0 0.002636072249004202 -0.032040025418043884 0 0.0029033181445461023 -0.032253054972168682 0 0.0025825142312882023 -0.032249637550827256 0 0.0027513431720265252 -0.032464511033061881 0 0.0030065985024539787 -0.032629043065621109 0 0.0029033181445461023 -0.032253054972168682 0 0.0027513431720265252 -0.032464511033061881 0 0.0029033181445461023 -0.032253054972168682 0 0.0025825142312882023 -0.032249637550827256 0 0.0027513431720265252 -0.032464511033061881 0 0.002442023128239153 -0.032418089701074515 0 0.0025825142312882023 -0.032249637550827256 0 0.0012620955556015699 -0.03124460802745601 0 0.0025422652040906677 -0.029260068186482142 0 0.0021009695732268027 -0.032141712189481024 0 0.002442023128239153 -0.032418089701074515 0 0.0025825142312882023 -0.032249637550827256 0 0.0021009695732268027 -0.032141712189481024 0 0.002636072249004202 -0.032040025418043884 0 0.0025825142312882023 -0.032249637550827256 0 0.0022051667787524503 -0.028974373063746776 0 0.0034540622817537327 -0.025626080375885731 0 0.0015622254615024875 -0.027239338107181581 0 0.0034540622817537327 -0.025626080375885731 0 0.0015483798428067063 -0.025580414600857602 0 0.0015622254615024875 -0.027239338107181581 0 0.0024071337295955568 -0.024333571114717956 0 0.0009237315112457634 -0.025704296922894353 0 0.0031226571949127717 -0.024091003926844396 0 0.0034540622817537327 -0.025626080375885731 0 0.0015483798428067063 -0.025580414600857602 0 0.0010148945513907698 -0.025534823478430887 0 -0.0015317951830810426 -0.027156931117871683 0 -0.000818384284275239 -0.025419897630313708 0 0.0010148945513907698 -0.025534823478430887 0 -0.000818384284275239 -0.025419897630313708 0 -0.00010558693962202277 -0.024446488749562435 0 0.0010148945513907698 -0.025534823478430887 0 -0.0015317951830810426 -0.027156931117871683 0 -0.0022662387811024712 -0.028166813203697606 0 0.0009237315112457634 -0.025704296922894353 0 -0.00035218752158126208 -0.026839029310280937 0 0.0015483798428067063 -0.025580414600857602 0 0.0015622254615024875 -0.027239338107181581 0 0.00015795327741079489 -0.028280010279220568 0 0.0015483798428067063 -0.025580414600857602 0 0.00015795327741079489 -0.028280010279220568 0 -0.0022662387811024712 -0.028166813203697606 0 0.0015622254615024875 -0.027239338107181581 0 0.0011445783082318401 -0.028622341146093654 0 0.00015795327741079489 -0.028280010279220568 0 0.0022051667787524503 -0.028974373063746776 0 0.0015622254615024875 -0.027239338107181581 0 0.0011445783082318401 -0.028622341146093654 0 0.00033058121232573424 -0.030180142090063058 0 0.0011445783082318401 -0.028622341146093654 0 0.00015795327741079489 -0.028280010279220568 0 -0.0012033292312441102 -0.029617960112209483 0 -0.00033304379783145172 -0.029765330253442752 0 0.00015795327741079489 -0.028280010279220568 0 -0.0015317951830810426 -0.027156931117871683 0 -0.0022662387811024712 -0.028166813203697606 0 -0.0061918429413104275 -0.028906446117641919 0 -0.0012033292312441102 -0.029617960112209483 0 0.00015795327741079489 -0.028280010279220568 0 -0.0022662387811024712 -0.028166813203697606 0 -0.0027753159137115873 -0.030073011984336786 0 -0.0022662387811024712 -0.028166813203697606 0 -0.0061918429413104275 -0.028906446117641919 0 -0.0044006101064813109 -0.018783799076077915 0 -0.0060740113907829596 -0.016245116711159264 0 -0.0015317951830810426 -0.027156931117871683 0 -0.0025342538977543082 -0.026083185979264661 0 -0.0019995295215679428 -0.025788258199563065 0 -0.0015317951830810426 -0.027156931117871683 0 -0.0096271867108954218 -0.026750741045098014 0 -0.0061918429413104275 -0.028906446117641919 0 -0.009052602831940133 -0.030511834339513405 0 -0.0096271867108954218 -0.026750741045098014 0 -0.0061918429413104275 -0.028906446117641919 0 -0.0019995295215679428 -0.025788258199563065 0 -0.0023011800833861585 -0.024909443588342291 0 -0.0014347384508842189 -0.024489952634615463 0 -0.0026076252281956426 -0.025328773533326063 0 -0.0025342538977543082 -0.026083185979264661 0 -0.0019995295215679428 -0.025788258199563065 0 -0.0026076252281956426 -0.025328773533326063 0 -0.0019995295215679428 -0.025788258199563065 0 -0.0023011800833861585 -0.024909443588342291 0 -0.0015317951830810426 -0.027156931117871683 0 -0.0019995295215679428 -0.025788258199563065 0 -0.000818384284275239 -0.025419897630313708 0 -0.0019995295215679428 -0.025788258199563065 0 -0.000818384284275239 -0.025419897630313708 0 -0.0014347384508842189 -0.024489952634615463 0 -0.0014347384508842189 -0.024489952634615463 0 -0.0020498673584248045 -0.023762630677650016 0 -0.00074542223709622322 -0.023496032780874112 0 -0.000818384284275239 -0.025419897630313708 0 -0.0014347384508842189 -0.024489952634615463 0 -0.00010558693962202277 -0.024446488749562435 0 -0.0014347384508842189 -0.024489952634615463 0 -0.00074542223709622322 -0.023496032780874112 0 -0.00010558693962202277 -0.024446488749562435 0 -0.0027792882419913536 -0.02428423034424004 0 -0.0023011800833861585 -0.024909443588342291 0 -0.0021535622733447868 -0.024358891712620762 0 -0.0023011800833861585 -0.024909443588342291 0 -0.0014347384508842189 -0.024489952634615463 0 -0.0021535622733447868 -0.024358891712620762 0 -0.0014347384508842189 -0.024489952634615463 0 -0.0021535622733447868 -0.024358891712620762 0 -0.0020498673584248045 -0.023762630677650016 0 -0.0027792882419913536 -0.02428423034424004 0 -0.0021535622733447868 -0.024358891712620762 0 -0.0020498673584248045 -0.023762630677650016 0 -0.0025513700726103174 -0.022909010230638158 0 -0.00082735016748021885 -0.022448298496246327 0 -0.0020498673584248045 -0.023762630677650016 0 -0.00082735016748021885 -0.022448298496246327 0 -0.0020498673584248045 -0.023762630677650016 0 -0.00074542223709622322 -0.023496032780874112 0 -0.00082735016748021885 -0.022448298496246327 0 0.00070686490402640026 -0.02240235801635931 0 -0.00074542223709622322 -0.023496032780874112 0 0.00070686490402640026 -0.02240235801635931 0 0.00045113530202091709 -0.023543919058632064 0 0.0015163930761399377 -0.023224481301638577 0 0.00070686490402640026 -0.02240235801635931 0 -0.00074542223709622322 -0.023496032780874112 0 0.00045113530202091709 -0.023543919058632064 0 0.00045113530202091709 -0.023543919058632064 0 0.0015163930761399377 -0.023224481301638577 0 0.001057012591707891 -0.024154616600648347 0 0.0025028906606722068 -0.022930006424496972 0 0.0023155020521306337 -0.024256454303106342 0 0.0015163930761399377 -0.023224481301638577 0 0.0020266869210432579 -0.02212098199079144 0 0.0025028906606722068 -0.022930006424496972 0 0.0015163930761399377 -0.023224481301638577 0 0.0023155020521306337 -0.024256454303106342 0 0.0010148945513907698 -0.025534823478430887 0 0.001057012591707891 -0.024154616600648347 0 0.0023155020521306337 -0.024256454303106342 0 0.0015163930761399377 -0.023224481301638577 0 0.001057012591707891 -0.024154616600648347 0 0.0010148945513907698 -0.025534823478430887 0 -0.00010558693962202277 -0.024446488749562435 0 0.001057012591707891 -0.024154616600648347 0 0.00045113530202091709 -0.023543919058632064 0 -0.00010558693962202277 -0.024446488749562435 0 0.001057012591707891 -0.024154616600648347 0 -0.00074542223709622322 -0.023496032780874112 0 0.00045113530202091709 -0.023543919058632064 0 -0.00010558693962202277 -0.024446488749562435 0 
</DataArray>
</PointData>
<CellData Scalars="region_id,cross_section_updated," Vectors="" Tensors="stress,">
<DataArray type="Float64" Name="region_id" format="ascii">
5 5 5 5 5 6 5 5 5 5 5 5 5 6 5 5 5 5 6 5 5 6 5 5 5 5 6 5 5 5 5 6 5 5 5 5 5 5 5 5 5 5 5 5 5 6 5 5 6 5 5 5 5 5 6 5 5 5 5 5 5 5 6 5 5 5 5 6 5 5 5 5 5 5 5 5 5 6 5 5 6 5 5 6 5 5 5 5 6 5 5 5 5 5 5 5 6 6 6 5 5 6 5 5 5 5 5 6 5 5 5 5 5 5 5 5 5 5 5 5 5 6 5 5 5 6 5 5 5 5 5 5 6 5 5 5 5 5 5 5 5 5 5 5 5 5 5 5 5 5 5 5 5 5 5 5 5 5 6 5 5 5 6 5 5 6 5 5 5 5 5 5 5 5 5 5 5 6 5 5 5 5 5 5 5 5 6 5 5 5 5 5 5 5 5 6 5 5 5 5 5 5 5 5 5 6 5 5 5 5 5 5 5 5 5 5 5 5 5 5 5 5 5 5 5 5 5 5 5 6 5 5 5 6 5 6 5 6 5 5 6 5 5 5 6 5 6 5 6 5 6 6 5 6 5 5 6 5 6 5 5 5 6 5 6 6 5 5 6 5 5 5 6 5 6 6 6 5 6 5 5 5 6 5 6 6 6 5 5 6 6 5 5 5 5 6 5 6 5 5 6 5 5 5 6 5 6 6 6 5 5 5 6 5 6 6 6 6 5 5 5 6 6 5 5 6 6 6 5 6 5 5 5 5 6 5 5 5 5 5 5 5 6 5 5 5 5 5 5 6 6 5 5 5 6 5 5 5 6 5 6 5 6 6 5 5 5 5 6 5 5 6 5 5 5 5 6 5 6 5 5 5 5 5 6 6 5 5 5 5 5 5 5 5 6 5 5 5 6 5 5 6 5 6 5 5 5 5 5 5 5 5 5 5 5 6 5 6 5 6 5 5 5 6 5 6 5 6 5 5 5 5 5 5 6 5 6 5 5 5 6 5 5 5 6 5 6 6 5 5 5 5 6 5 5 5 5 6 6 5 5 6 5 6 5 6 6 5 5 5 6 5 5 5 5 6 5 5 5 5 5 5 5 5 5 5 5 6 5 5 5 5 6 5 5 5 6 5 6 6 6 5 5 5 6 6 5 6 5 5 6 5 5 5 5 6 5 5 5 5 5 5 5 5 5 5 5 6 6 5 5 6 5 5 5 6 5 5 5 5 5 5 6 5 5 5 6 5 5 5 6 5 5 5 5 5 5 5 5 5 5 5 6 5 5 5 6 5 5 5 5 5 5 5 6 5 5 5 5 5 6 5 5 5 5 5 5 5 5 5 5 5 5 5 5 5 5 5 5 5 6 5 5 5 5 6 5 5 6 5 5 5 5 5 5 5 6 5 5 5 5 5 5 5 5 6 5 6 5 5 6 5 5 5 6 5 5 6 5 5 5 6 5 6 5 5 6 5 6 5 5 5 5 5 5 5 5 5 5 5 5 5 5 5 5 5 5 5 5 5 5 6 5 6 5 6 5 5 5 5 5 5 5 5 5 5 5 5 5 5 5 6 5 5 5 5 5 5 5 5 5 6 5 5 5 5 5 5 5 5 5 5 5 5 5 5 5 5 5 5 5 5 5 5 5 5 5 5 5 5 5 6 5 5 6 5 5 5 6 6 5 6 5 5 5 5 5 6 5 5 5 5 5 6 5 5 5 5 5 5 5 5 5 5 5 5 5 5 5 5 5 5 5 5 5 5 5 5 5 5 5 5 5 5 5 5 5 5 5 5 5 5 5 5 5 5 5 5 5 5 5 5 5 6 5 5 5 5 5 5 5 5 5 5 5 5 5 5 5 6 5 5 5 5 6 5 5 5 5 5 5 5 5 5 5 5 5 5 5 5 5 5 5 5 5 5 5 5 5 5 5 5 6 5 5 6 5 6 6 6 6 5 5 6 5 5 5 5 5 5 5 5 5 5 5 5 5 5 5 5 5 6 5 5 6 5 6 5 5 5 5 6 5 6 5 5 5 5 6 5 5 5 6 5 5 5 5 5 6 5 6 5 5 6 6 5 6 5 5 5 5 5 5 5 5 5 5 5 6 5 5 5 6 5 5 5 6 5 5 6 6 6 5 5 5 5 5 5 5 5 5 5 5 6 5 5 5 5 5 5 5 5 6 6 6 5 5 5 5 5 5 5 5 6 6 5 5 5 6 5 5 6 5 5 5 5 5 5 5 5 5 5 5 6 5 5 5 5 5 5 5 5 6 5 5 5 5 5 5 5 5 5 5 6 5 6 6 6 5 5 5 5 5 5 5 6 6 5 6 5 5 5 5 5 6 5 6 6 5 5 5 6 5 6 5 5 5 5 6 5 5 5 5 5 5 5 5 5 5 5 5 5 5 5 5 5 6 5 5 5 6 5 5 5 5 5 6 5 5 5 5 5 5 6 5 6 5 5 5 5 5 5 5 5 6 5 5 5 6 5 5 5 5 5 5 5 5 5 5 5 5 5 5 5 5 5 5 5 5 5 5 5 5 5 6 6 6 5 5 5 5 6 5 5 5 5 6 5 5 5 5 5 5 5 6 5 5 5 5 5 5 5 5 6 5 5 5 5 5 5 5 5 5 5 5 5 6 5 5 5 5 5 5 6 5 5 5 5 5 5 5 5 6 5 5 5 6 5 5 5 5 5 5 5 5 5 5 5 5 6 5 5 5 5 5 5 5 5 5 5 5 5 5 5 5 5 5 5 5 5 5 5 5 5 5 5 5 5 5 5 5 5 5 5 5 5 5 5 5 5 5 5 5 5 5 5 5 6 5 5 5 5 5 5 5 5 5 5 5 5 5 5 5 5 5 5 5 5 5 5 5 5 6 5 5 5 5 5 5 5 5 5 5 6 5 5 6 5 5 5 5 5 5 5 5 5 6 5 6 5 5 5 5 6 5 5 6 5 6 5 5 5 5 5 6 5 5 5 5 5 5 5 5 6 5 5 5 5 5 5 5 5 5 5 5 5 5 5 6 5 6 6 5 5 5 5 5 6 5 5 5 5 5 5 5 5 5 5 5 5 5 5 5 6 5 5 5 5 5 5 5 5 5 5 5 5 5 5 5 5 6 5 5 5 5 5 6 6 5 5 6 5 5 5 5 5 5 5 5 5 5 6 5 5 5 5 5 5 5 5 5 6 5 6 5 5 5 5 5 6 5 5 5 5 6 5 5 5 6 5 5 5 6 5 5 6 5 5 5 5 5 5 5 5 5 5 5 5 5 5 5 5 6 5 5 5 5 5 5 5 6 5 5 5 5 5 5 5 5 5 5 5 5 5 5 5 5 5 5 5 5 5 5 5 5 5 5 5 6 5 5 5 5 6 5 5 5 6 5 5 5 5 5 5 5 5 5 6 5 6 5 5 5 5 5 5 5 5 5 5 5 5 5 5 5 5 5 5 6 6 5 5 5 6 5 5 6 5 5 6 5 5 5 6 5 5 6 5 5 5 5 5 5 5 5 5 5 5 5 5 5 5 5 5 5 5 5 6 5 6 5 5 5 5 5 5 5 5 5 5 5 6 5 6 5 5 5 6 5 5 5 5 5 6 5 5 5 5 5 5 6 5 5 5 5 5 5 5 5 5 5 5 6 5 5 5 5 5 5 5 5 6 5 5 5 6 5 5 6 5 5 5 5 5 6 5 5 5 5 5 5 5 5 5 6 5 5 6 5 6 5 6 6 6 5 6 5 5 5 5 5 5 6 5 5 5 5 5 5 6 5 5 5 5 5 5 5 6 5 5 5 5 6 5 5 5 5 5 6 5 6 5 5 5 5 5 5 5 5 5 5 6 5 5 5 5 5 5 5 6 5 5 5 5 5 5 5 6 5 6 5 5 5 5 5 5 5 5 6 5 5 5 6 6 5 5 5 5 5 6 6 5 6 5 5 6 5 5 6 5 5 5 5 5 5 5 5 6 5 5 5 5 5 6 5 5 5 5 6 5 5 6 5 5 5 5 5 5 5 5 5 5 5 5 5 5 5 5 5 5 5 5 5 5 5 5 5 5 5 5 5 5 5 5 5 5 5 5 5 5 5 5 5 6 5 5 6 5 5 5 5 5 6 5 5 5 5 6 5 5 5 5 5 5 5 5 5 5 5 5 5 5 5 5 5 5 5 5 5 5 5 5 6 5 5 5 6 5 5 5 5 5 5 6 5 5 5 5 5 5 5 5 5 5 5 6 5 6 6 5 5 6 5 5 5 5 5 5 5 5 5 5 5 6 5 5 6 5 5 5 5 5 5 5 5 5 5 5 5 5 5 5 6 5 5 5 5 5 5 5 6 5 6 5 5 5 5 6 5 6 5 5 5 5 5 5 5 5 5 6 5 5 5 5 5 5 5 5 5 5 5 5 5 5 5 5 5 6 5 5 5 5 5 5 5 5 5 5 5 5 5 5 5 5 5 5 5 5 5 5 5 5 5 6 6 5 5 5 5 5 5 5 5 5 5 5 6 5 5 5 5 6 5 5 5 5 6 5 5 5 5 5 5 5 5 6 5 5 5 5 5 5 5 5 5 6 5 5 5 5 5 5 5 5 5 5 5 5 5 5 5 5 5 5 5 5 6 5 5 5 5 5 5 5 5 5 5 5 5 5 5 6 5 6 5 5 5 5 5 5 5 5 6 5 5 6 5 5 5 5 5 5 5 5 5 5 5 5 5 5 5 5 5 5 5 5 5 5 5 5 5 5 5 5 5 5 5 5 5 5 5 5 6 5 5 6 5 5 5 5 6 5 6 5 5 6 5 6 5 5 5 5 5 6 5 5 5 5 5 5 5 5 5 5 5 5 6 5 5 5 6 5 5 5 5 5 5 5 5 5 6 5 5 5 5 6 6 5 5 5 5 5 5 5 5 6 5 5 5 5 5 6 5 5 5 6 5 5 5 6 5 5 5 5 6 5 5 5 5 5 5 5 5 5 5 5 5 5 5 6 5 5 5 5 5 5 6 5 6 6 5 6 5 6 5 5 5 5 6 5 5 5 5 6 5 5 5 5 5 5 5 5 5 6 5 5 5 5 5 5 5 5 5 5 5 5 5 5 6 5 5 5 6 5 5 5 6 5 6 5 5 5 5 5 5 5 5 5 5 5 5 5 5 5 5 6 5 5 5 5 5 5 6 5 5 5 5 5 5 5 5 5 5 5 5 5 5 5 5 5 5 6 5 5 5 5 5 5 5 5 5 5 5 5 5 5 5 5 5 5 5 5 5 5 5 5 5 5 5 5 5 5 5 5 5 5 6 5 5 5 5 6 5 5 5 5 5 5 5 6 5 5 5 5 5 5 5 5 5 6 5 5 6 5 5 5 5 5 6 5 5 5 6 5 5 6 5 5 5 5 5 5 5 5 5 5 5 5 5 5 5 5 5 5 5 5 6 5 5 5 5 5 5 5 5 5 5 6 6 5 6 5 5 5 5 5 6 5 5 5 5 6 5 5 5 5 5 6 5 6 5 5 6 5 5 5 5 5 5 5 5 6 5 5 5 5 5 5 6 5 5 5 5 5 5 6 5 5 5 5 6 5 5 6 5 6 5 5 6 5 5 5 5 5 5 6 5 5 5 5 6 5 5 5 5 5 5 5 5 6 6 5 5 5 5 5 5 5 5 6 5 5 5 5 5 5 6 5 5 5 5 5 5 5 6 5 5 5 6 5 5 5 5 5 5 5 5 5 5 5 5 6 5 5 5 5 6 5 5 6 5 5 5 5 6 5 5 5 6 6 5 5 5 6 5 5 5 6 5 5 5 5 5 5 5 5 5 6 5 5 5 6 5 5 5 5 5 5 5 5 5 5 5 5 6 5 6 5 5 6 5 5 6 5 5 5 5 5 5 5 6 5 5 5 5 5 6 5 6 5 5 5 6 6 5 6 6 5 6 5 5 5 5 5 5 6 5 6 5 5 5 5 5 5 5 5 5 5 5 5 5 6 5 5 6 5 6 5 5 6 5 5 5 6 6 5 5 6 5 5 5 5 5 5 5 5 5 5 5 5 5 5 5 5 5 5 5 5 5 5 5 6 6 5 6 5 6 5 5 6 6 5 5 6 5 5 6 5 5 6 5 6 5 5 5 5 6 5 5 5 5 6 5 6 6 5 6 5 5 6 6 5 5 5 6 5 5 5 5 6 6 5 5 5 5 5 6 5 5 5 5 5 5 5 5 5 5 5 6 5 6 5 6 5 5 6 5 6 5 5 5 5 5 5 5 5 6 5 5 6 5 5 5 5 6 5 5 5 5 5 5 5 5 5 5 5 5 6 5 5 5 5 5 5 5 5 5 5 5 6 5 5 5 5 5 5 6 5 6 5 5 6 5 5 5 5 5 5 5 5 5 5 5 5 5 5 5 5 5 6 6 5 5 5 6 5 5 6 5 5 5 5 5 5 5 5 5 5 5 5 5 5 5 5 5 5 5 5 5 5 5 5 5 6 6 5 5 5 5 5 5 5 5 5 5 5 6 5 5 5 5 5 5 5 5 5 5 5 5 5 5 5 5 5 5 5 5 5 5 5 5 5 5 5 5 5 5 5 5 5 6 5 5 5 5 5 6 5 5 6 5 5 6 6 5 5 5 5 5 5 5 5 5 5 5 5 5 6 5 5 6 5 5 5 5 5 5 6 5 5 6 5 5 5 5 5 5 5 5 5 5 5 5 5 6 5 5 5 5 5 5 5 6 5 5 5 5 5 5 5 5 5 5 5 5 6 5 5 6 5 5 5 5 5 5 5 5 5 5 5 5 5 5 5 5 5 5 5 5 6 5 5 6 5 6 5 5 5 6 5 5 6 5 6 5 5 5 6 5 5 5 5 6 5 5 5 5 5 5 5 6 5 5 5 6 5 5 5 5 5 5 5 5 5 5 5 5 6 5 5 5 5 5 5 5 5 6 5 5 5 5 5 5 5 5 5 5 5 6 5 5 5 5 5 5 5 5 5 5 5 5 5 5 5 5 5 5 5 6 6 5 5 5 6 5 5 5 5 5 5 5 5 5 5 5 5 6 5 5 5 5 5 5 5 5 5 6 5 5 5 5 5 5 5 5 5 5 5 5 5 5 5 5 6 5 6 5 5 5 5 5 6 5 5 5 5 6 5 5 5 6 5 5 5 6 5 5 5 5 5 5 5 5 5 6 5 5 5 6 5 5 6 5 5 5 5 5 5 6 5 5 5 5 5 5 5 5 6 5 5 5 6 5 5 5 5 5 5 5 5 5 5 5 5 5 5 5 5 5 5 5 5 5 5 5 5 5 5 5 6 5 5 5 5 5 5 5 6 5 5 5 5 5 5 5 5 5 5 5 5 5 5 5 5 5 5 5 5 5 5 5 5 5 6 5 6 5 5 5 5 5 5 6 5 5 5 6 5 5 6 5 5 5 5 5 5 5 5 5 5 5 5 6 5 5 5 5 5 6 5 5 5 5 5 5 5 5 5 5 5 5 5 6 5 5 5 6 5 5 5 5 5 5 5 5 5 5 5 5 6 6 5 5 5 5 6 5 5 5 5 5 5 5 5 5 6 6 5 5 5 5 5 6 5 5 5 5 5 6 5 5 5 5 5 6 5 6 5 5 5 5 6 5 6 5 6 6 5 5 5 5 5 5 5 6 6 5 5 5 5 5 5 6 6 6 5 6 6 5 5 5 6 5 5 5 5 5 6 6 6 5 6 5 5 5 6 5 6 6 5 5 5 5 5 5 5 6 6 5 5 6 6 6 5 5 5 5 5 5 5 5 5 5 5 5 5 5 5 5 5 5 5 5 5 5 5 5 5 5 5 5 5 5 5 5 5 5 5 5 5 5 5 5 6 5 5 5 5 5 5 5 5 5 5 6 5 5 5 5 5 5 6 5 5 6 5 5 5 5 5 5 5 5 5 5 5 5 5 6 5 6 5 5 5 5 6 5 5 5 6 5 5 6 5 5 5 6 5 5 6 5 5 5 5 5 6 5 5 5 5 5 5 5 6 5 5 5 5 5 5 5 6 5 5 6 5 5 5 5 6 5 6 5 5 5 5 5 6 5 5 5 5 6 5 5 5 5 5 5 6 6 5 5 5 5 5 6 5 5 6 5 5 5 5 5 5 5 5 5 5 6 5 5 5 5 5 5 5 5 5 5 5 5 5 5 5 5 5 5 6 5 5 5 5 5 5 6 5 5 5 5 5 5 5 6 6 5 5 5 5 6 5 5 5 5 5 5 5 6 5 5 6 5 6 6 6 5 5 5 5 5 5 6 5 5 5 5 5 6 5 5 5 5 6 5 5 5 6 5 5 5 6 5 5 5 5 5 5 5 5 5 5 5 5 5 5 5 5 5 5 5 5 5 5 5 5 5 6 5 5 5 5 5 5 5 6 5 6 5 5 5 5 5 5 6 5 5 6 5 5 5 6 5 5 6 5 5 5 5 5 6 5 5 5 6 6 5 5 5 5 5 5 5 5 5 5 5 5 6 5 5 5 5 5 5 5 5 5 6 5 5 5 5 5 6 6 5 5 5 5 5 5 5 5 5 6 5 5 5 5 5 5 5 5 6 5 5 5 5 5 5 5 5 5 5 5 5 5 5 5 5 5 5 6 5 5 5 5 6 5 6 5 6 5 5 5 5 5 5 5 5 5 5 5 5 5 5 5 5 5 6 5 5 5 5 5 6 5 5 5 6 6 5 5 5 5 5 6 5 5 5 5 6 5 5 5 5 5 5 5 5 6 5 5 5 5 5 5 5 6 5 5 5 5 5 5 5 5 5 6 5 5 5 5 5 5 5 5 5 5 5 5 5 5 5 5 5 5 6 5 5 5 5 5 5 5 5 5 5 5 5 5 6 5 5 5 5 5 5 6 5 5 6 5 5 6 5 5 5 5 5 5 5 5 5 5 5 5 5 5 5 5 5 5 5 5 5 5 5 5 5 5 6 5 6 5 6 6 5 5 5 6 5 5 5 5 5 5 5 5 5 6 6 5 6 5 5 5 5 5 5 5 5 5 5 5 5 5 5 6 5 6 6 5 6 5 5 5 5 5 5 5 5 5 6 6 5 5 5 5 5 5 5 5 5 5 5 5 5 5 5 5 5 5 5 5 5 5 6 5 5 5 5 5 6 5 5 5 5 5 6 5 5 5 6 5 5 5 5 5 5 5 5 5 6 5 5 5 5 6 5 5 5 5 5 5 6 5 5 5 5 5 5 5 6 5 5 5 5 6 5 5 5 5 5 5 5 5 5 5 6 5 5 5 5 6 5 5 5 6 5 5 5 5 5 6 5 5 5 5 5 5 5 5 5 5 5 5 5 5 6 6 5 5 6 5 5 5 5 5 5 5 6 5 5 5 5 5 5 6 5 5 5 5 5 5 5 5 5 5 5 5 5 5 5 5 5 5 5 5 5 5 5 6 5 5 5 5 5 5 5 5 6 5 5 5 5 6 5 5 5 5 5 6 5 6 5 6 5 5 5 5 5 5 5 6 5 5 5 6 5 5 5 5 5 6 5 5 5 5 5 6 5 6 5 5 6 5 6 5 5 5 5 5 6 5 5 5 6 5 5 5 5 5 5 5 5 5 5 6 5 5 5 5 5 5 5 5 5 5 5 5 5 5 5 5 5 5 5 5 5 5 6 5 5 5 5 5 5 5 5 5 5 5 5 5 5 5 5 5 5 6 5 5 5 6 5 5 5 5 5 5 6 5 5 5 6 6 5 6 5 6 6 5 6 5 5 6 5 5 6 6 5 5 5 5 5 5 5 5 6 5 6 5 5 5 5 5 5 5 5 5 5 5 5 5 5 5 5 5 5 5 5 5 5 6 5 5 5 5 5 5 5 5 6 5 5 6 5 5 6 6 5 5 6 5 5 5 5 5 5 5 5 5 5 5 5 5 5 5 5 5 5 5 5 5 5 5 5 5 5 5 5 5 5 5 5 5 5 5 5 5 5 5 6 5 6 5 5 5 5 5 5 5 5 5 5 5 5 5 5 5 5 5 5 5 5 5 5 5 5 5 5 5 5 5 5 5 5 5 5 5 5 5 5 5 5 6 5 5 6 5 5 5 5 5 6 5 6 5 5 6 5 5 5 5 5 5 6 5 5 5 5 5 5 5 5 5 5 5 6 5 5 6 6 5 6 5 5 6 5 5 5 5 6 5 5 5 5 5 5 5 5 5 6 5 6 5 5 5 5 5 5 5 6 5 6 5 5 5 5 5 5 5 5 5 6 5 6 5 5 5 5 5 5 5 5 5 5 6 5 5 5 6 5 5 6 5 5 6 5 5 5 5 6 5 5 5 6 5 5 5 5 5 5 5 5 5 5 5 5 5 5 6 5 5 5 5 5 5 6 5 6 5 6 5 5 5 6 5 5 5 5 5 5 5 5 6 5 5 5 5 5 6 5 5 6 5 5 5 5 5 5 5 5 5 6 5 5 5 6 5 5 5 5 5 5 6 5 5 5 5 5 5 5 5 5 5 5 5 5 5 5 5 5 5 5 5 5 5 5 5 5 5 5 5 5 5 5 6 5 5 5 5 5 6 5 5 6 6 5 5 5 5 6 5 5 5 5 5 6 5 5 5 5 5 5 5 5 5 5 5 5 5 5 5 5 6 5 5 5 5 5 5 5 5 6 6 5 5 5 5 5 5 6 5 5 5 5 6 5 5 5 5 5 5 5 5 5 5 5 5 5 5 5 5 5 5 5 5 5 5 5 5 6 5 5 6 5 5 5 5 5 5 5 5 5 5 5 5 5 5 5 5 5 5 5 5 5 5 5 5 5 5 5 6 5 6 5 5 5 5 5 6 5 5 5 5 5 5 5 5 5 5 5 5 5 5 5 5 5 5 5 5 6 6 5 6 5 5 5 5 5 5 5 5 5 5 5 5 5 5 5 5 6 5 5 5 6 5 5 5 5 5 5 5 5 5 5 5 5 5 6 5 5 5 5 5 5 5 5 5 5 5 5 5 5 5 5 5 5 5 5 5 5 6 5 5 5 5 5 5 5 5 5 5 5 5 5 6 5 6 5 5 6 6 5 5 5 5 5 5 5 5 5 5 5 5 5 5 5 5 5 5 5 5 6 5 5 6 5 5 5 6 5 5 5 5 5 5 6 5 5 5 6 5 5 5 5 5 5 5 5 6 5 5 6 5 5 6 5 6 5 5 5 5 6 6 5 5 6 6 5 5 6 5 5 5 5 6 5 5 6 6 5 6 5 5 5 5 5 5 5 5 5 5 5 5 5 5 5 5 5 5 5 5 6 5 5 5 5 6 5 5 5 5 6 6 5 5 5 5 5 5 5 5 5 5 5 5 6 5 5 5 6 5 5 5 5 5 5 5 6 5 5 5 6 5 5 6 6 5 5 5 6 5 5 5 6 5 5 5 5 5 5 5 5 5 5 5 5 5 5 5 5 5 5 6 5 5 5 5 5 5 5 5 5 5 5 5 5 5 5 5 5 5 6 6 5 5 5 5 5 6 6 5 6 5 5 5 5 5 5 5 5 5 6 5 5 5 6 5 5 5 5 5 5 5 5 5 5 5 5 5 5 6 5 5 5 5 5 5 5 6 5 5 6 5 5 5 5 5 5 6 5 5 5 5 6 5 5 5 5 5 5 6 5 5 5 5 5 5 5 5 6 6 5 5 5 6 6 5 5 5 5 5 6 5 5 5 5 5 5 6 5 5 5 5 6 5 5 5 5 5 6 5 5 5 5 6 5 5 5 5 5 5 5 5 5 5 5 5 5 5 5 5 5 5 5 5 5 5 5 5 5 6 5 5 5 5 6 5 6 5 6 5 5 6 5 5 6 5 5 6 5 5 5 5 5 5 6 5 5 6 5 6 6 6 5 5 6 5 6 6 5 5 5 6 5 6 5 5 5 5 5 5 6 5 5 5 6 5 5 5 5 5 5 5 6 5 5 5 6 5 6 6 5 5 5 5 5 5 5 6 5 5 5 5 5 5 5 5 6 6 5 5 5 5 6 5 5 6 5 5 5 6 5 5 5 6 6 5 5 5 5 6 5 5 5 5 5 6 6 5 5 5 5 5 5 5 5 5 5 5 5 5 5 5 5 5 5 5 5 5 5 5 5 5 5 5 5 5 5 5 6 5 5 5 6 5 5 5 5 5 5 5 5 5 5 5 5 5 5 5 6 5 6 6 5 5 6 5 5 5 5 5 5 5 5 5 5 5 5 5 5 5 5 5 5 5 5 5 5 5 6 5 5 6 6 5 5 5 5 5 5 5 6 5 5 5 6 5 5 5 5 6 6 5 5 5 5 5 5 5 6 5 5 5 5 6 5 5 5 5 6 5 5 5 5 5 5 5 5 5 5 5 5 5 5 5 5 5 5 5 6 5 5 5 5 5 5 5 5 5 5 5 5 5 5 5 5 6 5 5 5 6 5 5 5 5 5 5 5 5 5 6 5 5 5 5 5 5 5 5 5 5 5 5 5 5 5 5 5 5 5 5 5 6 5 5 5 5 5 5 5 5 5 5 5 5 5 5 5 5 5 6 5 5 5 5 5 6 5 5 5 5 5 5 5 5 5 5 5 5 5 5 5 5 5 5 5 5 5 5 5 5 5 5 5 6 5 5 6 5 5 5 6 5 5 5 5 5 5 5 5 5 5 5 5 5 5 5 6 5 6 5 5 5 5 5 5 5 5 5 6 5 5 5 5 5 5 5 5 5 6 6 5 5 5 5 5 5 5 5 5 5 5 5 5 5 5 5 5 5 5 5 5 5 5 5 5 5 5 5 5 5 5 5 5 5 5 5 5 5 5 5 5 5 5 5 5 5 5 5 5 5 5 5 5 5 5 5 5 5 5 5 5 5 5 5 5 5 5 5 5 5 5 6 5 5 5 5 5 5 6 5 5 5 5 5 5 5 5 5 6 5 6 5 5 5 5 5 5 5 5 5 5 5 5 5 5 5 5 5 5 5 5 5 5 5 5 5 5 5 5 5 5 5 5 5 5 6 5 5 5 6 6 5 5 5 5 5 5 5 5 5 5 5 5 5 5 5 5 5 5 5 5 5 5 6 6 5 5 5 5 5 5 5 5 6 5 5 5 5 5 5 6 5 5 5 5 5 6 5 5 5 5 6 5 5 5 6 5 5 5 6 5 5 6 5 5 5 5 5 5 5 5 5 5 5 5 5 6 5 5 5 5 5 5 5 5 6 5 5 5 5 5 5 5 5 5 5 5 6 5 5 5 6 5 5 5 5 6 5 5 5 5 5 5 5 5 6 5 6 5 5 6 5 5 5 5 5 6 5 5 5 5 5 5 5 5 5 5 5 5 6 5 5 5 5 5 5 5 5 5 6 5 5 5 5 5 5 6 5 5 5 5 5 5 5 6 5 5 5 5 5 6 5 5 5 5 5 5 5 5 5 5 5 5 5 5 5 5 5 5 5 5 5 5 5 5 5 5 5 5 5 5 5 5 5 5 5 5 5 5 5 5 5 5 5 5 5 5 5 6 5 6 5 5 5 5 5 5 5 5 5 5 5 5 5 5 6 5 5 5 5 5 5 5 5 5 5 5 5 5 5 5 6 5 5 6 5 6 5 5 5 5 5 6 5 5 5 5 5 5 5 5 5 5 5 5 5 5 5 5 5 5 5 5 6 5 5 5 5 5 5 5 5 5 5 5 6 5 6 5 5 6 5 6 5 5 5 5 5 5 5 6 5 6 5 5 5 5 6 5 5 5 5 6 6 5 5 6 5 5 5 5 5 5 5 5 5 5 5 5 5 5 5 5 6 5 5 5 5 5 5 5 5 5 5 5 5 5 5 6 5 6 5 5 5 5 5 5 5 6 5 6 5 5 5 5 5 5 5 5 5 6 6 5 5 5 6 5 5 5 5 6 5 6 5 5 6 5 6 6 6 5 5 6 5 5 5 6 6 6 5 5 5 5 5 5 5 5 5 5 5 6 5 5 5 5 5 5 6 5 5 5 6 5 5 5 5 5 5 5 5 6 5 5 5 6 5 5 5 5 5 5 5 5 5 5 5 5 5 5 5 5 5 5 5 5 5 5 5 5 5 5 5 5 5 5 5 5 5 5 5 5 5 5 5 5 5 5 5 5 5 5 5 5 5 5 5 5 5 5 5 5 5 5 5 5 6 5 5 5 5 5 6 5 5 5 5 6 5 5 5 6 5 5 5 5 5 5 5 5 5 5 5 5 5 5 5 5 5 5 5 5 5 5 5 5 5 5 5 5 5 5 5 5 5 5 5 5 5 5 5 5 6 5 5 6 5 5 5 5 5 5 5 6 5 5 5 5 5 5 5 5 5 5 5 6 5 5 6 5 6 5 5 5 6 5 5 5 5 5 5 5 5 6 5 5 5 5 6 5 5 5 5 6 5 6 5 5 5 5 5 5 5 5 5 5 5 5 6 5 6 5 5 5 5 5 5 5 5 5 5 5 5 5 6 5 5 5 5 5 5 5 5 5 6 5 5 5 6 5 5 5 5 5 5 5 5 5 5 5 5 5 5 5 5 5 5 5 5 5 5 5 5 5 5 5 5 5 5 5 5 5 5 5 6 5 5 6 5 5 5 5 6 5 5 5 5 5 5 5 5 5 5 5 5 5 5 5 6 5 5 5 5 5 5 5 5 5 6 5 6 5 5 5 5 5 5 5 6 5 5 5 5 5 5 5 5 5 5 5 5 5 5 6 5 5 5 5 5 5 5 5 5 5 5 6 5 5 5 5 5 5 5 5 5 5 5 5 5 5 5 5 5 5 5 5 5 5 5 6 5 6 5 5 5 5 5 5 6 5 6 5 5 5 6 5 5 5 6 5 5 5 6 5 5 6 5 5 5 5 5 5 5 6 5 5 5 5 5 5 5 6 5 5 5 5 5 5 5 5 5 5 5 5 5 6 5 5 5 5 5 5 5 5 6 5 5 5 5 5 5 5 5 5 5 5 5 5 5 5 5 5 5 5 5 6 5 5 5 5 5 5 5 5 5 5 5 5 5 5 5 5 5 5 5 5 5 5 5 5 5 5 5 5 5 5 5 5 5 5 5 5 5 5 5 5 5 5 5 5 5 5 5 5 5 5 6 5 6 5 5 5 6 5 5 6 6 5 6 5 5 5 5 5 5 5 5 5 5 5 5 5 5 5 5 5 5 5 5 5 5 5 5 5 5 5 5 5 5 5 5 5 5 5 6 5 5 5 5 6 5 5 6 5 5 5 6 5 5 5 5 6 5 6 6 5 5 5 5 6 5 5 5 6 5 5 5 6 5 5 5 5 5 5 6 5 5 5 5 5 5 5 5 5 5 5 5 5 5 5 5 5 5 5 5 6 5 5 5 5 5 5 5 5 5 5 5 5 5 5 5 5 5 5 6 5 5 6 5 5 6 5 5 5 5 5 5 5 5 5 5 5 6 5 5 5 5 6 5 5 5 5 6 5 5 5 6 5 5 5 5 5 5 5 5 5 5 5 5 5 5 5 5 5 5 5 5 5 5 5 5 5 6 5 5 5 5 5 5 5 5 6 5 5 5 6 5 5 5 5 5 5 5 5 5 5 5 5 5 5 5 5 5 5 5 5 5 5 5 5 6 5 5 5 6 5 5 5 5 5 5 5 5 6 5 5 6 5 5 5 5 6 5 5 5 5 5 5 5 6 5 6 5 5 6 5 5 6 6 5 5 5 5 5 5 5 5 5 5 5 5 5 5 5 5 5 5 5 5 5 6 5 5 5 5 6 5 5 5 5 5 5 5 5 5 5 5 5 5 6 5 5 6 5 5 5 5 5 5 5 5 5 5 5 5 5 5 5 5 5 5 5 5 5 5 5 5 5 5 5 5 5 5 5 5 5 5 5 5 5 5 5 5 5 5 5 5 5 5 5 5 5 5 5 5 5 5 5 5 5 5 5 5 5 5 5 5 5 5 5 5 5 5 5 5 5 5 5 5 5 5 5 5 5 5 5 5 5 5 5 5 5 5 5 5 5 5 5 5 5 5 5 5 5 5 5 5 5 5 5 5 5 5 5 5 5 5 5 5 5 5 5 5 5 5 5 5 5 5 5 5 6 5 5 5 5 5 5 5 6 5 5 5 5 5 5 5 5 5 6 5 6 5 5 5 6 5 5 6 5 5 5 5 5 5 5 5 5 5 5 5 5 5 5 5 5 5 5 5 5 5 5 5 5 5 5 5 5 5 5 5 5 5 5 5 5 6 5 5 6 6 5 5 6 5 5 6 5 5 5 6 5 5 5 5 5 5 5 5 5 6 5 5 5 5 5 5 6 5 5 5 5 5 5 5 5 5 5 5 5 5 5 5 5 5 5 5 5 5 5 5 5 5 5 5 5 5 5 5 6 5 5 5 5 5 5 5 5 5 5 5 5 5 5 5 5 5 5 5 5 5 5 5 5 5 5 5 5 5 5 5 5 5 5 5 5 5 5 5 5 5 5 5 5 5 5 6 5 6 5 5 5 5 6 5 5 5 5 6 5 5 5 5 6 5 5 5 5 5 5 5 5 6 5 5 6 5 6 5 5 5 5 6 5 5 6 6 5 5 5 5 5 5 6 5 5 5 5 5 5 5 5 5 5 6 6 5 5 5 5 5 6 5 5 6 5 5 5 5 6 5 5 6 5 5 5 5 5 5 5 5 5 5 5 5 5 5 5 5 5 5 5 5 5 5 5 5 5 5 5 5 5 6 5 6 5 5 5 5 5 5 5 5 5 5 5 5 5 6 5 5 5 5 6 6 5 5 5 5 5 5 5 5 5 5 5 5 5 5 5 5 5 5 5 5 5 5 5 5 5 5 5 5 5 5 5 5 5 5 5 5 5 5 5 5 5 5 6 5 5 5 6 5 5 5 5 5 5 5 5 5 5 5 5 5 5 5 5 5 5 5 5 6 5 5 6 5 5 5 5 5 5 5 5 5 6 5 5 5 5 5 6 5 5 5 5 5 6 5 6 5 5 5 5 5 5 5 5 5 5 5 5 5 6 5 5 5 6 6 5 5 5 5 5 5 5 5 6 5 5 6 5 5 6 6 5 5 5 5 5 6 5 5 5 5 5 5 5 6 5 5 6 6 5 5 5 5 5 5 6 6 5 5 5 6 5 5 5 5 5 5 5 6 5 5 5 5 5 5 5 5 5 5 5 5 5 5 5 5 5 5 5 5 5 5 5 5 5 5 6 5 5 5 5 5 5 5 6 5 5 5 5 5 5 5 5 5 5 5 6 5 5 5 5 5 5 5 5 6 5 5 5 5 5 5 5 5 5 5 5 5 5 5 5 5 6 5 5 5 6 5 5 5 5 5 6 5 5 5 5 5 5 5 5 5 5 5 5 5 5 6 5 5 5 5 6 5 5 6 5 5 5 5 5 6 5 5 5 5 5 5 5 5 5 5 5 5 5 5 6 5 6 5 5 5 6 5 6 5 6 5 5 5 5 5 5 6 6 5 5 5 5 5 5 6 5 6 5 5 5 5 5 5 5 5 5 5 5 5 5 5 5 5 5 6 5 5 5 6 6 5 5 5 5 5 6 5 5 6 6 5 5 5 5 5 5 5 5 5 5 5 5 5 5 5 5 5 5 5 5 5 5 5 5 5 5 5 5 5 5 5 5 5 5 5 5 5 5 5 5 5 5 5 5 6 5 5 6 6 6 5 5 5 5 5 5 6 5 5 5 5 5 5 5 5 5 6 5 5 5 6 5 5 5 5 5 5 5 5 5 5 5 5 5 5 5 5 5 5 5 5 6 5 5 5 5 6 5 5 5 5 5 5 5 5 5 5 5 5 5 5 5 5 5 5 5 5 5 5 5 5 5 5 5 5 5 5 5 5 5 5 6 5 6 5 5 5 5 5 5 5 5 6 5 5 5 6 5 6 5 5 5 5 5 5 5 5 6 5 5 5 5 6 5 5 5 5 6 5 5 5 5 5 5 5 6 5 5 5 5 6 5 5 5 5 5 5 5 5 5 5 5 5 5 5 5 5 5 5 5 5 5 5 5 5 5 5 5 5 5 5 5 5 5 5 5 5 5 5 5 5 5 5 5 5 5 5 6 5 5 5 5 6 6 5 5 6 6 5 5 5 5 5 5 5 5 5 5 5 5 5 5 5 5 5 5 5 6 5 5 5 6 6 5 5 5 5 5 5 5 5 5 5 5 5 5 5 5 5 5 5 5 5 5 5 5 5 5 5 5 6 5 5 5 5 5 5 5 6 5 5 5 5 5 5 5 5 5 5 5 5 5 5 5 6 5 5 5 5 5 5 5 5 6 5 6 6 5 5 5 5 5 5 5 5 5 5 5 5 6 5 5 5 5 5 5 5 5 5 5 5 5 5 5 5 5 5 5 6 5 5 5 6 5 5 5 5 5 5 5 5 6 5 5 5 5 5 5 5 5 5 5 5 5 5 5 5 6 5 5 5 6 5 5 5 5 5 5 5 5 5 5 5 5 5 5 5 5 5 5 5 5 5 5 5 5 5 5 5 5 5 5 5 5 5 6 5 6 5 5 5 5 5 5 5 5 6 5 5 5 5 5 5 5 5 5 6 5 5 6 5 5 5 5 5 6 5 5 5 5 6 5 5 5 5 6 5 5 5 6 5 6 5 5 6 5 5 5 5 5 5 5 5 5 5 5 5 5 5 6 5 5 6 5 6 5 5 5 6 5 5 6 5 5 5 5 6 5 6 5 5 5 5 5 5 6 5 6 5 5 5 5 5 6 5 5 5 5 6 5 5 5 5 5 5 6 5 5 5 5 5 5 5 5 5 5 5 5 5 5 5 5 5 5 5 5 5 5 5 5 5 5 5 5 5 5 5 5 5 6 6 5 5 5 5 5 5 5 5 5 5 6 5 5 6 6 5 6 5 5 5 5 5 5 5 6 5 5 5 5 5 5 5 5 5 5 5 5 6 5 5 5 5 6 5 5 5 5 5 5 5 5 5 5 5 5 6 5 5 5 5 5 5 5 5 5 5 5 5 5 5 5 5 5 6 5 5 5 5 5 6 5 5 5 6 5 5 5 5 5 5 6 5 6 5 5 5 6 5 5 5 5 5 5 5 5 5 6 5 5 6 5 5 5 5 5 5 5 6 5 5 5 5 5 5 5 5 5 5 5 5 5 6 5 5 6 5 5 5 5 5 5 6 5 5 5 5 5 5 6 5 5 5 5 5 5 5 6 5 5 5 5 5 5 5 5 5 5 5 5 5 5 5 5 5 5 5 5 5 5 6 5 5 5 5 5 5 5 5 5 5 6 5 5 5 5 6 6 5 5 5 5 6 5 5 5 5 5 5 5 5 5 6 5 5 5 5 5 5 5 5 5 5 5 6 5 5 5 6 5 5 5 6 5 5 5 5 5 5 5 5 5 5 5 5 6 5 5 5 5 5 6 5 5 6 5 5 5 5 5 5 5 5 5 5 5 5 5 5 6 5 5 5 5 5 5 5 6 5 5 5 6 5 5 5 5 5 6 5 5 5 5 5 5 5 5 5 6 5 5 5 5 5 5 5 5 6 5 5 5 5 5 6 5 5 5 5 5 5 5 6 5 5 5 5 5 5 5 5 5 5 5 5 5 5 5 5 5 5 5 5 5 5 5 5 5 5 5 5 5 5 5 5 5 5 5 5 5 5 5 5 5 5 5 5 5 5 5 5 6 5 5 5 5 5 5 5 6 5 5 5 5 5 5 5 5 5 5 5 5 5 5 5 5 5 5 5 5 5 5 6 6 5 5 6 6 5 5 5 5 5 5 5 6 5 5 5 5 5 5 5 5 5 5 5 5 5 5 6 5 5 5 5 5 5 5 5 6 5 5 6 5 5 5 6 5 5 5 5 5 5 5 5 5 5 5 5 5 5 5 5 5 5 5 5 5 5 5 5 5 5 5 5 6 5 5 5 5 5 5 5 5 6 5 5 5 5 5 5 6 6 5 5 5 5 6 5 5 6 5 5 6 5 5 5 5 5 5 6 5 5 5 5 5 5 5 5 6 5 5 5 5 5 5 5 5 5 5 5 6 5 5 6 5 5 5 5 5 5 5 6 5 5 5 6 5 6 5 6 5 5 5 5 5 5 5 5 5 5 5 5 5 5 5 5 5 6 5 6 5 5 5 5 5 5 5 5 5 5 6 5 5 5 5 5 5 5 6 5 5 5 6 5 6 6 5 5 6 5 5 5 5 6 5 5 5 6 5 5 5 6 5 6 6 5 5 5 5 5 5 6 5 5 5 5 5 5 5 5 6 6 6 5 6 5 5 6 6 5 5 6 5 5 5 5 5 5 5 5 5 5 5 6 5 5 5 5 5 5 5 5 5 5 5 5 5 6 6 5 5 5 5 6 5 5 5 6 5 5 5 5 5 6 6 5 5 5 6 5 5 5 5 5 5 5 5 5 5 5 5 5 5 5 6 5 5 5 6 5 5 5 6 5 5 5 5 5 5 6 5 5 5 5 5 6 5 5 5 5 5 5 5 5 6 5 5 5 5 5 5 5 5 5 6 5 5 5 5 6 5 6 5 5 6 5 6 5 5 5 5 5 5 6 5 6 6 5 5 5 5 5 5 5 5 6 5 6 5 6 5 6 5 5 5 5 5 5 5 5 5 5 5 6 5 5 5 6 5 5 5 5 5 5 5 5 6 5 5 5 5 5 5 5 5 5 6 5 5 5 5 6 5 5 6 5 5 5 5 5 5 5 5 5 6 5 5 5 6 5 5 5 5 5 5 5 5 5 5 5 5 5 5 5 5 5 5 5 6 5 5 5 5 5 5 5 5 5 5 6 5 5 5 5 5 5 5 5 5 5 5 5 5 5 5 5 5 5 5 5 5 5 5 5 5 5 5 5 5 5 5 5 5 5 5 5 5 5 5 5 5 5 5 5 5 6 6 5 5 5 5 5 5 5 5 5 5 5 5 5 6 6 5 5 5 6 5 5 6 5 5 5 6 5 5 5 6 5 5 5 5 5 5 5 5 6 5 5 6 5 6 6 5 5 5 5 5 5 6 5 6 6 6 5 5 6 5 5 6 6 5 5 5 5 5 5 5 5 5 5 5 5 5 5 5 5 5 5 5 5 5 6 5 5 5 5 5 5 5 5 5 6 5 5 5 5 5 5 5 6 6 5 5 5 5 5 5 5 5 5 5 5 5 5 5 5 5 5 5 5 5 5 5 5 6 5 6 5 5 5 5 5 5 5 6 5 5 5 6 6 5 5 6 5 5 5 5 6 5 5 5 6 5 5 5 6 5 5 5 5 5 5 5 5 5 6 6 5 5 5 5 5 6 5 5 6 6 6 5 5 5 5 5 6 5 5 5 5 5 5 5 5 5 6 5 6 5 5 5 5 5 5 5 5 5 5 5 5 5 5 5 5 5 5 5 5 5 5 5 5 6 5 5 5 5 6 6 5 5 5 6 5 5 5 5 5 5 5 5 5 5 5 5 5 5 5 5 6 5 5 5 6 5 5 6 5 5 5 5 5 5 5 5 5 5 5 5 5 6 5 5 6 5 5 5 6 5 6 5 6 5 6 6 6 5 5 5 5 5 5 5 5 6 5 5 5 5 5 5 5 5 6 5 5 6 5 5 5 5 5 5 5 5 5 5 5 5 5 5 5 5 5 5 5 5 5 6 5 5 5 5 5 5 5 5 5 5 6 5 6 5 5 6 5 6 5 6 5 5 6 5 6 5 5 6 5 5 5 6 5 5 5 5 5 5 5 5 5 5 5 5 5 5 5 5 5 5 5 5 5 5 5 5 5 5 5 5 5 5 5 5 5 5 5 5 5 5 5 5 5 5 5 5 5 5 5 5 5 5 5 5 5 5 5 5 5 5 5 5 5 6 5 5 6 5 5 5 5 5 5 6 6 5 5 5 5 5 5 5 5 5 5 5 5 5 5 5 5 5 5 6 5 5 5 6 5 5 5 5 5 5 5 5 5 5 5 5 5 5 5 5 6 5 5 5 5 5 5 5 6 5 5 5 5 5 5 5 5 6 5 6 5 5 5 5 5 5 5 5 5 5 5 5 5 5 5 5 6 5 5 5 5 5 5 5 6 5 5 5 5 6 5 5 5 5 5 5 5 6 5 5 6 6 5 5 6 5 5 5 5 5 5 6 5 5 5 5 5 5 5 5 5 6 5 5 6 5 5 6 5 5 6 5 5 5 5 5 6 5 5 5 5 5 5 5 5 6 5 5 5 5 5 5 5 6 5 5 5 5 5 5 5 5 5 5 5 5 6 5 5 5 5 5 5 5 6 6 5 6 5 6 5 5 5 5 5 5 5 5 5 5 5 5 5 5 5 6 5 6 5 5 5 5 5 5 5 5 6 5 6 5 6 5 6 5 6 5 5 6 5 5 5 5 5 6 5 5 5 5 5 5 5 5 6 5 5 5 5 5 6 5 5 6 5 6 6 5 5 5 5 5 5 5 5 6 5 5 5 5 5 5 5 5 5 5 5 5 5 6 5 5 5 5 5 5 5 6 5 5 5 6 5 5 5 5 5 5 5 5 5 5 5 5 5 5 5 5 5 6 5 5 5 5 5 5 5 6 5 5 6 5 5 5 5 5 5 5 5 5 5 5 5 5 5 5 6 5 5 5 5 6 5 5 5 5 5 5 5 5 5 5 5 5 5 5 5 5 5 5 5 5 5 5 5 5 5 6 5 5 5 5 5 5 6 5 5 5 5 5 5 5 5 5 6 6 5 5 5 6 5 6 5 5 5 5 5 5 5 5 5 5 5 5 5 5 5 6 5 5 5 5 5 5 5 5 5 5 5 5 6 6 5 5 5 5 5 5 5 5 6 5 5 6 5 5 6 6 5 5 5 5 5 5 5 6 5 5 5 5 5 5 5 5 5 6 5 5 5 6 5 5 5 5 5 6 5 5 5 5 5 5 5 5 5 5 5 5 6 5 5 5 6 5 5 5 6 5 5 5 5 5 5 5 5 5 5 5 5 5 5 5 5 5 5 5 5 5 5 5 5 5 5 5 5 5 5 5 5 6 5 5 5 5 5 5 5 5 5 5 5 5 5 5 5 5 5 5 5 5 5 5 5 5 6 5 6 5 5 6 5 5 5 5 5 5 5 5 5 6 5 5 5 5 5 5 5 5 5 5 5 5 5 5 6 5 5 5 5 6 5 5 5 6 5 5 5 5 5 5 5 5 5 5 5 5 5 5 5 5 5 5 5 5 5 5 5 5 5 5 5 5 5 5 5 5 5 5 5 5 5 5 5 5 5 5 5 5 5 5 5 5 5 5 5 5 5 5 5 5 5 5 5 5 5 5 5 5 5 5 5 5 5 5 5 5 5 5 5 5 5 5 5 5 5 5 5 5 5 5 5 5 5 5 5 5 5 5 5 5 5 5 5 5 5 5 5 5 5 5 5 5 5 5 5 5 5 5 5 5 5 5 5 5 5 5 5 5 5 5 5 5 5 5 5 5 5 5 5 5 5 5 5 5 5 5 5 5 5 5 5 5 5 5 5 5 5 5 5 5 5 5 5 5 5 5 5 5 5 5 5 5 5 5 5 5 5 5 5 5 5 5 5 5 5 5 5 5 5 5 5 5 5 6 5 5 5 5 5 5 5 5 5 5 5 5 5 5 5 5 6 5 5 5 5 5 5 5 5 6 5 5 5 5 6 5 5 5 5 5 5 5 5 5 5 5 5 5 5 5 5 5 5 5 5 5 5 6 5 5 5 5 5 5 5 5 5 5 5 5 5 6 6 5 5 5 5 5 6 5 6 5 5 5 5 5 5 5 5 5 5 5 6 5 5 5 5 5 5 5 6 5 5 5 5 5 5 5 5 5 5 5 5 5 5 5 6 6 5 5 5 5 5 5 5 5 5 5 5 5 6 5 5 5 5 5 5 5 5 5 5 5 5 5 5 5 5 6 5 5 5 5 5 5 5 6 5 5 5 5 5 5 5 5 5 5 6 6 5 5 5 5 5 5 5 5 5 5 5 5 5 5 5 5 5 5 5 5 5 5 5 5 5 5 5 5 5 5 6 5 5 5 5 5 6 5 5 5 5 5 5 5 5 5 5 6 5 5 5 5 6 5 5 5 5 5 5 5 5 5 5 6 5 6 5 5 5 5 5 5 5 5 5 5 5 5 5 5 5 5 5 5 5 5 5 5 5 5 5 5 5 5 5 5 5 6 5 5 5 5 5 6 5 5 5 5 5 5 5 5 5 5 5 5 5 5 5 5 5 5 6 5 5 6 5 5 5 6 5 5 5 5 5 6 5 5 5 5 5 5 5 5 5 5 6 5 5 5 5 5 5 6 5 5 5 5 5 6 6 5 5 6 5 5 6 5 5 5 5 5 5 5 5 5 5 6 5 5 6 5 5 6 5 5 6 5 5 6 5 5 6 5 5 5 5 5 5 6 5 5 5 5 5 5 5 5 5 5 5 6 5 5 5 5 5 5 5 6 5 5 5 5 6 5 5 5 6 5 5 5 5 5 5 5 5 5 5 5 6 5 5 5 5 5 5 5 5 5 5 5 5 5 5 5 5 5 5 5 5 5 5 5 5 6 5 5 5 5 5 6 5 5 5 5 5 5 5 5 5 5 5 5 5 5 6 5 5 6 5 6 5 5 5 5 6 5 6 6 5 6 5 5 5 5 5 5 5 6 5 6 5 5 5 5 5 5 6 5 5 5 5 5 5 6 5 5 5 5 6 5 5 5 5 5 6 5 5 6 5 5 5 5 6 5 5 5 5 6 5 5 5 5 5 5 6 5 5 5 5 5 5 5 5 5 6 5 5 5 5 5 5 6 5 5 5 5 6 5 5 5 5 5 5 5 5 5 5 5 5 5 5 5 5 6 5 5 5 6 5 5 6 5 5 5 5 5 5 5 5 5 5 5 5 5 5 5 5 6 5 6 5 5 5 5 5 5 5 5 5 5 5 5 5 5 5 5 5 5 5 5 5 5 5 5 5 5 6 5 5 6 5 5 5 5 5 5 5 5 5 5 6 5 5 5 5 6 5 5 5 5 6 5 5 5 5 5 5 5 5 5 6 5 5 5 5 5 5 5 5 5 5 5 5 5 5 5 5 5 5 5 5 5 5 5 5 5 5 5 5 
</DataArray>
<DataArray type="Float64" Name="stress" NumberOfComponents="9" format="ascii">
-422939202.2060411 -1513761537.0506287 0 -1513761537.0506287 4086553853.7922592 0 0 0 0 -269840106.52962291 -252554488.91481781 0 -252554488.91481781 2857064505.8025131 0 0 0 0 1941306.4838783343 -222578999.97139359 0 -222578999.97139359 2260230966.5905762 0 0 0 0 293457300.18279982 -578101560.50279617 0 -578101560.50279617 1105292018.4901657 0 0 0 0 -64967177.811070442 -337475478.82865906 0 -337475478.82865906 1110843783.291317 0 0 0 0 -526627.11113314633 -275334.78755265474 0 -275334.78755265474 3293471.0915694609 0 0 0 0 -7115323.1003572941 151408875.74437714 0 151408875.74437714 -86398482.956794739 0 0 0 0 131889416.78315723 -44258552.256820679 0 -44258552.256820679 29139848.117141724 0 0 0 0 181572499.27897781 -1197925708.6199646 0 -1197925708.6199646 2552041798.9200897 0 0 0 0 670467343.54263079 -648323504.97369766 0 -648323504.97369766 1015804832.0875549 0 0 0 0 9969243.2991285324 -439681859.59440613 0 -439681859.59440613 1259341198.6609383 0 0 0 0 2636500071.9867215 -2210781284.840168 0 -2210781284.840168 784393056.44033813 0 0 0 0 925571997.43273354 2389457044.7966919 0 2389457044.7966919 4088529972.6909714 0 0 0 0 3020747.3477495769 127936.45903384313 0 127936.45903384313 5921035.7417524457 0 0 0 0 -151930119.98440468 1029607440.7864008 0 1029607440.7864008 2972192314.5979767 0 0 0 0 -620383676.58757913 388932705.93354034 0 388932705.93354034 4095496333.4482903 0 0 0 0 -10919260.879405916 786081521.96705627 0 786081521.96705627 1661544238.3148499 0 0 0 0 79948202.065032721 461264885.06289673 0 461264885.06289673 1736954342.1916866 0 0 0 0 2831005.037719503 -1825704.0142521746 0 -1825704.0142521746 14015929.988838822 0 0 0 0 259857596.49453682 343060618.50829697 0 343060618.50829697 894048221.56958008 0 0 0 0 -243814308.97153646 -213418417.22354126 0 -213418417.22354126 2216520072.9004822 0 0 0 0 1451360.710969924 4734997.3843772374 0 4734997.3843772374 15024737.619118478 0 0 0 0 -64743020.277191281 35306023.716087341 0 35306023.716087341 21590253.357757568 0 0 0 0 -141078011.82722044 13836940.905807495 0 13836940.905807495 66379817.191604614 0 0 0 0 -37227317.370453835 16414678.605049133 0 16414678.605049133 32433100.344070435 0 0 0 0 -161286655.10933781 -146435790.80647278 0 -146435790.80647278 -55785585.755523682 0 0 0 0 -233096.07995729754 -7378723.1636826023 0 -7378723.1636826023 28369118.176396176 0 0 0 0 121265928.9464159 -121415004.90176392 0 -121415004.90176392 -79805565.31867981 0 0 0 0 -26714483.870363235 -43097304.939620972 0 -43097304.939620972 31553892.819534302 0 0 0 0 -55092870.188963056 -24178980.865177155 0 -24178980.865177155 78420133.721557617 0 0 0 0 159960189.80513716 8170709.2934112549 0 8170709.2934112549 -226828106.17012787 0 0 0 0 -2599429.0642386004 -1434522.1922313124 0 -1434522.1922313124 11869213.03028629 0 0 0 0 548758497.91178286 -406208473.10457802 0 -406208473.10457802 324812938.72535706 0 0 0 0 183901764.45227385 98151140.818878174 0 98151140.818878174 112092914.59262085 0 0 0 0 35215845.802569866 -115674243.78751373 0 -115674243.78751373 187961381.38516235 0 0 0 0 57603343.756430626 -122416025.68584442 0 -122416025.68584442 -86692492.129371643 0 0 0 0 -89436171.194135591 1220841.382604599 0 1220841.382604599 240554458.84161377 0 0 0 0 -29322190.771582186 -32057494.13420105 0 -32057494.13420105 238428714.63128662 0 0 0 0 -34645643.439601898 -123978831.30944824 0 -123978831.30944824 283636293.92947388 0 0 0 0 -16224149.226349831 -92535513.750915527 0 -92535513.750915527 277716149.52020264 0 0 0 0 -89585846.840916857 -34200305.935154319 0 -34200305.935154319 362566305.17770386 0 0 0 0 80653358.022292137 -13815926.20022583 0 -13815926.20022583 147941615.10762787 0 0 0 0 309046840.22183561 256605515.17791748 0 256605515.17791748 467594632.03009033 0 0 0 0 444724728.70133376 -121855294.15842819 0 -121855294.15842819 175221025.36880493 0 0 0 0 49324331.596727371 50408168.411254883 0 50408168.411254883 555692605.17544556 0 0 0 0 165621.35480906483 551751.85574155394 0 551751.85574155394 679888.06374013424 0 0 0 0 262155536.18873787 -215710718.60220337 0 -215710718.60220337 208225773.28710938 0 0 0 0 429116679.43671393 284597061.00555801 0 284597061.00555801 227331527.39453125 0 0 0 0 -23335.343292917823 364085.80059477687 0 364085.80059477687 318463.73668640852 0 0 0 0 80836025.142427444 -196316039.09979248 0 -196316039.09979248 53256795.560455322 0 0 0 0 -4980823.8941876888 -67620342.681190491 0 -67620342.681190491 316639923.48455811 0 0 0 0 -127545267.26146126 -201857463.83050537 0 -201857463.83050537 777912876.37457275 0 0 0 0 -30824516.170801163 -104189251.83026123 0 -104189251.83026123 315211846.53689671 0 0 0 0 -2831719.5201363564 6783206.0426940918 0 6783206.0426940918 17968515.383203506 0 0 0 0 -1472880.3954788649 1381224.9319939418 0 1381224.9319939418 4659551.6881695688 0 0 0 0 -55674328.901194334 -6405548.2979736328 0 -6405548.2979736328 63438378.399078369 0 0 0 0 5751865.642809391 12657853.104408264 0 12657853.104408264 52541672.881866455 0 0 0 0 7897258.0050335377 -10178269.303806305 0 -10178269.303806305 117080087.76055908 0 0 0 0 11168142.799659193 -56447430.093095779 0 -56447430.093095779 127443319.42791748 0 0 0 0 -36271747.95524025 -57695878.370330811 0 -57695878.370330811 146318232.09347534 0 0 0 0 -277915488.71346617 -159973574.82820892 0 -159973574.82820892 102183518.57385254 0 0 0 0 -30195214.865072966 -45191451.644882202 0 -45191451.644882202 31753118.716285706 0 0 0 0 48009.994074288988 -6730274.5306960344 0 -6730274.5306960344 27019474.61608915 0 0 0 0 -67411614.269309998 36134281.505752563 0 36134281.505752563 23012609.018600464 0 0 0 0 -173497119.61183751 42188693.029273987 0 42188693.029273987 170017126.92440796 0 0 0 0 48866043.87136364 -34328113.934051514 0 -34328113.934051514 140208321.83709717 0 0 0 0 123451259.00054312 146752404.66254425 0 146752404.66254425 47712781.279098511 0 0 0 0 1332025.1077071445 1960354.462059442 0 1960354.462059442 -38489.337016016245 0 0 0 0 38148651.511615753 163278856.88511658 0 163278856.88511658 190578460.25019836 0 0 0 0 141854643.70355392 90923877.892066956 0 90923877.892066956 98064831.411117554 0 0 0 0 -52280108.715294242 11430077.420181274 0 11430077.420181274 63333753.313903809 0 0 0 0 -94617176.58249855 43142423.613693237 0 43142423.613693237 88387396.276229858 0 0 0 0 -114590972.64246923 14939003.410669327 0 14939003.410669327 44220963.823760986 0 0 0 0 -102076120.91199517 56040695.140258789 0 56040695.140258789 66367539.392211914 0 0 0 0 -31205906.75424552 79124537.086013794 0 79124537.086013794 65493852.191375732 0 0 0 0 -72703623.986628085 16402245.645862579 0 16402245.645862579 60406371.436431885 0 0 0 0 110482034.1025908 45595242.53666687 0 45595242.53666687 23661896.919563293 0 0 0 0 241512.80267641367 4610193.3978047706 0 4610193.3978047706 1551072.8875357807 0 0 0 0 -171382.34127151966 4728595.8701496124 0 4728595.8701496124 7066183.5191955566 0 0 0 0 -1436764.4283680916 2122477.8449363708 0 2122477.8449363708 4786382.0211181641 0 0 0 0 -872660.42900862778 2509191.4356348217 0 2509191.4356348217 13353235.670632124 0 0 0 0 -2239832.2829833627 11966448.866081238 0 11966448.866081238 56039243.888046265 0 0 0 0 24320492.490708768 28738529.61166954 0 28738529.61166954 55257985.622711182 0 0 0 0 1410776.9750888096 5212876.4306589663 0 5212876.4306589663 13024929.356146226 0 0 0 0 31168584.818923235 83863452.416923523 0 83863452.416923523 50332864.082084656 0 0 0 0 906575.3079996109 4198675.5837097168 0 4198675.5837097168 4846017.3350219727 0 0 0 0 -1670757.8817722797 -8088539.3716964722 0 -8088539.3716964722 5165970.0768432617 0 0 0 0 -15642169.387217999 18048389.294128418 0 18048389.294128418 9515963.6070709229 0 0 0 0 -2008360.9742216957 2771348.1762247896 0 2771348.1762247896 7856387.8141604364 0 0 0 0 8707623.4211045504 13593807.857200623 0 13593807.857200623 -1570221.8862228394 0 0 0 0 -722258.70336222649 144756.59400177002 0 144756.59400177002 9559720.4900665283 0 0 0 0 6576040.5038536787 -777930.65839385986 0 -777930.65839385986 -7259691.5373382568 0 0 0 0 24786460.243255377 26725618.311859131 0 26725618.311859131 17592838.138515472 0 0 0 0 16515714.55241704 349650.12364196777 0 349650.12364196777 -5646747.090927124 0 0 0 0 129285607.5269933 -24480531.886306763 0 -24480531.886306763 59702278.788452148 0 0 0 0 -875963.28756815009 -137177.15013885498 0 -137177.15013885498 2309395.0315856934 0 0 0 0 -161138.08128712469 -43513.419031582773 0 -43513.419031582773 200034.83362974226 0 0 0 0 -2145.3937684312987 -10833.513460857794 0 -10833.513460857794 -9990.912275403738 0 0 0 0 58895.462415651753 205560.93601307645 0 205560.93601307645 75035.821801885962 0 0 0 0 -5226304.1480648853 5852241.2826385498 0 5852241.2826385498 5011168.1999206543 0 0 0 0 -4236540.9945991635 -1961767.4654846191 0 -1961767.4654846191 887801.64624786377 0 0 0 0 344089.07245812047 565777.82361171395 0 565777.82361171395 -570531.9452624172 0 0 0 0 -263656.1453421507 1493404.3413696289 0 1493404.3413696289 773333.08764648438 0 0 0 0 -1546346.0367246899 2188688.4366378784 0 2188688.4366378784 1098110.093536377 0 0 0 0 -777967.86555360351 -2693686.3436203003 0 -2693686.3436203003 -417265.05041503906 0 0 0 0 -801232.12414432876 2331722.1420211792 0 2331722.1420211792 -533782.48629760742 0 0 0 0 -1388449.884269638 1912297.2888641357 0 1912297.2888641357 1535663.8040466309 0 0 0 0 9083.293324505019 -47272.855592057109 0 -47272.855592057109 133464.774864465 0 0 0 0 -368127.38547169068 -863682.60571289062 0 -863682.60571289062 4897140.4306335449 0 0 0 0 398415.19656201947 -29740569.061660767 0 -29740569.061660767 132231956.97632599 0 0 0 0 -19178658.803532317 -119345809.9083252 0 -119345809.9083252 293388199.31736755 0 0 0 0 175830923.34037739 -214997687.04763031 0 -214997687.04763031 279467780.55761814 0 0 0 0 -222585.32835155973 -90236074.166086301 0 -90236074.166086301 618316085.74171448 0 0 0 0 42561223.881138884 -127998064.10696793 0 -127998064.10696793 442465257.353302 0 0 0 0 245150979.91650027 -456516000.62687683 0 -456516000.62687683 533599008.5236969 0 0 0 0 290526120.62002939 -227148490.56953907 0 -227148490.56953907 224347759.18690491 0 0 0 0 27393086.07664454 11412349.248092651 0 11412349.248092651 225919001.7933538 0 0 0 0 11512208.694922257 -3373517.029548645 0 -3373517.029548645 212228767.27346802 0 0 0 0 13261385.413657904 13190479.859275818 0 13190479.859275818 129479543.70198059 0 0 0 0 16416154.73503828 -43747613.867919922 0 -43747613.867919922 114764386.74475098 0 0 0 0 37810872.830878019 34604506.021942139 0 34604506.021942139 171310704.50415039 0 0 0 0 -97194.06350662536 78491.219491578639 0 78491.219491578639 157008.61554982513 0 0 0 0 -38180128.143482327 -97701231.953262329 0 -97701231.953262329 209532197.85946655 0 0 0 0 -67347748.22565496 -12880795.417358398 0 -12880795.417358398 138835243.79876709 0 0 0 0 180063663.22437164 -95706567.337974548 0 -95706567.337974548 191568928.93713379 0 0 0 0 2395797.8193873898 2701484.1418368351 0 2701484.1418368351 5804145.44314868 0 0 0 0 323006965.01245034 280767384.8389163 0 280767384.8389163 113522972.91932678 0 0 0 0 -240510015.34639952 200849190.41007996 0 200849190.41007996 13968095.431194305 0 0 0 0 128817830.04562068 188902069.79824114 0 188902069.79824114 -174423426.62716675 0 0 0 0 157361090.64937156 -87593009.436447144 0 -87593009.436447144 -256041629.23190308 0 0 0 0 78976326.899705142 -45110472.959817886 0 -45110472.959817886 1408974510.6564941 0 0 0 0 365707205.92384237 -43054977.741067886 0 -43054977.741067886 -229936046.62733459 0 0 0 0 792571.75500466186 568575.81482393527 0 568575.81482393527 2384428.2316168845 0 0 0 0 -98786595.526110113 -752790899.02705002 0 -752790899.02705002 1372517693.3088379 0 0 0 0 1005386522.4949267 890415245.92936563 0 890415245.92936563 1104128368.9044724 0 0 0 0 460479481.06331056 -200407801.00428391 0 -200407801.00428391 3169551515.0184402 0 0 0 0 363687594.56350052 -837052564.05696201 0 -837052564.05696201 2765188290.9741974 0 0 0 0 -436213100.49284095 -122092650.37898254 0 -122092650.37898254 4095505148.6094131 0 0 0 0 -339302748.345411 -110098431.51501083 0 -110098431.51501083 3188408099.21241 0 0 0 0 -60234576.515301377 -204857563.57732964 0 -204857563.57732964 1456111871.9620056 0 0 0 0 -57674041.520971201 341984405.17922974 0 341984405.17922974 1646665916.2461395 0 0 0 0 -305881433.21308297 154868974.41979599 0 154868974.41979599 3270997197.1914139 0 0 0 0 -312550159.91072673 338522736.38541031 0 338522736.38541031 4094720870.1180038 0 0 0 0 -371073027.28231329 65262937.313365936 0 65262937.313365936 3294221060.2712555 0 0 0 0 749700890.02968025 370138233.50499725 0 370138233.50499725 3494231172.8792801 0 0 0 0 479977043.67674625 1059541238.2661324 0 1059541238.2661324 740060830.61817932 0 0 0 0 -234940085.46361917 621291842.5353775 0 621291842.5353775 3635583535.0846596 0 0 0 0 -44755999.32145071 -70242081.539268494 0 -70242081.539268494 793785142.53694153 0 0 0 0 66672184.08812058 -180612423.18119431 0 -180612423.18119431 58992975.908538818 0 0 0 0 -3915355.0482815504 -67277352.767959595 0 -67277352.767959595 477895927.36402893 0 0 0 0 339822376.5511862 19500234.104579926 0 19500234.104579926 394720597.9146347 0 0 0 0 284061957.1726647 -98010873.718561172 0 -98010873.718561172 387371827.3999939 0 0 0 0 -51210.097534656525 249792819.16836548 0 249792819.16836548 1675511558.1688595 0 0 0 0 35545858.97492215 276732119.39793396 0 276732119.39793396 134051228.97446442 0 0 0 0 46967689.186101526 -336374692.68321246 0 -336374692.68321246 -31470202.184524536 0 0 0 0 119689763.99770951 -37355586.083976746 0 -37355586.083976746 -384095811.94026184 0 0 0 0 109903729.42894793 -115279059.54080963 0 -115279059.54080963 -114692416.0944519 0 0 0 0 -72301513.54747963 -61928317.021377563 0 -61928317.021377563 -21574275.366157532 0 0 0 0 181141.81095873611 407104.36431349814 0 407104.36431349814 110596.23492718488 0 0 0 0 2804932.2391138077 27341237.285118103 0 27341237.285118103 -12362845.784617424 0 0 0 0 -196406273.46478701 -211088181.7760849 0 -211088181.7760849 85742670.174667358 0 0 0 0 124304138.75154638 -111103690.48665619 0 -111103690.48665619 88594489.81942749 0 0 0 0 1340682.3211630327 -453090.69655739143 0 -453090.69655739143 1324915.5153512806 0 0 0 0 85158189.420940399 -42835504.003131866 0 -42835504.003131866 104319614.01795959 0 0 0 0 29241585.168777466 -200755544.22151184 0 -200755544.22151184 100514487.15124512 0 0 0 0 619645.51444735355 226314.06047240132 0 226314.06047240132 1295352.4181453288 0 0 0 0 -88622650.416725636 -39000243.977363586 0 -39000243.977363586 64872886.907226562 0 0 0 0 34413873.676254749 -38171922.262195587 0 -38171922.262195587 180474536.07553101 0 0 0 0 61739814.893997669 -106148448.47472 0 -106148448.47472 148029633.91146851 0 0 0 0 -123488188.04182863 -38406966.637382507 0 -38406966.637382507 193980978.30371094 0 0 0 0 -42288309.496872425 -149462701.52207184 0 -149462701.52207184 195419461.62271118 0 0 0 0 -146104540.94632816 32353114.765396118 0 32353114.765396118 370525103.08295441 0 0 0 0 -149246075.79026878 100225224.80610847 0 100225224.80610847 287099914.91825867 0 0 0 0 -113061553.00605297 -125768953.17325592 0 -125768953.17325592 426790197.20043945 0 0 0 0 -69282961.823848724 -92601259.342575073 0 -92601259.342575073 -13620727.099784851 0 0 0 0 -93323441.550824642 115883446.96515656 0 115883446.96515656 379307250.72080231 0 0 0 0 278387943.40611935 377356571.95786667 0 377356571.95786667 -619987084.51540375 0 0 0 0 1334032.3504154254 1235591.3754019961 0 1235591.3754019961 2175337.1457181349 0 0 0 0 16754193.501877725 -316175131.19010162 0 -316175131.19010162 5861141800.1855698 0 0 0 0 -134757780.07091427 -474564366.0956955 0 -474564366.0956955 109917514.6998024 0 0 0 0 348167521.56561059 -100026415.0605011 0 -100026415.0605011 4095557746.4590588 0 0 0 0 588445618.80904818 255473397.34421539 0 255473397.34421539 4403848074.6959381 0 0 0 0 505266408.96638083 477525290.37842751 0 477525290.37842751 5257014650.5804749 0 0 0 0 111539281.22540751 -695475436.00975037 0 -695475436.00975037 4998851866.0294685 0 0 0 0 112092631.87650971 -622110247.67256951 0 -622110247.67256951 3890716184.6022339 0 0 0 0 -36560181.392219275 67033080.596424103 0 67033080.596424103 4151152723.9717789 0 0 0 0 2846550.6309408383 3690323.12444425 0 3690323.12444425 5826889.5426671356 0 0 0 0 -19176946.708099365 -315223005.05408478 0 -315223005.05408478 3610912567.4241714 0 0 0 0 2365365.6392726898 97402507.476146698 0 97402507.476146698 -281671651.62563324 0 0 0 0 -280584178.04870796 221597399.25814819 0 221597399.25814819 789614744.99568176 0 0 0 0 -157681757.41075516 204547381.81583405 0 204547381.81583405 103955788.66006279 0 0 0 0 -106783876.32504436 -502174271.13731194 0 -502174271.13731194 3254180050.2453384 0 0 0 0 -306631188.8697288 -147525645.72385406 0 -147525645.72385406 4094251688.6952591 0 0 0 0 -565068878.46342146 383823829.12773895 0 383823829.12773895 3477937977.0413589 0 0 0 0 -67191932.151033998 106110175.27832031 0 106110175.27832031 2451491581.7878838 0 0 0 0 2822097.9611532064 4958616.0712189078 0 4958616.0712189078 9426638.6973825991 0 0 0 0 -100374740.18143725 -124991209.46885014 0 -124991209.46885014 156481670.22685242 0 0 0 0 356962516.26206589 173168675.4324646 0 173168675.4324646 -116093662.96292496 0 0 0 0 133060482.04976082 -122180393.26533508 0 -122180393.26533508 47619772.728973389 0 0 0 0 -263484879.96902084 71491943.453102112 0 71491943.453102112 377574620.92463684 0 0 0 0 -188043900.70849895 -116232830.09666443 0 -116232830.09666443 125439126.12313843 0 0 0 0 -65346639.679740906 39894719.232971191 0 39894719.232971191 228833853.37901306 0 0 0 0 32864932.479190826 38012942.511741638 0 38012942.511741638 177670990.78704834 0 0 0 0 149295963.81832504 -1907632.9464874268 0 -1907632.9464874268 -5026466.7597198486 0 0 0 0 -48985150.024637222 235442344.50694275 0 235442344.50694275 348839348.77018547 0 0 0 0 591229.5182512938 -139475.12882147729 0 -139475.12882147729 311675.51362341642 0 0 0 0 31883800.971238136 16054161.835670471 0 16054161.835670471 -6803283.9295501709 0 0 0 0 25175947.212985992 7433771.1546096802 0 7433771.1546096802 94430381.536621094 0 0 0 0 -16715481.136492491 21131090.307403564 0 21131090.307403564 21600014.268447876 0 0 0 0 7790701.5810508728 -27614755.273666382 0 -27614755.273666382 24235561.452819824 0 0 0 0 11775357.206986427 -4015940.2332763672 0 -4015940.2332763672 18021833.118103027 0 0 0 0 18058830.640172005 2560487.8597869873 0 2560487.8597869873 24747223.965438843 0 0 0 0 32321148.478020668 -4767873.3297157288 0 -4767873.3297157288 7090196.8371887207 0 0 0 0 15123118.973665237 -27481290.541618347 0 -27481290.541618347 3193256.6082229614 0 0 0 0 -3134404.9258487225 -82694488.654632568 0 -82694488.654632568 37076638.320373535 0 0 0 0 102171736.74599838 -27098082.993591309 0 -27098082.993591309 -2174625.3456954956 0 0 0 0 -4816834.0525093079 -18426296.998073578 0 -18426296.998073578 7799543.4044647217 0 0 0 0 3555098.4904031754 -19869365.846992493 0 -19869365.846992493 3027355.004447937 0 0 0 0 5096969.2913689613 -12213547.03188324 0 -12213547.03188324 1280664.2028503418 0 0 0 0 12712609.510656357 -3694850.3989162445 0 -3694850.3989162445 5044334.7630004883 0 0 0 0 23147106.829427719 -12740915.214530945 0 -12740915.214530945 553925.55786132812 0 0 0 0 14110062.020999908 -6601603.8511657715 0 -6601603.8511657715 -285709.38662719727 0 0 0 0 6224478.7677507401 1044260.8829193115 0 1044260.8829193115 1744514.4620056152 0 0 0 0 7328918.8451623917 -13601024.507514954 0 -13601024.507514954 1010895.2085571289 0 0 0 0 3078331.9003312588 -12245940.731082916 0 -12245940.731082916 1536199.1296081543 0 0 0 0 -2733010.2599105835 -8121942.3718223572 0 -8121942.3718223572 9760303.9636993408 0 0 0 0 4328290.4846639633 -8254722.9738235474 0 -8254722.9738235474 -781876.87574768066 0 0 0 0 20519.829845428467 -7052732.9499359131 0 -7052732.9499359131 -282712.96946907043 0 0 0 0 3044799.2587552071 -430595.56111526489 0 -430595.56111526489 3145183.2929382324 0 0 0 0 -55054.150736222509 113472.14504883811 0 113472.14504883811 264853.97938798554 0 0 0 0 -331886.49415493011 -5317077.7256698608 0 -5317077.7256698608 4017659.883392334 0 0 0 0 1209320.0755672455 -7690501.2358207703 0 -7690501.2358207703 850871.07684326172 0 0 0 0 -8460165.6552381516 -20280728.380897522 0 -20280728.380897522 4438557.5112838745 0 0 0 0 -973836.15516542178 -4744522.1558644958 0 -4744522.1558644958 26933861.51729466 0 0 0 0 -4550408.8810067177 -11602641.418380737 0 -11602641.418380737 5420530.134185791 0 0 0 0 -69112.789287867316 421630.41777542979 0 421630.41777542979 4460982.3869685028 0 0 0 0 -24814802.384109974 -24896910.845123291 0 -24896910.845123291 27577811.453014374 0 0 0 0 1337685.4318653843 -4594481.0859702509 0 -4594481.0859702509 15281094.825198472 0 0 0 0 -7134820.5640926361 -5931270.9285125732 0 -5931270.9285125732 38514609.229934692 0 0 0 0 5266392.2772582769 5523295.3271408081 0 5523295.3271408081 37483784.621358871 0 0 0 0 3009292.7403635555 6644910.0709594116 0 6644910.0709594116 16789179.569474258 0 0 0 0 369778.11192452908 5959592.2300491333 0 5959592.2300491333 49574208.658447266 0 0 0 0 -4153173.6441360712 -3276726.2795906067 0 -3276726.2795906067 6922311.0790252686 0 0 0 0 -2265636.0797042847 -1518066.4941101074 0 -1518066.4941101074 10649087.319946289 0 0 0 0 -1775863.9085078072 -2524487.5972049404 0 -2524487.5972049404 8427176.9062306136 0 0 0 0 -3129017.4824485779 4239905.7173461914 0 4239905.7173461914 5575702.6981182098 0 0 0 0 -2520570.6360748298 1027852.2661069222 0 1027852.2661069222 20688720.350170754 0 0 0 0 -4057364.6451025009 1281642.1184082031 0 1281642.1184082031 3422878.3333511353 0 0 0 0 -1274822.373749268 1086652.8581593484 0 1086652.8581593484 25472233.873212226 0 0 0 0 -5507339.8957614899 -1836974.1494140625 0 -1836974.1494140625 5624028.5307617188 0 0 0 0 -1765536.4336450496 -67050.948173472658 0 -67050.948173472658 20905008.36105191 0 0 0 0 -1364251.8083474231 -1702529.5339599438 0 -1702529.5339599438 18180054.071956459 0 0 0 0 -3765880.331512332 -1402489.6547737122 0 -1402489.6547737122 9810808.9399871826 0 0 0 0 -692792.92574756593 404139.29295302555 0 404139.29295302555 14394129.58931639 0 0 0 0 -509939.47090291977 316950.0673866272 0 316950.0673866272 10421339.248657227 0 0 0 0 -1403573.5620775223 -1580621.8262863159 0 -1580621.8262863159 6484450.6815948486 0 0 0 0 -926249.34620924294 785453.01536595076 0 785453.01536595076 18284188.871350851 0 0 0 0 -2615832.1224541664 -923479.75733947754 0 -923479.75733947754 11190188.35017395 0 0 0 0 -1259996.1763866572 -511989.27337360755 0 -511989.27337360755 15512602.154814735 0 0 0 0 -2907509.5138072968 -1211447.8326416016 0 -1211447.8326416016 11865743.952911377 0 0 0 0 -1662789.8961830139 1296504.25 0 1296504.25 16794716.411454678 0 0 0 0 -477613.34195184708 1274105.8051166534 0 1274105.8051166534 10910197.260314941 0 0 0 0 299448.86618394591 2302907.6215287074 0 2302907.6215287074 10364858.85497652 0 0 0 0 -110348.59098482132 -80977.945636749268 0 -80977.945636749268 8148395.3785552979 0 0 0 0 731799.51219312637 -39180.701130665839 0 -39180.701130665839 6644886.1537559107 0 0 0 0 319805.83261810616 61296.233803726733 0 61296.233803726733 10068660.321555184 0 0 0 0 903192.78050708771 -403966.56552505493 0 -403966.56552505493 6082324.8601989746 0 0 0 0 1586341.7672805786 -553942.12096405029 0 -553942.12096405029 4448246.9144439697 0 0 0 0 776596.33406259771 -1080628.7778348327 0 -1080628.7778348327 7073696.4117240831 0 0 0 0 1562530.0622508526 -603026.38306045532 0 -603026.38306045532 4633226.2236022949 0 0 0 0 -1605909.2733039856 -4346292.1591339111 0 -4346292.1591339111 2648875.2266235352 0 0 0 0 -730791.4376745224 -3142614.3050003052 0 -3142614.3050003052 3647713.3946242332 0 0 0 0 1355498.032236913 -2111662.4047382362 0 -2111662.4047382362 2630521.5808604881 0 0 0 0 1254529.0754528046 -996080.49927520752 0 -996080.49927520752 4815610.0720901489 0 0 0 0 -419687.70676684007 -6444525.3606499285 0 -6444525.3606499285 3460076.2227721587 0 0 0 0 -151769.35318071698 -1427786.2188290115 0 -1427786.2188290115 2532495.9216251969 0 0 0 0 1241395.256363885 16283.403567189351 0 16283.403567189351 1724695.2454054207 0 0 0 0 -977370.95596313477 -609552.18295288086 0 -609552.18295288086 783778.17548370361 0 0 0 0 444753.38220243901 -1057182.4873028323 0 -1057182.4873028323 5820856.0453742854 0 0 0 0 -576032.92773628235 6913380.4925842285 0 6913380.4925842285 -2193253.5125198364 0 0 0 0 -356475.18159747124 -769397.55755233765 0 -769397.55755233765 3221609.9823074341 0 0 0 0 -546674.97357773781 -1126061.1855945587 0 -1126061.1855945587 3266835.7151641846 0 0 0 0 -43809.46517649712 285591.03557631187 0 285591.03557631187 307270.86779359728 0 0 0 0 -1434001.0659294128 1600953.7069091797 0 1600953.7069091797 2434925.2989807129 0 0 0 0 1076243.1057988373 -1931727.4944151384 0 -1931727.4944151384 3498765.0356680155 0 0 0 0 1677458.1804520364 -775017.88564318791 0 -775017.88564318791 4369936.3412828818 0 0 0 0 1658242.6347588426 493555.88290166482 0 493555.88290166482 -717954.83835560828 0 0 0 0 10454762.708920717 -12059979.002250671 0 -12059979.002250671 -16796269.728010654 0 0 0 0 4945228.608033061 5260625.1987438202 0 5260625.1987438202 -2734089.0257873535 0 0 0 0 2869583.3433514992 -1618471.5114462376 0 -1618471.5114462376 5777669.5703321956 0 0 0 0 3510747.9308524909 56602.907308444381 0 56602.907308444381 3864451.7704666751 0 0 0 0 -10212922.017825127 -53001241.908859253 0 -53001241.908859253 -143559537.80578613 0 0 0 0 437463.10421180725 233914.29747009277 0 233914.29747009277 1567650.3452377319 0 0 0 0 -497739.91867887974 -6105808.0898704529 0 -6105808.0898704529 -11738955.574783325 0 0 0 0 -38050470.613552988 114983443.92658997 0 114983443.92658997 -180985579.23841858 0 0 0 0 5293820.5037423391 2412923.0587335825 0 2412923.0587335825 4963509.5853577033 0 0 0 0 2859555.4168224335 1876246.0668869019 0 1876246.0668869019 6684385.7509460449 0 0 0 0 1169249.9048976435 864713.08535454934 0 864713.08535454934 -738750.79157294333 0 0 0 0 -44527146.56799639 -96329021.579547882 0 -96329021.579547882 -179494194.01779938 0 0 0 0 2122627.4531564713 1514698.6600265503 0 1514698.6600265503 8066326.4568405151 0 0 0 0 2019286.2145872947 589782.02050752472 0 589782.02050752472 4040317.0723379776 0 0 0 0 2256031.4020514488 1868311.1723508835 0 1868311.1723508835 8568198.3536834717 0 0 0 0 683369.35065460205 1211439.8791122437 0 1211439.8791122437 2090648.8628845215 0 0 0 0 509657.75586795807 263379.93391799927 0 263379.93391799927 1561893.9490737915 0 0 0 0 1329871.2846635515 1632628.332763806 0 1632628.332763806 2991790.5033658519 0 0 0 0 1053880.0491771698 296813.91664123535 0 296813.91664123535 5165136.3507461548 0 0 0 0 1765783.1829300767 1052761.0306133535 0 1052761.0306133535 3333618.0623725206 0 0 0 0 1698822.3468307825 1022821.4728480428 0 1022821.4728480428 3834924.1364055127 0 0 0 0 2294043.0756196976 1001641.2264089361 0 1001641.2264089361 1399229.0105227977 0 0 0 0 370202.96353912354 363906.95973205566 0 363906.95973205566 1114002.5114250183 0 0 0 0 196784.74101638794 -42386.603973388672 0 -42386.603973388672 7999418.1855163574 0 0 0 0 1181435.4213600159 845743.09471130371 0 845743.09471130371 958369.06893825531 0 0 0 0 -624328.93191565666 480774.69028374925 0 480774.69028374925 11215329.888088444 0 0 0 0 -1111736.6303730011 -360895.74827575684 0 -360895.74827575684 1145671.7944946289 0 0 0 0 1555120.0955457301 790735.27159978449 0 790735.27159978449 4079969.8458130062 0 0 0 0 1503188.5276448815 -240373.39786261925 0 -240373.39786261925 6816912.4883527458 0 0 0 0 -1068575.4154287875 1111201.8226509467 0 1111201.8226509467 20346117.317136358 0 0 0 0 834407.1524201259 -600342.46311416104 0 -600342.46311416104 10939719.789994463 0 0 0 0 -652575.22169876099 4947335.7853240967 0 4947335.7853240967 10825069.647254944 0 0 0 0 -1851612.3138389587 2247168.0110168457 0 2247168.0110168457 12075332.572715759 0 0 0 0 847549.57592773438 6771587.1823196411 0 6771587.1823196411 9688194.1216430664 0 0 0 0 2664757.0084128994 6193483.5349091729 0 6193483.5349091729 5691348.1472155675 0 0 0 0 -530176.41305239499 606817.89853974991 0 606817.89853974991 708537.91638171673 0 0 0 0 95022.366333007812 -780647.76962280273 0 -780647.76962280273 9119382.0037841797 0 0 0 0 -3402827.9244537354 1696489.3072776794 0 1696489.3072776794 2440769.6866455078 0 0 0 0 168166.40268189274 4080759.968907984 0 4080759.968907984 6546038.4623038657 0 0 0 0 -434724.01792625245 1114981.290207891 0 1114981.290207891 5477246.5294132531 0 0 0 0 -825899.70809976384 1139841.0996934064 0 1139841.0996934064 20597671.242301349 0 0 0 0 -474809.3904838562 6729663.5502700806 0 6729663.5502700806 17994432.43548584 0 0 0 0 -1251330.2528571682 2302854.9036950096 0 2302854.9036950096 16570425.142712651 0 0 0 0 6184763.8393955231 -1064607.0905456543 0 -1064607.0905456543 8706152.3461914062 0 0 0 0 -7633278.5751247406 -3499746.2235107422 0 -3499746.2235107422 -5779600.0603179932 0 0 0 0 -22899.996593475342 13679111.662055969 0 13679111.662055969 30434098.640228271 0 0 0 0 -2138682.086019516 17676698.353614807 0 17676698.353614807 27884555.922454834 0 0 0 0 -951882.68569468288 1629405.6343561672 0 1629405.6343561672 1724267.1833672374 0 0 0 0 -14879964.632171631 -5845936.5026741028 0 -5845936.5026741028 19320823.466125488 0 0 0 0 -11692454.116584778 -1115634.7070159912 0 -1115634.7070159912 23517967.536659241 0 0 0 0 -8596527.5386104584 -6364801.9196395874 0 -6364801.9196395874 29621825.786895752 0 0 0 0 2549113.4310646057 -9357063.2367706299 0 -9357063.2367706299 32924770.533416748 0 0 0 0 -240611.75061225891 -3876425.3209915161 0 -3876425.3209915161 22158348.914840698 0 0 0 0 7520143.0461807251 16502104.722991943 0 16502104.722991943 -1831607.6274719238 0 0 0 0 -6916958.9459152222 2464587.8870887756 0 2464587.8870887756 52699319.227294922 0 0 0 0 1251662.6457044398 2753497.0103484988 0 2753497.0103484988 11560274.7750673 0 0 0 0 1484157.1780757904 1476918.2166824341 0 1476918.2166824341 12503210.298339844 0 0 0 0 -7033949.2249736786 6539349.2173843384 0 6539349.2173843384 21918846.522827148 0 0 0 0 -8516688.6905975342 2727388.265789032 0 2727388.265789032 16415520.671897888 0 0 0 0 -8782795.3566474915 4274043.4649200439 0 4274043.4649200439 12655175.542778015 0 0 0 0 1723639.891960144 -3009329.2705230713 0 -3009329.2705230713 7961937.1461486816 0 0 0 0 -669036.38397216797 5166046.9953765869 0 5166046.9953765869 15591929.744674683 0 0 0 0 4301732.3446585834 1829934.5271972292 0 1829934.5271972292 3105156.9345181808 0 0 0 0 -220014.94609592762 58055.728888437152 0 58055.728888437152 447502.46100765839 0 0 0 0 872469.05625915527 1675798.9002532959 0 1675798.9002532959 12460646.306274414 0 0 0 0 -1436685.5886774063 13698980.772972107 0 13698980.772972107 17565770.367012024 0 0 0 0 7231912.7061924338 -16628754.173732996 0 -16628754.173732996 -4308578.2547302246 0 0 0 0 690815.64707234222 2727995.0868653134 0 2727995.0868653134 11601261.38638217 0 0 0 0 1406097.0480442047 3444393.7706069946 0 3444393.7706069946 10797625.676361561 0 0 0 0 13026059.858718872 41705875.413398743 0 41705875.413398743 31538851.072875977 0 0 0 0 9247078.3086261749 6733765.5536727905 0 6733765.5536727905 -6991608.4591064453 0 0 0 0 -516210.08001597202 2597880.2376551246 0 2597880.2376551246 1043444.9208668992 0 0 0 0 5380508.7829580307 -5886074.7251110077 0 -5886074.7251110077 22911997.608215332 0 0 0 0 -777872.96474975906 2867386.0885001048 0 2867386.0885001048 13737282.485329013 0 0 0 0 -6823062.9558639526 7115865.6834754944 0 7115865.6834754944 27874457.58864975 0 0 0 0 -3754930.2900888603 -346944.4610313382 0 -346944.4610313382 7257503.4511221722 0 0 0 0 2723122.8118215427 8251240.2098064478 0 8251240.2098064478 7714519.4460593127 0 0 0 0 -24873590.618242264 15678377.033569336 0 15678377.033569336 46489516.729858398 0 0 0 0 -29388973.32612133 24125984.633043289 0 24125984.633043289 37907338.349720001 0 0 0 0 -8036573.4919815063 15506056.912445068 0 15506056.912445068 -4985277.0485992432 0 0 0 0 184929.66025543213 -14800702.476837158 0 -14800702.476837158 -8817872.4308319092 0 0 0 0 -974814.69700676389 -179591.27163511887 0 -179591.27163511887 5622674.772806026 0 0 0 0 3942428.0522499084 51217029.868267059 0 51217029.868267059 -65529987.481956482 0 0 0 0 11896944.811626434 31126731.869384766 0 31126731.869384766 16550189.015579224 0 0 0 0 3687277.5492461263 6009234.4640070964 0 6009234.4640070964 8439637.2867843956 0 0 0 0 1736621.478726387 4440021.2484207153 0 4440021.2484207153 8121426.1181793213 0 0 0 0 2244814.8002090454 3122691.7326965332 0 3122691.7326965332 8055332.0611701012 0 0 0 0 -96218942.483757019 -3672993.3347740173 0 -3672993.3347740173 11048668.006912231 0 0 0 0 -112839506.8112402 -48835662.670824051 0 -48835662.670824051 50528702.049560547 0 0 0 0 598986.61029852694 2436169.7759804484 0 2436169.7759804484 416393.53782461211 0 0 0 0 -238506100.12532425 -9341827.8031845093 0 -9341827.8031845093 39460086.805084229 0 0 0 0 -656953.34581742436 -390115.49740013853 0 -390115.49740013853 521956.00533612072 0 0 0 0 3016381.3449087143 2394869.0616455078 0 2394869.0616455078 7898162.7136154175 0 0 0 0 1306211.907532692 3062934.6032791138 0 3062934.6032791138 9814336.4540100098 0 0 0 0 2213187.5426034927 1668470.2485389709 0 1668470.2485389709 8336799.5915527344 0 0 0 0 2913164.1437692642 2823084.9703941345 0 2823084.9703941345 6137056.5305480957 0 0 0 0 3250505.4114837646 3669673.5122375488 0 3669673.5122375488 4832989.113243103 0 0 0 0 4513503.7849263437 7697838.4157083202 0 7697838.4157083202 7189422.6717941761 0 0 0 0 5106595.7296709046 3787386.2660452202 0 3787386.2660452202 6058705.1568415733 0 0 0 0 2554482.3250951767 3835511.8927459717 0 3835511.8927459717 6501680.3571472168 0 0 0 0 -113164042.4752388 42189870.67168045 0 42189870.67168045 40129810.367584229 0 0 0 0 -529149732.46863937 -119484996.34571266 0 -119484996.34571266 291597578.65463257 0 0 0 0 -196848589.07472134 -20941634.265205383 0 -20941634.265205383 228008828.43817139 0 0 0 0 -367444615.62896633 -39206944.343706131 0 -39206944.343706131 275072498.96494293 0 0 0 0 -203333165.18610191 -8364396.1792001724 0 -8364396.1792001724 270615368.34471893 0 0 0 0 -493901207.68912125 58429816.681091309 0 58429816.681091309 360987942.53672028 0 0 0 0 33244842.096352577 27201560.943872452 0 27201560.943872452 29898429.776371002 0 0 0 0 -306988.47967912117 1808396.5296025537 0 1808396.5296025537 1398129.2818290498 0 0 0 0 -354109139.81407547 22613894.688537598 0 22613894.688537598 675315555.25547791 0 0 0 0 32605727.213402137 100982325.70349406 0 100982325.70349406 65146853.164783478 0 0 0 0 3141675.5853300095 10306002.31310463 0 10306002.31310463 -160531393.52340937 0 0 0 0 -2480140.5254401192 5569890.6679931674 0 5569890.6679931674 4727598.3725885823 0 0 0 0 42340620.640058994 -27534659.206726074 0 -27534659.206726074 -156537964.13293076 0 0 0 0 -86254586.264036179 -29483943.719640732 0 -29483943.719640732 102567470.42300797 0 0 0 0 -2706399.5900810226 -334421.37320880219 0 -334421.37320880219 14510046.87429557 0 0 0 0 -65465899.734619141 -81257068.223514557 0 -81257068.223514557 -55203414.710361481 0 0 0 0 -126242.02815626655 267597.57616224326 0 267597.57616224326 492221.31738328189 0 0 0 0 -218460578.76893997 -86235043.247093201 0 -86235043.247093201 -166269195.69171524 0 0 0 0 -406322834.82625008 -207080065.98676872 0 -207080065.98676872 50244566.15977478 0 0 0 0 -384176027.62129307 -121130260.90780163 0 -121130260.90780163 197366179.12837219 0 0 0 0 -159059432.0403862 35073405.02898407 0 35073405.02898407 35046826.772701263 0 0 0 0 -125778147.44463682 -24174631.739780426 0 -24174631.739780426 117791225.41983032 0 0 0 0 -193020947.9666729 144154051.01098251 0 144154051.01098251 -37575033.875318527 0 0 0 0 -85251861.116577148 191049771.76232529 0 191049771.76232529 98476117.286365509 0 0 0 0 -160430134.79685974 93418239.481393814 0 93418239.481393814 17799922.31829834 0 0 0 0 -74289711.018333435 108225096.98913956 0 108225096.98913956 -146834854.33840942 0 0 0 0 -66224994.182242393 166012055.11616898 0 166012055.11616898 -82006823.495815277 0 0 0 0 -150421059.07562828 147370739.40053558 0 147370739.40053558 30042043.862550735 0 0 0 0 -1358356.3328877559 3401796.4589813314 0 3401796.4589813314 11164700.399001386 0 0 0 0 -2043542.7319755554 5869782.4182128906 0 5869782.4182128906 224619.14742922783 0 0 0 0 -1100680.1120054752 8841535.3216071762 0 8841535.3216071762 5753648.4044101164 0 0 0 0 17114161.245433807 -7767994.2649421692 0 -7767994.2649421692 -15163512.974525452 0 0 0 0 567005.61168150418 7031195.7720858837 0 7031195.7720858837 5106654.9359871261 0 0 0 0 -174568381.5603137 76902559.149925709 0 76902559.149925709 -40007046.552047729 0 0 0 0 -240080170.59434652 90953166.128232002 0 90953166.128232002 18890633.688659668 0 0 0 0 10502228.35819912 38182303.017461777 0 38182303.017461777 7640584.9271774292 0 0 0 0 -1001839.4846881046 7159005.6172825303 0 7159005.6172825303 4582639.8362721056 0 0 0 0 -1025205.8150901794 2008747.2389907837 0 2008747.2389907837 9185990.7191619873 0 0 0 0 -511876.67285575531 -845168.73009779025 0 -845168.73009779025 968771.40123612061 0 0 0 0 -5278858.2517337799 5432582.9276657104 0 5432582.9276657104 9562976.5106582642 0 0 0 0 -846558.08891182113 5224206.3124232758 0 5224206.3124232758 8237859.7263722792 0 0 0 0 -5232802.7254753113 2250172.2076568604 0 2250172.2076568604 11169999.996195793 0 0 0 0 -4541911.6108446121 5830894.5085830688 0 5830894.5085830688 6126581.1437530518 0 0 0 0 -5656478.1012763977 2683101.1481552124 0 2683101.1481552124 6445401.6074529886 0 0 0 0 -3692366.6231689453 1610161.2950134277 0 1610161.2950134277 9778760.301211834 0 0 0 0 -1294848.5336990356 1910769.5930099487 0 1910769.5930099487 8292026.5077590942 0 0 0 0 -4890031.7321777344 665957.77458572388 0 665957.77458572388 9340479.5238494873 0 0 0 0 36747.556124275026 2057578.650113241 0 2057578.650113241 7049407.6906890124 0 0 0 0 -3011378.7451057434 -405170.90421295166 0 -405170.90421295166 6217063.0069885254 0 0 0 0 -393260.58530961815 5074431.9715186376 0 5074431.9715186376 15340190.902851626 0 0 0 0 -30644215.560970783 -6890726.5907363892 0 -6890726.5907363892 46763020.015045166 0 0 0 0 -14256591.479231715 9301227.8519444466 0 9301227.8519444466 17997251.077713013 0 0 0 0 -6617955.2535362244 3564431.238697052 0 3564431.238697052 6332778.7915594578 0 0 0 0 167216.77876875154 1278744.3671149937 0 1278744.3671149937 7474581.9504939094 0 0 0 0 2986023.6807918549 12397273.208633423 0 12397273.208633423 16517099.974876404 0 0 0 0 -526952.51955699921 25236710.387313843 0 25236710.387313843 25273548.641853333 0 0 0 0 30750733.607647657 10585212.683982849 0 10585212.683982849 11892201.932647705 0 0 0 0 -787733.01305445959 5529298.5297334008 0 5529298.5297334008 14627812.837914467 0 0 0 0 -5499399.0991230011 4914363.2035598755 0 4914363.2035598755 5565774.4820556641 0 0 0 0 334351.45383639075 7742367.1665770542 0 7742367.1665770542 10624517.146305956 0 0 0 0 1479652.8045485299 5059008.7709693946 0 5059008.7709693946 16648281.544901241 0 0 0 0 6468776.7249565125 1309485.1095809937 0 1309485.1095809937 4581988.0618495941 0 0 0 0 -5232988.7599611282 -6479788.1585502625 0 -6479788.1585502625 18392046.028442383 0 0 0 0 -14001065.134144783 -8399604.1298942566 0 -8399604.1298942566 16817755.986282349 0 0 0 0 -10748797.602697372 12026170.310176849 0 12026170.310176849 42418672.563076019 0 0 0 0 -5897557.0382441357 5881695.0165274907 0 5881695.0165274907 23865544.44337859 0 0 0 0 8822244.3530673981 10777214.353343964 0 10777214.353343964 36073393.89051342 0 0 0 0 -5767379.4329128265 3355845.905380249 0 3355845.905380249 22161730.196338654 0 0 0 0 -12776685.584323883 32794995.888261795 0 32794995.888261795 59962663.692611694 0 0 0 0 -3302519.5805678368 -1508617.5760993958 0 -1508617.5760993958 25339325.542282104 0 0 0 0 -2249627.0568059175 5320976.8968548253 0 5320976.8968548253 22430677.301600009 0 0 0 0 2199737.2408724688 2006589.9719776362 0 2006589.9719776362 24366637.5212828 0 0 0 0 -4247597.256608963 2440455.9774703979 0 2440455.9774703979 6810738.4493713379 0 0 0 0 -8051341.4918270111 3442088.801815033 0 3442088.801815033 13687212.237197876 0 0 0 0 -2035178.0669028778 -1019369.3375793509 0 -1019369.3375793509 27767813.276780657 0 0 0 0 -707540.28090667725 4653999.4597625732 0 4653999.4597625732 5747616.2784729004 0 0 0 0 1734099.9119269585 3890496.1774963783 0 3890496.1774963783 5309766.2872998714 0 0 0 0 -12508446.535167217 -3129397.0534820557 0 -3129397.0534820557 39872186.527770996 0 0 0 0 -1105314.0672961855 -202925.44263782352 0 -202925.44263782352 24656890.701920267 0 0 0 0 -868246.89131258801 -369896.88789396361 0 -369896.88789396361 25534626.926001821 0 0 0 0 -921072.0849404335 -1785146.8321094513 0 -1785146.8321094513 27598473.751091003 0 0 0 0 613802.62654519081 -11029277.332997322 0 -11029277.332997322 53434664.798980713 0 0 0 0 17596901.443703175 48029102.102648735 0 48029102.102648735 39263794.466323853 0 0 0 0 -1811084.5983048026 2579349.8409240805 0 2579349.8409240805 5963698.2109258845 0 0 0 0 7765185.9413547516 5480237.8326377869 0 5480237.8326377869 26976040.117750168 0 0 0 0 -5963277.468606472 34702691.139168739 0 34702691.139168739 63891659.319610596 0 0 0 0 -23943541.598933697 12958409.004095078 0 12958409.004095078 66994462.336868286 0 0 0 0 45502173.918003082 5008111.0222930908 0 5008111.0222930908 19313808.076286316 0 0 0 0 395944.86288962606 1786543.8412747923 0 1786543.8412747923 12014464.060189679 0 0 0 0 -12785217.864610195 -3570496.1419372559 0 -3570496.1419372559 18064686.683181763 0 0 0 0 7672016.3923692703 -7618770.2828369141 0 -7618770.2828369141 17349848.841163635 0 0 0 0 12656328.838169098 1232937.5895080566 0 1232937.5895080566 9678293.5624475479 0 0 0 0 -5106420.6169297695 3083160.6274032593 0 3083160.6274032593 16827133.417373657 0 0 0 0 23043982.532365799 21450476.511283875 0 21450476.511283875 30035106.398101807 0 0 0 0 -3407006.9275150299 1200205.9485473633 0 1200205.9485473633 17284698.9884758 0 0 0 0 3172202.1795372963 26728958.924438477 0 26728958.924438477 58951577.168685913 0 0 0 0 -1880522.302444458 15212200.789291382 0 15212200.789291382 42436654.957466125 0 0 0 0 -1906749.7585759163 14761148.280065536 0 14761148.280065536 37185467.084014893 0 0 0 0 -2558594.6518220901 7540262.3485107422 0 7540262.3485107422 38331820.722640991 0 0 0 0 1952742.9385166168 10866314.384597778 0 10866314.384597778 30753657.171798706 0 0 0 0 -470558.18490258465 1153220.9932555966 0 1153220.9932555966 1784463.4628690109 0 0 0 0 5837610.3983268738 21046010.567749023 0 21046010.567749023 39856082.827598572 0 0 0 0 554608.43286895752 -1672380.87890625 0 -1672380.87890625 15878547.122426987 0 0 0 0 6176159.1814441681 16232648.162902832 0 16232648.162902832 35470877.425476074 0 0 0 0 -4187825.9448542595 5726105.0921840668 0 5726105.0921840668 13086212.019683838 0 0 0 0 746225.09274187824 1419549.709682107 0 1419549.709682107 15350571.602896433 0 0 0 0 -3109159.4510917664 3296159.9424438477 0 3296159.9424438477 5109212.7530822754 0 0 0 0 -1941323.6438140869 4842249.426574707 0 4842249.426574707 12064785.550292969 0 0 0 0 -3004963.268522501 3894012.5829372406 0 3894012.5829372406 14416165.747528076 0 0 0 0 2614633.254586658 4133646.7665696964 0 4133646.7665696964 10122104.026887491 0 0 0 0 26866815.287406921 24029164.119537354 0 24029164.119537354 9097303.5826416016 0 0 0 0 -1633740.7483471991 -759263.63856359664 0 -759263.63856359664 4526843.0634352565 0 0 0 0 4854810.7223047819 8006186.7873555887 0 8006186.7873555887 3189896.8412195444 0 0 0 0 313845.71180511266 490818.26016693376 0 490818.26016693376 -248017.23423749208 0 0 0 0 459646.11463022232 1000848.8845748901 0 1000848.8845748901 14865193.799533844 0 0 0 0 3079611.4057173729 10506417.115777969 0 10506417.115777969 24959110.924804688 0 0 0 0 6180088.4207959175 6893916.1070232391 0 6893916.1070232391 22198163.334861755 0 0 0 0 3220704.5995038794 3053375.190918237 0 3053375.190918237 16308746.11118675 0 0 0 0 -2440618.8147507324 -3849354.4633996226 0 -3849354.4633996226 25029109.444967888 0 0 0 0 -4598915.9059638977 3459879.2030105591 0 3459879.2030105591 30374551.649185181 0 0 0 0 -3383864.0261748862 -3397419.8996355794 0 -3397419.8996355794 27612504.897122703 0 0 0 0 -4483247.3101052046 3866334.1309738159 0 3866334.1309738159 42838348.245239258 0 0 0 0 -5037831.5053844452 -8711324.6450843811 0 -8711324.6450843811 29775158.876167297 0 0 0 0 -1675523.7139246203 1215838.4166711718 0 1215838.4166711718 17802678.38778992 0 0 0 0 -1948386.2124320269 1346609.4111022949 0 1346609.4111022949 44704657.458526611 0 0 0 0 -793307.97481866088 -17701555.326316833 0 -17701555.326316833 31239793.428833008 0 0 0 0 -7363056.6514026821 -12458095.395858765 0 -12458095.395858765 27918875.712158203 0 0 0 0 -9098176.4724822864 -13302169.119243622 0 -13302169.119243622 33848089.032546997 0 0 0 0 -1049749.8213150022 -5101586.5146691129 0 -5101586.5146691129 27069423.86574427 0 0 0 0 -9582852.1336750537 -15528327.926147461 0 -15528327.926147461 35066935.654495239 0 0 0 0 -11268661.330383733 -19473150.779998779 0 -19473150.779998779 31178542.82421875 0 0 0 0 -34669656.855245352 -9338086.8383140564 0 -9338086.8383140564 52131573.185043335 0 0 0 0 -29315861.281280257 -30911628.430898666 0 -30911628.430898666 75677153.689544678 0 0 0 0 -92432612.887801588 -36502153.432769775 0 -36502153.432769775 87658118.589050293 0 0 0 0 -62643247.153767347 -26560038.794464111 0 -26560038.794464111 75344772.438570023 0 0 0 0 -36697523.310192496 6542202.8502349854 0 6542202.8502349854 68533408.725326538 0 0 0 0 -26436334.171441078 10683641.558418274 0 10683641.558418274 35880631.797241211 0 0 0 0 -20487533.808491945 -9043018.4191589355 0 -9043018.4191589355 46396775.234008789 0 0 0 0 -5763317.4266891479 -6845471.9899864197 0 -6845471.9899864197 38851646.195259094 0 0 0 0 -13460525.236055881 1019723.1352615356 0 1019723.1352615356 43504898.169531822 0 0 0 0 -1572290.2026266409 -2942120.5277552269 0 -2942120.5277552269 31664853.966301031 0 0 0 0 -2296895.5332731325 6496170.630394958 0 6496170.630394958 28785155.262459055 0 0 0 0 -20234225.028594553 3098546.0946884155 0 3098546.0946884155 44016590.041633606 0 0 0 0 -14677456.716184616 11408973.599803925 0 11408973.599803925 20432418.058197021 0 0 0 0 -3261749.7836600514 14465499.557062391 0 14465499.557062391 23852360.935068667 0 0 0 0 -36869069.585502148 19399406.990699768 0 19399406.990699768 21889059.218898773 0 0 0 0 -13670279.117236793 2454020.5825705528 0 2454020.5825705528 24644956.269195557 0 0 0 0 5550991.6717152596 5069983.2292823792 0 5069983.2292823792 18247927.127792358 0 0 0 0 -1981588.6432071601 -1597432.5759568587 0 -1597432.5759568587 3193303.8041320667 0 0 0 0 -12368386.879585862 5583371.6644964218 0 5583371.6644964218 20350952.099090576 0 0 0 0 -11942915.359314203 2301444.631793499 0 2301444.631793499 27421450.230560303 0 0 0 0 2268851.1470227242 688929.18836593628 0 688929.18836593628 27955667.546474457 0 0 0 0 1172279.8527317047 -739116.47941207886 0 -739116.47941207886 32797436.689671516 0 0 0 0 -8522093.4634600878 -5402216.7019414902 0 -5402216.7019414902 26381479.728088379 0 0 0 0 -7704380.5912790298 -2824588.2528038025 0 -2824588.2528038025 19452247.243408203 0 0 0 0 -750029.65551703773 7570335.2176683377 0 7570335.2176683377 31337233.398573123 0 0 0 0 -20193823.351840496 2542295.4325828552 0 2542295.4325828552 33279924.99961853 0 0 0 0 -20493599.858868599 60584887.855291367 0 60584887.855291367 39718243.696811676 0 0 0 0 -15369555.91485405 59090441.65769577 0 59090441.65769577 27205033.392814636 0 0 0 0 -1142389.0603448763 9583482.855132293 0 9583482.855132293 4591540.7805418074 0 0 0 0 -15479869.260883331 54548367.41422081 0 54548367.41422081 44658673.681793213 0 0 0 0 -6682262.0015296936 5218700.820602417 0 5218700.820602417 11559040.754806519 0 0 0 0 -36352543.792221069 -4751302.7008781433 0 -4751302.7008781433 37399281.106870651 0 0 0 0 -4123938.8969887951 2870844.7936678296 0 2870844.7936678296 17125880.589165311 0 0 0 0 -32136313.352873802 7440458.9906578064 0 7440458.9906578064 22818429.959320068 0 0 0 0 -12853120.033744812 51023184.853218079 0 51023184.853218079 52570132.075454712 0 0 0 0 -809817.06505584717 41666103.851959229 0 41666103.851959229 55327916.514648438 0 0 0 0 10530858.687335968 40654733.729988098 0 40654733.729988098 37439817.277038574 0 0 0 0 21991253.002624512 20769276.144760132 0 20769276.144760132 60897090.516941071 0 0 0 0 48662495.941106796 42288963.692100525 0 42288963.692100525 33136149.142784119 0 0 0 0 -3760855.9309005737 31544351.35849762 0 31544351.35849762 56729115.226959229 0 0 0 0 77994478.033651352 15392076.51329422 0 15392076.51329422 32917801.536552429 0 0 0 0 -22854413.067188263 42635872.558574677 0 42635872.558574677 61580156.75592041 0 0 0 0 -26772397.68936348 -5420330.0039710999 0 -5420330.0039710999 29977159.656919479 0 0 0 0 -111365332.07066774 31076232.563879251 0 31076232.563879251 71279799.01864624 0 0 0 0 -1438424.1159933815 4954664.5008928198 0 4954664.5008928198 31977134.62550512 0 0 0 0 -2901373.1628155708 29932823.62802124 0 29932823.62802124 9493345.2743530273 0 0 0 0 -56227404.866211414 -14446481.758594513 0 -14446481.758594513 58502860.901779175 0 0 0 0 -29116840.483360291 20592502.119285583 0 20592502.119285583 14728572.890110016 0 0 0 0 -3778726.1552525838 -608353.72971996851 0 -608353.72971996851 32922093.320839375 0 0 0 0 -100542633.53802013 -12638844.987138748 0 -12638844.987138748 75439587.880850792 0 0 0 0 15643171.722882271 39184061.986264229 0 39184061.986264229 72854197.468408585 0 0 0 0 -50397857.319894791 -6595714.0508041382 0 -6595714.0508041382 122325931.53311348 0 0 0 0 -29998295.044502258 22622350.511213303 0 22622350.511213303 87696849.286800385 0 0 0 0 30859529.943216324 37341522.89354229 0 37341522.89354229 32229627.728500366 0 0 0 0 27121612.42680645 23816132.242090225 0 23816132.242090225 84380119.152709961 0 0 0 0 20088026.694935083 63319844.481551886 0 63319844.481551886 109909120.67631912 0 0 0 0 313425.22722798726 884700.98042575177 0 884700.98042575177 2091827.1067855172 0 0 0 0 82732073.538571119 127793308.11651564 0 127793308.11651564 223321989.93790627 0 0 0 0 24951343.56509304 -165628715.09835243 0 -165628715.09835243 -29345976.058704853 0 0 0 0 10408102.153611183 -63095698.236604691 0 -63095698.236604691 -54195538.976854324 0 0 0 0 -168557768.39532661 -91757095.675628662 0 -91757095.675628662 52415574.127056122 0 0 0 0 86559753.353448331 98254279.838156939 0 98254279.838156939 55839393.92175293 0 0 0 0 337487.34082362941 3817083.9828837318 0 3817083.9828837318 8052307.6309549622 0 0 0 0 -140532859.47770357 -30050548.883153439 0 -30050548.883153439 44664228.097084045 0 0 0 0 -124068207.15392876 -54603363.277662277 0 -54603363.277662277 571200.21175003052 0 0 0 0 -172818508.43642807 -13211835.882591248 0 -13211835.882591248 36045990.220558167 0 0 0 0 -116581129.98701477 17338469.725509644 0 17338469.725509644 55648572.640190125 0 0 0 0 -102810877.21498489 20748736.612472534 0 20748736.612472534 51466003.618625641 0 0 0 0 -185604990.92998886 45068547.297584534 0 45068547.297584534 120583268.48863983 0 0 0 0 -39452912.080703735 -3534359.1912994385 0 -3534359.1912994385 8842352.7289066315 0 0 0 0 -85809582.136399269 -8991844.1109294891 0 -8991844.1109294891 34688716.280258179 0 0 0 0 -39800577.816009521 6442439.9941806793 0 6442439.9941806793 44920396.965545654 0 0 0 0 -32941171.284004211 13543604.792076111 0 13543604.792076111 39009594.294926643 0 0 0 0 -51813195.253267288 56255103.914268494 0 56255103.914268494 77873331.156951904 0 0 0 0 -119458057.25847244 71921902.460475922 0 71921902.460475922 122990104.53846741 0 0 0 0 -310287464.84978867 128110306.96860123 0 128110306.96860123 362963148.85791397 0 0 0 0 -85470114.298933983 -18088525.528026581 0 -18088525.528026581 -12238584.111423492 0 0 0 0 -289515567.02792728 510035407.48942208 0 510035407.48942208 64954004.728752136 0 0 0 0 -228417164.00710678 7427971.8373756409 0 7427971.8373756409 91429700.429840088 0 0 0 0 -198770840.48628747 -194636154.67323899 0 -194636154.67323899 -287205250.07578278 0 0 0 0 -12743476.854099154 -12285145.327110291 0 -12285145.327110291 24686827.034347534 0 0 0 0 3048499.6077965051 33114957.304847717 0 33114957.304847717 -20381592.648582458 0 0 0 0 -512360.92235568498 -602896.76592376828 0 -602896.76592376828 2753356.7861847281 0 0 0 0 -8641493.5277452171 1700289.2998180389 0 1700289.2998180389 12512530.96194458 0 0 0 0 41756424.040098444 -63175401.564151764 0 -63175401.564151764 106035589.77946472 0 0 0 0 15891275.415090621 -11845872.176029205 0 -11845872.176029205 148754409.1439209 0 0 0 0 -28650354.83528021 -47776206.315826416 0 -47776206.315826416 122915028.32095337 0 0 0 0 -172370.06022160148 -215597.10156330466 0 -215597.10156330466 1493712.0739664398 0 0 0 0 -5148233.3167839302 -40575359.21628952 0 -40575359.21628952 127279965.35084534 0 0 0 0 40672137.096797526 -109186521.24560547 0 -109186521.24560547 40041652.071716309 0 0 0 0 7056.8654450126669 -148944.34887237847 0 -148944.34887237847 941907.99251569808 0 0 0 0 -44441.32475180141 742087.23538970947 0 742087.23538970947 21683404.014823914 0 0 0 0 30649576.272753738 -8862482.9909210205 0 -8862482.9909210205 -68406238.744827271 0 0 0 0 -9164599.1807460077 2629795.0097894669 0 2629795.0097894669 22246837.678039551 0 0 0 0 36608771.857888266 -38788135.55316925 0 -38788135.55316925 15638489.206825256 0 0 0 0 18278390.582525883 19998240.049827576 0 19998240.049827576 16507841.154632568 0 0 0 0 -7140647.5955801513 17700251.763113022 0 17700251.763113022 87150727.324523926 0 0 0 0 -49104311.874619454 47812939.734710693 0 47812939.734710693 149077294.01742554 0 0 0 0 -82225.350869813134 -73121.047811226919 0 -73121.047811226919 319283.53708381951 0 0 0 0 6685083.3441151641 -143939.54598999023 0 -143939.54598999023 -2383101.336807251 0 0 0 0 8463888.6518772766 9979975.6281433105 0 9979975.6281433105 6420835.3402099609 0 0 0 0 3954.6225965518306 6501305.4790115356 0 6501305.4790115356 23084995.497573853 0 0 0 0 10716.489500112988 1022987.9361031873 0 1022987.9361031873 1489186.6226196289 0 0 0 0 523171.81536168326 2310737.6614837646 0 2310737.6614837646 4158825.824131012 0 0 0 0 -4843896.7674293257 -2004587.5694732666 0 -2004587.5694732666 3830904.9545440674 0 0 0 0 -5175127.3241577446 -1062807.0533485413 0 -1062807.0533485413 1552313.6673278809 0 0 0 0 867613.33144560806 2411016.4615440369 0 2411016.4615440369 962562.45373535156 0 0 0 0 -8139.6664134389912 117963.94161007553 0 117963.94161007553 179170.50358768483 0 0 0 0 3467877.2888043225 -6970739.3413906097 0 -6970739.3413906097 11466592.738220215 0 0 0 0 -269242.42692466825 -217467.89475902915 0 -217467.89475902915 939679.10062524676 0 0 0 0 9464928.9386619925 -8929426.9683837891 0 -8929426.9683837891 11251903.180938721 0 0 0 0 -827014.64015698433 -3638693.1891593933 0 -3638693.1891593933 9655915.4530410767 0 0 0 0 183928.83977375971 1106484.1519310847 0 1106484.1519310847 2884668.0833342918 0 0 0 0 -619013.35120213032 -2336428.7470016479 0 -2336428.7470016479 13575977.023269653 0 0 0 0 -1081762.2931296825 -1559638.8033752441 0 -1559638.8033752441 12542297.252113819 0 0 0 0 -914888.82560873032 -1149334.6649627686 0 -1149334.6649627686 13180797.600219727 0 0 0 0 -63801.742088867119 1422540.3415663913 0 1422540.3415663913 5928670.8713001683 0 0 0 0 -1457160.4794214964 -1123559.4295806885 0 -1123559.4295806885 13303007.724624634 0 0 0 0 6398055.4582051374 -28300805.290704727 0 -28300805.290704727 80066473.465240479 0 0 0 0 -1132121.5659927763 -1079007.8819368854 0 -1079007.8819368854 5877078.439351894 0 0 0 0 -1836848.3978934288 -1606789.9765319824 0 -1606789.9765319824 14079754.528945923 0 0 0 0 -2833676.8961445093 3026791.352104187 0 3026791.352104187 11461502.814338684 0 0 0 0 -1342786.4187803268 -184795.58850097656 0 -184795.58850097656 15765935.654292822 0 0 0 0 89921.285525804735 3340059.4485407546 0 3340059.4485407546 11215360.751311526 0 0 0 0 -3347029.3189880848 2174521.3324661255 0 2174521.3324661255 10050665.907135248 0 0 0 0 -3277155.3003245234 -585047.52193026152 0 -585047.52193026152 9399737.3303800225 0 0 0 0 -1064528.7019681931 -11940616.030548096 0 -11940616.030548096 37451768.692672729 0 0 0 0 -13318703.853539467 -28765089.488311768 0 -28765089.488311768 82949960.739501953 0 0 0 0 145118.50622553547 -634861.5387171898 0 -634861.5387171898 -182953.96716113389 0 0 0 0 -10524715.244447529 -12819179.303787231 0 -12819179.303787231 37398594.852584839 0 0 0 0 -3497253.7447569408 -5503702.5678011961 0 -5503702.5678011961 12209732.997949153 0 0 0 0 -5680265.2172513008 -8288352.0560455322 0 -8288352.0560455322 35751974.321533203 0 0 0 0 -1516052.2983825207 -189315.27814865112 0 -189315.27814865112 26988102.984176636 0 0 0 0 -7242924.6113545299 -239731.49726867676 0 -239731.49726867676 43646608.166412354 0 0 0 0 -7302074.0189312696 7218.6852836608887 0 7218.6852836608887 47717687.37677002 0 0 0 0 3174633.8672340214 -14924790.461143494 0 -14924790.461143494 58478070.211273193 0 0 0 0 -6452732.1890638471 -2877905.9717559814 0 -2877905.9717559814 57104189.616210938 0 0 0 0 -12181469.251178026 7563478.9902038574 0 7563478.9902038574 47394535.098007202 0 0 0 0 -1076421.8404353857 -2585037.7102355957 0 -2585037.7102355957 43415030.682998657 0 0 0 0 -13369107.981616028 -3272587.3099360466 0 -3272587.3099360466 71100606.655395508 0 0 0 0 -5372557.9199858904 9655115.4207382202 0 9655115.4207382202 47706771.076408386 0 0 0 0 -7585318.4685438275 18721078.660797119 0 18721078.660797119 11513023.577560425 0 0 0 0 -5587654.6687023044 8957990.0390167236 0 8957990.0390167236 45474426.260101318 0 0 0 0 -1934876.0325921024 8544980.2828761265 0 8544980.2828761265 42024259.815887451 0 0 0 0 15700531.044525683 -24735780.682922363 0 -24735780.682922363 70080328.639030457 0 0 0 0 2851562.383852452 -44672620.096389771 0 -44672620.096389771 97366386.672775269 0 0 0 0 -13556909.343373358 -22634744.861351013 0 -22634744.861351013 84990757.788421631 0 0 0 0 -47946260.676789671 -13140728.937179565 0 -13140728.937179565 92551890.011909485 0 0 0 0 -31927565.04721415 24178032.442611694 0 24178032.442611694 49504265.201248169 0 0 0 0 16501714.830222666 7812480.386051178 0 7812480.386051178 -4008530.9694061279 0 0 0 0 -25477944.363623973 -15319112.200460434 0 -15319112.200460434 16909208.958312988 0 0 0 0 -31168676.934689932 18661578.680764675 0 18661578.680764675 16741660.315933228 0 0 0 0 -4615511.0443904698 9244251.8999938965 0 9244251.8999938965 20012728.197174072 0 0 0 0 -6252.675292997912 -34998.750172793865 0 -34998.750172793865 254379.6132234782 0 0 0 0 -31628847.290941194 13636232.553588867 0 13636232.553588867 52280501.947280884 0 0 0 0 -531430.41909340664 -322682.89117048681 0 -322682.89117048681 8177301.017756002 0 0 0 0 2026202.8832401186 -15438642.854766846 0 -15438642.854766846 22853202.23991394 0 0 0 0 -132130.67231806973 -198685.43546678126 0 -198685.43546678126 2377349.7738724276 0 0 0 0 1415583.5215190351 -17380036.829299927 0 -17380036.829299927 6020706.4468727112 0 0 0 0 2929481.3554775501 -13532452.293281555 0 -13532452.293281555 15793112.821365356 0 0 0 0 3142415.7795716971 -10892142.880493164 0 -10892142.880493164 11848132.504165649 0 0 0 0 14281734.503450751 -29566384.543136597 0 -29566384.543136597 20758381.129760742 0 0 0 0 -1794214.1173570864 -31463766.24810791 0 -31463766.24810791 45503600.872436523 0 0 0 0 -1653364.2163091563 -29676775.370619774 0 -29676775.370619774 31077244.686523438 0 0 0 0 -23520900.355373636 -31432936.645385742 0 -31432936.645385742 50012337.551025391 0 0 0 0 32432895.844450653 -25547413.68674469 0 -25547413.68674469 18390006.808937073 0 0 0 0 13851801.178146631 -45789229.348960876 0 -45789229.348960876 47372177.779449463 0 0 0 0 59894718.880089968 -71508463.784233093 0 -71508463.784233093 69765722.151107788 0 0 0 0 30445478.49477917 -8333177.8770446777 0 -8333177.8770446777 136203349.13494873 0 0 0 0 5609641.0280091055 -39547787.224449158 0 -39547787.224449158 51983305.13368988 0 0 0 0 1893651.3785855677 -57026062.979434967 0 -57026062.979434967 68978976.740783691 0 0 0 0 -41784673.143304035 -61591364.377044678 0 -61591364.377044678 91500030.678756714 0 0 0 0 2466275.1275808364 7728175.1789360046 0 7728175.1789360046 3705550.2912139893 0 0 0 0 -6139.3089261575806 -5030.1370854526758 0 -5030.1370854526758 139581.02346369624 0 0 0 0 31681084.67793712 -45305979.579528809 0 -45305979.579528809 37215205.546989441 0 0 0 0 47164544.670495227 97959162.371635437 0 97959162.371635437 123273154.2690506 0 0 0 0 2040898.1977478713 42141875.474151611 0 42141875.474151611 108415610.54351807 0 0 0 0 8149883.9009610415 60063876.552192688 0 60063876.552192688 68707417.951980591 0 0 0 0 9578965.2275170833 25653534.935287476 0 25653534.935287476 37790811.007873535 0 0 0 0 4381056.8350174651 32692261.400978088 0 32692261.400978088 3747684.6856994629 0 0 0 0 11873038.807419404 9398723.99949646 0 9398723.99949646 53256749.70520401 0 0 0 0 3548248.8002077341 -38129619.247386932 0 -38129619.247386932 48922056.378723145 0 0 0 0 7158050.9076463133 -22208426.827423096 0 -22208426.827423096 116504116.84507751 0 0 0 0 9239.4744829719129 -31626.049783721566 0 -31626.049783721566 111377.76930455863 0 0 0 0 21126962.402135372 30559143.031692505 0 30559143.031692505 106771422.41707677 0 0 0 0 -31784494.661943942 -62853190.14617157 0 -62853190.14617157 62989758.214752197 0 0 0 0 -3883641.5598070621 -55127798.911743164 0 -55127798.911743164 30110358.275852203 0 0 0 0 8941069.1218425706 -30831740.959640503 0 -30831740.959640503 178993150.19859314 0 0 0 0 20596820.817865431 -19968754.376232147 0 -19968754.376232147 77146859.03553772 0 0 0 0 13044627.529411627 16749664.128068924 0 16749664.128068924 98020878.505249023 0 0 0 0 13670023.320539743 11744218.152359009 0 11744218.152359009 101460090.00921631 0 0 0 0 76675.992484848335 12501603.005958557 0 12501603.005958557 108171665.06082153 0 0 0 0 -5954.804507787052 22437884.946205139 0 22437884.946205139 93098630.506767273 0 0 0 0 16333690.237120381 22671140.493988037 0 22671140.493988037 79651277.22706604 0 0 0 0 -264147.11551012844 35344236.989326477 0 35344236.989326477 89275807.437850952 0 0 0 0 3300159.1890736679 28349328.23374176 0 28349328.23374176 101748658.06060791 0 0 0 0 -10919.805611810187 19450567.289146423 0 19450567.289146423 100214520.70524597 0 0 0 0 -8550464.9335950166 23439852.802864075 0 23439852.802864075 101943052.6149478 0 0 0 0 -6402238.125374984 29692199.260442734 0 29692199.260442734 119596900.49110413 0 0 0 0 -16279035.476128493 9045536.6094055176 0 9045536.6094055176 112678715.15852356 0 0 0 0 -12243962.50776951 2280534.0123901367 0 2280534.0123901367 92913466.477661133 0 0 0 0 -8318982.9422544539 50331610.924682617 0 50331610.924682617 151785504.07150269 0 0 0 0 -9446270.5452998728 36177211.407905579 0 36177211.407905579 107282830.07230568 0 0 0 0 -12661703.236063477 8931886.7958374023 0 8931886.7958374023 99977997.218429565 0 0 0 0 -13770689.701625258 -8551117.2688903809 0 -8551117.2688903809 167101690.32348633 0 0 0 0 1094037.2788414471 -12325627.22529459 0 -12325627.22529459 104119039.10334778 0 0 0 0 3463283.0659749815 -28584462.833931446 0 -28584462.833931446 74928068.62159729 0 0 0 0 209302.08985184133 3965951.0758666992 0 3965951.0758666992 42513067.121116638 0 0 0 0 -11517.559155344745 13605638.914268494 0 13605638.914268494 70191399.984008789 0 0 0 0 4171133.3148944639 -5572269.775302887 0 -5572269.775302887 15368048.968292236 0 0 0 0 -4571766.0589155108 -4339464.987121582 0 -4339464.987121582 58142515.073799133 0 0 0 0 3825.2741470619417 9954360.998046875 0 9954360.998046875 15819103.302734375 0 0 0 0 -1025071.626003515 -3645273.240234375 0 -3645273.240234375 -5930431.0550079346 0 0 0 0 613097.72618947586 1003512.9516172558 0 1003512.9516172558 1603460.9087349623 0 0 0 0 -1303.2063197410234 22479.908615112305 0 22479.908615112305 1472415.9856262207 0 0 0 0 -785136.9907498518 3371504.0278320312 0 3371504.0278320312 290125.66737365723 0 0 0 0 -610714.4314505388 -95421.039861358702 0 -95421.039861358702 1639920.4056216702 0 0 0 0 -5823995.9695224762 6725411.6114501953 0 6725411.6114501953 4518942.0633406639 0 0 0 0 -3933795.7504825592 5448360.4444503784 0 5448360.4444503784 4472813.7922654152 0 0 0 0 -159282.36581084249 -2101177.2158484459 0 -2101177.2158484459 -371046.9073638916 0 0 0 0 -1538447.1652635573 201333.29928723723 0 201333.29928723723 2282941.1200201139 0 0 0 0 1274006.3751960874 1856966.478307426 0 1856966.478307426 1993936.7779509574 0 0 0 0 5672119.6876900569 10824527.380350113 0 10824527.380350113 10522385.285247803 0 0 0 0 1579387.5007600472 1219777.9850682244 0 1219777.9850682244 968098.60946218669 0 0 0 0 -23621905.649890661 19005865.97416687 0 19005865.97416687 -7238666.6163787842 0 0 0 0 -30357526.308539689 9486795.8649902344 0 9486795.8649902344 17817628.4246521 0 0 0 0 -31752074.028226614 2909292.9759216309 0 2909292.9759216309 11785435.836357117 0 0 0 0 -3630077.2244229317 2372626.5485992432 0 2372626.5485992432 6314313.9519715309 0 0 0 0 -6788289.3044527769 3817852.7701282501 0 3817852.7701282501 6395060.5980072021 0 0 0 0 -1627975.3778744284 -515990.55185816064 0 -515990.55185816064 2251976.6170854121 0 0 0 0 -1217998.6537585696 -3847977.0778274536 0 -3847977.0778274536 2607037.1490077972 0 0 0 0 -19908611.4720788 -4515467.6537132263 0 -4515467.6537132263 7683771.1397705078 0 0 0 0 -24986430.538937092 -16270108.979034424 0 -16270108.979034424 -4921901.3728723526 0 0 0 0 -19918455.854855955 -5159415.2109327316 0 -5159415.2109327316 16522421.968963623 0 0 0 0 -23596845.839717388 -31626700.20740509 0 -31626700.20740509 -7430975.180393219 0 0 0 0 -1404497.9605150633 -1009487.0265434757 0 -1009487.0265434757 2174546.7894618809 0 0 0 0 2689127.8041089661 3325778.8958358765 0 3325778.8958358765 4105208.6622962952 0 0 0 0 6372566.9058104269 -728187.16783905029 0 -728187.16783905029 6812018.1174468994 0 0 0 0 -1801231.6513332613 2984322.6455612183 0 2984322.6455612183 13301949.890289307 0 0 0 0 3728281.5114436205 10459819.101783752 0 10459819.101783752 21473334.539714813 0 0 0 0 -34948.329686686993 2305129.6023647976 0 2305129.6023647976 6298838.6351318359 0 0 0 0 2391425.0698030894 3034046.4072723389 0 3034046.4072723389 -111304.06378173828 0 0 0 0 3915937.0854991749 -2053345.9140901566 0 -2053345.9140901566 -534959.30827331543 0 0 0 0 -376144.84556634072 3605009.390586853 0 3605009.390586853 4064859.2814483643 0 0 0 0 -2566803.4766619205 -50811004.492218018 0 -50811004.492218018 91701907.038143158 0 0 0 0 47688554.468569234 -55616865.036523819 0 -55616865.036523819 2479843.7840270996 0 0 0 0 -5658667.2656461 -30858845.144508362 0 -30858845.144508362 16934587.74307251 0 0 0 0 34673491.876973026 -8267983.2068252563 0 -8267983.2068252563 4417364.0054473877 0 0 0 0 103501826.41589041 -70201325.186126709 0 -70201325.186126709 57058944.928565979 0 0 0 0 -2154754.9952300489 -25247476.98658371 0 -25247476.98658371 -502137.8069152832 0 0 0 0 29345476.883642435 -37068189.769874573 0 -37068189.769874573 -55853058.971954346 0 0 0 0 10067991.709227562 -29206795.516799927 0 -29206795.516799927 -8761219.2436218262 0 0 0 0 -858607.76262795925 -46325070.196601868 0 -46325070.196601868 16869860.180633545 0 0 0 0 17898376.839614153 -40631379.430408478 0 -40631379.430408478 -31095981.093078613 0 0 0 0 5562039.3581449986 -25724177.149719238 0 -25724177.149719238 -37978769.605941772 0 0 0 0 -4181179.8183965683 -35809211.510040283 0 -35809211.510040283 -20900145.27549696 0 0 0 0 -2538264.9032180309 -32583761.627067566 0 -32583761.627067566 -36196429.947814941 0 0 0 0 -15994420.511721611 -25181211.030258179 0 -25181211.030258179 -21974756.746948242 0 0 0 0 -7071960.0562844276 -33675966.495330811 0 -33675966.495330811 -23097551.881649017 0 0 0 0 -9685323.5113270283 -39327238.45349884 0 -39327238.45349884 3083147.5361328125 0 0 0 0 -2810455.6618261337 -33565064.663452148 0 -33565064.663452148 -20916695.722752929 0 0 0 0 -27455071.251074553 -18776186.85635376 0 -18776186.85635376 -16893031.4793396 0 0 0 0 -21159186.840976238 -32153240.364139557 0 -32153240.364139557 2061265.0280456543 0 0 0 0 -26896452.141741753 -13892195.962059021 0 -13892195.962059021 32769301.007171631 0 0 0 0 -18685242.067902565 -28064368.142929077 0 -28064368.142929077 1347684.3399791718 0 0 0 0 -14534106.058003426 -37898604.951057434 0 -37898604.951057434 39263980.403137207 0 0 0 0 -18403055.193287134 -22773105.195877075 0 -22773105.195877075 12837978.243385315 0 0 0 0 -22852514.891222715 -1214589.3215484619 0 -1214589.3215484619 61146333.947223663 0 0 0 0 -25138319.574205101 -10363260.962234497 0 -10363260.962234497 28524681.80078125 0 0 0 0 -32170401.634425879 729068.66832733154 0 729068.66832733154 45347272.723648071 0 0 0 0 -22191620.928449631 11801883.355239868 0 11801883.355239868 -7319734.6112213135 0 0 0 0 -20687975.667937994 28596300.923561096 0 28596300.923561096 28186224.533676147 0 0 0 0 -13878478.328381062 17500145.623138428 0 17500145.623138428 28804072.605667114 0 0 0 0 16509850.836482942 52857793.614997864 0 52857793.614997864 82287769.537384033 0 0 0 0 16007154.077593893 55076298.850486755 0 55076298.850486755 75014390.279388428 0 0 0 0 46767371.517675877 115320238.38327026 0 115320238.38327026 47950846.504051208 0 0 0 0 -17852451.052683175 -12492343.606082916 0 -12492343.606082916 84040311.831268311 0 0 0 0 1373758.0286439657 -2020728.8672561646 0 -2020728.8672561646 78273405.68037796 0 0 0 0 30455782.853049755 39886977.152534485 0 39886977.152534485 417673916.14059448 0 0 0 0 34554137.728379332 57350344.526000977 0 57350344.526000977 128464436.35069275 0 0 0 0 -5794319.7914156169 -247037.96313285828 0 -247037.96313285828 211796149.43408203 0 0 0 0 120999527.50440896 171909532.49604034 0 171909532.49604034 125303142.61651611 0 0 0 0 25818038.630726337 80285318.831558228 0 80285318.831558228 161126071.23400879 0 0 0 0 117688841.31283061 104648677.27459717 0 104648677.27459717 64161068.471343994 0 0 0 0 120782782.2399959 109548865.57316971 0 109548865.57316971 -23018891.110473633 0 0 0 0 -952665.74057557667 -1328348.7028654106 0 -1328348.7028654106 2493102.806028232 0 0 0 0 -22691156.541473508 -52439078.802703857 0 -52439078.802703857 149630073.06408691 0 0 0 0 -29150001.968642086 165108701.74251175 0 165108701.74251175 -48594732.319396973 0 0 0 0 -7657824.8983422071 92345248.970407486 0 92345248.970407486 -82156094.593292236 0 0 0 0 80654851.590554476 117811333.26837158 0 117811333.26837158 -34704578.092987061 0 0 0 0 -20097797.554379106 135652269.5945549 0 135652269.5945549 20367422.48059082 0 0 0 0 56951046.07862401 78951205.946670532 0 78951205.946670532 55802670.265960693 0 0 0 0 52088094.989758253 83092958.544342041 0 83092958.544342041 -5344335.8392028809 0 0 0 0 82021006.426642805 100933075.42905045 0 100933075.42905045 -32977237.074569702 0 0 0 0 74570596.005245924 179814290.8956871 0 179814290.8956871 119728464.43852234 0 0 0 0 176771402.89614403 147476916.88763428 0 147476916.88763428 -14794479.712467194 0 0 0 0 -33966776.296264946 124853651.86507416 0 124853651.86507416 27620872.685760498 0 0 0 0 -52819259.698323965 37176597.75252533 0 37176597.75252533 49843375.136474609 0 0 0 0 -125920525.9886142 59706969.332366943 0 59706969.332366943 -10826945.04901123 0 0 0 0 21759204.630528897 95657425.027603149 0 95657425.027603149 -14375616.896759033 0 0 0 0 -19049.06667932868 131036921.6280365 0 131036921.6280365 -9226511.5639038086 0 0 0 0 1224994.3774589645 777241.24241049588 0 777241.24241049588 530806.79936676472 0 0 0 0 -39033910.091865063 61702574.588600159 0 61702574.588600159 -25971173.765586853 0 0 0 0 -20251681.470931768 5591084.5708694458 0 5591084.5708694458 -19329947.528152466 0 0 0 0 66198548.139489174 59323942.543060303 0 59323942.543060303 10064805.300636292 0 0 0 0 145804357.76608628 48494722.381240845 0 48494722.381240845 -76503922.504394531 0 0 0 0 523297.08384425135 261453.09224735945 0 261453.09224735945 149838.99353903532 0 0 0 0 16352927.518664658 -19360072.872337341 0 -19360072.872337341 106918125.50782013 0 0 0 0 2335508.9516147971 -40014444.245868683 0 -40014444.245868683 302144196.13362122 0 0 0 0 108194052.18494931 98766296.910411835 0 98766296.910411835 223319938.25261688 0 0 0 0 9214617.000678286 27211337.846740723 0 27211337.846740723 172083070.56031799 0 0 0 0 -48493202.509400532 25494140.609855652 0 25494140.609855652 85297367.202880859 0 0 0 0 -115216498.14290094 74817326.341201782 0 74817326.341201782 70600220.050842285 0 0 0 0 -131320813.12194616 10650023.218338013 0 10650023.218338013 96187377.449783325 0 0 0 0 135832213.33753225 -75084306.128807068 0 -75084306.128807068 121758887.03720093 0 0 0 0 -30682037.492715657 101961488.856987 0 101961488.856987 231116278.58143616 0 0 0 0 -10712558.682578146 -49159904.815078735 0 -49159904.815078735 226819984.82466269 0 0 0 0 192542886.41155374 44138518.824882507 0 44138518.824882507 111514278.8425293 0 0 0 0 -70582.110795885324 -27537979.253311157 0 -27537979.253311157 126357944.87268066 0 0 0 0 -6821241.5562006496 -59743390.667922974 0 -59743390.667922974 77272176.240753174 0 0 0 0 -79946904.618067563 -28700335.181137085 0 -28700335.181137085 134693761.84469604 0 0 0 0 -47956538.480377614 -33919208.598327637 0 -33919208.598327637 82261170.844726562 0 0 0 0 -101389746.0654636 -10847631.758575439 0 -10847631.758575439 69114460.423248291 0 0 0 0 -74049761.917829871 -53890554.757469177 0 -53890554.757469177 88470479.866668701 0 0 0 0 -83593190.822809368 33854960.1588974 0 33854960.1588974 94000407.073730469 0 0 0 0 -203776834.41720015 10037609.12437439 0 10037609.12437439 89609067.904602051 0 0 0 0 -126740980.35505962 4498451.1371154785 0 4498451.1371154785 42426738.328918457 0 0 0 0 -188341259.40213084 -42341691.944747925 0 -42341691.944747925 10944585.822418213 0 0 0 0 -120455669.414883 -35974211.445362091 0 -35974211.445362091 36488291.675537109 0 0 0 0 -142688510.98840618 15786449.461883545 0 15786449.461883545 50721539.299438477 0 0 0 0 -143004893.55403617 21542391.270421982 0 21542391.270421982 -45116513.694030762 0 0 0 0 -105089565.06124941 16826558.748733521 0 16826558.748733521 59637392.92880249 0 0 0 0 -199098291.23747277 26815703.122772217 0 26815703.122772217 65170075.12979126 0 0 0 0 -162086379.37029541 62944894.719390869 0 62944894.719390869 78630078.05329895 0 0 0 0 -4046909.6260634521 1116679.3915715162 0 1116679.3915715162 12739231.88281025 0 0 0 0 -103358177.90571517 11867283.916931152 0 11867283.916931152 22937796.676330566 0 0 0 0 -207507341.29683721 72970979.550445557 0 72970979.550445557 46024634.143814087 0 0 0 0 -1620065.6212227743 -1399876.4646015167 0 -1399876.4646015167 5144355.4279399514 0 0 0 0 -14002550.610840023 1322039.8753128052 0 1322039.8753128052 6971925.1714172363 0 0 0 0 -1661999.6171930884 359100.92314037681 0 359100.92314037681 17534314.831354212 0 0 0 0 -1962023.0488046205 -5107437.7538328692 0 -5107437.7538328692 8870153.7272125781 0 0 0 0 -3048508.2614949076 12429365.659675673 0 12429365.659675673 5402333.492404066 0 0 0 0 962788.1340854934 9668668.2486045007 0 9668668.2486045007 25211620.788934164 0 0 0 0 12409228.934980035 11543819.283035278 0 11543819.283035278 -14573961.696990967 0 0 0 0 -11149807.390684977 44419260.987930298 0 44419260.987930298 44031559.842666626 0 0 0 0 1115583.3565876686 3472387.243643675 0 3472387.243643675 -1145568.2153092921 0 0 0 0 -241212486.5532546 -13485712.55947876 0 -13485712.55947876 77739136.767028809 0 0 0 0 -4817524.6042737961 7861401.8485870361 0 7861401.8485870361 30041418.029434204 0 0 0 0 -2713320.2748193741 4159969.3197479248 0 4159969.3197479248 23863677.082431793 0 0 0 0 -7653642.7462325096 1876501.9769172668 0 1876501.9769172668 28432007.733428955 0 0 0 0 -8010189.5965726376 1418974.7009429932 0 1418974.7009429932 28176218.095367432 0 0 0 0 -6969260.2966651917 4587877.5187530518 0 4587877.5187530518 29723838.142120361 0 0 0 0 -6220990.8354058266 1076747.1384315491 0 1076747.1384315491 24547872.879043579 0 0 0 0 -681560.29857730865 4551641.9128684998 0 4551641.9128684998 37297046.257476807 0 0 0 0 -6691143.38585186 298999.29753112793 0 298999.29753112793 31004577.208404541 0 0 0 0 -5187260.9118385315 5715435.0068969727 0 5715435.0068969727 30196264.151290894 0 0 0 0 -3121943.4589977264 3160335.1437530518 0 3160335.1437530518 28640686.171260834 0 0 0 0 -3945622.1871566772 5070072.6300010681 0 5070072.6300010681 35955152.392486572 0 0 0 0 -1074237.6172142029 1932104.3170013428 0 1932104.3170013428 30860683.032341003 0 0 0 0 2848705.8723392487 9904000.8938827515 0 9904000.8938827515 30547191.969715118 0 0 0 0 1940844.8248634338 3624749.5209960938 0 3624749.5209960938 9474464.0428466797 0 0 0 0 -897050.12063026428 4171508.3574371338 0 4171508.3574371338 30751635.118888855 0 0 0 0 -2453888.7649583817 4319375.4574508667 0 4319375.4574508667 35534333.036376953 0 0 0 0 -1255971.9787597717 -252310.92029168457 0 -252310.92029168457 13483632.825817414 0 0 0 0 -574410.24008560181 6335253.4543380737 0 6335253.4543380737 36253429.748821259 0 0 0 0 1796755.103001833 3553452.7875785828 0 3553452.7875785828 10926408.273803711 0 0 0 0 -4990146.0557959098 -3188139.4394521192 0 -3188139.4394521192 35900757.676123418 0 0 0 0 4729994.7728738785 6989496.7074813843 0 6989496.7074813843 34074517.490965843 0 0 0 0 2292753.5366666787 2721627.0503889807 0 2721627.0503889807 32930343.879116487 0 0 0 0 -28291979.203213692 -24386118.244888306 0 -24386118.244888306 -28553370.913983345 0 0 0 0 -3218873.5269465446 2678850.8978881836 0 2678850.8978881836 42468712.012069702 0 0 0 0 281002.2126531601 2431907.1783981323 0 2431907.1783981323 37160276.55398941 0 0 0 0 -21082874.096780553 -72723070.274841309 0 -72723070.274841309 -4208715.8415527344 0 0 0 0 -3591675.9880547267 -5769260.0285574421 0 -5769260.0285574421 20088629.38223175 0 0 0 0 -4144809.1855232716 -48456017.859920502 0 -48456017.859920502 -47569225.154632568 0 0 0 0 2911041.4088188028 -4085187.2960846648 0 -4085187.2960846648 -10828328.101180688 0 0 0 0 20883701.967835724 -6659287.8355865479 0 -6659287.8355865479 5275152.1444396973 0 0 0 0 -70365957.931272984 11576715.057510376 0 11576715.057510376 -87920178.447143555 0 0 0 0 -153689.95720517635 -3536277.5942287445 0 -3536277.5942287445 8896868.838180542 0 0 0 0 2434834.748000741 5410193.1599273682 0 5410193.1599273682 19970971.373184204 0 0 0 0 2167355.3033870179 -2224679.4035965651 0 -2224679.4035965651 -4728126.8541836888 0 0 0 0 -8229259.0340406895 -11179231.431228638 0 -11179231.431228638 20647893.666706085 0 0 0 0 1054869.9977667928 -4218328.236076355 0 -4218328.236076355 -1731559.5325622559 0 0 0 0 -3261174.9096491337 -4441711.7075500488 0 -4441711.7075500488 9051503.4289150238 0 0 0 0 -1639754.5739919562 -3698542.4244262865 0 -3698542.4244262865 10333861.046531469 0 0 0 0 -442271.48904252052 -3525080.9830093384 0 -3525080.9830093384 7381392.2316207886 0 0 0 0 -2634568.252115339 -3761710.1026229858 0 -3761710.1026229858 11246873.184326172 0 0 0 0 -4181594.2698665261 -2145500.9857025146 0 -2145500.9857025146 24521433.961685181 0 0 0 0 3673933.4187736511 -12604450.090454102 0 -12604450.090454102 1433983.6989746094 0 0 0 0 -2444027.2022070885 -630067.36804199219 0 -630067.36804199219 1947470.891544342 0 0 0 0 -30203.012953353289 -1700851.2565966249 0 -1700851.2565966249 5459963.2745808065 0 0 0 0 -169208427.99031419 136279430.9447937 0 136279430.9447937 -50477147.114562988 0 0 0 0 -3194811.1071376624 -3756418.0373485573 0 -3756418.0373485573 7153190.1118029207 0 0 0 0 -187963261.40270996 108837085.47218323 0 108837085.47218323 -7273062.1401672363 0 0 0 0 -128054657.02034521 40279956.717819214 0 40279956.717819214 -17309362.795715332 0 0 0 0 -249904.2827966584 -673831.25651842076 0 -673831.25651842076 4329102.0200833306 0 0 0 0 -2449395.200160915 1127042.0867291763 0 1127042.0867291763 10528546.718519852 0 0 0 0 -2224679.324041605 -3888049.7817459106 0 -3888049.7817459106 9981737.7797241211 0 0 0 0 -1442121.435197911 -1275106.0056800619 0 -1275106.0056800619 11342626.754448781 0 0 0 0 -2883226.2999105453 -1377112.9668579102 0 -1377112.9668579102 8180586.7961845398 0 0 0 0 -2775035.1766349077 -1465847.9502067566 0 -1465847.9502067566 8207618.6357116699 0 0 0 0 11722234.171156645 30200416.918467283 0 30200416.918467283 8945196.6067562103 0 0 0 0 46453165.819233894 -51789258.606923103 0 -51789258.606923103 -70532089.262722015 0 0 0 0 18674390.318634987 -73043080.237257957 0 -73043080.237257957 203512903.05074692 0 0 0 0 19899836.144655228 -17775715.524988174 0 -17775715.524988174 50888257.024129868 0 0 0 0 -11828025.146841049 -50512658.274366379 0 -50512658.274366379 43705844.136309147 0 0 0 0 -7397426.3034753799 -42041944.765277863 0 -42041944.765277863 -13736499.180644989 0 0 0 0 -37949380.985669136 -25620252.745262146 0 -25620252.745262146 30175231.172052383 0 0 0 0 -28583649.848251343 -51252664.59283638 0 -51252664.59283638 23428825.170350075 0 0 0 0 -11000775.84752512 -56438883.520533562 0 -56438883.520533562 65355255.985824585 0 0 0 0 -1492500.4147421299 -2764572.9556687176 0 -2764572.9556687176 36278627.034953676 0 0 0 0 -63017997.854913712 -46051906.921199799 0 -46051906.921199799 45024234.588904142 0 0 0 0 -50470069.103745699 -10518512.778239608 0 -10518512.778239608 40840025.40284729 0 0 0 0 -9059089.0339626074 -4977490.6083612442 0 -4977490.6083612442 29446816.685546875 0 0 0 0 -183024.5443343767 -5773457.1797634186 0 -5773457.1797634186 31766765.392544504 0 0 0 0 1478264.2263159752 -840126.81035614014 0 -840126.81035614014 29842437.019420624 0 0 0 0 1323495.9219178557 595810.45464324951 0 595810.45464324951 36816538.126968384 0 0 0 0 7497428.4077284336 2380340.4114246368 0 2380340.4114246368 27703251.368614197 0 0 0 0 2425162.3544293684 2060166.0427763425 0 2060166.0427763425 33366152.297507629 0 0 0 0 657579.16462898254 -3420873.3706474304 0 -3420873.3706474304 26785016.514569759 0 0 0 0 -8179077.4222393036 6028301.9762239456 0 6028301.9762239456 63092565.434757233 0 0 0 0 -2655980.840996467 -2653557.0754604358 0 -2653557.0754604358 33961060.932090759 0 0 0 0 -715522.15396364313 2048581.0315731205 0 2048581.0315731205 18313574.809230298 0 0 0 0 -171147.74429262616 206862.47758367844 0 206862.47758367844 5536935.3900350695 0 0 0 0 -532937.49104785919 13829671.313021183 0 13829671.313021183 53740442.547315598 0 0 0 0 -34347539.914299011 -7645638.396115303 0 -7645638.396115303 49233287.031329632 0 0 0 0 7963017.5712070465 11538602.011945724 0 11538602.011945724 61521450.997400284 0 0 0 0 -14310641.19639492 -7271894.5549354553 0 -7271894.5549354553 88191631.624504089 0 0 0 0 -29886158.477417469 -4416813.7084746361 0 -4416813.7084746361 54959784.031768799 0 0 0 0 -18692559.620905876 18870132.751939774 0 18870132.751939774 70418461.058917999 0 0 0 0 -52657009.239628792 -69337146.68384409 0 -69337146.68384409 95059277.912555695 0 0 0 0 -34393612.137989044 -13200558.808675766 0 -13200558.808675766 68649346.297843933 0 0 0 0 -17958318.496204376 -43974322.356006622 0 -43974322.356006622 100385923.61054993 0 0 0 0 -13336012.59431529 -26986266.0952425 0 -26986266.0952425 53838290.032546997 0 0 0 0 44871133.037282944 -16007616.998090744 0 -16007616.998090744 -106172553.48404694 0 0 0 0 2674714.2478797655 -7198802.8573550619 0 -7198802.8573550619 -3114335.7650632933 0 0 0 0 -249868.0311576128 -56720997.687461257 0 -56720997.687461257 26484848.58430481 0 0 0 0 265475.82208633423 -62906731.222297668 0 -62906731.222297668 77629369.423755646 0 0 0 0 1866551.4575538635 -47086472.76214838 0 -47086472.76214838 50158292.450408936 0 0 0 0 -19932442.233325481 7081311.6208648682 0 7081311.6208648682 51802918.136293411 0 0 0 0 27816.733158111572 -21367813.68614006 0 -21367813.68614006 66639190.554039001 0 0 0 0 3990468.0062470436 -25058774.352015972 0 -25058774.352015972 16444474.527236938 0 0 0 0 3131486.3764152527 -22371560.732444763 0 -22371560.732444763 65053989.986804962 0 0 0 0 2455384.6597790718 -9187854.3206863403 0 -9187854.3206863403 19857327.987014771 0 0 0 0 -494578.10189625807 -5559077.4944337392 0 -5559077.4944337392 28855485.073029678 0 0 0 0 365322.45961927186 -3155845.3972789571 0 -3155845.3972789571 41577273.088378772 0 0 0 0 4376964.8119931063 -9402119.3352307212 0 -9402119.3352307212 21682852.880572941 0 0 0 0 1251058.9996705055 96749.462753295898 0 96749.462753295898 21037824.290924072 0 0 0 0 10199443.4792656 -366304968.50378418 0 -366304968.50378418 -125678758.07466507 0 0 0 0 323144802.6633479 13843990.657470703 0 13843990.657470703 12245933.739334106 0 0 0 0 86147108.470367417 134868552.86447144 0 134868552.86447144 104849996.18453217 0 0 0 0 65731932.96262598 129706108.38252258 0 129706108.38252258 -150509711.43896484 0 0 0 0 -258380607.18580166 -43603955.339683533 0 -43603955.339683533 56254030.102458954 0 0 0 0 3661404.9777808189 3688373.1720466614 0 3688373.1720466614 27673188.423512936 0 0 0 0 88625116.367845058 -160728364.82147217 0 -160728364.82147217 -212616231.05380249 0 0 0 0 -417911.93203481147 -5886389.8195396326 0 -5886389.8195396326 26402525.068091385 0 0 0 0 -56002.3664285962 -489429.44977388531 0 -489429.44977388531 -368690.45423353463 0 0 0 0 -67715856.47327137 9831205.042427063 0 9831205.042427063 -46492971.502457261 0 0 0 0 -50565823.462610722 -87601626.955825806 0 -87601626.955825806 -51670128.732635498 0 0 0 0 11975437.015890598 -82661740.760742188 0 -82661740.760742188 15352644.009155273 0 0 0 0 2441947.7469179411 -2056676.5531847775 0 -2056676.5531847775 -8708994.6731353477 0 0 0 0 37395233.077050157 67658929.022968769 0 67658929.022968769 122906633.62237549 0 0 0 0 35983946.392292947 50024873.945968628 0 50024873.945968628 70818968.023727417 0 0 0 0 1449117.100567928 -2207786.5011940189 0 -2207786.5011940189 -2097710.8760806322 0 0 0 0 107297451.50475347 15319194.449039459 0 15319194.449039459 -4866880.8027648926 0 0 0 0 -7671905.3884070218 30483481.462097168 0 30483481.462097168 183480819.48408508 0 0 0 0 20967609.080233052 75871988.636793137 0 75871988.636793137 125039756.00952148 0 0 0 0 23693708.708091591 58073073.407167435 0 58073073.407167435 240270710.58441162 0 0 0 0 48724134.576677218 -5379630.0503845215 0 -5379630.0503845215 64238972.285797119 0 0 0 0 62552566.190892115 -69433834.511512756 0 -69433834.511512756 84263184.769142151 0 0 0 0 60103318.886098713 -116516713.36682129 0 -116516713.36682129 141549361.74038696 0 0 0 0 36429735.445315816 16945663.557815552 0 16945663.557815552 270008791.65457153 0 0 0 0 325736517.30111229 -120142913.57796478 0 -120142913.57796478 299803212.80249023 0 0 0 0 175466508.16616809 69555324.532287598 0 69555324.532287598 191343184.68362427 0 0 0 0 87741819.539751917 56175750.116459608 0 56175750.116459608 255803625.82806396 0 0 0 0 465918.10173126025 -686098.81455468386 0 -686098.81455468386 -611318.76216711849 0 0 0 0 30721903.233961344 -127739855.35624695 0 -127739855.35624695 -190685995.49015045 0 0 0 0 137095410.71401995 -341319387.9747963 0 -341319387.9747963 204017741.93359375 0 0 0 0 -431028515.36024666 -48351390.26210022 0 -48351390.26210022 180938505.55386353 0 0 0 0 -96918284.097331166 19425388.221206665 0 19425388.221206665 67481564.910736084 0 0 0 0 -69031730.944360733 -62495983.813201904 0 -62495983.813201904 305736653.32263184 0 0 0 0 144032398.89243215 146161817.70039368 0 146161817.70039368 303875842.25130844 0 0 0 0 389338707.39886367 -57163330.40096283 0 -57163330.40096283 238249205.45669556 0 0 0 0 132008958.14484549 58787505.42137146 0 58787505.42137146 405590940.37179565 0 0 0 0 647319.83908091392 641963.90699807927 0 641963.90699807927 1363302.1242154017 0 0 0 0 281427851.82114756 334377763.75501251 0 334377763.75501251 212656127.029953 0 0 0 0 -97239030.238286674 139626032.47608948 0 139626032.47608948 166449470.30767822 0 0 0 0 249644402.32741839 98962723.821327209 0 98962723.821327209 25325609.153274536 0 0 0 0 -53767759.22125271 -7453132.2478103638 0 -7453132.2478103638 119847054.41375732 0 0 0 0 68807562.752744198 177372858.81497192 0 177372858.81497192 183479299.94268799 0 0 0 0 -148182780.08457184 44716897.015380859 0 44716897.015380859 150855947.50614166 0 0 0 0 -355309008.69119316 -108535623.35308838 0 -108535623.35308838 79687842.615570068 0 0 0 0 -214614466.8727842 133128541.58084106 0 133128541.58084106 133917278.25762939 0 0 0 0 -75160033.226553425 45145981.363540649 0 45145981.363540649 -66417146.245849609 0 0 0 0 -289988494.26131648 -148023914.96166992 0 -148023914.96166992 7633716.7505187988 0 0 0 0 -2023885.9005222169 1529314.0802553296 0 1529314.0802553296 4799399.6465455778 0 0 0 0 -7602389.8355617523 2942886.3173141479 0 2942886.3173141479 7819814.5122680664 0 0 0 0 -7473405.7161256699 -608564.09363342449 0 -608564.09363342449 44338627.142808422 0 0 0 0 -17501464.909796938 -1011288.4692267813 0 -1011288.4692267813 57149492.083412573 0 0 0 0 4680654.2956356024 9281259.8008653652 0 9281259.8008653652 11775870.892382182 0 0 0 0 -370354234.90501541 -49082608.642379761 0 -49082608.642379761 149711734.09603882 0 0 0 0 -496812425.63576406 51133732.951187134 0 51133732.951187134 70507068.504699707 0 0 0 0 -807977.33274507523 1233724.9667453766 0 1233724.9667453766 9570788.3984909058 0 0 0 0 -308123260.7672857 -90793934.99017334 0 -90793934.99017334 205774891.8839798 0 0 0 0 -320127781.17912912 -36826280.987960815 0 -36826280.987960815 17435118.603607178 0 0 0 0 -20217011.450012207 -14912031.048217773 0 -14912031.048217773 -3806967.9977416992 0 0 0 0 -481144045.79396057 -255448181.94236755 0 -255448181.94236755 79967525.009521484 0 0 0 0 1190437.7728067879 -5657754.6163641121 0 -5657754.6163641121 37966642.159275472 0 0 0 0 1586295.0142672788 1288482.3113920595 0 1288482.3113920595 40392030.761655919 0 0 0 0 -2447217.6209812164 -11495414.099626541 0 -11495414.099626541 16500741.897033691 0 0 0 0 6276165.3225312456 -8945059.0539544057 0 -8945059.0539544057 -1147377.612855196 0 0 0 0 -9739057.8128732443 19509590.75428009 0 19509590.75428009 158564725.62614441 0 0 0 0 -40426063.090717822 10225940.40852356 0 10225940.40852356 223911036.20652771 0 0 0 0 8957230.6435203552 85188641.284309387 0 85188641.284309387 385405859.08101654 0 0 0 0 288185003.21598911 -34449374.771316528 0 -34449374.771316528 120400150.04425049 0 0 0 0 50020826.652631819 -107026550.12277222 0 -107026550.12277222 213254649.66527557 0 0 0 0 -19584.444323329633 -1806127.1374100279 0 -1806127.1374100279 1116938.4083448797 0 0 0 0 176787251.63491261 29117741.788490295 0 29117741.788490295 14108380.197021484 0 0 0 0 -181217.33312854939 -340077.8094003275 0 -340077.8094003275 672135.07314790599 0 0 0 0 1255594.8547925837 -2769369.8504620939 0 -2769369.8504620939 1819372.7825573757 0 0 0 0 -1566983.2476284504 -5988382.2499923706 0 -5988382.2499923706 4549412.6985778809 0 0 0 0 41345090.944957197 -51187198.538311005 0 -51187198.538311005 63561052.902694702 0 0 0 0 -28348680.410254598 17199613.310386658 0 17199613.310386658 173788494.56922531 0 0 0 0 538027.0202024827 -2904121.1195394322 0 -2904121.1195394322 1829313.348534964 0 0 0 0 -3403743.6279260516 -17088984.340499878 0 -17088984.340499878 -10652692.271873474 0 0 0 0 -163442.15260540799 -2745969.211341247 0 -2745969.211341247 2070387.5212795045 0 0 0 0 82347600.238658071 -77652271.779998779 0 -77652271.779998779 -18063818.07069397 0 0 0 0 10995092.64998585 51647612.294937134 0 51647612.294937134 113993535.50272751 0 0 0 0 14610062.038502812 36746832.882781982 0 36746832.882781982 -10316016.880615234 0 0 0 0 -1579840.4900536537 40682561.880783081 0 40682561.880783081 -10367133.401901245 0 0 0 0 562064.14893340203 -647716.55296267569 0 -647716.55296267569 -1341294.6871780008 0 0 0 0 -37207700.930171013 5922470.7860870361 0 5922470.7860870361 2990022.9039916992 0 0 0 0 765476.13674032688 51361961.390228271 0 51361961.390228271 135982967.54385376 0 0 0 0 -5456310.2269862592 57944332.120162964 0 57944332.120162964 138863666.83835602 0 0 0 0 -4225417.6501844823 72320350.866744995 0 72320350.866744995 129619123.43191528 0 0 0 0 -38986897.910991482 28373762.803264618 0 28373762.803264618 162319972.06692505 0 0 0 0 -61811882.991622448 27305391.350372314 0 27305391.350372314 163767045.44158936 0 0 0 0 -6536165.7721511126 30802806.985908508 0 30802806.985908508 83011920.596229553 0 0 0 0 -47439376.80955217 78223899.890260696 0 78223899.890260696 132087203.51647949 0 0 0 0 -58800467.961044729 80479763.650428772 0 80479763.650428772 39028464.312263489 0 0 0 0 -99506870.405014411 -20187936.173168182 0 -20187936.173168182 42028738.976959229 0 0 0 0 18936223.928381264 48495136.813140869 0 48495136.813140869 -176803516.02746582 0 0 0 0 -49983869.406364962 48249694.497516632 0 48249694.497516632 171805113.64588928 0 0 0 0 -35008868.616948187 61599640.857437134 0 61599640.857437134 81678016.832687378 0 0 0 0 92284285.43760103 16668890.797836304 0 16668890.797836304 -13050628.920120239 0 0 0 0 46421539.42429927 23436675.079933167 0 23436675.079933167 107137571.84437943 0 0 0 0 61146976.339837909 -16906104.7840271 0 -16906104.7840271 -113223312.7676239 0 0 0 0 -29207602.005950391 13590779.913490295 0 13590779.913490295 -13100735.045563221 0 0 0 0 -674957.5739940668 -531836.05124481767 0 -531836.05124481767 523793.69326179475 0 0 0 0 -332119.61739403009 -13556953.708450317 0 -13556953.708450317 16382324.796173096 0 0 0 0 9965780.1381144971 50648170.666824341 0 50648170.666824341 -145413160.66120148 0 0 0 0 8956555.8629113436 -9155946.2234420776 0 -9155946.2234420776 -10159223.847167969 0 0 0 0 1513995.2360141133 -430558.39224597812 0 -430558.39224597812 448903.3433922343 0 0 0 0 16393732.604320049 -25963554.097946167 0 -25963554.097946167 39150941.58996582 0 0 0 0 -18623183.807488114 -20300126.521442413 0 -20300126.521442413 -26921420.29221344 0 0 0 0 -6556049.0523269773 -2135371.8506240845 0 -2135371.8506240845 -65578.933456420898 0 0 0 0 11354799.294770688 -2808294.1065139771 0 -2808294.1065139771 -209740.05474853516 0 0 0 0 -38845806.263697267 -1002.5689315795898 0 -1002.5689315795898 23100953.830284119 0 0 0 0 -219919.04631790664 -134278.90945676714 0 -134278.90945676714 147262.7509790659 0 0 0 0 -62524188.109545797 -27878309.467067719 0 -27878309.467067719 9781404.5428314209 0 0 0 0 13751152.634410203 -61841639.662231445 0 -61841639.662231445 -43226712.503421783 0 0 0 0 42664397.59201701 -25304694.088924408 0 -25304694.088924408 -11140886.892120361 0 0 0 0 86707243.291077495 -50102518.381599426 0 -50102518.381599426 -26249330.290313721 0 0 0 0 -13542449.791999102 -10808192.184371948 0 -10808192.184371948 -19206438.728912354 0 0 0 0 -24480429.56261611 -29949596.79889679 0 -29949596.79889679 9156642.082572937 0 0 0 0 1098388.5771800946 -308092.32868601382 0 -308092.32868601382 253318.46916074678 0 0 0 0 30001903.342774987 -6075504.6426620483 0 -6075504.6426620483 91063325.456054688 0 0 0 0 421749.17690365197 -111615.10150171071 0 -111615.10150171071 93510.835369996727 0 0 0 0 -7562574.1292786077 -38700847.021547318 0 -38700847.021547318 285246373.87709045 0 0 0 0 110449185.4784295 -12759913.742912292 0 -12759913.742912292 -71159736.052894592 0 0 0 0 66961347.723043799 -107760098.26126862 0 -107760098.26126862 219283294.75343323 0 0 0 0 74999415.315802574 -4793772.4801940918 0 -4793772.4801940918 152174550.32889175 0 0 0 0 19059859.744337559 49577249.456245422 0 49577249.456245422 197768656.41238403 0 0 0 0 44056438.151510954 30981162.0259552 0 30981162.0259552 156482393.50128174 0 0 0 0 15121047.647223443 62532922.690649033 0 62532922.690649033 132465786.02758789 0 0 0 0 -10555967.272381425 -9322929.2734985352 0 -9322929.2734985352 155757912.83912659 0 0 0 0 1513856.44251178 2481359.964035105 0 2481359.964035105 5257317.0597378388 0 0 0 0 21275897.240974568 -7045799.2751290798 0 -7045799.2751290798 -52345414.359771729 0 0 0 0 -220244757.44517255 -28896658.575260162 0 -28896658.575260162 169603733.40472412 0 0 0 0 24562365.787506189 169224281.79426444 0 169224281.79426444 167257233.62744141 0 0 0 0 -3803464.4631140907 -19711972.158373658 0 -19711972.158373658 28500131.621514648 0 0 0 0 -53124020.161990583 12488214.020858765 0 12488214.020858765 135524481.8674469 0 0 0 0 -92260701.702519178 -103348565.37836456 0 -103348565.37836456 -40991715.895385742 0 0 0 0 -95043195.846034527 -72465250.775535583 0 -72465250.775535583 56112383.569473267 0 0 0 0 125248355.24597767 -144652211.44230652 0 -144652211.44230652 41196425.533638 0 0 0 0 60754377.104974881 -89727022.581291199 0 -89727022.581291199 5239119.2292480469 0 0 0 0 64913257.963529825 -132299327.23368835 0 -132299327.23368835 -50294629.828567505 0 0 0 0 15722334.359220773 -11037865.678722382 0 -11037865.678722382 -49651073.566314697 0 0 0 0 108334709.99743769 -59685208.866867065 0 -59685208.866867065 -30453883.403629303 0 0 0 0 89012976.045660093 -77454048.946685791 0 -77454048.946685791 -33570106.01512146 0 0 0 0 179384964.67502841 -88546265.183357239 0 -88546265.183357239 -49218496.378435135 0 0 0 0 91419986.791760325 -46075609.044631958 0 -46075609.044631958 -35356146.894439697 0 0 0 0 104466708.97578324 39710655.075561523 0 39710655.075561523 113270592.89733887 0 0 0 0 159802410.20166844 -78730828.753780365 0 -78730828.753780365 108192139.64523315 0 0 0 0 5988469.4781994224 -713121.01990509033 0 -713121.01990509033 119929984.34233093 0 0 0 0 3193845.7901519537 27481252.999702454 0 27481252.999702454 67768217.818534851 0 0 0 0 -1942934.0068334937 -42903180.00680542 0 -42903180.00680542 188414087.00235748 0 0 0 0 -6785.8254347890615 -55351184.038352966 0 -55351184.038352966 22766727.432434082 0 0 0 0 -75364853.793441951 -19836250.428703308 0 -19836250.428703308 113037454.2714386 0 0 0 0 -77474599.655996218 -33676131.661756516 0 -33676131.661756516 42122751.648895264 0 0 0 0 -61968880.446875036 17820256.20349884 0 17820256.20349884 44690106.656890869 0 0 0 0 -108902234.65061879 -17804055.749572754 0 -17804055.749572754 81000039.094680786 0 0 0 0 -109210914.86578101 -12626251.915133476 0 -12626251.915133476 22126707.989807129 0 0 0 0 -126613282.21800512 -6258975.6881942749 0 -6258975.6881942749 41270771.659362793 0 0 0 0 -125555627.62387991 -50123295.529527664 0 -50123295.529527664 37969726.407424927 0 0 0 0 -116829349.88760734 -21719942.221328735 0 -21719942.221328735 54619958.256530762 0 0 0 0 -407049.91541106871 7043752.3939198814 0 7043752.3939198814 14599443.435641237 0 0 0 0 -2714880.1333023878 -1381092.3559721336 0 -1381092.3559721336 14212932.071079269 0 0 0 0 -1566594.0050727103 -3537637.888260562 0 -3537637.888260562 12994107.584211871 0 0 0 0 -24937895.524145126 -1740774.2026977539 0 -1740774.2026977539 -11259505.156646729 0 0 0 0 -123201973.70724678 26611838.298156738 0 26611838.298156738 1045080.2625732422 0 0 0 0 -196673275.1793718 71934800.962280273 0 71934800.962280273 78285251.339294434 0 0 0 0 -26141210.540592194 33382247.065948486 0 33382247.065948486 83112633.604095459 0 0 0 0 -881441.07765452028 4537416.0810397929 0 4537416.0810397929 7340861.962138325 0 0 0 0 -16862056.039250314 108833333.63769531 0 108833333.63769531 -164235378.65319824 0 0 0 0 -98795246.027842879 66306522.130867004 0 66306522.130867004 65825843.154693604 0 0 0 0 -186923368.19079757 -44061074.845550537 0 -44061074.845550537 119358979.91995239 0 0 0 0 -118720374.38123943 60792760.554918289 0 60792760.554918289 -11978932.111602783 0 0 0 0 -983921.83925229067 2373084.8180203615 0 2373084.8180203615 6872991.6401933581 0 0 0 0 -100012160.79416955 6674357.9035367966 0 6674357.9035367966 -11023413.782287598 0 0 0 0 -98615014.282068819 -8133412.2474145889 0 -8133412.2474145889 36758039.477966309 0 0 0 0 -116990389.61420414 44093458.514110565 0 44093458.514110565 50844671.453094482 0 0 0 0 -77273618.300777316 30290429.5675354 0 30290429.5675354 49748117.703735352 0 0 0 0 -73729104.617677689 19101136.240982056 0 19101136.240982056 83369484.948791504 0 0 0 0 -34791376.78018716 43662044.249450684 0 43662044.249450684 67211147.476150513 0 0 0 0 -53829863.588747367 -1002668.35505867 0 -1002668.35505867 73890762.245147705 0 0 0 0 309334.98060608434 -71615.34600161761 0 -71615.34600161761 -13872.055080379359 0 0 0 0 -92925946.826239944 25608045.605438232 0 25608045.605438232 -111750874.36015892 0 0 0 0 -55493652.646159947 26129186.065490723 0 26129186.065490723 114840208.89598846 0 0 0 0 -93715800.661556721 54117417.671966553 0 54117417.671966553 95072622.199401855 0 0 0 0 5445393.8260703683 20535897.424972534 0 20535897.424972534 73075594.346832275 0 0 0 0 4617638.101894483 16156575.646862984 0 16156575.646862984 64389876.35975647 0 0 0 0 37843080.752972707 -40435771.648995399 0 -40435771.648995399 137234118.38000488 0 0 0 0 62497039.492761314 26964992.05115509 0 26964992.05115509 63668946.326004028 0 0 0 0 44902311.934214413 20925421.987861633 0 20925421.987861633 10238368.819007874 0 0 0 0 702920.67040617811 -18502.252048894763 0 -18502.252048894763 10869.613168566488 0 0 0 0 91539167.334987879 103865704.08681107 0 103865704.08681107 -19351418.074905396 0 0 0 0 54578971.991501808 23186008.953987122 0 23186008.953987122 87738515.765792847 0 0 0 0 8652204.9568657875 151512359.20892334 0 151512359.20892334 322755762.74856567 0 0 0 0 68605767.040686607 194880342.90159607 0 194880342.90159607 312898575.70684814 0 0 0 0 134952178.11639512 103607193.81705475 0 103607193.81705475 19986701.187072754 0 0 0 0 115551531.1167407 222145351.37605286 0 222145351.37605286 267535716.20967865 0 0 0 0 88802847.772350311 239585921.82317352 0 239585921.82317352 258158285.08934021 0 0 0 0 -41312758.081745267 9338909.7041854858 0 9338909.7041854858 58573426.868789673 0 0 0 0 36164049.122520685 -13703932.104812622 0 -13703932.104812622 -101766278.73723602 0 0 0 0 -255432440.13954693 -84506662.457229614 0 -84506662.457229614 -24462497.17376709 0 0 0 0 -167084121.44865775 7044359.7275009155 0 7044359.7275009155 -651540.66537475586 0 0 0 0 136231896.41866183 105867014.91600037 0 105867014.91600037 -141591686.76538086 0 0 0 0 93773.570147816121 -12088.210318900645 0 -12088.210318900645 2175456.7992019653 0 0 0 0 116640854.69247246 314375263.61653137 0 314375263.61653137 250002259.15036011 0 0 0 0 22220171.905155659 96039835.374206543 0 96039835.374206543 -33066016.001190186 0 0 0 0 66283142.324609682 20831263.197303772 0 20831263.197303772 -158235628.4145813 0 0 0 0 -108019345.9231268 -61777600.70022583 0 -61777600.70022583 -149812378.90289307 0 0 0 0 212006527.0765208 -280237016.84913254 0 -280237016.84913254 304725343.82159424 0 0 0 0 9290819.9692437649 165723248.77325439 0 165723248.77325439 120082668.37812805 0 0 0 0 -1328194.3872487294 -5464265.5961807705 0 -5464265.5961807705 2649496.8346914202 0 0 0 0 140088171.76994538 -285995537.38883209 0 -285995537.38883209 494182599.99136353 0 0 0 0 30916058.800760269 -118839950.58990479 0 -118839950.58990479 210800636.24301147 0 0 0 0 73994884.780155659 -219285849.18025208 0 -219285849.18025208 367654791.94671631 0 0 0 0 103767648.45959759 -192836951.25445557 0 -192836951.25445557 265399494.25067139 0 0 0 0 176727252.02659416 -231727529.00469971 0 -231727529.00469971 209098848.34985352 0 0 0 0 154085076.15113354 -154469056.62254333 0 -154469056.62254333 49675644.88092041 0 0 0 0 212631137.54274082 -203614827.65307617 0 -203614827.65307617 22396634.357940674 0 0 0 0 204720831.62742782 -240598961.82460785 0 -240598961.82460785 90083906.815307617 0 0 0 0 -5662741.0419137608 1208282.5509659089 0 1208282.5509659089 21772239.867157809 0 0 0 0 33557924.974599361 -57131318.468223572 0 -57131318.468223572 -29929228.300354004 0 0 0 0 -23192389.079437256 -23844272.928688049 0 -23844272.928688049 40722401.825195312 0 0 0 0 -277540515.13755655 58077338.114555359 0 58077338.114555359 -18310897.701400757 0 0 0 0 24698.78839402218 -452259.88042267039 0 -452259.88042267039 6688860.2043317184 0 0 0 0 -104901498.58208799 -126486229.21618652 0 -126486229.21618652 26842563.209449768 0 0 0 0 255828523.22551501 131708655.63350677 0 131708655.63350677 182397971.29454994 0 0 0 0 105630362.11992526 151447497.4497757 0 151447497.4497757 352923732.7335968 0 0 0 0 103255382.32836843 129090892.70797729 0 129090892.70797729 264376918.96060181 0 0 0 0 51205040.389941335 101314057.85755157 0 101314057.85755157 264361495.37052917 0 0 0 0 125483198.11559081 78742013.366439819 0 78742013.366439819 188731300.68989754 0 0 0 0 84266348.80342418 19583895.664699554 0 19583895.664699554 150253631.85317993 0 0 0 0 88769210.341164112 9887174.2919845581 0 9887174.2919845581 164585777.18814087 0 0 0 0 69408481.433503553 -62250124.243093491 0 -62250124.243093491 130521918.77754211 0 0 0 0 32861138.206472874 -64148244.69657135 0 -64148244.69657135 142742554.81043243 0 0 0 0 2979082.3068483472 15442739.293510437 0 15442739.293510437 84920889.423789978 0 0 0 0 177923926.67263424 -47445664.287117004 0 -47445664.287117004 12900120.584503174 0 0 0 0 401748.94395549793 13002.844744808972 0 13002.844744808972 33193.408978551626 0 0 0 0 183618591.34168547 226935661.66933823 0 226935661.66933823 342335161.9906311 0 0 0 0 -5020706.3523002863 71678450.018066406 0 71678450.018066406 396142221.68670654 0 0 0 0 9249360.223004818 212827132.75525665 0 212827132.75525665 474500565.92116928 0 0 0 0 236371392.76215804 165074215.34663391 0 165074215.34663391 373053481.08796883 0 0 0 0 196600884.90092051 117437216.90291977 0 117437216.90291977 345266952.9495697 0 0 0 0 92821739.21400106 193069904.49649048 0 193069904.49649048 410596627.6060791 0 0 0 0 15750447.672647953 148351106.90962982 0 148351106.90962982 395106520.68132114 0 0 0 0 -9471626.8163145781 121148752.80921173 0 121148752.80921173 398604268.79640675 0 0 0 0 11595701.452641368 131193814.54585266 0 131193814.54585266 356740936.65853882 0 0 0 0 41827189.373854756 135743584.02897263 0 135743584.02897263 361586358.74957275 0 0 0 0 28797641.438262612 130850895.60263252 0 130850895.60263252 304805496.70896912 0 0 0 0 48206801.890263081 164359585.58719635 0 164359585.58719635 361398803.97628033 0 0 0 0 11867428.288029015 159416529.43988037 0 159416529.43988037 347314007.08859253 0 0 0 0 12336144.87443459 108570119.27760315 0 108570119.27760315 277594490.23995972 0 0 0 0 17232691.182735324 120413579.40789795 0 120413579.40789795 306238408.01310825 0 0 0 0 58052815.645186216 111443589.85063171 0 111443589.85063171 239416445.15567017 0 0 0 0 -25053441.174342543 151778773.85185623 0 151778773.85185623 372427256.74632263 0 0 0 0 -23206288.183282495 119333233.33337402 0 119333233.33337402 375902221.73714447 0 0 0 0 -25510092.990687549 95452699.058433533 0 95452699.058433533 397355926.77054596 0 0 0 0 -17152849.009356141 111028272.10113525 0 111028272.10113525 311817080.08103943 0 0 0 0 -12292429.679111838 122406071.42834473 0 122406071.42834473 334988377.1796639 0 0 0 0 -7995609.78482306 142011579.90044403 0 142011579.90044403 334847704.94922996 0 0 0 0 -15356922.461323023 154224496.12591553 0 154224496.12591553 359018470.48929596 0 0 0 0 -25711901.871725917 147952087.92477417 0 147952087.92477417 355264631.0351944 0 0 0 0 -18393414.531007618 160618488.54760742 0 160618488.54760742 329338706.81085205 0 0 0 0 -21784823.624170631 160516894.575737 0 160516894.575737 355628863.49865723 0 0 0 0 2967814.0601558685 151587019.83760071 0 151587019.83760071 319079027.41304016 0 0 0 0 -10507463.20667541 84049702.269851685 0 84049702.269851685 379272150.11862946 0 0 0 0 -6078541.1227418184 83123654.435325623 0 83123654.435325623 230789926.06881332 0 0 0 0 9880335.9618303776 193697309.04925537 0 193697309.04925537 203118479.75544739 0 0 0 0 -17670406.599707425 129889672.05843735 0 129889672.05843735 202288485.76577759 0 0 0 0 -12684242.387829363 150132513.59825134 0 150132513.59825134 251625933.61741638 0 0 0 0 -12242555.615861148 151399252.44712448 0 151399252.44712448 394709114.67831421 0 0 0 0 -23114289.306474626 185704981.75705528 0 185704981.75705528 371919886.14102173 0 0 0 0 -30484482.437398553 152915829.23408508 0 152915829.23408508 355187890.51364136 0 0 0 0 -25035762.458570123 177668916.00010681 0 177668916.00010681 316439152.38371277 0 0 0 0 -36804529.064702451 169664453.42878342 0 169664453.42878342 340861563.27697754 0 0 0 0 -36792650.608495481 32795252.442260742 0 32795252.442260742 7761903.3980464935 0 0 0 0 18461664.591538429 7714334.5940246582 0 7714334.5940246582 5183190.2277069092 0 0 0 0 252639280.80539548 186570963.32087708 0 186570963.32087708 69246558.883041382 0 0 0 0 77102329.846958816 145847323.68066406 0 145847323.68066406 66090441.803329468 0 0 0 0 46426750.035112917 229164221.43074036 0 229164221.43074036 246677119.2993927 0 0 0 0 108147888.08575994 218481816.22094727 0 218481816.22094727 374137981.20040894 0 0 0 0 44296824.981591836 195758850.52995729 0 195758850.52995729 366087385.31832886 0 0 0 0 -101216098.3548965 -32875826.558227539 0 -32875826.558227539 25503758.791248322 0 0 0 0 331388857.01875997 328567058.34649277 0 328567058.34649277 310159473.25222778 0 0 0 0 -231023.72844430187 214292667.17980194 0 214292667.17980194 530182435.09558105 0 0 0 0 -45756.560755786195 103894.75820631068 0 103894.75820631068 482037.31185780466 0 0 0 0 108181887.27241421 282716193.51660156 0 282716193.51660156 652030486.55062866 0 0 0 0 54164633.635665894 126796699.9862442 0 126796699.9862442 517216151.04021454 0 0 0 0 164796613.09845987 113802667.01234436 0 113802667.01234436 517930582.9510498 0 0 0 0 69434081.644729644 88984552.959777832 0 88984552.959777832 663774089.73962402 0 0 0 0 60937150.62499544 53942981.035110474 0 53942981.035110474 493668490.94859648 0 0 0 0 68134421.160843015 142405660.49336243 0 142405660.49336243 494678364.27304339 0 0 0 0 18402351.684464633 145056171.75325394 0 145056171.75325394 562891397.83648682 0 0 0 0 16412960.277135819 164629860.21573639 0 164629860.21573639 400813638.60284424 0 0 0 0 39039586.512989834 78569162.709159851 0 78569162.709159851 453159871.16381836 0 0 0 0 45305168.300113425 84776677.439712524 0 84776677.439712524 442647860.66949463 0 0 0 0 66513538.389520556 63924810.544555664 0 63924810.544555664 442007678.86796474 0 0 0 0 212515.38811581183 73567317.137580872 0 73567317.137580872 473829443.06982422 0 0 0 0 -16220511.659650803 168187251.5592041 0 168187251.5592041 365254692.62203217 0 0 0 0 -12536398.457683921 134997784.9431839 0 134997784.9431839 389690732.12345886 0 0 0 0 -31840349.795745671 151751801.88066864 0 151751801.88066864 416932549.14044189 0 0 0 0 -6473313.3570504189 140560105.69136047 0 140560105.69136047 386974612.26502609 0 0 0 0 -12820040.035978258 139811496.44197083 0 139811496.44197083 465516563.15983582 0 0 0 0 9869331.1841074824 114022255.52479553 0 114022255.52479553 414182103.40590382 0 0 0 0 30975605.938383013 74346616.19002533 0 74346616.19002533 435758093.6207428 0 0 0 0 6271554.787183851 112267573.08631897 0 112267573.08631897 428118452.14001465 0 0 0 0 30753223.774139315 102210778.17720032 0 102210778.17720032 401528008.06435966 0 0 0 0 -15529431.265078008 135616230.27469635 0 135616230.27469635 408427460.07754517 0 0 0 0 -15181063.917527497 115762230.62858582 0 115762230.62858582 433325708.5521698 0 0 0 0 -317330.96453821659 27412824.846626282 0 27412824.846626282 660445190.2490387 0 0 0 0 254382.04203346864 168254.9938377291 0 168254.9938377291 250116.00173414499 0 0 0 0 2846836.5437574983 -1044569.7824764252 0 -1044569.7824764252 369928985.79730225 0 0 0 0 -4365446.1790226698 18628275.563247681 0 18628275.563247681 338553809.56086349 0 0 0 0 50660215.218199186 52044314.083381653 0 52044314.083381653 435416082.02339172 0 0 0 0 40456136.515354261 84250675.387817383 0 84250675.387817383 445991599.83274841 0 0 0 0 88995308.784339845 100404287.72161865 0 100404287.72161865 450033550.48004913 0 0 0 0 73457618.258024335 62868657.667991638 0 62868657.667991638 433037412.50258827 0 0 0 0 -82280.75325659498 12909876.968765259 0 12909876.968765259 399127893.07899475 0 0 0 0 53626770.987410709 171342480.20214844 0 171342480.20214844 234195532.99803925 0 0 0 0 96042530.965952978 69547837.208597183 0 69547837.208597183 9835976.498046875 0 0 0 0 52593446.78243158 -13413074.180690765 0 -13413074.180690765 -20565729.450302124 0 0 0 0 -78925.898803772026 -4533.6667181998491 0 -4533.6667181998491 176687.29834268615 0 0 0 0 -17644452.958514694 14770664.089904785 0 14770664.089904785 133814167.00796509 0 0 0 0 120434.13509819249 5506940.3604278564 0 5506940.3604278564 24407527.681018829 0 0 0 0 707211.05622084462 473017.69899795949 0 473017.69899795949 653226.46049327776 0 0 0 0 4071528.8662315607 -1453063.6575775146 0 -1453063.6575775146 2159419.4453430176 0 0 0 0 -16934896.342892259 11101201.980941772 0 11101201.980941772 -3720470.6663665771 0 0 0 0 46069010.486650825 17707153.893066406 0 17707153.893066406 -34821231.715499878 0 0 0 0 -23063461.367594913 4350850.9971466064 0 4350850.9971466064 26248971.072540283 0 0 0 0 -8461887.9098868072 15926528.095474243 0 15926528.095474243 58730967.876304626 0 0 0 0 -15781592.517510682 -14001404.874755859 0 -14001404.874755859 17804122.49055481 0 0 0 0 -2991963.8741024286 1095350.9788360596 0 1095350.9788360596 10509076.68409729 0 0 0 0 -16524103.690714061 -6852914.7557678223 0 -6852914.7557678223 3386629.3923950195 0 0 0 0 1833171.1683215946 269062.1827545166 0 269062.1827545166 2192228.7163085938 0 0 0 0 -260705.6554591317 71779.191768676043 0 71779.191768676043 599696.80158183351 0 0 0 0 -1101973.2745759562 307257.52745056152 0 307257.52745056152 9130969.3794250488 0 0 0 0 -401264.54453167546 353896.66278505325 0 353896.66278505325 1304246.9605324343 0 0 0 0 -8207172.474616766 -25191235.880325317 0 -25191235.880325317 -41768433.120666504 0 0 0 0 -1644007.6810122132 4222320.7776451111 0 4222320.7776451111 6738228.6826324463 0 0 0 0 18793525.231229782 30708496.487747192 0 30708496.487747192 129701563.30115509 0 0 0 0 1640444.6050167084 743035.64727783203 0 743035.64727783203 3323096.5619812012 0 0 0 0 1026797.5544807967 740968.69324303418 0 740968.69324303418 1097238.6493582651 0 0 0 0 -7067529.3893454075 24597770.211235046 0 24597770.211235046 168639001.18222046 0 0 0 0 -23858927.067119598 -3560987.834777832 0 -3560987.834777832 -24230409.470153809 0 0 0 0 -489754.03971991292 -905723.88134693354 0 -905723.88134693354 1719754.0016949549 0 0 0 0 -28589.08421766758 -55909.50439453125 0 -55909.50439453125 326079.34753417969 0 0 0 0 -490156.50248092308 -93691.363607037812 0 -93691.363607037812 1269765.8298524916 0 0 0 0 -4032913.6945958138 -34015991.001159668 0 -34015991.001159668 -42567244.235870361 0 0 0 0 -21188522.882524848 -19943071.128437042 0 -19943071.128437042 -44115719.436950684 0 0 0 0 -8368871.9631867409 -16733753.524230957 0 -16733753.524230957 -47558094.082702637 0 0 0 0 -8712188.5289711952 -33067862.922546387 0 -33067862.922546387 -42614398.938323975 0 0 0 0 -19298994.962157249 -14561545.98777771 0 -14561545.98777771 -42549585.104492188 0 0 0 0 -1093988.4672223954 -1411785.476082094 0 -1411785.476082094 2013293.881919384 0 0 0 0 -15620734.654953003 -19780625.988464355 0 -19780625.988464355 -48196432.832519531 0 0 0 0 -5028007.8926336765 -25742380.244445801 0 -25742380.244445801 -43589663.049438477 0 0 0 0 -1633940.3292706013 -28478355.857292175 0 -28478355.857292175 -45286996.598754883 0 0 0 0 -8552840.8418164253 -31945374.728408813 0 -31945374.728408813 -36259292.004699707 0 0 0 0 7562084.4360024929 -31014449.521881104 0 -31014449.521881104 -45846462.942687988 0 0 0 0 11960774.235086918 8522320.9297180176 0 8522320.9297180176 -98785477.901208878 0 0 0 0 7138106.3256680965 -36164785.971343994 0 -36164785.971343994 -41552234.634155273 0 0 0 0 21711954.352026314 -10711739.460083008 0 -10711739.460083008 -100620650.88012695 0 0 0 0 -1236099.7673410052 -1046351.3206759095 0 -1046351.3206759095 1282167.6518482715 0 0 0 0 1085237.6223301888 -15442464.781143188 0 -15442464.781143188 -62720145.039459229 0 0 0 0 18275595.103640616 -23930255.025497437 0 -23930255.025497437 -72052088.00302124 0 0 0 0 3580503.8391122818 -3023125.7929382324 0 -3023125.7929382324 -76745955.736335754 0 0 0 0 -25664820.842850208 4225429.955291748 0 4225429.955291748 -45131428.00100708 0 0 0 0 -4616233.5051932335 -9510794.4599609375 0 -9510794.4599609375 -56323166.006225586 0 0 0 0 -11960709.060006618 769679.89331054688 0 769679.89331054688 -68489435.180725098 0 0 0 0 -22364259.688499451 11769154.656768799 0 11769154.656768799 -60608626.97354126 0 0 0 0 5226082.2444643378 -13702358.182126999 0 -13702358.182126999 -62254564.663818359 0 0 0 0 7113959.6290791929 -29727880.498153687 0 -29727880.498153687 -81505030.410125732 0 0 0 0 9014365.3430601358 -14428444.544692993 0 -14428444.544692993 -59227712.748310089 0 0 0 0 2020723.2580375373 -8747683.3197240829 0 -8747683.3197240829 3208352.9920043945 0 0 0 0 2899890.8860121965 6365147.6947174072 0 6365147.6947174072 3576945.4947052002 0 0 0 0 -2977368.7054247856 5900039.0176544189 0 5900039.0176544189 4907433.9756546021 0 0 0 0 3524672.9486937523 607528.36395263672 0 607528.36395263672 -2352769.055557251 0 0 0 0 1675326.9529158538 -719155.75566916168 0 -719155.75566916168 908783.87378292158 0 0 0 0 -351414.12332344055 542248.70587921143 0 542248.70587921143 650306.49003601074 0 0 0 0 663951.78261958587 -294320.16217783839 0 -294320.16217783839 1884127.3824914619 0 0 0 0 431571.80956019019 225380.3524578847 0 225380.3524578847 102292.45234161615 0 0 0 0 5052715.3916773796 -3257014.4566650391 0 -3257014.4566650391 107394895.01303101 0 0 0 0 -13451254.407173395 55741265.777328491 0 55741265.777328491 239773330.54530334 0 0 0 0 21535957.039326429 71843379.287231445 0 71843379.287231445 134140205.35817719 0 0 0 0 17684276.502620995 79116340.798383713 0 79116340.798383713 229897747.64402771 0 0 0 0 27889811.835874796 65644805.021209717 0 65644805.021209717 224597493.55545807 0 0 0 0 118036.91771752539 55483.528752952814 0 55483.528752952814 72928.738934330642 0 0 0 0 18931911.233805656 62906184.274665833 0 62906184.274665833 231140636.05157471 0 0 0 0 31893264.473154545 69902286.976335526 0 69902286.976335526 228746531.90945435 0 0 0 0 23760810.486036062 68336297.332214355 0 68336297.332214355 236857355.29039383 0 0 0 0 -3305788.4349883795 70044480.84223938 0 70044480.84223938 238324651.98316956 0 0 0 0 56690.70080268383 84383595.224082947 0 84383595.224082947 277287622.23023987 0 0 0 0 -25622169.976387918 66385005.080841064 0 66385005.080841064 263248116.2833252 0 0 0 0 -22126130.681394696 82865189.513298035 0 82865189.513298035 313441961.40730667 0 0 0 0 -31490500.552048087 78961690.941307068 0 78961690.941307068 367964346.13635254 0 0 0 0 -24304584.934592068 102277680.47807312 0 102277680.47807312 324917744.09841919 0 0 0 0 -10459893.34688437 -3502414.7615127563 0 -3502414.7615127563 259094323.31060791 0 0 0 0 4572353.049713254 -2032909.0962524414 0 -2032909.0962524414 162037661.88671875 0 0 0 0 -11779828.785704255 35839412.869102478 0 35839412.869102478 276166985.1036377 0 0 0 0 -3076865.7618815899 41796611.162139893 0 41796611.162139893 167073491.00005817 0 0 0 0 -28003742.367413998 452226.72509622574 0 452226.72509622574 -378662646.31423378 0 0 0 0 -147792159.11087036 64392184.813295364 0 64392184.813295364 191688656.12896538 0 0 0 0 -850438.90873660869 -1674180.6928617638 0 -1674180.6928617638 2968941.7738269763 0 0 0 0 -358672913.10649681 -82093820.548215866 0 -82093820.548215866 -38849035.487481594 0 0 0 0 -240406281.34426898 -330565139.85155678 0 -330565139.85155678 -183012334.83259583 0 0 0 0 -5129707.7941102982 -34047028.353443146 0 -34047028.353443146 -79107492.468013763 0 0 0 0 -62835407.040635109 -30378357.773403168 0 -30378357.773403168 -42426905.313278198 0 0 0 0 -77737984.520985886 -169870690.82998383 0 -169870690.82998383 -81766864.956481934 0 0 0 0 47077050.042934895 -172688592.27015686 0 -172688592.27015686 -149055984.02247524 0 0 0 0 62498896.621562004 -94120035.309432983 0 -94120035.309432983 -48057712.51001358 0 0 0 0 -22194233.443157196 -68914138.94900322 0 -68914138.94900322 -5887465.7620162964 0 0 0 0 20914173.800378799 -8198742.8588600159 0 -8198742.8588600159 31738145.168697357 0 0 0 0 -31929812.077335358 7014979.1037926674 0 7014979.1037926674 84564968.182258606 0 0 0 0 7303072.3615169525 -47121003.677268982 0 -47121003.677268982 -65450036.313697815 0 0 0 0 24231652.244449615 -338976025.9874692 0 -338976025.9874692 -158129805.21306705 0 0 0 0 827974354.24570465 122440176.57719421 0 122440176.57719421 -433840692.008358 0 0 0 0 158606439.46189499 103300931.16299438 0 103300931.16299438 55827039.898521423 0 0 0 0 151004425.93519378 -3981825.3239988685 0 -3981825.3239988685 39410162.695623398 0 0 0 0 270465438.36519432 59398493.388021469 0 59398493.388021469 58221040.112672806 0 0 0 0 -1076554.7050725981 2756098.6987908073 0 2756098.6987908073 2219324.1811220404 0 0 0 0 331891888.12694931 108833333.12109709 0 108833333.12109709 -94502619.660276413 0 0 0 0 221884277.48029137 137434440.0869174 0 137434440.0869174 -198792746.30847406 0 0 0 0 -267164475.67584038 -419479443.8152442 0 -419479443.8152442 103753846.95801353 0 0 0 0 75994781.479866028 2329177.8473796844 0 2329177.8473796844 40510836.021277547 0 0 0 0 8697959.6378707886 -164686066.43643391 0 -164686066.43643391 -317187287.49146324 0 0 0 0 1438148.0797477886 -3998311.8651439119 0 -3998311.8651439119 5780889.7200807109 0 0 0 0 -2059299.4052627115 496435.25957341422 0 496435.25957341422 2489905.4332620599 0 0 0 0 4841792.8835468292 93835930.609124184 0 93835930.609124184 34021546.979164071 0 0 0 0 149702968.89770043 -126195656.03724194 0 -126195656.03724194 35389445.788708687 0 0 0 0 146496.43407465797 -3607398.255599211 0 -3607398.255599211 5312527.4753232142 0 0 0 0 -133907065.88290739 -486659565.28243351 0 -486659565.28243351 -329936710.58721352 0 0 0 0 86949911.572933316 154289796.06249332 0 154289796.06249332 91582350.623898506 0 0 0 0 260126634.92972708 264650121.50269985 0 264650121.50269985 156731949.2770462 0 0 0 0 227215130.51925468 104897647.0811224 0 104897647.0811224 69527331.246217728 0 0 0 0 365297926.38106197 343191291.58317304 0 343191291.58317304 157953549.23813057 0 0 0 0 401864624.06362534 -50369888.60103035 0 -50369888.60103035 47753921.060491323 0 0 0 0 656925287.98660088 454826596.29408169 0 454826596.29408169 -7331745.2712929249 0 0 0 0 -387734212.91943717 4767498.3051086664 0 4767498.3051086664 354325617.40835571 0 0 0 0 533776902.42794037 782258402.09401321 0 782258402.09401321 723748730.56635332 0 0 0 0 -514070229.10101223 1332001143.2191536 0 1332001143.2191536 -1873254380.6193619 0 0 0 0 95354.504850322381 -814899.96776804794 0 -814899.96776804794 2297700.4562337464 0 0 0 0 -412278462.26704025 241259945.70747757 0 241259945.70747757 115736448.07717133 0 0 0 0 -91998776.938503265 136245462.95472145 0 136245462.95472145 1321157331.8975906 0 0 0 0 235057368.91576385 -1179706430.5252399 0 -1179706430.5252399 3493440436.2025757 0 0 0 0 354386826.83871841 -703282544.34781837 0 -703282544.34781837 639421477.99626446 0 0 0 0 194181328.83220065 87113195.651232719 0 87113195.651232719 -370572498.29166794 0 0 0 0 162561445.28711128 -481705076.08681488 0 -481705076.08681488 515674209.40237236 0 0 0 0 241805078.23174834 115738784.89175987 0 115738784.89175987 12935706.62015152 0 0 0 0 275972174.59249783 72292421.240098953 0 72292421.240098953 -59970469.522640228 0 0 0 0 280699876.64639091 159629533.62868881 0 159629533.62868881 -93923284.842661858 0 0 0 0 -1855957.5341774845 -594490.39175522653 0 -594490.39175522653 3554229.7875790466 0 0 0 0 381924814.02732897 174686196.23477745 0 174686196.23477745 -43228451.593734741 0 0 0 0 419904.78614384262 9851282.4189786874 0 9851282.4189786874 34607952.535728388 0 0 0 0 -86063377.339234352 40948599.15641737 0 40948599.15641737 19900505.253698349 0 0 0 0 -102333948.53972554 71393341.491960049 0 71393341.491960049 34580324.297676086 0 0 0 0 -40120818.269321442 86456831.659474373 0 86456831.659474373 34606283.267913818 0 0 0 0 -19704458.300952911 242585562.79717827 0 242585562.79717827 -66532055.487319946 0 0 0 0 -51518570.726078033 114563383.91172695 0 114563383.91172695 -33385153.240428925 0 0 0 0 25973.159062126186 3933157.7016620571 0 3933157.7016620571 1327084.6660378426 0 0 0 0 44475753.870382309 17745720.886609077 0 17745720.886609077 -6962671.1803722382 0 0 0 0 141241161.65867424 186416133.80785084 0 186416133.80785084 -60337663.458332062 0 0 0 0 134442168.56719589 98483582.251597404 0 98483582.251597404 -32056820.027347088 0 0 0 0 -73995354.033327818 23366545.99213028 0 23366545.99213028 49056073.141830444 0 0 0 0 2183848.4810893871 12354584.398093183 0 12354584.398093183 36889276.125037417 0 0 0 0 -67834417.038090825 3465387.455745697 0 3465387.455745697 56591283.703048706 0 0 0 0 -50540864.703878164 -8428940.147436142 0 -8428940.147436142 63698994.549713135 0 0 0 0 -42726374.506085396 13349093.228660583 0 13349093.228660583 31432359.015388489 0 0 0 0 -2868748.1770298006 16825865.244919974 0 16825865.244919974 7076834.4291710248 0 0 0 0 397437482.96926117 -268751649.50216484 0 -268751649.50216484 -234516533.72367859 0 0 0 0 -22704703.857664108 81239560.849635601 0 81239560.849635601 34919078.619821548 0 0 0 0 -10520397.078223109 54183239.742305756 0 54183239.742305756 62260427.373184204 0 0 0 0 6175049.5065820208 11876850.242156342 0 11876850.242156342 29650725.716857262 0 0 0 0 -32932838.625007629 38667400.811506271 0 38667400.811506271 -133324827.86638737 0 0 0 0 124793748.81466675 282655596.08600426 0 282655596.08600426 111581704.43282986 0 0 0 0 -3909818.4890233125 13999534.870532811 0 13999534.870532811 13483050.672951676 0 0 0 0 -9902971.9559612274 -2283690.1309509277 0 -2283690.1309509277 38373928.848209381 0 0 0 0 -28289554.445651531 -22910625.538215637 0 -22910625.538215637 51705755.364700317 0 0 0 0 -48633472.10816288 -17812340.518814087 0 -17812340.518814087 51858806.45438385 0 0 0 0 483920331.34806156 361004365.51789093 0 361004365.51789093 76867494.807369232 0 0 0 0 -19030262.005948067 -406033392.27623177 0 -406033392.27623177 -352718724.79033661 0 0 0 0 769221059.58940697 191527439.48461151 0 191527439.48461151 -97743732.914772034 0 0 0 0 705093990.75769997 -53280699.401058197 0 -53280699.401058197 20459618.295074463 0 0 0 0 271346106.79615974 -25029770.536996841 0 -25029770.536996841 155600985.86386871 0 0 0 0 724765740.39342308 -486250060.19273758 0 -486250060.19273758 344737779.95370483 0 0 0 0 993251207.24089622 -188618509.19888306 0 -188618509.19888306 -15723748.803726196 0 0 0 0 256114236.17080116 22543311.032209396 0 22543311.032209396 11443496.489624023 0 0 0 0 615835634.7214241 228584792.78839493 0 228584792.78839493 -39071208.437660217 0 0 0 0 323924769.7370553 113446022.7564497 0 113446022.7564497 -47514136.886940002 0 0 0 0 -137157866.21309566 -133590013.23745489 0 -133590013.23745489 112781959.17609406 0 0 0 0 116367606.88694954 482762585.77509117 0 482762585.77509117 -334127295.56189847 0 0 0 0 -78469968.731618881 -180024094.73669052 0 -180024094.73669052 -32925599.52558136 0 0 0 0 -1152412.3442788045 -277881.72700484004 0 -277881.72700484004 1965108.2409162037 0 0 0 0 245328417.42305565 35974441.912387848 0 35974441.912387848 13762815.591060638 0 0 0 0 -77967909.477054596 68250135.401390076 0 68250135.401390076 45127298.02053833 0 0 0 0 -8444154.7047920227 -40369509.944156647 0 -40369509.944156647 -174964084.20333862 0 0 0 0 3678965.9454555511 -16640317.220874786 0 -16640317.220874786 78328384.264371395 0 0 0 0 71630128.704969406 -174964994.16128922 0 -174964994.16128922 51727615.455432892 0 0 0 0 64348956.821772933 -53915963.211206913 0 -53915963.211206913 55656050.943847656 0 0 0 0 59101528.992263794 -121419431.28172302 0 -121419431.28172302 342069031.45767212 0 0 0 0 -3876312.2810349222 5323600.689285256 0 5323600.689285256 8338214.4113936387 0 0 0 0 148219423.01408386 103654884.55779266 0 103654884.55779266 -144392215.90709686 0 0 0 0 -32983455.273979187 38006435.502510071 0 38006435.502510071 -91060395.390418649 0 0 0 0 218151121.63371181 79880822.206068039 0 79880822.206068039 -19223718.86126709 0 0 0 0 3752879.4218416214 -6919687.6279029846 0 -6919687.6279029846 -128357343.86379242 0 0 0 0 -4815449.7533378601 -62871793.268748283 0 -62871793.268748283 -101897960.97205353 0 0 0 0 235567309.26889229 33013310.29404068 0 33013310.29404068 -137364493.17095184 0 0 0 0 302796508.47286391 -74069250.40997386 0 -74069250.40997386 -215906949.90196228 0 0 0 0 295462429.49547464 92943753.21960938 0 92943753.21960938 -280765808.19761658 0 0 0 0 234081016.67112541 -157007346.83665466 0 -157007346.83665466 -312416417.60752487 0 0 0 0 579843469.88371325 -129068525.46454811 0 -129068525.46454811 -353555101.88941956 0 0 0 0 -104529801.58084488 -207893777.70167542 0 -207893777.70167542 1018240086.871582 0 0 0 0 908214217.8257637 392243488.37384033 0 392243488.37384033 -198224415.18507385 0 0 0 0 33203050.263587952 247392412.4943924 0 247392412.4943924 161363125.39941406 0 0 0 0 55788539.317074776 -235356690.67311859 0 -235356690.67311859 -221205547.89872742 0 0 0 0 321588124.43692303 -250503253.58170319 0 -250503253.58170319 -401777176.08370018 0 0 0 0 217597857.10989285 -131473776.66291809 0 -131473776.66291809 -154885051.6255722 0 0 0 0 55953175.468400955 -103235915.10297012 0 -103235915.10297012 -49883162.886016846 0 0 0 0 130639623.84526181 -140239908.63635254 0 -140239908.63635254 -152819469.11460972 0 0 0 0 187455702.22755265 -54752179.305583954 0 -54752179.305583954 -61570935.085716248 0 0 0 0 106764474.23632562 -66716116.513177872 0 -66716116.513177872 -25686443.810249329 0 0 0 0 113673163.69725037 -85644649.604385376 0 -85644649.604385376 -72286795.495201111 0 0 0 0 79959676.347535014 -70493179.057313442 0 -70493179.057313442 16356647.96219635 0 0 0 0 81453250.736543059 -63170805.059185028 0 -63170805.059185028 29194041.51682663 0 0 0 0 111275110.95040607 -48618598.687269211 0 -48618598.687269211 -14012425.608589172 0 0 0 0 151647275.51680183 -25800773.226467133 0 -25800773.226467133 -1120968.4605026245 0 0 0 0 131830396.0741415 14365439.972183704 0 14365439.972183704 61957206.762031555 0 0 0 0 62267835.102715492 -24185467.217876434 0 -24185467.217876434 43538228.733705521 0 0 0 0 5987762.6109008025 5322292.3767057834 0 5322292.3767057834 11732867.953148194 0 0 0 0 5371878.0488891602 -2742613.1865367889 0 -2742613.1865367889 2727792.7332611084 0 0 0 0 76834887.401990533 -57975309.469210625 0 -57975309.469210625 42461414.013389587 0 0 0 0 55682450.332171798 -34849098.548782349 0 -34849098.548782349 20845590.314804077 0 0 0 0 5909044.9044647217 -38512633.151054382 0 -38512633.151054382 38487821.051352978 0 0 0 0 -643171.49693138665 3500100.0440562423 0 3500100.0440562423 3577251.7960377932 0 0 0 0 -35166855.894824028 -35806158.579681396 0 -35806158.579681396 38399477.044364929 0 0 0 0 -64952538.952125788 -22802951.813220978 0 -22802951.813220978 38882204.540382385 0 0 0 0 5649182.7386498451 -4354343.9248199463 0 -4354343.9248199463 2312508.4289779663 0 0 0 0 -1071451.2647806888 -148658.92989742197 0 -148658.92989742197 25571544.314114381 0 0 0 0 66181316.954261065 281441687.29597855 0 281441687.29597855 130072593.64370728 0 0 0 0 136655880.36062431 -117086965.64851379 0 -117086965.64851379 83610656.004470825 0 0 0 0 372435263.42933941 -347973315.73861694 0 -347973315.73861694 -51859997.358829498 0 0 0 0 357035186.73807335 71658167.391433716 0 71658167.391433716 20616496.761810303 0 0 0 0 62124500.701047897 179107690.05392456 0 179107690.05392456 249191507.36062622 0 0 0 0 -43780356.85032177 44888903.007781982 0 44888903.007781982 310685336.32401657 0 0 0 0 -26054234.618041039 -25900068.582580566 0 -25900068.582580566 3667221.9125976562 0 0 0 0 4367285.0647153854 -290589450.02987671 0 -290589450.02987671 6465795.8858337402 0 0 0 0 -5615948.8564953804 -31849130.574066162 0 -31849130.574066162 -20440668.781402588 0 0 0 0 36647.664072502637 -3910467.6075983122 0 -3910467.6075983122 20752808.725904934 0 0 0 0 -37419986.142151833 -72509912.665740967 0 -72509912.665740967 -91092555.520645142 0 0 0 0 -356029.34872939636 -176595.55080600083 0 -176595.55080600083 550809.02390846983 0 0 0 0 -75046846.430803299 110170713.29394531 0 110170713.29394531 -36238140.226135254 0 0 0 0 18619773.215209961 79584182.235061646 0 79584182.235061646 -33219813.66116333 0 0 0 0 -115143340.88891935 43837228.741523743 0 43837228.741523743 15247879.082427979 0 0 0 0 -51194899.525140762 8401688.3038024902 0 8401688.3038024902 13955093.839385986 0 0 0 0 16592036.006561279 -12571613.964996338 0 -12571613.964996338 -24266603.592300415 0 0 0 0 2187377.2817810774 -4810475.4321374893 0 -4810475.4321374893 2517046.098526001 0 0 0 0 11953524.978587151 -5449148.6241035461 0 -5449148.6241035461 -9897392.8743057251 0 0 0 0 14199592.926416397 19251531.718193054 0 19251531.718193054 40257683.897567749 0 0 0 0 21402084.808941841 6162624.1791954041 0 6162624.1791954041 11791309.292739868 0 0 0 0 28401241.276504397 14622299.797800541 0 14622299.797800541 -1245471.0547714233 0 0 0 0 22673688.999314785 -11838233.829936981 0 -11838233.829936981 -29233389.861618042 0 0 0 0 33660077.401237473 -28888145.68794632 0 -28888145.68794632 -32454361.982070923 0 0 0 0 66920967.648459435 35954416.902359009 0 35954416.902359009 -6820912.0229034424 0 0 0 0 -7043761.1087379456 -14277262.649131775 0 -14277262.649131775 2444944.6867446899 0 0 0 0 3664310.1546810567 -49928983.408821106 0 -49928983.408821106 -107133760.21136475 0 0 0 0 -27358897.263706684 -20256799.233001709 0 -20256799.233001709 -24119046.158096313 0 0 0 0 -37497715.3262918 -72571432.081008911 0 -72571432.081008911 -76084855.546264648 0 0 0 0 -63471362.84318459 -117504515.45223236 0 -117504515.45223236 -110667011.26968384 0 0 0 0 1281197.0982816189 -502041.18219414353 0 -502041.18219414353 -1515347.6721363403 0 0 0 0 7499301.1305571822 5843818.6758266045 0 5843818.6758266045 5034241.6409279145 0 0 0 0 20488376.677657962 -8404988.1659317017 0 -8404988.1659317017 44031899.799846649 0 0 0 0 17267730.18319416 4203280.1886901855 0 4203280.1886901855 1503241.4007940292 0 0 0 0 11207903.710319042 8098148.0248336792 0 8098148.0248336792 8771089.7844161987 0 0 0 0 -492024.75751706026 425136.62158641592 0 425136.62158641592 4093296.9070769213 0 0 0 0 17819352.617210865 16437291.723808289 0 16437291.723808289 13417218.872447968 0 0 0 0 69915006.533345222 -73611982.277366638 0 -73611982.277366638 61131270.346961975 0 0 0 0 3953905.2316228887 4178853.9766165242 0 4178853.9766165242 2582410.7371844798 0 0 0 0 144636664.82067585 146951032.19421387 0 146951032.19421387 129966105.83806229 0 0 0 0 222069156.30011177 285991582.20640564 0 285991582.20640564 236142202.8748188 0 0 0 0 -925156.9581152515 -1543577.1237455383 0 -1543577.1237455383 5172881.3110905439 0 0 0 0 187798954.25939369 -28928111.16337204 0 -28928111.16337204 2366219.0706481934 0 0 0 0 948471467.39065552 310525434.16514587 0 310525434.16514587 353492773.75424194 0 0 0 0 910066505.33969116 414290739.52649689 0 414290739.52649689 103872725.58173752 0 0 0 0 -1170445.6091743917 3269544.3156869309 0 3269544.3156869309 2157154.7580960691 0 0 0 0 408060900.81692696 263373678.03935814 0 263373678.03935814 186082769.47687531 0 0 0 0 234916829.21824265 -84495436.607487679 0 -84495436.607487679 518001103.19511414 0 0 0 0 -802069.35889490414 -1025274.2847070619 0 -1025274.2847070619 2273156.6136027128 0 0 0 0 34297141.327937126 -155587442.47837639 0 -155587442.47837639 327319578.14184761 0 0 0 0 33863085.662413597 -26215212.021875381 0 -26215212.021875381 52317272.353916168 0 0 0 0 31417932.379018068 -33725521.316918373 0 -33725521.316918373 39974860.523704529 0 0 0 0 44454348.792552948 -63080797.437595367 0 -63080797.437595367 101163746.94171906 0 0 0 0 101101324.64707088 -99890660.733135223 0 -99890660.733135223 51500138.158340454 0 0 0 0 130103016.54679489 -46413131.457891464 0 -46413131.457891464 -1197717.3346862793 0 0 0 0 375216521.0870018 -218846928.10148621 0 -218846928.10148621 4909590.0826568604 0 0 0 0 442743502.7376523 -57356181.619555473 0 -57356181.619555473 -139855505.57611847 0 0 0 0 255624248.07654715 76474183.366178036 0 76474183.366178036 -172393937.95976257 0 0 0 0 206340168.9336586 -91778120.372802734 0 -91778120.372802734 -20982634.570845604 0 0 0 0 88491076.832561493 104414826.60501289 0 104414826.60501289 59088791.024499416 0 0 0 0 169399349.41561127 117505987.82488251 0 117505987.82488251 -36728768.277851105 0 0 0 0 81236481.418245852 -12395360.311833262 0 -12395360.311833262 4725723.0857086182 0 0 0 0 65359546.602277756 -82354254.072025299 0 -82354254.072025299 7492257.4271125793 0 0 0 0 83256871.704014778 -48198006.705032349 0 -48198006.705032349 8523272.6591453552 0 0 0 0 -9263287.5851883888 -81620853.790141106 0 -81620853.790141106 -3485738.6135635376 0 0 0 0 58762891.307267666 -26698743.491378784 0 -26698743.491378784 993699.3138885498 0 0 0 0 580403425.05517673 655727177.70503068 0 655727177.70503068 574691905.25505447 0 0 0 0 89754340.684566498 -165013454.63901711 0 -165013454.63901711 1010407780.7626657 0 0 0 0 -284046435.51250744 260855328.85100651 0 260855328.85100651 1094332660.2643108 0 0 0 0 -1974278.043482451 5155615.9943804992 0 5155615.9943804992 4029083.6041606516 0 0 0 0 326386566.75452423 518266712.39920044 0 518266712.39920044 -52566743.242645264 0 0 0 0 4106802.2263868526 723859.48895197362 0 723859.48895197362 347578.74203383178 0 0 0 0 325842514.09735012 505695477.76226437 0 505695477.76226437 -322276143.8008194 0 0 0 0 -385625579.41231918 189773856.37096786 0 189773856.37096786 170200769.1747818 0 0 0 0 354107342.81683093 229619967.94035792 0 229619967.94035792 -405718135.63727951 0 0 0 0 830869444.43556595 588048163.16164541 0 588048163.16164541 50193105.869178772 0 0 0 0 353866514.55821228 234723382.71936417 0 234723382.71936417 -118336825.73308563 0 0 0 0 87503934.266324997 261705327.65966797 0 261705327.65966797 462580483.64757538 0 0 0 0 221994045.28848267 140812918.75170517 0 140812918.75170517 472256891.52176666 0 0 0 0 30562822.738998413 69661680.565376282 0 69661680.565376282 69017568.624687195 0 0 0 0 -216664556.63810539 168722939.95037746 0 168722939.95037746 280817881.35184479 0 0 0 0 44481538.164510727 -106751377.64893723 0 -106751377.64893723 166562431.49563217 0 0 0 0 -192463836.59127808 169736947.4065094 0 169736947.4065094 -109199893.41687584 0 0 0 0 6517623.3841485623 155786.57686643302 0 155786.57686643302 6962934.7655045353 0 0 0 0 -426469833.22165298 472706579.57362938 0 472706579.57362938 -66601171.261359215 0 0 0 0 -8226163.9660379086 -6259193.6246215403 0 -6259193.6246215403 34252833.79565867 0 0 0 0 -26785693.155181885 -77464256.9575634 0 -77464256.9575634 63670772.112616062 0 0 0 0 -98426716.240796566 -158038695.26876068 0 -158038695.26876068 -49040580.170307159 0 0 0 0 -339044860.60955048 -191651826.47872925 0 -191651826.47872925 -44052044.069725037 0 0 0 0 -11467687.469267573 -10965226.14859488 0 -10965226.14859488 86588075.003425255 0 0 0 0 -80086949.934143066 -74464612.143425941 0 -74464612.143425941 110376555.39380646 0 0 0 0 -20307745.623085022 -28157813.446792603 0 -28157813.446792603 73393535.208561182 0 0 0 0 -94177617.644073486 -1225799.8146839142 0 -1225799.8146839142 151880521.76065254 0 0 0 0 -114492739.48419189 37030065.727601051 0 37030065.727601051 119969718.39395332 0 0 0 0 -81955592.254945755 59527408.637273788 0 59527408.637273788 65177351.498470306 0 0 0 0 -8954088.3834906761 1537991.6055971663 0 1537991.6055971663 23115998.263650812 0 0 0 0 -80127864.287100792 -41233822.629009247 0 -41233822.629009247 263672281.65928268 0 0 0 0 -31020259.331199646 89045247.641741753 0 89045247.641741753 161299952.70369339 0 0 0 0 -31535579.397094727 108544234.90212917 0 108544234.90212917 488542257.96189785 0 0 0 0 27956234.664518356 -18985215.20638752 0 -18985215.20638752 162564712.86710739 0 0 0 0 87138210.935417175 -114110570.56130981 0 -114110570.56130981 290286943.61821651 0 0 0 0 -21605577.351453781 16581054.66129303 0 16581054.66129303 30084600.005252838 0 0 0 0 -4449404.6805690452 -11946202.44869579 0 -11946202.44869579 3091281.3508145884 0 0 0 0 111711385.17278481 -8499704.6645050049 0 -8499704.6645050049 -48839184.971374512 0 0 0 0 -30847103.732980013 -70877949.526926041 0 -70877949.526926041 203285603.11029053 0 0 0 0 -21322547.082282066 -18361124.187683105 0 -18361124.187683105 135515960.37289429 0 0 0 0 32294514.672328383 -143454700.52207327 0 -143454700.52207327 240074377.79293823 0 0 0 0 -40953188.164787292 -61293989.80305481 0 -61293989.80305481 327585212.22605896 0 0 0 0 -53805365.374836445 -70574038.280952454 0 -70574038.280952454 389007835.86541748 0 0 0 0 -41432800.547926903 -20165917.327438354 0 -20165917.327438354 227248861.54332733 0 0 0 0 10160962.163040638 14010118.950820923 0 14010118.950820923 195805439.43040466 0 0 0 0 -52007893.840495586 -23369329.466293335 0 -23369329.466293335 297610835.74346924 0 0 0 0 14886800.724584103 -66122043.149047852 0 -66122043.149047852 48886034.932266235 0 0 0 0 11201956.976605892 -33271058.961891174 0 -33271058.961891174 30793398.788684845 0 0 0 0 -6671117.6983907819 -14039540.592383422 0 -14039540.592383422 9536838.2125536911 0 0 0 0 7728802.9335002899 -59750727.753036499 0 -59750727.753036499 30745008.829528809 0 0 0 0 -16394962.318425179 -31898363.347915649 0 -31898363.347915649 72389774.223922729 0 0 0 0 8583063.5233321637 -25305718.301767588 0 -25305718.301767588 57631874.37902832 0 0 0 0 42507999.673523903 106970474.60132599 0 106970474.60132599 228801606.67391968 0 0 0 0 21439851.545257092 22326100.498275757 0 22326100.498275757 -15677582.152267456 0 0 0 0 -64832828.559824467 -42737493.199699402 0 -42737493.199699402 71385420.272468567 0 0 0 0 -18356636.086273849 -50179308.872491837 0 -50179308.872491837 19305146.452285767 0 0 0 0 -56758575.32141304 18477838.529693604 0 18477838.529693604 82216382.101589203 0 0 0 0 -11857983.221571708 -13789209.09166229 0 -13789209.09166229 78584755.770439833 0 0 0 0 -57878630.190702438 -92280058.105323792 0 -92280058.105323792 19297766.18120078 0 0 0 0 -36280823.456615448 -68031239.302358627 0 -68031239.302358627 45583955.969051361 0 0 0 0 -22939507.514312744 -31123534.961210251 0 -31123534.961210251 122062929.14096832 0 0 0 0 -7641674.1399500743 -9379433.8974715434 0 -9379433.8974715434 51355937.584287077 0 0 0 0 15280047.455646515 10498728.268241882 0 10498728.268241882 47973772.468811035 0 0 0 0 3427411.3444099426 -15567328.213634491 0 -15567328.213634491 71395911.911518097 0 0 0 0 -19690505.591036208 -11480048.781646401 0 -11480048.781646401 34556880.841836363 0 0 0 0 -33601432.865514994 -53909861.475204468 0 -53909861.475204468 36947273.638061523 0 0 0 0 1031513.8299446106 261375.59595108032 0 261375.59595108032 40912752.629585266 0 0 0 0 -15789200.538608551 -25101209.057220459 0 -25101209.057220459 83290134.426673889 0 0 0 0 -27602870.696065903 -2179339.4012756348 0 -2179339.4012756348 57355902.112510681 0 0 0 0 -28660650.668963432 38661281.243904114 0 38661281.243904114 30995510.95148468 0 0 0 0 521785.49822350487 5211328.8629009882 0 5211328.8629009882 12474107.960155226 0 0 0 0 -114155916.61302003 29254107.220398426 0 29254107.220398426 1479468.9053649902 0 0 0 0 -28979535.733859211 26186235.993208289 0 26186235.993208289 13577151.180282593 0 0 0 0 -114574349.29843807 36381480.726394653 0 36381480.726394653 -7303718.7957763672 0 0 0 0 -36399802.029760361 -12102546.628425598 0 -12102546.628425598 43259298.071388245 0 0 0 0 -1455796.0549106598 -9100437.1270179749 0 -9100437.1270179749 29091249.024749756 0 0 0 0 -54357880.186534882 11453312.996425629 0 11453312.996425629 46512143.003417969 0 0 0 0 17442412.041348934 46758189.679580688 0 46758189.679580688 18454851.675933838 0 0 0 0 -93441394.060382843 189202530.58947754 0 189202530.58947754 131548319.18620682 0 0 0 0 -18158398.175748825 19956869.853038788 0 19956869.853038788 36153657.383758545 0 0 0 0 -3008620.268533322 -5924322.7789515089 0 -5924322.7789515089 3628654.8077566922 0 0 0 0 70949939.396905899 -61422426.230773926 0 -61422426.230773926 -8285728.3636779785 0 0 0 0 -110402675.31486702 -198150608.56113434 0 -198150608.56113434 43543900.036119461 0 0 0 0 -6355597.2335508717 -3424137.662408506 0 -3424137.662408506 33652528.152318016 0 0 0 0 -23462939.695238113 37513.888977050781 0 37513.888977050781 4850469.717956543 0 0 0 0 -3119578.3119231025 -2007187.3713481668 0 -2007187.3713481668 18161909.093597248 0 0 0 0 -23315856.966884613 -347408.61953735352 0 -347408.61953735352 5604568.4072265625 0 0 0 0 -3392645.0500510773 8166042.5846994147 0 8166042.5846994147 28288031.917638898 0 0 0 0 -146620.45680510951 37327.301952549256 0 37327.301952549256 15738637.481229238 0 0 0 0 -3647116.3999784901 -8244771.0905858539 0 -8244771.0905858539 9129796.7620912194 0 0 0 0 22491795.085639954 30058160.545532227 0 30058160.545532227 -4945870.590637207 0 0 0 0 -2225146.3735347325 2898353.8805306535 0 2898353.8805306535 5119376.9679756761 0 0 0 0 -40775661.87739706 19168809.929436684 0 19168809.929436684 43901876.932121277 0 0 0 0 -34345517.654651642 26919538.77016449 0 26919538.77016449 28374896.46711731 0 0 0 0 -13383666.301827431 -6370749.2469291687 0 -6370749.2469291687 59171128.328308105 0 0 0 0 -66877338.132647514 -9257959.0711479187 0 -9257959.0711479187 39063998.463562012 0 0 0 0 -41873769.832793236 20537793.761013031 0 20537793.761013031 73118694.579925537 0 0 0 0 -38728391.482639313 -57566383.132476807 0 -57566383.132476807 54537639.945861816 0 0 0 0 -9824722.4386963844 -3241852.6068146117 0 -3241852.6068146117 49643692.525998503 0 0 0 0 83491579.63973999 -116776496.46807098 0 -116776496.46807098 51807812.848424435 0 0 0 0 -89738472.881835938 -124768358.40704155 0 -124768358.40704155 78493586.254500389 0 0 0 0 -15908081.217214584 33114025.041309118 0 33114025.041309118 40298046.380947113 0 0 0 0 17625237.694122314 10299140.740128517 0 10299140.740128517 -6019233.3652458191 0 0 0 0 87155122.705051422 167232473.64284515 0 167232473.64284515 162287478.02987289 0 0 0 0 211260991.64800262 31109174.000219345 0 31109174.000219345 16985549.845913887 0 0 0 0 2723000.4645654783 -59335.339804980904 0 -59335.339804980904 -1782358.683212663 0 0 0 0 32801580.260520935 -8824946.0824287236 0 -8824946.0824287236 8633670.1557058245 0 0 0 0 222726907.85462856 -6815759.8471160531 0 -6815759.8471160531 -2821920.5161085129 0 0 0 0 25202458.293525696 76886020.634003162 0 76886020.634003162 46016882.782019615 0 0 0 0 27267255.455734253 68671503.50865376 0 68671503.50865376 44786073.286569551 0 0 0 0 -64712534.251861572 92067269.712193966 0 92067269.712193966 254553645.07183027 0 0 0 0 144866547.6198349 175816750.50680387 0 175816750.50680387 119582660.56694984 0 0 0 0 -65775227.660663605 -48660304.007705688 0 -48660304.007705688 54631715.498443604 0 0 0 0 -9601190.4736392833 2627994.1400166489 0 2627994.1400166489 46273690.263231687 0 0 0 0 -121328833.22953606 -15445728.644866705 0 -15445728.644866705 133992049.48507977 0 0 0 0 7180145.8379669189 66263710.527376175 0 66263710.527376175 63227261.984431505 0 0 0 0 17571717.953609467 85071692.969148874 0 85071692.969148874 80904821.302243233 0 0 0 0 -50911304.920479774 -20604443.377075195 0 -20604443.377075195 461737.30688476562 0 0 0 0 -8460332.5304069761 11256240.887727344 0 11256240.887727344 45253965.48566702 0 0 0 0 -47802083.007253647 -19031026.271408081 0 -19031026.271408081 -1068639.0287628174 0 0 0 0 1653135.2247619629 58372455.495041251 0 58372455.495041251 59007940.695251226 0 0 0 0 -49922061.710903168 -17082487.445121765 0 -17082487.445121765 -2848168.7129821777 0 0 0 0 -79254052.197349191 3802252.1351623535 0 3802252.1351623535 114327832.79087067 0 0 0 0 -45352950.361586571 -45119832.475616455 0 -45119832.475616455 55475602.692565918 0 0 0 0 -4111462.6792023773 -6830126.5214440124 0 -6830126.5214440124 29753709.755058691 0 0 0 0 -40738374.350780487 -22024478.518165588 0 -22024478.518165588 -4605448.6627559662 0 0 0 0 -1977905.637855263 -6135855.3696308918 0 -6135855.3696308918 2564922.2337342873 0 0 0 0 47618538.520534515 153772916.65740728 0 153772916.65740728 113973630.03454208 0 0 0 0 167404807.39141536 113141187.16125399 0 113141187.16125399 26776421.16443634 0 0 0 0 28463380.013851166 123753906.05385971 0 123753906.05385971 145088830.82135034 0 0 0 0 233393923.83443832 237463088.26705384 0 237463088.26705384 183067687.7567215 0 0 0 0 -77914110.52766037 126709151.69173098 0 126709151.69173098 214893533.99298429 0 0 0 0 -74098878.120166779 81491220.958971024 0 81491220.958971024 117056566.97788525 0 0 0 0 20774196.418479919 46184185.387208939 0 46184185.387208939 104049389.96137142 0 0 0 0 -24823023.874912262 72911974.008651972 0 72911974.008651972 82294438.283856392 0 0 0 0 -63541581.708236694 78449760.33378315 0 78449760.33378315 243979247.18071365 0 0 0 0 -18687914.003234863 54755078.269167662 0 54755078.269167662 658612.45590496063 0 0 0 0 5782082.284848392 -14914.414979340509 0 -14914.414979340509 -3085478.6460315324 0 0 0 0 -16853194.609073639 85329442.454219341 0 85329442.454219341 -13436746.388170719 0 0 0 0 -4625939.1327552795 36087969.733038664 0 36087969.733038664 -67444362.795180559 0 0 0 0 52752017.416511536 100849968.36179829 0 100849968.36179829 -12936082.606040001 0 0 0 0 55113010.833629608 46377551.216298103 0 46377551.216298103 -81682121.848203659 0 0 0 0 50308938.775453091 131330803.50161004 0 131330803.50161004 23976189.18655014 0 0 0 0 63686681.039110184 48103267.650520802 0 48103267.650520802 -88721958.67528367 0 0 0 0 21346176.722064972 -12765184.080271028 0 -12765184.080271028 -135020851.88336968 0 0 0 0 1550595.0774093531 -3748398.8048523958 0 -3748398.8048523958 6852252.1611400275 0 0 0 0 8009506.3654966354 2235233.0534396172 0 2235233.0534396172 16142719.282149792 0 0 0 0 -1641599.6869487762 3902272.7934088707 0 3902272.7934088707 21397120.526094675 0 0 0 0 12104963.512229919 -3924131.8528892696 0 -3924131.8528892696 15854498.370713435 0 0 0 0 9237114.6225156784 2925397.7120715231 0 2925397.7120715231 17960047.675490379 0 0 0 0 19503856.697874069 3802987.8972664308 0 3802987.8972664308 13507887.498381108 0 0 0 0 18361503.478858948 7765857.2714495659 0 7765857.2714495659 16660892.972941399 0 0 0 0 8202350.2744522095 5387139.7035870552 0 5387139.7035870552 41311179.2454319 0 0 0 0 236131.84366532601 -145331.85766998446 0 -145331.85766998446 31005.766098442953 0 0 0 0 16565916.290079117 31403513.211761594 0 31403513.211761594 -68837517.797109604 0 0 0 0 8233569.181857245 -240704.54486810043 0 -240704.54486810043 -3628873.9365817127 0 0 0 0 15027359.069274902 -7586627.6882762909 0 -7586627.6882762909 1523171.532640487 0 0 0 0 29678155.641273499 -2886371.6517509073 0 -2886371.6517509073 214001.05644577742 0 0 0 0 18720320.217950821 -545470.63471722603 0 -545470.63471722603 -9669306.6859760284 0 0 0 0 26431602.068073273 -5996491.6374366283 0 -5996491.6374366283 -6485230.5769743919 0 0 0 0 14118855.614227295 -2662287.2959804535 0 -2662287.2959804535 -682055.60729789734 0 0 0 0 10613932.056785583 -1194512.6372132301 0 -1194512.6372132301 568757.45612239838 0 0 0 0 13008151.119029999 -191826.34180355072 0 -191826.34180355072 551005.93763802946 0 0 0 0 10620148.332923889 -3946596.0861515999 0 -3946596.0861515999 -865625.37434577942 0 0 0 0 12788919.101826308 2206784.4846724025 0 2206784.4846724025 1880893.201329743 0 0 0 0 5401308.6233520508 7732775.6036520004 0 7732775.6036520004 11119034.815758705 0 0 0 0 52030997.89511776 -50823426.990203857 0 -50823426.990203857 52924586.855649948 0 0 0 0 19699671.12638855 27323517.612771988 0 27323517.612771988 32840004.006778717 0 0 0 0 19681388.848594643 2954040.1869208063 0 2954040.1869208063 8531273.7257072404 0 0 0 0 2845804.9835726614 1831930.649573856 0 1831930.649573856 131420.42295905575 0 0 0 0 30093898.957856178 -44525328.205766678 0 -44525328.205766678 137400890.72938538 0 0 0 0 16455457.979743004 -25492145.746631622 0 -25492145.746631622 156674134.59369659 0 0 0 0 23663048.449212193 -9235469.2843024731 0 -9235469.2843024731 38175824.79598999 0 0 0 0 17466816.646757603 -77984391.2289114 0 -77984391.2289114 154248199.79033279 0 0 0 0 68852518.119915009 -5582516.9572143555 0 -5582516.9572143555 9514623.3861227036 0 0 0 0 9391115.3403838128 2883374.707784873 0 2883374.707784873 2472175.842819361 0 0 0 0 658633.85864025098 818181.88651696965 0 818181.88651696965 1213383.6792263724 0 0 0 0 52410829.652536035 111108437.56704021 0 111108437.56704021 366156596.03101921 0 0 0 0 8802335.3578629866 1866480.9833159468 0 1866480.9833159468 -1634602.0124269864 0 0 0 0 3650888.4318809509 -170794.37190556899 0 -170794.37190556899 12728209.621481635 0 0 0 0 3367380.3216278553 1993295.9696001951 0 1993295.9696001951 11257753.752378814 0 0 0 0 -3283851.2878539553 4510202.5742425639 0 4510202.5742425639 4347318.6328274049 0 0 0 0 6021037.2677879333 -2811737.6599868461 0 -2811737.6599868461 15665568.187614799 0 0 0 0 8375320.8673658371 5224162.2408266068 0 5224162.2408266068 9511185.7709488869 0 0 0 0 6613033.5769732259 953742.35822212603 0 953742.35822212603 9724772.7490870617 0 0 0 0 7336552.9466629028 6381761.4814531803 0 6381761.4814531803 11928158.961513042 0 0 0 0 14396287.109695435 1152738.2517130375 0 1152738.2517130375 12244436.667860627 0 0 0 0 11386424.612922668 4395878.273910284 0 4395878.273910284 15110574.989722967 0 0 0 0 12029481.231637955 7299403.0728521943 0 7299403.0728521943 10275361.345920324 0 0 0 0 5216093.7972145081 4578403.3826522827 0 4578403.3826522827 9806438.4533623457 0 0 0 0 6877490.8720731735 9070330.406524837 0 9070330.406524837 -3421976.1398205757 0 0 0 0 9876450.5076751709 1899900.578234911 0 1899900.578234911 4134619.7762641907 0 0 0 0 10074223.881946564 -33998548.410085678 0 -33998548.410085678 18841308.462952733 0 0 0 0 8320391.0162364021 -1775500.163642643 0 -1775500.163642643 22850239.461494315 0 0 0 0 4635380.6152527332 -18469808.03445375 0 -18469808.03445375 22827320.45822525 0 0 0 0 10647640.586395264 -27321316.248130798 0 -27321316.248130798 26674359.961392879 0 0 0 0 6538674.8117427826 -32988940.106040955 0 -32988940.106040955 25826541.232369423 0 0 0 0 -3441628.4244098663 1357949.5350437164 0 1357949.5350437164 10007207.699745178 0 0 0 0 22012354.308685303 39028396.608272314 0 39028396.608272314 69160799.638443708 0 0 0 0 22793466.465780981 16522551.315950502 0 16522551.315950502 31202611.030292537 0 0 0 0 -44809667.487016678 -27430434.440765381 0 -27430434.440765381 6507168.2442321777 0 0 0 0 3784540.9420166016 57478874.466096282 0 57478874.466096282 36782327.121678591 0 0 0 0 12199636.892349243 62916842.409295321 0 62916842.409295321 25416782.171306133 0 0 0 0 27705354.845527649 68542687.197315991 0 68542687.197315991 40763851.812724948 0 0 0 0 20805730.117520031 11616065.920439763 0 11616065.920439763 28161247.791936569 0 0 0 0 13988965.86254406 -21129707.962735176 0 -21129707.962735176 31635466.110187531 0 0 0 0 26710495.536193848 -14057665.370594025 0 -14057665.370594025 -20582518.337787628 0 0 0 0 23120710.479771309 5416615.4225525856 0 5416615.4225525856 13683088.78744055 0 0 0 0 55901838.929988861 36413150.682792664 0 36413150.682792664 -27601569.79159832 0 0 0 0 49157116.465118408 26099963.464639664 0 26099963.464639664 -2045216.7603197098 0 0 0 0 27322096.324630737 25570438.456366062 0 25570438.456366062 -12458592.954953671 0 0 0 0 88310283.847831368 64188461.296202563 0 64188461.296202563 11560719.120781422 0 0 0 0 89542950.140755057 5886110.7501505883 0 5886110.7501505883 -7490895.3069805503 0 0 0 0 16848338.135051727 12428187.24957943 0 12428187.24957943 -7908973.4439308643 0 0 0 0 34353305.762995243 9869251.2297639847 0 9869251.2297639847 76174537.503824234 0 0 0 0 5047898.7022908926 -32984988.703074098 0 -32984988.703074098 58939312.567070007 0 0 0 0 -23732506.375169754 17624985.889829636 0 17624985.889829636 147589922.25855255 0 0 0 0 -3294987.3615159988 10263749.352399826 0 10263749.352399826 149753986.93914223 0 0 0 0 52723988.597289085 41455058.801750183 0 41455058.801750183 125003981.20696902 0 0 0 0 -15687199.881402969 30791683.194953918 0 30791683.194953918 217584065.23152924 0 0 0 0 51577064.90272522 27161569.541669846 0 27161569.541669846 122163274.27399874 0 0 0 0 108582064.67387009 104608660.78866863 0 104608660.78866863 227281157.68920898 0 0 0 0 39429576.921152115 -3942981.8329124451 0 -3942981.8329124451 43093579.179798126 0 0 0 0 27182937.60467577 -39728372.270159245 0 -39728372.270159245 50105957.111587524 0 0 0 0 27251785.352497101 -27275095.681808472 0 -27275095.681808472 21410793.942878723 0 0 0 0 49573885.330070496 -21727197.962639809 0 -21727197.962639809 63036632.53887558 0 0 0 0 72249593.97552824 -28394501.940939665 0 -28394501.940939665 58296358.47662735 0 0 0 0 42025162.034366608 -26391556.66992569 0 -26391556.66992569 99819431.820224762 0 0 0 0 160914291.07776928 -8207247.2517910004 0 -8207247.2517910004 101145780.31021428 0 0 0 0 32982049.233277321 -7433359.6140136719 0 -7433359.6140136719 96496208.758654594 0 0 0 0 10663137.840356827 -31530179.298189163 0 -31530179.298189163 110783273.48264313 0 0 0 0 6064887.6467094421 -12856149.429170609 0 -12856149.429170609 95047734.981773376 0 0 0 0 8921277.5029335022 -39896528.44137764 0 -39896528.44137764 72751824.496988297 0 0 0 0 3809070.9246015549 -38632919.7177248 0 -38632919.7177248 75158114.980895996 0 0 0 0 3863080.7844963074 -44604195.077335358 0 -44604195.077335358 71824609.266090393 0 0 0 0 28946580.895401001 -50692473.442394257 0 -50692473.442394257 76260387.903709412 0 0 0 0 12280932.804822922 -30838644.420988083 0 -30838644.420988083 54415863.589157104 0 0 0 0 15091632.738089561 -39994980.774105072 0 -39994980.774105072 48405281.136390686 0 0 0 0 7619696.8282279968 -33358271.513557434 0 -33358271.513557434 52179095.172584534 0 0 0 0 71111871.9018116 41052442.382659912 0 41052442.382659912 16465056.357276917 0 0 0 0 66894704.979392052 25503393.737595558 0 25503393.737595558 -25108302.176958084 0 0 0 0 73327694.726408958 44182476.097156525 0 44182476.097156525 18819148.426404953 0 0 0 0 10879598.730558872 25600463.057788849 0 25600463.057788849 128406871.97657394 0 0 0 0 19297675.208475113 -20342092.062103271 0 -20342092.062103271 91778132.540313721 0 0 0 0 39898781.140370607 -40288862.604344368 0 -40288862.604344368 205867049.03419495 0 0 0 0 123182664.28640175 126544427.8547039 0 126544427.8547039 145590788.71940899 0 0 0 0 59251041.324564457 52717243.269238472 0 52717243.269238472 18757392.162162781 0 0 0 0 68004614.962193489 36689297.119064331 0 36689297.119064331 39166187.869937897 0 0 0 0 -3048392.5842723846 -7139186.3686561584 0 -7139186.3686561584 -14029146.354074478 0 0 0 0 -29154.152916672523 423949.10632685106 0 423949.10632685106 398561.22231795639 0 0 0 0 11865396.413081169 -17732316.234489441 0 -17732316.234489441 13857892.500725746 0 0 0 0 127318772.17735058 27268537.100542784 0 27268537.100542784 -13286472.795829773 0 0 0 0 446457.30632981844 91384.43420833163 0 91384.43420833163 -179117.80384602398 0 0 0 0 656915.57514095306 -43759707.841381073 0 -43759707.841381073 308252841.23986244 0 0 0 0 -521345.96230363846 -57441942.324679375 0 -57441942.324679375 150357575.88599396 0 0 0 0 -24197172.957766771 -527761.33382701874 0 -527761.33382701874 144514086.33248901 0 0 0 0 -1680546.478843689 -13159896.104278564 0 -13159896.104278564 54739316.034641266 0 0 0 0 -27403533.355370998 -20064967.26350975 0 -20064967.26350975 149431064.62493515 0 0 0 0 906376.23323351052 328365.75444700476 0 328365.75444700476 197900.52297491487 0 0 0 0 -55031811.643369675 -12597556.290431976 0 -12597556.290431976 93440711.51996994 0 0 0 0 -24389361.739864349 26362607.074258804 0 26362607.074258804 56658132.192024589 0 0 0 0 26515615.273440361 -16235541.839084148 0 -16235541.839084148 -12194681.257965088 0 0 0 0 23403881.650032997 -45411640.316302299 0 -45411640.316302299 15799520.779748917 0 0 0 0 -101358.91729605733 368576.52284655301 0 368576.52284655301 787861.28171099722 0 0 0 0 -42996975.278748035 -16334927.155053139 0 -16334927.155053139 9505640.1257066727 0 0 0 0 71702537.138934135 49598215.169949532 0 49598215.169949532 4297027.2722816467 0 0 0 0 -3048665.6683073044 11068119.838784218 0 11068119.838784218 11045848.449540138 0 0 0 0 75630547.422051668 73762973.082399845 0 73762973.082399845 53894814.49955368 0 0 0 0 153317297.89406013 -16502927.614264488 0 -16502927.614264488 22798917.643008232 0 0 0 0 181351467.75422889 126163306.99907905 0 126163306.99907905 132548571.12340546 0 0 0 0 153638175.57895947 123318717.00062466 0 123318717.00062466 142966698.83174133 0 0 0 0 147149706.06223097 158661990.5282644 0 158661990.5282644 240505742.54347038 0 0 0 0 31570882.298894405 43395662.926544666 0 43395662.926544666 279340168.52698517 0 0 0 0 108611586.349226 42248696.128236771 0 42248696.128236771 163519925.9713974 0 0 0 0 108281973.36420441 32954975.670572281 0 32954975.670572281 237067286.84326172 0 0 0 0 76052142.556202888 -927427.28315448761 0 -927427.28315448761 115891481.37614441 0 0 0 0 28924264.120559692 -7970692.812297821 0 -7970692.812297821 206904065.93931389 0 0 0 0 -192981.95253944397 -44193015.734226227 0 -44193015.734226227 171560632.64743805 0 0 0 0 -4942150.1175887585 -30427431.000738621 0 -30427431.000738621 131733600.20018768 0 0 0 0 -16130296.620710373 -36637554.536136627 0 -36637554.536136627 128286596.71919632 0 0 0 0 -2812038.1289901733 -7439279.3155384064 0 -7439279.3155384064 93821824.359607697 0 0 0 0 3746049.0663170815 -28788585.829327583 0 -28788585.829327583 23933097.968063354 0 0 0 0 16945310.956181526 12326326.222106934 0 12326326.222106934 81332987.67375946 0 0 0 0 187170239.64301014 54371040.825469017 0 54371040.825469017 45699090.001763344 0 0 0 0 16114933.694743156 -15234064.127532959 0 -15234064.127532959 114923979.85812569 0 0 0 0 335436319.50977945 100813676.0748291 0 100813676.0748291 -40889707.949443817 0 0 0 0 31345262.450150132 -30953390.652867317 0 -30953390.652867317 3929886.0667057037 0 0 0 0 -15667439.732084274 78962191.565618515 0 78962191.565618515 2970555.5584206581 0 0 0 0 976130.74998435611 359108.31416632142 0 359108.31416632142 27891.995798546821 0 0 0 0 2866435.5097101927 24867500.580360889 0 24867500.580360889 -20798215.6068573 0 0 0 0 87367878.387712002 19635981.323246002 0 19635981.323246002 -23482524.870812416 0 0 0 0 24823093.454082727 34773626.668699265 0 34773626.668699265 98897873.188488007 0 0 0 0 497847.07672549924 166305.56518639345 0 166305.56518639345 -42320.932077527046 0 0 0 0 93017353.513109684 250589824.69537258 0 250589824.69537258 247634590.12597275 0 0 0 0 248924854.26259744 253492770.94916916 0 253492770.94916916 193656584.28089333 0 0 0 0 187872811.90918732 173341818.92353439 0 173341818.92353439 95354782.560998917 0 0 0 0 189109857.24760064 155323149.01593339 0 155323149.01593339 74571413.61706543 0 0 0 0 188818711.32170153 127516134.81122017 0 127516134.81122017 120638777.07555771 0 0 0 0 94582617.345418692 2392105.0703492165 0 2392105.0703492165 6492616.7981300354 0 0 0 0 293961.20210607804 105699.05448702537 0 105699.05448702537 -201970.82372031733 0 0 0 0 65418293.263159513 40690861.213798046 0 40690861.213798046 22185134.958251953 0 0 0 0 301763112.47156906 -7485108.5455303192 0 -7485108.5455303192 -211511996.29652786 0 0 0 0 341263293.19366932 -74162858.087350845 0 -74162858.087350845 -170097951.85046768 0 0 0 0 378942588.8514924 153101086.27672291 0 153101086.27672291 9918015.2431605756 0 0 0 0 260282470.52007508 239538298.42725658 0 239538298.42725658 161809642.17583179 0 0 0 0 -55865073.538087368 16213250.113330841 0 16213250.113330841 29598271.637693405 0 0 0 0 -56297974.405735016 19823315.476203918 0 19823315.476203918 50440167.495098114 0 0 0 0 17659402.525837421 -94881950.433319092 0 -94881950.433319092 71028013.836595297 0 0 0 0 -145978435.93013 -58339536.586811066 0 -58339536.586811066 81639181.024076462 0 0 0 0 -76134817.126575947 -32568099.343763351 0 -32568099.343763351 11375213.325809479 0 0 0 0 -34426051.543726563 28126849.941163063 0 28126849.941163063 36217772.515607834 0 0 0 0 -3641969.1238564868 4591636.8659983119 0 4591636.8659983119 29523861.386674404 0 0 0 0 -113675249.74622661 95117572.010906696 0 95117572.010906696 -7784679.6811676025 0 0 0 0 1913714.2163289357 -11224703.733144097 0 -11224703.733144097 7480830.6460562143 0 0 0 0 -3608667.0281529557 6624752.1307589831 0 6624752.1307589831 6905833.6864129789 0 0 0 0 284152.77463006973 -2426834.4882060289 0 -2426834.4882060289 1394276.8310241699 0 0 0 0 -200087566.70131111 71793960.099082947 0 71793960.099082947 14474519.805987358 0 0 0 0 1679566.7856142856 -2931695.1207368411 0 -2931695.1207368411 10309810.418538973 0 0 0 0 11488308.148361683 -3987643.4191884995 0 -3987643.4191884995 21872141.064971924 0 0 0 0 -272626489.64936209 -756631535.21094322 0 -756631535.21094322 -294606072.11316299 0 0 0 0 -477320350.35027647 -58949501.584373474 0 -58949501.584373474 14426369.064032555 0 0 0 0 -275019000.61443424 -421421461.09203482 0 -421421461.09203482 -365507081.17578888 0 0 0 0 -503819008.55235326 98485202.540915489 0 98485202.540915489 -37107862.771427155 0 0 0 0 685489295.17429256 -86478876.673778534 0 -86478876.673778534 -745688541.42739105 0 0 0 0 -174582268.19109261 -26902736.337049723 0 -26902736.337049723 22794920.350976944 0 0 0 0 -12969227.855999231 591622005.15767574 0 591622005.15767574 1703994113.0402107 0 0 0 0 900468386.7934742 -633485461.15147018 0 -633485461.15147018 311431052.35108185 0 0 0 0 -598514296.28264427 82652459.947235107 0 82652459.947235107 322089196.9914484 0 0 0 0 -20702833.13326025 8695738.1186041832 0 8695738.1186041832 27410139.486457825 0 0 0 0 -2620459.3974570502 -3846741.437975782 0 -3846741.437975782 26444755.193074834 0 0 0 0 449204528.76583862 251828857.57135963 0 251828857.57135963 -13531710.33873558 0 0 0 0 1122441381.7463403 512608914.16584015 0 512608914.16584015 -265105248.60518456 0 0 0 0 3484881.2704784013 242764.59081856767 0 242764.59081856767 -794327.85603486095 0 0 0 0 237033069.4465704 546235496.07407904 0 546235496.07407904 1243845839.6445751 0 0 0 0 101456526.28918362 160100782.32957554 0 160100782.32957554 254932672.5749464 0 0 0 0 12550720.759461403 19630751.966870785 0 19630751.966870785 53302390.83769691 0 0 0 0 12604744.012527466 17643817.157868862 0 17643817.157868862 1376057.6426208019 0 0 0 0 373227458.52725852 216174148.06276554 0 216174148.06276554 -32954284.378137589 0 0 0 0 389597454.5909586 416112404.53256297 0 416112404.53256297 31239939.803823948 0 0 0 0 362743501.35774988 292773107.64168441 0 292773107.64168441 -135870757.24581528 0 0 0 0 478204943.65259457 293225129.43532848 0 293225129.43532848 -186105460.10952854 0 0 0 0 753031499.16073513 -206736486.11160278 0 -206736486.11160278 -31844552.201795101 0 0 0 0 1128658537.8926821 491777533.83281803 0 491777533.83281803 -153657198.49325752 0 0 0 0 -94627968.107641101 587409228.88958359 0 587409228.88958359 249473354.00204396 0 0 0 0 470297008.88550544 258815351.00311613 0 258815351.00311613 -335811709.93427658 0 0 0 0 -23756285.848898888 -3212688.4512672424 0 -3212688.4512672424 22484981.055671692 0 0 0 0 -396486636.9705056 227015878.0193634 0 227015878.0193634 -101582249.30773544 0 0 0 0 -8702722.7648849487 -7366636.1107673645 0 -7366636.1107673645 18903337.356220245 0 0 0 0 -545279.44050138281 -2272041.4980897373 0 -2272041.4980897373 19380012.108696885 0 0 0 0 -21629215.790463448 -7115128.404914856 0 -7115128.404914856 27425911.778266907 0 0 0 0 -16438705.816307068 -24139697.213274002 0 -24139697.213274002 15451876.0185709 0 0 0 0 -8505649.7901630402 -17978571.910693169 0 -17978571.910693169 23366276.285251617 0 0 0 0 -13601235.719726562 -9243352.3135738373 0 -9243352.3135738373 9288427.8128356934 0 0 0 0 1134698097.4989367 149547160.37429285 0 149547160.37429285 -42685239.893410563 0 0 0 0 506646672.14230514 520937959.22179794 0 520937959.22179794 -248390953.23041725 0 0 0 0 233783768.94411755 180535353.28378344 0 180535353.28378344 112340208.8110857 0 0 0 0 -2069593.6708227054 738453.25015940191 0 738453.25015940191 2348539.2716684332 0 0 0 0 392152474.79451942 403655541.57263851 0 403655541.57263851 42525262.05371666 0 0 0 0 572076.51832907693 -1842750.3692079757 0 -1842750.3692079757 1598929.6205878139 0 0 0 0 693699238.50883126 98117176.099640965 0 98117176.099640965 416331864.69954085 0 0 0 0 388726270.42899227 635413798.73584032 0 635413798.73584032 375245183.33620667 0 0 0 0 888925232.35533702 575593853.26479578 0 575593853.26479578 57286756.731784105 0 0 0 0 8852205.0790643692 14880697.250460654 0 14880697.250460654 341281556.24468946 0 0 0 0 2380667.7672712663 -6440390.999928725 0 -6440390.999928725 11977603.328901537 0 0 0 0 616069952.84115231 345442759.78210437 0 345442759.78210437 259568333.81570482 0 0 0 0 -1371197.0341018806 -255435.30275404593 0 -255435.30275404593 2303044.0032358347 0 0 0 0 113833.40394020081 154930980.78576899 0 154930980.78576899 368180641.43663597 0 0 0 0 196648188.05988312 241611585.68486905 0 241611585.68486905 317083183.6963408 0 0 0 0 469910996.44679517 -242634280.07386777 0 -242634280.07386777 74880583.754187584 0 0 0 0 104353159.75442123 520659453.74995565 0 520659453.74995565 125395511.48736891 0 0 0 0 -13361954.537154675 -28405373.881172478 0 -28405373.881172478 20371325.58833456 0 0 0 0 -464900.73068523407 18825929.929662142 0 18825929.929662142 34308649.584440388 0 0 0 0 -3981105.1792173386 8291127.0126976203 0 8291127.0126976203 15432314.328213826 0 0 0 0 -96298861.191998482 -137176414.8299118 0 -137176414.8299118 207112762.95757461 0 0 0 0 265537827.15482998 172428792.37541735 0 172428792.37541735 -49420442.431318611 0 0 0 0 -3921309.7914033546 1915873.4900159994 0 1915873.4900159994 4591126.4631379787 0 0 0 0 101631795.24289322 258218182.75004488 0 258218182.75004488 167820355.25297505 0 0 0 0 -60552516.577911377 -43403283.232143402 0 -43403283.232143402 96158964.836797714 0 0 0 0 -76339814.203302383 -40250017.980409622 0 -40250017.980409622 98304744.615467072 0 0 0 0 -69416123.339756012 -17549624.204129219 0 -17549624.204129219 71583601.811161041 0 0 0 0 -76937361.090874195 -5072830.7449307442 0 -5072830.7449307442 45192542.742515564 0 0 0 0 -85825135.236992836 -17277415.169049263 0 -17277415.169049263 74575217.308540344 0 0 0 0 -87743660.360839844 -19209983.359376907 0 -19209983.359376907 90662045.851682663 0 0 0 0 -83597909.303334713 34695446.147178173 0 34695446.147178173 18582683.672647476 0 0 0 0 -75066950.805104733 10427062.591205597 0 10427062.591205597 63127883.62361145 0 0 0 0 -91869862.035699368 35919028.384755611 0 35919028.384755611 104977813.42697906 0 0 0 0 -111458833.39211845 74270504.473213196 0 74270504.473213196 32670555.396068573 0 0 0 0 -106638273.96354675 6969707.4064273834 0 6969707.4064273834 76928667.153614044 0 0 0 0 -103289865.08518565 -21071680.529098153 0 -21071680.529098153 166203380.00794983 0 0 0 0 -161584421.17340088 59976532.490390778 0 59976532.490390778 212555843.02030468 0 0 0 0 -151303628.89463043 59424364.649698257 0 59424364.649698257 160661941.28013229 0 0 0 0 -308118145.98255825 -99919053.70054245 0 -99919053.70054245 395764842.17826843 0 0 0 0 73327596.567703247 -228976468.8412838 0 -228976468.8412838 232891642.14845848 0 0 0 0 1243618.5257951925 -3353397.7876165514 0 -3353397.7876165514 6809995.7603822667 0 0 0 0 180974433.96157265 -69115505.78119278 0 -69115505.78119278 5603739.3400669098 0 0 0 0 190180238.96188736 440185159.74486256 0 440185159.74486256 432504018.17116523 0 0 0 0 -52690498.580523491 350568293.99123538 0 350568293.99123538 483215398.16757202 0 0 0 0 19433496.485836029 -3799472.6430912018 0 -3799472.6430912018 7924175.8774674535 0 0 0 0 -17594665.781547785 -15948820.323267102 0 -15948820.323267102 26955447.31092453 0 0 0 0 46309798.079769135 -85824152.386474609 0 -85824152.386474609 63558766.532205582 0 0 0 0 -76119593.230904356 -83412404.600099802 0 -83412404.600099802 91504133.955348969 0 0 0 0 58870969.86060667 -24429126.739823818 0 -24429126.739823818 6107928.7810134888 0 0 0 0 -15826529.909122467 -34872412.935669899 0 -34872412.935669899 36588650.782047272 0 0 0 0 1953785.9774332047 -34615669.442028999 0 -34615669.442028999 36035611.019937515 0 0 0 0 10744859.133098602 -21918732.948799133 0 -21918732.948799133 27167495.295415878 0 0 0 0 2316378.2235908508 -8628764.5175228119 0 -8628764.5175228119 18639566.674097061 0 0 0 0 13876019.361927032 -19122695.652944565 0 -19122695.652944565 23888812.968193054 0 0 0 0 -8745322.2968978882 -10177414.167396545 0 -10177414.167396545 45554808.429523468 0 0 0 0 15394421.109936714 -36974906.496417999 0 -36974906.496417999 58279960.965755463 0 0 0 0 14900465.711856127 -24102694.459301233 0 -24102694.459301233 44354316.344776154 0 0 0 0 50992442.825366974 12015241.335132599 0 12015241.335132599 44328260.340179443 0 0 0 0 -120432185.20943832 -29991436.614557266 0 -29991436.614557266 71952433.45519352 0 0 0 0 -48489288.808747768 15906068.361003876 0 15906068.361003876 45848737.753452301 0 0 0 0 -87393975.707176208 -14001286.386249542 0 -14001286.386249542 76875665.733745575 0 0 0 0 -64819108.221490741 -34019373.463382363 0 -34019373.463382363 41393968.139770508 0 0 0 0 -65333578.47999382 -40143941.981603622 0 -40143941.981603622 55230467.535022736 0 0 0 0 -92142984.915628433 -35492424.869785309 0 -35492424.869785309 60042919.038095474 0 0 0 0 -108171406.3640976 -61604034.450458527 0 -61604034.450458527 45064962.03887558 0 0 0 0 -141329181.67387962 57701063.0019207 0 57701063.0019207 263580592.87717056 0 0 0 0 388635.44656221475 826484.28772077709 0 826484.28772077709 468666.02915697545 0 0 0 0 -242286.15856311051 639134.37623075396 0 639134.37623075396 3634322.3385258825 0 0 0 0 -116071470.50049496 -23656647.847099304 0 -23656647.847099304 169132320.93281555 0 0 0 0 -49031644.908548355 -57351024.985845566 0 -57351024.985845566 8972064.545129776 0 0 0 0 -125386962.01956409 -134432877.33519286 0 -134432877.33519286 -88812492.752029419 0 0 0 0 -140370708.97381556 -6234711.02657938 0 -6234711.02657938 25726552.111335754 0 0 0 0 -28592272.004028797 -68552096.271584034 0 -68552096.271584034 -79861987.033653259 0 0 0 0 -102976969.13294816 -8641050.5564613342 0 -8641050.5564613342 3095183.5753517151 0 0 0 0 -33771524.066682816 -60195157.509021759 0 -60195157.509021759 -36181918.965272903 0 0 0 0 -41794947.66364193 -40386265.076601982 0 -40386265.076601982 -24058248.797954559 0 0 0 0 -34509588.852527618 -38292301.519699097 0 -38292301.519699097 -43475876.442390442 0 0 0 0 -45764033.770838737 -47165639.06212616 0 -47165639.06212616 -6109859.868686676 0 0 0 0 -239070636.57257462 -18484246.989006042 0 -18484246.989006042 381719173.60205841 0 0 0 0 -354210.31639072858 642375.96738454234 0 642375.96738454234 928187.50415080227 0 0 0 0 42877923.218767166 -75210943.517841339 0 -75210943.517841339 64865160.640556335 0 0 0 0 -37758690.77869606 -51278456.098011017 0 -51278456.098011017 -4767983.2765254974 0 0 0 0 -71638372.111755848 -30705131.721593857 0 -30705131.721593857 -3933792.7497329712 0 0 0 0 28666944.815084457 -5670101.9158229828 0 -5670101.9158229828 -2622293.7276306152 0 0 0 0 -2500737.4614146668 -1398551.3701230828 0 -1398551.3701230828 9417755.1209887266 0 0 0 0 -11540363.710195541 833073.19342327118 0 833073.19342327118 29074931.540969849 0 0 0 0 -2946335.6182556152 -11019666.542427063 0 -11019666.542427063 19282275.08537674 0 0 0 0 -1221740.7762794495 5576653.3748588562 0 5576653.3748588562 29948138.240446091 0 0 0 0 -1967342.4178714752 1086716.1583557129 0 1086716.1583557129 93646780.497928619 0 0 0 0 176795.80617921054 1182113.856576426 0 1182113.856576426 2917343.5644390797 0 0 0 0 -42423691.427677155 -40073889.046688795 0 -40073889.046688795 -815690.2504196167 0 0 0 0 -25244699.993379593 -15245967.599834442 0 -15245967.599834442 31084921.60558176 0 0 0 0 -17230736.360855103 -9480195.7699584961 0 -9480195.7699584961 30359596.451034546 0 0 0 0 -16508579.584815979 -7443994.8893489838 0 -7443994.8893489838 37841343.121121407 0 0 0 0 -4445145.6859207153 -1533840.9727859497 0 -1533840.9727859497 33898347.243114471 0 0 0 0 -17280809.929866314 -9186237.0746092796 0 -9186237.0746092796 29558566.416465759 0 0 0 0 -10458361.067619324 -1621073.9620761871 0 -1621073.9620761871 40114108.428813934 0 0 0 0 -12893533.532269478 109624.10654067993 0 109624.10654067993 46276737.562000275 0 0 0 0 -3459443.2925683009 -1482445.6725466913 0 -1482445.6725466913 9303040.7853060756 0 0 0 0 -6412146.4495410919 5974140.5982704163 0 5974140.5982704163 41412008.307971954 0 0 0 0 8259431.061494112 -10990777.626856804 0 -10990777.626856804 23637168.446628571 0 0 0 0 -26452956.525445938 -21617604.487337112 0 -21617604.487337112 21158224.3436656 0 0 0 0 -15538524.692959785 2055971.6786403656 0 2055971.6786403656 23990521.803894043 0 0 0 0 -8131779.5474796295 -2391970.2230987549 0 -2391970.2230987549 26201097.621326447 0 0 0 0 -8305407.6175689697 115080212.00182724 0 115080212.00182724 -101954231.26891279 0 0 0 0 76325623.256441116 -307358843.45928478 0 -307358843.45928478 -49170970.772323608 0 0 0 0 -304818990.28134298 164541414.47850895 0 164541414.47850895 324441804.03821564 0 0 0 0 -73750257.475120544 143542240.11738968 0 143542240.11738968 -10704211.363298416 0 0 0 0 -1259905.6208613911 -221500.31131793931 0 -221500.31131793931 2564597.2826184407 0 0 0 0 -46627116.332920074 -63868155.465948105 0 -63868155.465948105 10378193.335785866 0 0 0 0 -184097611.51332951 -55922761.231163025 0 -55922761.231163025 62749815.487571716 0 0 0 0 -57488414.700428009 -13756263.77652359 0 -13756263.77652359 72274116.584822178 0 0 0 0 -251201342.51683617 87297127.640130043 0 87297127.640130043 136852427.7884903 0 0 0 0 -10892194.140070915 109804235.19043541 0 109804235.19043541 104211155.00691986 0 0 0 0 -2819231.4457073212 43290401.509273529 0 43290401.509273529 49862518.703540802 0 0 0 0 -107049679.30855799 43816781.480962753 0 43816781.480962753 71592900.430267334 0 0 0 0 -30650050.350358486 3848887.7552337646 0 3848887.7552337646 45444133.119228363 0 0 0 0 -51294946.750453711 -13067849.416696548 0 -13067849.416696548 42056876.603199005 0 0 0 0 -27007911.433814526 3282176.3512744904 0 3282176.3512744904 37909259.801410675 0 0 0 0 -27655374.129120827 5983425.1141433716 0 5983425.1141433716 40757690.112819672 0 0 0 0 21734036.186786652 18499647.603733063 0 18499647.603733063 30260404.600175858 0 0 0 0 -19955337.534542918 26491612.128071308 0 26491612.128071308 36626459.868301392 0 0 0 0 -7374249.9770355225 11059772.827014923 0 11059772.827014923 42465068.872509003 0 0 0 0 -7114422.8385446072 11984204.585582733 0 11984204.585582733 33261025.542907715 0 0 0 0 -25132350.409237862 7103159.3453598022 0 7103159.3453598022 37910767.69752121 0 0 0 0 5306491.2128713727 11437170.466106176 0 11437170.466106176 23479652.558059692 0 0 0 0 -21285282.724777222 1154639.1312026978 0 1154639.1312026978 32974916.172223687 0 0 0 0 -129512679.28284359 -19996877.166027069 0 -19996877.166027069 82159122.036003113 0 0 0 0 4011982.4218254089 27347517.937602997 0 27347517.937602997 40405619.58160305 0 0 0 0 -7120243.076986338 -1899658.0421172306 0 -1899658.0421172306 23795135.547391228 0 0 0 0 -42339105.362123013 56182018.806285858 0 56182018.806285858 -84333170.001834869 0 0 0 0 -14964839.254251957 22578121.456140518 0 22578121.456140518 78234459.356643677 0 0 0 0 -34590163.335547447 -10448036.779647827 0 -10448036.779647827 22730785.275856018 0 0 0 0 -46138255.459955752 61408881.167648315 0 61408881.167648315 89460079.713195801 0 0 0 0 -56195524.548858643 -38081479.516098022 0 -38081479.516098022 89353384.056794167 0 0 0 0 -91689179.196136951 -75390829.345340729 0 -75390829.345340729 -44410054.623432159 0 0 0 0 -56275602.534985542 -39914033.354888916 0 -39914033.354888916 47617204.974380493 0 0 0 0 -68796725.473186016 -24647407.71780777 0 -24647407.71780777 66659119.987174988 0 0 0 0 -26445362.071619034 12733515.607782364 0 12733515.607782364 18679639.936519623 0 0 0 0 -40646191.067331314 -5261357.1870002747 0 -5261357.1870002747 26358506.671180725 0 0 0 0 -24800880.524103165 4594905.2252540588 0 4594905.2252540588 27766356.479904175 0 0 0 0 -52563462.188940048 -1433713.7293548584 0 -1433713.7293548584 36791597.086448669 0 0 0 0 -42079855.316521645 9088964.9151306152 0 9088964.9151306152 37130540.856216431 0 0 0 0 -58031441.581183672 10092446.439632893 0 10092446.439632893 39511139.111801147 0 0 0 0 -2996988.2537530502 901292.52201466216 0 901292.52201466216 32791230.804787219 0 0 0 0 -130272387.56885128 64287081.409469783 0 64287081.409469783 -13272786.051685333 0 0 0 0 212200.2530300722 119708.9038537452 0 119708.9038537452 -102134.29979065992 0 0 0 0 -126934914.26016998 104117225.89236259 0 104117225.89236259 76720990.820201874 0 0 0 0 -25836281.600364685 28040412.626620293 0 28040412.626620293 101072217.49896383 0 0 0 0 -34487216.140049934 -1754771.1899452209 0 -1754771.1899452209 37415954.866491795 0 0 0 0 -34556258.89874649 1056732.1996955872 0 1056732.1996955872 29252983.058239818 0 0 0 0 -36820762.535676956 2196650.3933258057 0 2196650.3933258057 37269793.271770358 0 0 0 0 -27946745.812171936 7338034.5994539261 0 7338034.5994539261 35743143.5258255 0 0 0 0 -43203301.504954338 12332682.67086792 0 12332682.67086792 29558396.513202667 0 0 0 0 -61789293.971390903 18655213.447572231 0 18655213.447572231 33019740.450763702 0 0 0 0 -2857626.9045828544 1939350.0980802933 0 1939350.0980802933 31492084.320253566 0 0 0 0 -33986355.789753675 656111.72559356689 0 656111.72559356689 29443530.21749115 0 0 0 0 -45617609.397021055 -2209227.0121650696 0 -2209227.0121650696 35477974.378736496 0 0 0 0 418928.16057825042 203267.9795503295 0 203267.9795503295 -218627.62989084609 0 0 0 0 -559989.12487027049 -25239384.654631853 0 -25239384.654631853 25645848.263542175 0 0 0 0 76282316.864892483 -56097871.523645401 0 -56097871.523645401 1254337.0639839172 0 0 0 0 5048062.5128905475 33218505.324738204 0 33218505.324738204 -22992073.556720734 0 0 0 0 -44682206.148552179 7406281.0474510193 0 7406281.0474510193 -1776653.9546661377 0 0 0 0 60673041.906302929 -24439510.538125992 0 -24439510.538125992 -35915709.550923824 0 0 0 0 82937126.322088718 17775882.456533432 0 17775882.456533432 68699476.616663933 0 0 0 0 89453366.518102646 13818942.627311707 0 13818942.627311707 69594155.49921608 0 0 0 0 51446500.404466629 -42190014.058065414 0 -42190014.058065414 767691.97164440155 0 0 0 0 54320826.406448126 -63723518.705552101 0 -63723518.705552101 31899211.468063354 0 0 0 0 64056281.251646757 -33319860.116063118 0 -33319860.116063118 43612173.7081604 0 0 0 0 39979480.326375961 -55005021.265323639 0 -55005021.265323639 46238379.238572121 0 0 0 0 -32054708.409132004 -31426392.072465897 0 -31426392.072465897 47043650.228134155 0 0 0 0 97370974.542850971 -82564215.148984909 0 -82564215.148984909 36403748.654502869 0 0 0 0 99616521.487034559 -134615845.9258728 0 -134615845.9258728 143691683.03283691 0 0 0 0 160552510.36268806 97688953.236703873 0 97688953.236703873 162624824.06554151 0 0 0 0 -10322137.271908998 -56998956.100464821 0 -56998956.100464821 102586215.38087082 0 0 0 0 14845357.606716871 -41464094.702550888 0 -41464094.702550888 5423871.2140293121 0 0 0 0 -22885082.114443541 33796863.839143753 0 33796863.839143753 108176262.90979767 0 0 0 0 -8212431.6716469526 -27255190.83468008 0 -27255190.83468008 41694909.491409302 0 0 0 0 68544428.539315939 46924032.481599808 0 46924032.481599808 105097948.06978607 0 0 0 0 42997598.114145756 -27377183.078505516 0 -27377183.078505516 22157064.422023773 0 0 0 0 77488275.218454838 -53976479.355648994 0 -53976479.355648994 63526680.902935028 0 0 0 0 108795166.79116631 -45074733.219406128 0 -45074733.219406128 19888273.314997435 0 0 0 0 118255658.26315212 97282761.130636215 0 97282761.130636215 215491225.84192276 0 0 0 0 290992965.17419529 -34515619.117385864 0 -34515619.117385864 65155365.931614399 0 0 0 0 26840968.148294926 -51584365.818817139 0 -51584365.818817139 256253431.86733246 0 0 0 0 28544210.024414539 -38112018.781757355 0 -38112018.781757355 101390685.84090424 0 0 0 0 31834032.700519085 9882651.8721656799 0 9882651.8721656799 127941556.17028236 0 0 0 0 15286508.810625315 39666186.717871666 0 39666186.717871666 135645204.7795105 0 0 0 0 -4779037.9596815109 8297965.7633552551 0 8297965.7633552551 87188339.0835495 0 0 0 0 834264.4410367012 -49712100.154773712 0 -49712100.154773712 124765435.72221375 0 0 0 0 -20557804.072167516 -27244235.303105354 0 -27244235.303105354 106055963.90805054 0 0 0 0 4519413.2858161926 -69072971.571357727 0 -69072971.571357727 74534136.093271255 0 0 0 0 -20538214.318675995 -44511474.278989792 0 -44511474.278989792 59887679.050018311 0 0 0 0 60938092.329126835 -80694665.759929657 0 -80694665.759929657 49476607.180837631 0 0 0 0 5429770.1194987297 -62656020.780446529 0 -62656020.780446529 118596221.78797913 0 0 0 0 4207.9225991966377 -1644647.0978255488 0 -1644647.0978255488 907024.08051345497 0 0 0 0 196424386.71334064 77710020.964670181 0 77710020.964670181 46342929.904533386 0 0 0 0 117446350.81864738 -109450534.93836403 0 -109450534.93836403 109543649.26249313 0 0 0 0 -282992.17181069602 -220146.48374469392 0 -220146.48374469392 1030183.3564096298 0 0 0 0 74883703.339608669 -44177825.077720165 0 -44177825.077720165 12245446.506660461 0 0 0 0 59163398.159525871 -56088303.345323563 0 -56088303.345323563 -143019465.15531158 0 0 0 0 -41189528.90303719 157513925.27829552 0 157513925.27829552 353396801.56590271 0 0 0 0 -11236528.409091711 -1544614.8749246597 0 -1544614.8749246597 12310053.172927856 0 0 0 0 -1909908.2804079182 428888.60182409355 0 428888.60182409355 8084260.4607457276 0 0 0 0 -12588847.003018856 -27371916.767818451 0 -27371916.767818451 31917296.424419403 0 0 0 0 -4767766.90050737 -5989953.690077031 0 -5989953.690077031 7817362.0092665162 0 0 0 0 9353590.2716580629 -42659084.747933388 0 -42659084.747933388 34321384.675457001 0 0 0 0 34368067.795695305 -20712294.998313904 0 -20712294.998313904 11648944.692884803 0 0 0 0 -1728945.1747455441 -4982400.323166322 0 -4982400.323166322 3670586.1164935324 0 0 0 0 13241053.185447693 -50141220.951324463 0 -50141220.951324463 36006157.552044868 0 0 0 0 1225825.7388772494 634506.89417454042 0 634506.89417454042 84028.155845440924 0 0 0 0 -85880895.138879418 108248084.66996741 0 108248084.66996741 -8206275.8457832336 0 0 0 0 -20076579.814930558 88286958.617880821 0 88286958.617880821 -81814165.019651413 0 0 0 0 -5834580.7627968788 -65272058.925283432 0 -65272058.925283432 3141164.8377914429 0 0 0 0 -62235300.192757845 35311206.595758438 0 35311206.595758438 219240492.76853561 0 0 0 0 137432826.43721032 124532122.48507261 0 124532122.48507261 -120350321.53292465 0 0 0 0 608966.15346594504 255886.71734289732 0 255886.71734289732 -27882.208702687174 0 0 0 0 -70251449.45100075 7030574.3437199593 0 7030574.3437199593 154080558.47488785 0 0 0 0 -35186322.428873241 -62385671.230505943 0 -62385671.230505943 154425608.6361618 0 0 0 0 -3183145.7829227448 29803611.740282059 0 29803611.740282059 63680507.738506317 0 0 0 0 -54769542.216539621 -6712748.2101287842 0 -6712748.2101287842 135450543.55925751 0 0 0 0 -2946564.7352513969 40319201.630941629 0 40319201.630941629 41994647.675590515 0 0 0 0 46285647.817158222 157308579.10178757 0 157308579.10178757 183321158.38225365 0 0 0 0 62073001.970058203 34889861.247938156 0 34889861.247938156 11898313.793624878 0 0 0 0 15620031.924494445 8301394.7464156151 0 8301394.7464156151 8116974.7690696716 0 0 0 0 8036475.8188866973 -9317463.0257973671 0 -9317463.0257973671 -165655.78708267212 0 0 0 0 12797484.958038568 2496402.1518859863 0 2496402.1518859863 8516330.7635345459 0 0 0 0 8280508.1370625496 -5224426.6445426941 0 -5224426.6445426941 40846704.230484962 0 0 0 0 -8565592.2335722446 5072889.2224836349 0 5072889.2224836349 9057004.3249387741 0 0 0 0 335008.04732037429 5402979.5455051931 0 5402979.5455051931 10739470.143304324 0 0 0 0 -7401841.9010915756 2896286.9620008469 0 2896286.9620008469 11285512.612483978 0 0 0 0 -3468835.7167108357 -4357485.8092573285 0 -4357485.8092573285 13034369.816835403 0 0 0 0 -3860449.3764967322 -1134925.0356919765 0 -1134925.0356919765 3945165.5145721436 0 0 0 0 -2306957.6550431671 -927519.13601927599 0 -927519.13601927599 10138751.198639942 0 0 0 0 -75140954.499130249 -30303519.434157372 0 -30303519.434157372 4721075.587802887 0 0 0 0 252362371.30578017 111740793.70529366 0 111740793.70529366 -192336378.19070435 0 0 0 0 24273541.24866724 -65533897.727153778 0 -65533897.727153778 -81065585.462280273 0 0 0 0 4027466.9452869892 -8628220.5883522034 0 -8628220.5883522034 4226196.0423469543 0 0 0 0 -2296128.7153425217 299660.37460803986 0 299660.37460803986 7959040.923334077 0 0 0 0 1156882.2813138962 2093166.025551796 0 2093166.025551796 7923277.4064211994 0 0 0 0 -1632585.4625539184 7244742.5693171918 0 7244742.5693171918 2494509.5502185822 0 0 0 0 10036735.804433823 6465886.7554721832 0 6465886.7554721832 8131439.5054297447 0 0 0 0 -6037821.552406311 3878748.4478168488 0 3878748.4478168488 8664283.9728078842 0 0 0 0 -577722.25344532495 1360387.7935202222 0 1360387.7935202222 9726635.7682637516 0 0 0 0 -5470699.9243278503 4794705.2749741077 0 4794705.2749741077 13931315.575950861 0 0 0 0 -14245487.269985199 2721176.3645324707 0 2721176.3645324707 6154328.8975858688 0 0 0 0 -8195680.3007221222 9995643.3384256363 0 9995643.3384256363 11061775.970047951 0 0 0 0 -5229179.3785896301 6293679.6470360756 0 6293679.6470360756 3418271.7540183067 0 0 0 0 -1147882.3435336957 541255.05581694958 0 541255.05581694958 10340391.124359787 0 0 0 0 73374.709416716592 6615641.3618178125 0 6615641.3618178125 3867570.9896714985 0 0 0 0 -8116675.9981307983 6913029.9952218533 0 6913029.9952218533 4415249.7804741859 0 0 0 0 -6219470.5911921859 12990091.393895604 0 12990091.393895604 8128430.4588823318 0 0 0 0 6325633.6532764435 30155254.54699707 0 30155254.54699707 -9202999.4600191116 0 0 0 0 -14040097.614501953 7440398.6126785278 0 7440398.6126785278 12620565.424324036 0 0 0 0 31767373.239339828 33861022.88766098 0 33861022.88766098 4567544.9863557816 0 0 0 0 -23466364.398808479 17343110.855485916 0 17343110.855485916 11790958.255413055 0 0 0 0 24762627.474013805 14411842.799737453 0 14411842.799737453 -7082432.2009830475 0 0 0 0 -5386073.1806583405 28733978.877612114 0 28733978.877612114 47819724.390935898 0 0 0 0 -801788.23214438662 1530689.5881514333 0 1530689.5881514333 1012326.9906614851 0 0 0 0 18466540.310811996 16680411.554967642 0 16680411.554967642 15948224.405250549 0 0 0 0 -2386604.5299191475 12775553.789409637 0 12775553.789409637 20089985.722097397 0 0 0 0 13686142.673281193 3948511.0077161789 0 3948511.0077161789 14968921.430786133 0 0 0 0 13773328.254320145 20660621.050361633 0 20660621.050361633 12068928.256832123 0 0 0 0 22248417.829429626 40014425.037784576 0 40014425.037784576 46466319.311578751 0 0 0 0 6992619.1574960873 11621841.412092792 0 11621841.412092792 15371996.778403211 0 0 0 0 -5746987.3493175507 3973269.2134494781 0 3973269.2134494781 -4885808.1660928726 0 0 0 0 -6951233.8190512657 -14456240.250827789 0 -14456240.250827789 26778727.693088531 0 0 0 0 -14361965.387734413 21697693.101207733 0 21697693.101207733 64333064.242759705 0 0 0 0 1589221.7008834071 12414164.800321249 0 12414164.800321249 26682995.024329573 0 0 0 0 -6740890.1935601234 32717315.7234478 0 32717315.7234478 22347308.531272888 0 0 0 0 -9131302.4446687698 25611286.184452057 0 25611286.184452057 63262763.531211853 0 0 0 0 -24513735.62065506 39265538.752193451 0 39265538.752193451 83627385.656135559 0 0 0 0 -13170151.539378729 3419961.6829726491 0 3419961.6829726491 34942759.677055158 0 0 0 0 -20706894.576856613 30865547.3168993 0 30865547.3168993 62265256.218040466 0 0 0 0 -18392462.225389957 22954376.05357933 0 22954376.05357933 68350789.450286865 0 0 0 0 -37867044.145941734 16637762.066322327 0 16637762.066322327 30880257.799879074 0 0 0 0 -143668491.10069132 -30581889.017775059 0 -30581889.017775059 77048014.502151489 0 0 0 0 -6298779.2498340942 -4267766.0564873423 0 -4267766.0564873423 35697633.325868092 0 0 0 0 -34833380.866798401 10715015.191514969 0 10715015.191514969 33450002.675582409 0 0 0 0 -119919516.25040406 -3793752.6798123717 0 -3793752.6798123717 76850554.071090698 0 0 0 0 -117829280.02169275 -50022389.042074561 0 -50022389.042074561 78133308.118141174 0 0 0 0 -63279494.643589973 -39454824.996421814 0 -39454824.996421814 73259505.119888306 0 0 0 0 -37145062.769331455 -55761629.469005585 0 -55761629.469005585 70735929.394565582 0 0 0 0 -22712777.802399874 -36245613.291086197 0 -36245613.291086197 68856432.8490448 0 0 0 0 -70025864.047425747 -46061335.477706909 0 -46061335.477706909 82511070.656169891 0 0 0 0 -94155040.939124972 5671281.4781239033 0 5671281.4781239033 51274524.503669739 0 0 0 0 -64196515.572793007 -30855877.765592575 0 -30855877.765592575 62061188.006462097 0 0 0 0 -88578274.314981461 -40089432.533596039 0 -40089432.533596039 77176226.779800415 0 0 0 0 -51647985.127099037 -37482812.648391724 0 -37482812.648391724 62626898.772323608 0 0 0 0 -78507810.920180321 -21640616.096069336 0 -21640616.096069336 65452626.300262451 0 0 0 0 -6852678.6874828339 9638345.4420518875 0 9638345.4420518875 11019075.103062868 0 0 0 0 -39000820.977769375 -15065776.374851227 0 -15065776.374851227 46663392.592781067 0 0 0 0 -2772454.9941903036 4072924.1793978773 0 4072924.1793978773 31142742.223420311 0 0 0 0 -40210548.749661922 -23573947.92515564 0 -23573947.92515564 58025537.183395386 0 0 0 0 -12344074.363119602 -19522221.246686161 0 -19522221.246686161 47296341.57975769 0 0 0 0 -19576643.728601933 -53953613.825801849 0 -53953613.825801849 58086568.125128746 0 0 0 0 -21178257.17773056 -37159370.364810944 0 -37159370.364810944 52171666.999469757 0 0 0 0 -5554020.703327179 7691589.6208238602 0 7691589.6208238602 10124624.240074158 0 0 0 0 18898258.418640137 4534058.451965332 0 4534058.451965332 70063608.329273224 0 0 0 0 -597364.41996534215 7462747.7373096449 0 7462747.7373096449 6157860.649262839 0 0 0 0 -51364609.870955467 -6554832.7936229706 0 -6554832.7936229706 14961480.981079102 0 0 0 0 -3689980.8598689828 -1235615.7625252847 0 -1235615.7625252847 31223128.556635924 0 0 0 0 -2023186.6505922931 776799.19550353289 0 776799.19550353289 4738520.8999796882 0 0 0 0 -4392241.8679218292 -37106462.652511597 0 -37106462.652511597 955250.6272354126 0 0 0 0 -12780397.376093978 6914448.5450575184 0 6914448.5450575184 34085425.684122309 0 0 0 0 -10191295.526824951 1508523.1095809937 0 1508523.1095809937 7757535.2590026855 0 0 0 0 -7706364.6437357729 1775730.1653934759 0 1775730.1653934759 24173054.767525848 0 0 0 0 -52564046.789685488 -142867438.28592491 0 -142867438.28592491 108452939.6545105 0 0 0 0 281153334.50741291 15250476.71254158 0 15250476.71254158 80540057.831598282 0 0 0 0 29384740.250075817 -45174159.356710434 0 -45174159.356710434 179872697.32341003 0 0 0 0 -80100990.849710464 80241460.408096313 0 80241460.408096313 66883021.328752995 0 0 0 0 -71717.86432279367 242769.20111545175 0 242769.20111545175 412490.6866376549 0 0 0 0 304630112.77650833 -67300355.411467552 0 -67300355.411467552 -14073576.368591309 0 0 0 0 11590277.054475904 48371989.916363716 0 48371989.916363716 116569997.21694565 0 0 0 0 140846796.87833309 -204200407.71891022 0 -204200407.71891022 37607001.131318092 0 0 0 0 41063979.76896739 -120771473.2544241 0 -120771473.2544241 95419874.945354462 0 0 0 0 -116620.18984355428 348713.56292624073 0 348713.56292624073 858508.92176334187 0 0 0 0 49230334.684085369 -66289848.519427299 0 -66289848.519427299 -9126457.6667108536 0 0 0 0 -26702846.001076579 -7623611.9348647594 0 -7623611.9348647594 39538820.930681229 0 0 0 0 107077931.53454208 83638964.706225395 0 83638964.706225395 42719860.90900898 0 0 0 0 143140199.74595094 163886424.39002895 0 163886424.39002895 103980614.98940277 0 0 0 0 402467431.38742495 228247167.63253021 0 228247167.63253021 114477243.77649117 0 0 0 0 455297236.23602533 -44699164.566296577 0 -44699164.566296577 131186938.4730196 0 0 0 0 179744687.05811119 149344277.53904724 0 149344277.53904724 56135519.167956591 0 0 0 0 143219086.23074055 92666260.165067673 0 92666260.165067673 37230575.189927101 0 0 0 0 -24040007.596812248 -7998879.3928222656 0 -7998879.3928222656 86331834.67515564 0 0 0 0 641933.99955352582 260138.5322208656 0 260138.5322208656 -29133.268239462748 0 0 0 0 224172217.60699952 56119124.182204485 0 56119124.182204485 -155662996.4838562 0 0 0 0 179320755.6957283 238638624.70842481 0 238638624.70842481 184294702.50421143 0 0 0 0 257213582.2301414 225574365.07203674 0 225574365.07203674 89001909.786025524 0 0 0 0 100204902.52076101 61840771.448671818 0 61840771.448671818 182128597.06559181 0 0 0 0 284822783.35279655 171473903.34479809 0 171473903.34479809 128410629.79016566 0 0 0 0 268930467.49534273 224549459.97513485 0 224549459.97513485 114936609.95487785 0 0 0 0 7276230.0894536972 150502658.88468456 0 150502658.88468456 313275473.35460663 0 0 0 0 259116581.40263379 263902016.39207935 0 263902016.39207935 157916904.0923233 0 0 0 0 166369123.31117916 77444014.086084366 0 77444014.086084366 198618629.4358573 0 0 0 0 155554162.65967083 106064288.85895634 0 106064288.85895634 132511626.84251022 0 0 0 0 5935727.9905104637 6396581.3643741608 0 6396581.3643741608 148968710.89693928 0 0 0 0 -4821965.0629892349 58458884.09389019 0 58458884.09389019 -29686205.158670425 0 0 0 0 32032084.485537052 -26467028.979146957 0 -26467028.979146957 45337310.199016571 0 0 0 0 -28844319.353799582 95947979.958882332 0 95947979.958882332 -107390236.69701576 0 0 0 0 1273190.5237011001 634691.62784168962 0 634691.62784168962 67815.403919950128 0 0 0 0 -38234169.103596687 108054743.75602341 0 108054743.75602341 127892010.83178329 0 0 0 0 14132250.073284149 -58458851.342245102 0 -58458851.342245102 48504120.976154327 0 0 0 0 -23210292.010343313 -9693160.2255783081 0 -9693160.2255783081 170668325.21667099 0 0 0 0 332917.62188308884 840659.90397846699 0 840659.90397846699 725178.12407848798 0 0 0 0 39517598.547783613 -47035186.126724243 0 -47035186.126724243 41076349.051239014 0 0 0 0 742772.66127061844 13716246.091348648 0 13716246.091348648 7052220.2624549866 0 0 0 0 -14438672.883420229 5447188.0045204163 0 5447188.0045204163 13584966.645599365 0 0 0 0 601735.41947972518 3304572.4738403945 0 3304572.4738403945 2849171.9560593162 0 0 0 0 8121202.3216705322 12972448.384740829 0 12972448.384740829 8948770.9333209991 0 0 0 0 2217579.5956791393 657860.58307350799 0 657860.58307350799 -2531645.807097204 0 0 0 0 20862174.663897991 4238011.9022417068 0 4238011.9022417068 -6899041.7949638367 0 0 0 0 41179158.562934279 67198034.950829506 0 67198034.950829506 109556365.41709137 0 0 0 0 21638237.25723505 7858538.7254085541 0 7858538.7254085541 10865521.018409729 0 0 0 0 17149708.756844521 22494258.011293411 0 22494258.011293411 50904884.628343582 0 0 0 0 18149308.866868019 9582337.7558403015 0 9582337.7558403015 -4163700.9764251709 0 0 0 0 31099527.034875154 7351596.7927417755 0 7351596.7927417755 -5047231.7534446716 0 0 0 0 30755125.47311306 9379828.2887935638 0 9379828.2887935638 -14789230.252937317 0 0 0 0 22043849.617532969 14146306.897622585 0 14146306.897622585 37631582.213943481 0 0 0 0 30019026.556688786 -159556.04482841492 0 -159556.04482841492 36266156.330745339 0 0 0 0 8615644.6780171394 -9426836.3705501556 0 -9426836.3705501556 106562442.27257538 0 0 0 0 78793080.409853935 23557809.536687851 0 23557809.536687851 97117054.023277283 0 0 0 0 -19407042.134586513 -20579070.341966391 0 -20579070.341966391 108217386.41485596 0 0 0 0 18725179.501169205 -14809168.750162125 0 -14809168.750162125 102721793.24443054 0 0 0 0 58145793.06947875 1361613.0916223526 0 1361613.0916223526 48439571.80022049 0 0 0 0 44194739.881453454 48887351.400470495 0 48887351.400470495 163168633.08574295 0 0 0 0 203507376.05268657 279545665.88926125 0 279545665.88926125 265656009.7364254 0 0 0 0 398747.47267000214 1152982.7949267516 0 1152982.7949267516 799434.94723178446 0 0 0 0 -114912003.49591637 -53999790.32021904 0 -53999790.32021904 196881973.15348434 0 0 0 0 1305822768.2566998 143340896.20313263 0 143340896.20313263 65615921.883094788 0 0 0 0 -28675147.41439724 114283181.24955177 0 114283181.24955177 350908237.94451523 0 0 0 0 -13803425.537616014 52881163.196291447 0 52881163.196291447 1286547.3335094452 0 0 0 0 55197904.700632095 3166192.3136510849 0 3166192.3136510849 -7780625.6657218933 0 0 0 0 -79271046.839853287 21341864.845493317 0 21341864.845493317 9406834.2951049805 0 0 0 0 841069.62080818345 3081465.8452583277 0 3081465.8452583277 2656685.9612662196 0 0 0 0 1277870200.1560996 -286223739.48009062 0 -286223739.48009062 -159334064.81868744 0 0 0 0 295673458.91103458 -271473898.72477722 0 -271473898.72477722 319602585.08272171 0 0 0 0 457043647.91370583 -46302301.433677673 0 -46302301.433677673 197886423.73596478 0 0 0 0 727490798.08679676 128205143.73272705 0 128205143.73272705 39870562.742033005 0 0 0 0 218809440.12109852 -7479700.7553062439 0 -7479700.7553062439 75177117.714706421 0 0 0 0 303472522.02403927 354958354.67078018 0 354958354.67078018 -225115529.06983566 0 0 0 0 246240778.80609441 -5529250.6157445908 0 -5529250.6157445908 -351725491.48006821 0 0 0 0 -104103111.17840385 120172839.94207001 0 120172839.94207001 26483383.416993141 0 0 0 0 373266408.14846611 220780907.92525673 0 220780907.92525673 112000496.61949921 0 0 0 0 88231250.189152718 22309828.646223068 0 22309828.646223068 33950492.619889498 0 0 0 0 25682611.077913284 75549550.073234558 0 75549550.073234558 152975393.85752487 0 0 0 0 -149050426.02889633 -91564455.052791595 0 -91564455.052791595 216605549.22788048 0 0 0 0 41411022.272015333 19942874.359297276 0 19942874.359297276 329692071.12790298 0 0 0 0 381954398.54782677 181904926.46929169 0 181904926.46929169 426722966.25112152 0 0 0 0 256730396.88579273 -67373003.322019577 0 -67373003.322019577 186700475.68476868 0 0 0 0 340963919.05038261 -107353489.26748466 0 -107353489.26748466 265618954.61171722 0 0 0 0 45666729.514222145 -92674286.151092529 0 -92674286.151092529 223611009.0365715 0 0 0 0 53671617.435308456 57146798.66841507 0 57146798.66841507 231952144.51370621 0 0 0 0 7438724.7824317673 659720.62004008144 0 659720.62004008144 1458804.8903055545 0 0 0 0 -67845992.943507195 140589918.83010101 0 140589918.83010101 -128539141.8327179 0 0 0 0 -4744035.9453926086 -66303257.534606934 0 -66303257.534606934 146254899.26872158 0 0 0 0 -109732683.87398529 39381221.167243958 0 39381221.167243958 38430093.602737427 0 0 0 0 -166780762.10514641 136983526.93901825 0 136983526.93901825 125333397.91004372 0 0 0 0 -76572619.784208298 -156225546.43374634 0 -156225546.43374634 261603207.62476349 0 0 0 0 695385962.16662788 -220998689.84193039 0 -220998689.84193039 -184308024.37491608 0 0 0 0 1293360526.0613155 184460760.31764221 0 184460760.31764221 35478520.16189003 0 0 0 0 1145150382.1324997 76173330.732872009 0 76173330.732872009 -63517568.42175293 0 0 0 0 605355951.68095875 -299217196.22972107 0 -299217196.22972107 -14562469.663513184 0 0 0 0 444364113.923913 -35476484.405101776 0 -35476484.405101776 81197835.969039917 0 0 0 0 203938282.51632309 -118932731.06439972 0 -118932731.06439972 137453400.0386734 0 0 0 0 480252573.82843399 -56782027.553005219 0 -56782027.553005219 10561621.908370972 0 0 0 0 170741584.58977985 -77228213.425266266 0 -77228213.425266266 71322948.013046265 0 0 0 0 479394828.90144336 56306691.230056435 0 56306691.230056435 36464909.313491821 0 0 0 0 838762225.80442715 -44530562.200393677 0 -44530562.200393677 -61982704.352325439 0 0 0 0 393565454.4702816 -7489937.1249656677 0 -7489937.1249656677 -40599558.785438538 0 0 0 0 642751834.72049618 51578096.727233887 0 51578096.727233887 -36823810.874198914 0 0 0 0 362624468.90904725 60979999.195791245 0 60979999.195791245 15747248.639190674 0 0 0 0 209173992.05093193 29535764.225738525 0 29535764.225738525 47123255.729545593 0 0 0 0 43213995.24887085 22112004.014228821 0 22112004.014228821 56728223.182476044 0 0 0 0 130505917.31320095 18305493.334871292 0 18305493.334871292 79580227.102401733 0 0 0 0 -22484893.298923492 -72171098.503765106 0 -72171098.503765106 72357271.722045898 0 0 0 0 -95447164.510795593 37626134.494468689 0 37626134.494468689 34498877.935165405 0 0 0 0 -97342644.867305756 46276233.416244507 0 46276233.416244507 94889123.107131958 0 0 0 0 -103687196.39995003 50602279.760410309 0 50602279.760410309 26533148.100738525 0 0 0 0 -100426348.21529007 -31699765.399856567 0 -31699765.399856567 5396728.7613067627 0 0 0 0 -98668441.813575745 -21592109.617286682 0 -21592109.617286682 63436569.781219482 0 0 0 0 -86289621.189289093 -46817054.424160004 0 -46817054.424160004 10307546.450202942 0 0 0 0 -61217816.070976257 -75527502.544685364 0 -75527502.544685364 43064816.181627274 0 0 0 0 -65334380.383842468 -18118468.454498291 0 -18118468.454498291 78408528.186613083 0 0 0 0 -43810439.086562157 54665701.097236872 0 54665701.097236872 92658459.066680908 0 0 0 0 -41628178.450893402 87735882.882579803 0 87735882.882579803 3989560.3373031616 0 0 0 0 -21547169.768156052 8360405.0523986816 0 8360405.0523986816 60444722.075376511 0 0 0 0 -40559883.213111877 -12312742.71339798 0 -12312742.71339798 129311485.97212982 0 0 0 0 -1087142.3642221396 -1364099.6916435454 0 -1364099.6916435454 1945626.2428266504 0 0 0 0 105804341.03189468 69789572.534236908 0 69789572.534236908 169859745.66510642 0 0 0 0 393634741.2532711 187443714.60215759 0 187443714.60215759 -564665093.54600143 0 0 0 0 437005645.36547661 14254834.133331299 0 14254834.133331299 49561149.705596924 0 0 0 0 198788265.92906666 57371549.689628601 0 57371549.689628601 -21989311.442070007 0 0 0 0 -291618.82978089806 -1234455.7202786915 0 -1234455.7202786915 1762870.6553965288 0 0 0 0 322246485.17028069 138704301.91494942 0 138704301.91494942 52521826.961776733 0 0 0 0 193952957.63460827 -18143978.070724487 0 -18143978.070724487 -138840959.56116486 0 0 0 0 570682248.31814575 180359891.90597534 0 180359891.90597534 -40173603.166057587 0 0 0 0 541133806.57838202 -98089921.803852081 0 -98089921.803852081 45115311.751393318 0 0 0 0 648615242.71461797 150551359.77833176 0 150551359.77833176 -65459610.262298584 0 0 0 0 -39517328.95771265 23867687.601144075 0 23867687.601144075 9808338.5682830811 0 0 0 0 1214077911.5659764 17314381.333530426 0 17314381.333530426 -247856668.06896973 0 0 0 0 843354.43455148721 5035718.1817744598 0 5035718.1817744598 5763214.1744409949 0 0 0 0 665395931.43239641 463758023.34214783 0 463758023.34214783 -271119406.0463295 0 0 0 0 -2548478.9955422878 17477638.281689644 0 17477638.281689644 -2756906.2730026245 0 0 0 0 -10449507.428412437 30422767.048187256 0 30422767.048187256 -3025228.382106781 0 0 0 0 -1050746.1551337242 23987466.823114395 0 23987466.823114395 -3479437.2435913086 0 0 0 0 -16996444.983208656 7794388.3741512299 0 7794388.3741512299 5154990.0381622314 0 0 0 0 -580936.72119808197 13793733.526283264 0 13793733.526283264 3327320.7572250366 0 0 0 0 -598555.69474744797 11134598.178935051 0 11134598.178935051 15379679.663459778 0 0 0 0 -3383203.9018039703 18138871.665626526 0 18138871.665626526 12864181.243965149 0 0 0 0 2188330883.4941635 -1784930426.5226593 0 -1784930426.5226593 511436821.54724741 0 0 0 0 4373180.6301192297 3509531.9142863005 0 3509531.9142863005 -4775225.4609497376 0 0 0 0 -4272775.3173046112 17926557.012631416 0 17926557.012631416 17643864.934608459 0 0 0 0 612071046.86656427 188997811.63271713 0 188997811.63271713 42672950.966293335 0 0 0 0 368758.88507064199 7300531.796970848 0 7300531.796970848 10251375.316781573 0 0 0 0 594748300.79364419 181368741.02542877 0 181368741.02542877 48981869.760986328 0 0 0 0 734729799.97663856 190769409.42862701 0 190769409.42862701 -9844010.0262908936 0 0 0 0 723224295.0241437 238630175.43045044 0 238630175.43045044 108612628.96762085 0 0 0 0 652246264.28671002 301010252.55076599 0 301010252.55076599 235336893.57214355 0 0 0 0 -285611238.3316946 394516570.1417923 0 394516570.1417923 597715858.23739624 0 0 0 0 621726.71937264153 1030118.6751965303 0 1030118.6751965303 -263173.63120947406 0 0 0 0 16814049.334079742 28022844.137145996 0 28022844.137145996 50284620.753005981 0 0 0 0 397857917.0411253 103217554.52574158 0 103217554.52574158 -66659038.821006775 0 0 0 0 1115112228.7687778 308235506.29273224 0 308235506.29273224 17422491.894927979 0 0 0 0 48642.034445488709 492992.50537671708 0 492992.50537671708 2870674.355386097 0 0 0 0 865948533.58320904 460286513.35764313 0 460286513.35764313 211911233.10583496 0 0 0 0 1441830844.5095878 426002467.75182343 0 426002467.75182343 28495630.8344841 0 0 0 0 -163899.26865354925 -1839012.7903459002 0 -1839012.7903459002 4677601.2874214426 0 0 0 0 698078618.70779896 -737468761.9352417 0 -737468761.9352417 423781776.31627655 0 0 0 0 -149744191.54407692 1747013090.5417747 0 1747013090.5417747 57648773.28131485 0 0 0 0 783410926.02261734 -271787980.83064032 0 -271787980.83064032 105045492.74243927 0 0 0 0 -2973297527.0775375 2203949243.5000305 0 2203949243.5000305 224434773.01649666 0 0 0 0 -337140888.93778229 -62011886.430923462 0 -62011886.430923462 387336353.38793945 0 0 0 0 -181310958.53772068 -747488494.66110611 0 -747488494.66110611 1502857287.779007 0 0 0 0 195552684.59439564 -474799034.9073143 0 -474799034.9073143 375534362.56877518 0 0 0 0 -74657420.961826324 -315159287.75688934 0 -315159287.75688934 588211315.35592651 0 0 0 0 -124479317.555408 -127150632.47393036 0 -127150632.47393036 176338545.58061218 0 0 0 0 1551557.4177017212 -395553029.00462341 0 -395553029.00462341 383620928.5451622 0 0 0 0 -22466126.298207283 -235014159.51405716 0 -235014159.51405716 -6582833.4475667477 0 0 0 0 -251626917.53913093 131638270.36109734 0 131638270.36109734 332172.17047119141 0 0 0 0 -136752017.51431322 -62973083.861724854 0 -62973083.861724854 308839321.71715546 0 0 0 0 -229817938.29473305 177640340.06772614 0 177640340.06772614 145804167.59422302 0 0 0 0 -235986152.09531757 118843414.00882721 0 118843414.00882721 -74151002.652305603 0 0 0 0 -473670446.7945652 770956424.07160187 0 770956424.07160187 -129389994.19708252 0 0 0 0 -200579835.92410851 65640021.045808792 0 65640021.045808792 506027303.14299011 0 0 0 0 -783934539.07103157 229326934.51917267 0 229326934.51917267 1175236750.8288021 0 0 0 0 16612401.112107277 19342026.125303268 0 19342026.125303268 1009627.068359375 0 0 0 0 13607030.703725576 23749295.273448944 0 23749295.273448944 2067504.7364845276 0 0 0 0 5068362.7685730662 5657400.3924508644 0 5657400.3924508644 -6867096.1771346889 0 0 0 0 3448065.0890455246 25274776.795146942 0 25274776.795146942 -4738573.5918693542 0 0 0 0 16471899.335157633 22580853.110798836 0 22580853.110798836 -7319573.4875106812 0 0 0 0 19311286.84525156 16412978.988745213 0 16412978.988745213 843372.92483139038 0 0 0 0 2383946.1915922165 18330763.073165894 0 18330763.073165894 2126925.2076797485 0 0 0 0 12672457.639727116 8104990.2139396667 0 8104990.2139396667 -4542034.4584350586 0 0 0 0 15640537.927704811 3346696.3446269035 0 3346696.3446269035 -7044803.6720962524 0 0 0 0 27904795.694075868 10900223.159210205 0 10900223.159210205 -36552982.097663879 0 0 0 0 -10406914.704011917 166268027.17590332 0 166268027.17590332 -423108396.50269508 0 0 0 0 -34265487.074134216 31327712.403915405 0 31327712.403915405 44182201.144390106 0 0 0 0 1568658.0754038095 10811439.429790497 0 10811439.429790497 7902515.7745895386 0 0 0 0 -140540.4723436709 3417727.6244667498 0 3417727.6244667498 12744740.404612813 0 0 0 0 1162335.9357174782 7673339.7908518035 0 7673339.7908518035 -4922648.2384814657 0 0 0 0 -3842633.1851072311 8091085.3948574066 0 8091085.3948574066 6880070.0151138306 0 0 0 0 1062720.2183982139 1851652.77770303 0 1851652.77770303 8075254.4968306758 0 0 0 0 -2880291.6962418556 9322671.2719459534 0 9322671.2719459534 10822999.569057465 0 0 0 0 -3486293.1583175659 6424991.4943199158 0 6424991.4943199158 6368978.1886062622 0 0 0 0 -2303267.3151069283 4212899.0104308128 0 4212899.0104308128 3037175.9229278564 0 0 0 0 -6982529.7575726956 2729586.8264014721 0 2729586.8264014721 20159524.229106903 0 0 0 0 -6376953.0322973132 6734767.9468324184 0 6734767.9468324184 15684673.753158569 0 0 0 0 326491.81993669632 1798612.2489466127 0 1798612.2489466127 9454344.7395530716 0 0 0 0 -3370856.2121162415 3467718.955698967 0 3467718.955698967 13729185.777099609 0 0 0 0 567341.20713853836 -364809.55313873291 0 -364809.55313873291 15604909.167692184 0 0 0 0 -948929.95419025421 -1480759.2270622253 0 -1480759.2270622253 19388433.900192261 0 0 0 0 -4850389.5807055235 1323477.1131658554 0 1323477.1131658554 17435133.05316925 0 0 0 0 879635.12145484344 -1173445.4033563752 0 -1173445.4033563752 6655610.1042942666 0 0 0 0 -329293475.0334872 103916500.63672256 0 103916500.63672256 87081659.883773804 0 0 0 0 1715106.6367321014 -2004832.1748924255 0 -2004832.1748924255 16550310.480545044 0 0 0 0 37344285.6331743 68011072.386871338 0 68011072.386871338 26613212.797622681 0 0 0 0 224922103.01581717 -71309866.451786041 0 -71309866.451786041 -5039096.6825428009 0 0 0 0 -46251112.549826622 18182101.289085388 0 18182101.289085388 77684485.586708069 0 0 0 0 -522645.1744690442 1296767.0548495557 0 1296767.0548495557 2851736.6302085109 0 0 0 0 -46629823.814358234 13338773.980438232 0 13338773.980438232 36397187.438522339 0 0 0 0 126956.84025768144 694255.92530752346 0 694255.92530752346 2041228.9772622772 0 0 0 0 827309.55524873734 53648531.385276794 0 53648531.385276794 6691248.9615478516 0 0 0 0 25559665.471689701 19130956.01750946 0 19130956.01750946 33221874.008598328 0 0 0 0 -2352575.3945698468 5073899.7329118308 0 5073899.7329118308 5616748.1020530909 0 0 0 0 17167179.638690948 13549532.388557434 0 13549532.388557434 13705301.117399216 0 0 0 0 29027828.646957979 72008354.549806833 0 72008354.549806833 194761238.20949936 0 0 0 0 9416163.8363332748 -23171305.759346008 0 -23171305.759346008 80134549.022377014 0 0 0 0 -3364705.2727518082 17107193.385818481 0 17107193.385818481 87756698.312861443 0 0 0 0 24619543.462023556 34729328.172204018 0 34729328.172204018 38653648.448562622 0 0 0 0 -67248808.987344503 -54838504.032493591 0 -54838504.032493591 39189345.595858574 0 0 0 0 -152522589.95919132 6966017.4774703979 0 6966017.4774703979 200757297.57847595 0 0 0 0 -32152049.637047291 -91878030.053611755 0 -91878030.053611755 271848249.3911171 0 0 0 0 -5322.2022686026758 1423504.4689703193 0 1423504.4689703193 794098.25509839505 0 0 0 0 -3753202.4620888233 494610184.76893616 0 494610184.76893616 347615502.18832397 0 0 0 0 -131218382.06650949 -123120492.46821213 0 -123120492.46821213 262042193.67734718 0 0 0 0 -214010078.50086194 -497519285.98799849 0 -497519285.98799849 1179618816.0960388 0 0 0 0 189774874.82305533 -373904383.72792053 0 -373904383.72792053 398073923.99874878 0 0 0 0 162283559.72448498 -413465430.27684975 0 -413465430.27684975 929823589.21756744 0 0 0 0 20448827.423891306 -42523658.644933701 0 -42523658.644933701 74203665.328204155 0 0 0 0 -231984.56998733262 -796927.57191933598 0 -796927.57191933598 1438980.2666406669 0 0 0 0 14474918.592215061 -18866297.096111298 0 -18866297.096111298 82406025.441749573 0 0 0 0 -38233031.629592508 -42917750.625701904 0 -42917750.625701904 1192574324.7854919 0 0 0 0 -797247989.65777719 -35144100.46711731 0 -35144100.46711731 4098436251.0674057 0 0 0 0 246560806.11064821 -798669044.29537392 0 -798669044.29537392 1844585622.3602142 0 0 0 0 -694635045.35307717 313165837.36458969 0 313165837.36458969 2910869471.7557602 0 0 0 0 -62034878.412442923 60070981.014183044 0 60070981.014183044 782537231.5137043 0 0 0 0 -635474.35598156916 356996.11439724639 0 356996.11439724639 1436167.1546398886 0 0 0 0 78026800.992264748 -27108368.103672981 0 -27108368.103672981 -244768020.95832062 0 0 0 0 7119546.711373806 263128406.20763016 0 263128406.20763016 196922518.4956665 0 0 0 0 -20036870.779565334 -193854125.89682388 0 -193854125.89682388 395646303.39099121 0 0 0 0 100578549.3273344 165911482.16561508 0 165911482.16561508 -310655075.36232948 0 0 0 0 -3423301.8577974085 405356.27396861836 0 405356.27396861836 4021896.5396664068 0 0 0 0 -628375119.48199558 663213061.81432247 0 663213061.81432247 4085442286.408989 0 0 0 0 1089294822.8801367 834716672.53189468 0 834716672.53189468 641589160.12798309 0 0 0 0 -3181771.3712593704 1143542.1544483835 0 1143542.1544483835 3958537.7543193698 0 0 0 0 952662542.51260173 -1329288258.9261875 0 -1329288258.9261875 1798228555.0480804 0 0 0 0 -5217789.6486387216 2709655.3548643831 0 2709655.3548643831 9700446.4969198592 0 0 0 0 -5697543.0028765202 3820394.4445371628 0 3820394.4445371628 -16926581.927101135 0 0 0 0 -27178819.968490601 -73616533.457496643 0 -73616533.457496643 -42309096.463542938 0 0 0 0 -1453571.2639975832 1673912.1466566897 0 1673912.1466566897 -354451.51143375039 0 0 0 0 -398077714.24731398 135702727.78531837 0 135702727.78531837 294861753.7460022 0 0 0 0 652697183.42403698 19190445.992385864 0 19190445.992385864 63798336.937719345 0 0 0 0 572839327.38479853 -501095370.33062744 0 -501095370.33062744 404671600.04547048 0 0 0 0 -33366519.696211815 -19607044.742530823 0 -19607044.742530823 832279168.41609955 0 0 0 0 -27913523.961034775 -471945290.01666641 0 -471945290.01666641 520763149.9262619 0 0 0 0 67739680.99663949 -433821095.50383949 0 -433821095.50383949 262405446.45707703 0 0 0 0 547705.26930193545 -955296.44672058942 0 -955296.44672058942 2061568.1684303135 0 0 0 0 366974985.77336514 305217075.60701656 0 305217075.60701656 41375938.000396729 0 0 0 0 47381652.689476967 -382171749.20337677 0 -382171749.20337677 362727705.3931427 0 0 0 0 198715214.95981133 -359197058.13152528 0 -359197058.13152528 151079533.48416138 0 0 0 0 -14817514.732777596 12657008.843225956 0 12657008.843225956 15983344.375053406 0 0 0 0 -648274.28020203905 -61939.853504729457 0 -61939.853504729457 205169.24534127116 0 0 0 0 -45046265.416876793 -384301386.66577911 0 -384301386.66577911 431498876.9849205 0 0 0 0 -45836812.345566273 -421126206.18172836 0 -421126206.18172836 377076603.40402985 0 0 0 0 242760585.38409519 -255334828.60699463 0 -255334828.60699463 284247171.35762405 0 0 0 0 108767917.23903275 116473614.40381622 0 116473614.40381622 -70455182.462518692 0 0 0 0 -104785958.35805893 1146078.8204612732 0 1146078.8204612732 52694351.563789368 0 0 0 0 -557188233.36770999 -182388738.98896408 0 -182388738.98896408 461003127.33200073 0 0 0 0 217211691.50456476 780708917.78405762 0 780708917.78405762 792379505.53846741 0 0 0 0 1018236323.4651551 -935963188.22233582 0 -935963188.22233582 747315037.30555248 0 0 0 0 -1300714.2701329195 -5286227.9875046024 0 -5286227.9875046024 12838044.121210091 0 0 0 0 -6502920.45889387 835685.1123530902 0 835685.1123530902 10485514.559333874 0 0 0 0 -645651.84420585632 31356077.027469635 0 31356077.027469635 -7311204.3203353882 0 0 0 0 4971846.1435585022 -8882872.6726570129 0 -8882872.6726570129 -4992086.3260650635 0 0 0 0 434559457.85603356 80347473.540645599 0 80347473.540645599 -219407271.17512894 0 0 0 0 9004054.4522676468 -634207327.47845268 0 -634207327.47845268 1250461435.9022217 0 0 0 0 -386418052.98333228 34734166.945404053 0 34734166.945404053 1922072414.2129517 0 0 0 0 -551826653.92571676 -635019910.91392899 0 -635019910.91392899 4089781544.9631639 0 0 0 0 -105419140.00713561 1554418066.5547905 0 1554418066.5547905 4213464370.6153564 0 0 0 0 -396447827.00351709 -47756391.96377039 0 -47756391.96377039 1244629405.0888519 0 0 0 0 -1978992.186853223 -141003.93482511491 0 -141003.93482511491 9427886.8621363565 0 0 0 0 -87556803.874114782 93338316.804206848 0 93338316.804206848 1218509602.6855927 0 0 0 0 36563113.872969687 -100563000.58501053 0 -100563000.58501053 -92665830.405246735 0 0 0 0 -801191642.6217941 -28625434.481536865 0 -28625434.481536865 151676237.32279968 0 0 0 0 724147228.53392303 -374134012.41556931 0 -374134012.41556931 -401507458.32923126 0 0 0 0 -673942350.98623133 245374086.51293945 0 245374086.51293945 697749851.47103119 0 0 0 0 843640226.80958617 -1900766276.011528 0 -1900766276.011528 1419956808.6026535 0 0 0 0 -163870.5440507062 -638866.80530233309 0 -638866.80530233309 3695914.107614398 0 0 0 0 452360301.59522396 -2474104352.3912754 0 -2474104352.3912754 2189972401.7615204 0 0 0 0 -109330061.3526776 -1449457912.134903 0 -1449457912.134903 4196278795.0073271 0 0 0 0 150101092.01633942 -559255782.1199379 0 -559255782.1199379 2331256421.9353232 0 0 0 0 382695495.25221008 -1012654815.3714638 0 -1012654815.3714638 2564642385.3738976 0 0 0 0 529978865.7324394 136628069.84407043 0 136628069.84407043 203768697.74743652 0 0 0 0 679932601.2377317 372630095.29584312 0 372630095.29584312 -272668994.44422913 0 0 0 0 -288252659.93096626 496805268.26281738 0 496805268.26281738 -369226571.26656723 0 0 0 0 -1129081.0255528167 -799740.9719723016 0 -799740.9719723016 2617702.7341145314 0 0 0 0 -71843738.036192179 901754746.22535706 0 901754746.22535706 385591612.27356339 0 0 0 0 855374755.21002495 664361112.86668396 0 664361112.86668396 -66749594.760971069 0 0 0 0 -259434929.2079767 22746472.617164612 0 22746472.617164612 512413365.11924362 0 0 0 0 2938294.7114008903 -594596.00615432113 0 -594596.00615432113 190481.5905690575 0 0 0 0 32786196.841125727 836421449.27036667 0 836421449.27036667 1781556657.365181 0 0 0 0 51862631.535553932 589298271.76866913 0 589298271.76866913 150597914.60495758 0 0 0 0 231792366.86153781 346272239.42953873 0 346272239.42953873 471883650.82011414 0 0 0 0 9069706.5202770233 -11466275.946817398 0 -11466275.946817398 18409424.009580731 0 0 0 0 397769.8496799469 3575342.8560094833 0 3575342.8560094833 24364942.233100653 0 0 0 0 -7106689.8000335693 6461858.1145186424 0 6461858.1145186424 4056355.4722590446 0 0 0 0 15289693.730017185 -15452230.140749216 0 -15452230.140749216 43742943.136916161 0 0 0 0 6286564.492975235 951051.7084377408 0 951051.7084377408 56063682.259334087 0 0 0 0 22678080.618816376 -56502272.354073524 0 -56502272.354073524 58486999.06384287 0 0 0 0 -73310212.222775459 -79673025.260086536 0 -79673025.260086536 118308786.19994879 0 0 0 0 -10293608.931923866 1836949.6325922012 0 1836949.6325922012 32858447.857912064 0 0 0 0 20960559.066883087 -30178316.75109458 0 -30178316.75109458 3418600.7692154646 0 0 0 0 -5211550.3351527173 3272898.226284171 0 3272898.226284171 13201925.709057566 0 0 0 0 23551603.545894146 14228084.701699257 0 14228084.701699257 6283156.6507644653 0 0 0 0 -79814635.388747215 50253900.598155916 0 50253900.598155916 312079632.49186909 0 0 0 0 -35679085.206429482 -140641822.34770912 0 -140641822.34770912 77000966.24740541 0 0 0 0 6925646.0072078705 17235370.259303093 0 17235370.259303093 13535898.005462646 0 0 0 0 -551832.35630664602 1440346.864579608 0 1440346.864579608 14910754.465908183 0 0 0 0 -23617145.345599055 5022246.4555184841 0 5022246.4555184841 59561168.875190735 0 0 0 0 15694507.261212349 1650001.422088623 0 1650001.422088623 1956666.9216995239 0 0 0 0 640445.35134041402 2079395.9438169559 0 2079395.9438169559 479296.20863779914 0 0 0 0 15089261.108163834 10397371.257553101 0 10397371.257553101 890236.59003829956 0 0 0 0 19402940.370765686 2017498.2857170105 0 2017498.2857170105 16147644.055522919 0 0 0 0 9609483.3937644958 15608270.898834229 0 15608270.898834229 33626587.540138245 0 0 0 0 10022608.434520006 10302143.384505153 0 10302143.384505153 13663873.529296875 0 0 0 0 -692061.11132893804 666438.91027588863 0 666438.91027588863 5182538.2035083557 0 0 0 0 -19075796.229083061 -10446270.809307575 0 -10446270.809307575 19866283.301558495 0 0 0 0 51233171.827877045 34807629.819983006 0 34807629.819983006 27838088.948629379 0 0 0 0 292415963.08434296 37315632.678094387 0 37315632.678094387 -100954637.35521698 0 0 0 0 -10066.506089747068 -192744.2462826781 0 -192744.2462826781 163636.94200333208 0 0 0 0 -116017.18531564577 454649.84219137719 0 454649.84219137719 7075332.16571669 0 0 0 0 -2449119.5655312538 8177013.7234930992 0 8177013.7234930992 1262580.4637832642 0 0 0 0 -20583939.308418274 7713851.8501833677 0 7713851.8501833677 12473504.992294312 0 0 0 0 73968025.888949394 58107300.174860001 0 58107300.174860001 -2713830.2411499023 0 0 0 0 -1587640.4673907245 3285085.5383552611 0 3285085.5383552611 2329049.5588116013 0 0 0 0 -48554094.375664234 102911230.24910498 0 102911230.24910498 32822422.258153915 0 0 0 0 22786904.169189453 23887118.426786423 0 23887118.426786423 18705229.075325012 0 0 0 0 -52975634.001089893 -1978722.3727611899 0 -1978722.3727611899 37171239.515817642 0 0 0 0 -5212091.0007451652 3188115.0391844665 0 3188115.0391844665 16336712.425060388 0 0 0 0 25268404.295541763 17268927.438814163 0 17268927.438814163 13549616.565216064 0 0 0 0 16745660.581834078 -1232441.7916998863 0 -1232441.7916998863 2744716.289560318 0 0 0 0 20103196.074911118 -8760952.1357374191 0 -8760952.1357374191 19326689.930757523 0 0 0 0 4456032.0031452179 13544452.942032814 0 13544452.942032814 30270128.837158203 0 0 0 0 8304836.4784338474 16654412.722854137 0 16654412.722854137 27691828.221809387 0 0 0 0 -5044280.7183227539 20823831.450669289 0 20823831.450669289 13038961.592733383 0 0 0 0 3621272.3388156891 9828717.9811210632 0 9828717.9811210632 25686337.354354858 0 0 0 0 9872939.928653717 12124787.59340477 0 12124787.59340477 18196079.585871696 0 0 0 0 -14514470.606826782 3954680.3537335396 0 3954680.3537335396 23999535.324584961 0 0 0 0 -141728.31431488344 2492907.0860640998 0 2492907.0860640998 9600117.2102065608 0 0 0 0 -7653537.5301055908 -1397959.1749668121 0 -1397959.1749668121 16047844.152690887 0 0 0 0 -10076276.304618835 277946.86611175537 0 277946.86611175537 18469189.677986145 0 0 0 0 727277.36735916138 36627725.012346268 0 36627725.012346268 -6400392.1268348694 0 0 0 0 -990578.3130616867 -154222.59051068872 0 -154222.59051068872 1618117.5303029893 0 0 0 0 2056426.5442562103 -2481846.8971512318 0 -2481846.8971512318 13443011.182430267 0 0 0 0 -9035946.845664978 4549123.2429623604 0 4549123.2429623604 9650608.1354568005 0 0 0 0 -15859289.432694912 8480170.1143475771 0 8480170.1143475771 14833573.482305527 0 0 0 0 -5935180.9539480209 10154172.085560322 0 10154172.085560322 19765335.47048378 0 0 0 0 -6222960.0183877945 6587464.1205556393 0 6587464.1205556393 11036679.153668404 0 0 0 0 -9693229.5816841125 397600.29370975494 0 397600.29370975494 5853055.4048523903 0 0 0 0 -1691685.1878824234 -2680832.8957984447 0 -2680832.8957984447 8774396.6350221634 0 0 0 0 2886012.3108825684 -2708597.1941962242 0 -2708597.1941962242 5055708.0057592392 0 0 0 0 7660639.3027477264 -3759743.7412626743 0 -3759743.7412626743 14941138.682747841 0 0 0 0 13952677.066384315 2449850.4039216042 0 2449850.4039216042 6613093.3979473114 0 0 0 0 943013.54111671448 -2973480.9484536648 0 -2973480.9484536648 19389693.457385063 0 0 0 0 -3140174.452960968 4829337.2746448517 0 4829337.2746448517 21650215.732974291 0 0 0 0 -648519.24516639533 1267166.4191281446 0 1267166.4191281446 8339322.143316594 0 0 0 0 6435119.4783306122 -4779896.9828124046 0 -4779896.9828124046 1589784.7351617813 0 0 0 0 -83312.420395406894 401473.76544801798 0 401473.76544801798 2077780.0275731904 0 0 0 0 -1740067.9124655724 4989849.1787910461 0 4989849.1787910461 16490645.391077042 0 0 0 0 1499676.304307729 3529123.2776486874 0 3529123.2776486874 7779523.3300571442 0 0 0 0 852028.22542906681 1248128.3440457983 0 1248128.3440457983 8760696.8548779339 0 0 0 0 -3386789.0094337463 -11861458.010065079 0 -11861458.010065079 5881796.9042882919 0 0 0 0 1966764.2189130783 24059339.776390076 0 24059339.776390076 12092956.087685585 0 0 0 0 -784235.85904066614 -1185763.9854267463 0 -1185763.9854267463 9673037.1365418918 0 0 0 0 -5254274.1371455193 -5999276.2247467041 0 -5999276.2247467041 18325392.63828373 0 0 0 0 6769249.8239469528 -11294541.065396309 0 -11294541.065396309 -59726244.049755096 0 0 0 0 -6779023.2008571625 -16100787.703196526 0 -16100787.703196526 -20939684.735936165 0 0 0 0 -11263006.525194168 3272824.4774060249 0 3272824.4774060249 13336646.096000671 0 0 0 0 8511200.7332248688 2057902.4184026718 0 2057902.4184026718 -5533684.8948979378 0 0 0 0 -12010866.119009018 -10375609.991709709 0 -10375609.991709709 -85771.984160900116 0 0 0 0 -13305091.220693588 -14016914.526704788 0 -14016914.526704788 -21367709.166437149 0 0 0 0 -325713.77641579835 -1157660.2626461049 0 -1157660.2626461049 340639.58336775238 0 0 0 0 6039832.4260287285 8305383.2485675812 0 8305383.2485675812 4839463.7356872559 0 0 0 0 5500823.3479969501 -1366647.9881629944 0 -1366647.9881629944 6398576.2982711792 0 0 0 0 1216442.0493068695 3033807.5492515564 0 3033807.5492515564 1879824.7341995239 0 0 0 0 9426106.4874327183 2541096.4417204857 0 2541096.4417204857 -396502.11313819885 0 0 0 0 1453921.7798060067 -2694318.1655727476 0 -2694318.1655727476 30983345.830154419 0 0 0 0 -49562.387933308259 456905.64052251261 0 456905.64052251261 959121.03766605258 0 0 0 0 -974786.78103351593 3854428.4272384644 0 3854428.4272384644 3103502.8916034698 0 0 0 0 336899.41635101615 1566734.7667120257 0 1566734.7667120257 6491665.4319871422 0 0 0 0 61263.32138633728 -552997.4614982605 0 -552997.4614982605 2039571.9715332985 0 0 0 0 7304538.9641189575 9291144.7689704895 0 9291144.7689704895 9153384.0063400269 0 0 0 0 -1430123.4163011909 88125.475086212158 0 88125.475086212158 4203353.182510376 0 0 0 0 -2324632.1138158794 -166272.57331734337 0 -166272.57331734337 8466927.8174618483 0 0 0 0 1837979.0996331838 4346919.7364561707 0 4346919.7364561707 4977065.4913090449 0 0 0 0 -3618585.8800888062 2902632.5796279907 0 2902632.5796279907 6060736.8322525024 0 0 0 0 779809.91517775215 -1389921.7577579813 0 -1389921.7577579813 7880825.4595926292 0 0 0 0 -3425660.3717138348 2008168.7170429311 0 2008168.7170429311 22291076.036440246 0 0 0 0 -356197439.81109238 35992430.454223156 0 35992430.454223156 19798053.04250145 0 0 0 0 -93027.381379288621 -2045279.9742202931 0 -2045279.9742202931 13653910.264699684 0 0 0 0 -468313.66170930862 245727070.23660946 0 245727070.23660946 8044414.0651522279 0 0 0 0 279917522.08097649 -161911978.51791954 0 -161911978.51791954 -57665979.929750443 0 0 0 0 -26671607.774872303 -124359900.43331146 0 -124359900.43331146 202683844.85518274 0 0 0 0 -134560351.01831055 2003459.8103356361 0 2003459.8103356361 182696754.48488998 0 0 0 0 -23772514.211842537 69047812.837145329 0 69047812.837145329 -33543517.574798629 0 0 0 0 2153737.1195371412 -59973201.355967641 0 -59973201.355967641 -28378237.091150284 0 0 0 0 424823.48355659354 470400.04209774494 0 470400.04209774494 -92198.729389199987 0 0 0 0 -3153638.213861227 29777244.404663086 0 29777244.404663086 4922949.8651885986 0 0 0 0 -1060515.6026258462 6698212.2453065235 0 6698212.2453065235 21396326.941789955 0 0 0 0 -426398.36781907082 16740163.807987213 0 16740163.807987213 13145844.283927917 0 0 0 0 -3792573.8276205063 11883402.397453308 0 11883402.397453308 7411111.386590004 0 0 0 0 -564514.72177028656 23803070.339836121 0 23803070.339836121 36467704.103385925 0 0 0 0 -4504371.9574241638 -8955868.8320994377 0 -8955868.8320994377 67703521.835394502 0 0 0 0 -13181468.79069519 -7120651.057533741 0 -7120651.057533741 100663300.32715702 0 0 0 0 3724970.6960582733 10355037.455220699 0 10355037.455220699 28043324.313969612 0 0 0 0 7539304.6195514202 604905.63621747494 0 604905.63621747494 13582735.605304718 0 0 0 0 -20490762.480459213 7172886.6113972664 0 7172886.6113972664 64701738.388342857 0 0 0 0 17801300.215734959 -29788238.486038208 0 -29788238.486038208 75608187.425196767 0 0 0 0 -28572437.719779968 6420059.466001749 0 6420059.466001749 89964587.909190178 0 0 0 0 -14415239.783854485 21127528.551010132 0 21127528.551010132 8578922.322827816 0 0 0 0 -50282546.253218651 72756700.983234882 0 72756700.983234882 -46762752.240804911 0 0 0 0 -6039769.4484434128 -6471933.7673211098 0 -6471933.7673211098 79639283.776447296 0 0 0 0 109390.90174593893 1118778.6320644964 0 1118778.6320644964 1279361.3756630861 0 0 0 0 4958598.0198550224 13652591.031501889 0 13652591.031501889 66041811.58184731 0 0 0 0 8434628.7138972282 27219634.343432188 0 27219634.343432188 94390307.362816304 0 0 0 0 786426.11914752051 3426714.1254107989 0 3426714.1254107989 5942541.3826808827 0 0 0 0 -6428671.4912948608 19536543.323351383 0 19536543.323351383 -11261276.999972418 0 0 0 0 2120448.9734652662 1501709.8014858291 0 1501709.8014858291 -1226584.9860591027 0 0 0 0 10992848.592337608 1635828.0224680901 0 1635828.0224680901 -10704572.328184605 0 0 0 0 -11473658.201018438 1487081.3579849601 0 1487081.3579849601 24884749.487289429 0 0 0 0 -1464555.8835994131 4440642.4514872879 0 4440642.4514872879 19251117.983125567 0 0 0 0 -3594047.6542949677 -5093824.1144561768 0 -5093824.1144561768 28556637.733293533 0 0 0 0 -3041451.7801609039 4034223.4873466492 0 4034223.4873466492 7309087.9976577759 0 0 0 0 -2450732.6415715218 1984382.6511912346 0 1984382.6511912346 7840800.004907608 0 0 0 0 -936583.86814659031 -276513.53221544903 0 -276513.53221544903 6279769.8434996549 0 0 0 0 -420291.38841954374 8895672.2418215331 0 8895672.2418215331 5149213.0848361626 0 0 0 0 -1236258.8250937462 7718460.1354064941 0 7718460.1354064941 38984592.682006836 0 0 0 0 -13248223.992268085 15823935.453487396 0 15823935.453487396 44528973.251876831 0 0 0 0 -742220.83121985896 5904128.4974840172 0 5904128.4974840172 19635162.000356436 0 0 0 0 -20819402.473288059 22778316.382038116 0 22778316.382038116 19696832.867233276 0 0 0 0 -20142238.696732998 7527164.190410614 0 7527164.190410614 34650762.25856781 0 0 0 0 -10753972.694384575 -510716.44319152832 0 -510716.44319152832 29871442.928668976 0 0 0 0 -11571510.206360579 -2236384.1811175346 0 -2236384.1811175346 36830633.74092865 0 0 0 0 -6336523.2418165207 -9904867.6385879517 0 -9904867.6385879517 28765759.190155029 0 0 0 0 -1692887.1048297882 -19406059.230331421 0 -19406059.230331421 46146928.434679985 0 0 0 0 -12649513.922622442 -2981947.7609977722 0 -2981947.7609977722 44266131.359924316 0 0 0 0 25118765.418381453 -35432303.188585281 0 -35432303.188585281 46819231.773675919 0 0 0 0 -3969633.6851072311 -10293054.056224823 0 -10293054.056224823 47158252.662253857 0 0 0 0 -4947786.443005085 -7329248.8881874084 0 -7329248.8881874084 64071888.718193054 0 0 0 0 4840504.519733429 -12767636.734165192 0 -12767636.734165192 22285405.942575455 0 0 0 0 11192638.067704201 -15842324.639596939 0 -15842324.639596939 23294730.308265686 0 0 0 0 1420436.7611227036 -16364558.739631653 0 -16364558.739631653 24427850.97454834 0 0 0 0 -6120041.731534481 -9773250.098941803 0 -9773250.098941803 27873321.282714844 0 0 0 0 -8706674.841881752 -8328976.3791046143 0 -8328976.3791046143 27718336.96131134 0 0 0 0 -3454146.8494682312 -12279099.264892578 0 -12279099.264892578 29495641.506004333 0 0 0 0 -4865601.0286726952 -8044821.0896224976 0 -8044821.0896224976 22234358.257888794 0 0 0 0 746451.45809864998 -13741066.157152176 0 -13741066.157152176 21772621.358261108 0 0 0 0 -8599437.0033664703 -7537401.3704147339 0 -7537401.3704147339 19918376.478302002 0 0 0 0 5472652.820189476 -14815226.415969849 0 -14815226.415969849 20312526.357891083 0 0 0 0 -1044584.6012942791 -10895440.194509983 0 -10895440.194509983 20916629.223342896 0 0 0 0 3376529.6021337509 -2125238.8204460144 0 -2125238.8204460144 828452.16986083984 0 0 0 0 703334896.06602538 -1317712390.0571938 0 -1317712390.0571938 2476832324.0158539 0 0 0 0 2451876.503223157 -2088907.8276292812 0 -2088907.8276292812 6653077.4150549257 0 0 0 0 6865609.4077452337 4965893.3962235879 0 4965893.3962235879 3545868.9816847872 0 0 0 0 461531839.24501467 -1552276952.0466266 0 -1552276952.0466266 4261000622.1156845 0 0 0 0 -546774.55992656958 -2870617.9381080251 0 -2870617.9381080251 3408944.3270451427 0 0 0 0 2173543.744661808 682643.13291740417 0 682643.13291740417 10655437.12090683 0 0 0 0 82653.545380462194 21223.918309513479 0 21223.918309513479 8174847.5364233721 0 0 0 0 4761845.3580417633 4410627.6854839325 0 4410627.6854839325 14085437.350561142 0 0 0 0 -426303.86039423943 -1148131.701587677 0 -1148131.701587677 20241119.710868835 0 0 0 0 131894.44834299677 -26618.137542230543 0 -26618.137542230543 -38156.809716381133 0 0 0 0 1294081.0581812623 -1544484.7973208553 0 -1544484.7973208553 12705210.099355284 0 0 0 0 -1193542.9709868431 636000.99015617371 0 636000.99015617371 4179069.9299221039 0 0 0 0 -7367045.185819149 -11888791.305399895 0 -11888791.305399895 18159984.604125977 0 0 0 0 -106268.76811983204 -383270.65855640918 0 -383270.65855640918 1258331.5363404262 0 0 0 0 2084910.9030723572 2456503.0636882782 0 2456503.0636882782 12901464.03856039 0 0 0 0 45713718.271157801 513125117.85258007 0 513125117.85258007 4095090384.7509937 0 0 0 0 1631834.4100100789 1679568.4723088387 0 1679568.4723088387 7512261.0085015018 0 0 0 0 -70881048.589627802 282300839.81275177 0 282300839.81275177 4060446341.5496216 0 0 0 0 1967437.2588939667 2352033.5134391785 0 2352033.5134391785 13069267.484004974 0 0 0 0 3537584.1872890159 -496707.76710168365 0 -496707.76710168365 12957538.175568249 0 0 0 0 -78763036.49984169 274819670.08602905 0 274819670.08602905 4091671695.7030888 0 0 0 0 1461414.6350831012 687362.45614468958 0 687362.45614468958 6653701.081696975 0 0 0 0 4308609.9150731564 2796292.6798391342 0 2796292.6798391342 11981970.811510086 0 0 0 0 2095097.8625669628 2772029.9840920866 0 2772029.9840920866 13402739.811885834 0 0 0 0 86983510.696590126 -575339378.94989395 0 -575339378.94989395 3833052762.8986273 0 0 0 0 1295567.8744044304 1780092.4506607056 0 1780092.4506607056 13921597.651420593 0 0 0 0 3919309.9670925848 1142174.9267738601 0 1142174.9267738601 -908238.6066940343 0 0 0 0 -97222526.481954902 14446066.014976501 0 14446066.014976501 4061643711.3478651 0 0 0 0 1049290.9838523865 2893518.5889587402 0 2893518.5889587402 13715236.846393585 0 0 0 0 21482599.395937443 11041331.512874961 0 11041331.512874961 11163321.69733429 0 0 0 0 5456330.7364009619 8891914.6105852127 0 8891914.6105852127 15198502.287416458 0 0 0 0 12604.446445042238 983316.83784275316 0 983316.83784275316 7527929.7406001687 0 0 0 0 805289103.38698959 1749171949.445436 0 1749171949.445436 4094417901.2436466 0 0 0 0 2661524.1028776276 3290380.7346707438 0 3290380.7346707438 8380347.9128644299 0 0 0 0 4268422.1121789292 1747771.7203232346 0 1747771.7203232346 3944264.1305420608 0 0 0 0 1501690.961912632 3562271.2111549377 0 3562271.2111549377 12755139.604785919 0 0 0 0 2222162.9580432037 2346401.6619415754 0 2346401.6619415754 5629174.4278339315 0 0 0 0 -414094.77278614044 1310915.9162192345 0 1310915.9162192345 5141094.935464859 0 0 0 0 480880211.99553871 -166260042.80230284 0 -166260042.80230284 -432306276.27415586 0 0 0 0 1996417.0289014634 2119161.4330062247 0 2119161.4330062247 11159060.207813226 0 0 0 0 3653582.7927158177 5787088.8292558379 0 5787088.8292558379 10728838.646024983 0 0 0 0 3065690.9081935883 1985494.7713303566 0 1985494.7713303566 5662240.9916763306 0 0 0 0 3746707.1691787243 5569342.6390147209 0 5569342.6390147209 12790063.7196064 0 0 0 0 1293110.5118083954 2674909.9818992615 0 2674909.9818992615 15092548.649953842 0 0 0 0 509397.96349197417 2169531.8040452944 0 2169531.8040452944 11337727.317476928 0 0 0 0 4307005.2384424806 1332354.463711381 0 1332354.463711381 14459187.695835114 0 0 0 0 -717982.42566633224 854472.87653827667 0 854472.87653827667 7809506.7167572975 0 0 0 0 -120542544.63711262 -43086226.961809635 0 -43086226.961809635 8864104.6328870654 0 0 0 0 -85463917.5103302 278088716.09385026 0 278088716.09385026 -81005110.967984915 0 0 0 0 1669564.1109907697 2926975.557126455 0 2926975.557126455 4782368.3924637623 0 0 0 0 -24557.303487387486 1885214.3211406395 0 1885214.3211406395 2372779.032381108 0 0 0 0 135535173.81447631 -677111597.35120249 0 -677111597.35120249 694129965.48537588 0 0 0 0 79904221.123231888 241013316.64208078 0 241013316.64208078 65439611.699015141 0 0 0 0 -178366411.74708366 73897936.881320715 0 73897936.881320715 -29945868.264618874 0 0 0 0 -247609936.96048927 56785378.864208221 0 56785378.864208221 320691740.79981709 0 0 0 0 77563715.637765884 201431884.12957633 0 201431884.12957633 -14260681.450772524 0 0 0 0 -126988.15761754173 122035.32267304766 0 122035.32267304766 1551813.9246835145 0 0 0 0 -44294016.541129112 -99242948.703189731 0 -99242948.703189731 380336870.0054183 0 0 0 0 142843180.55342245 -81555226.344039977 0 -81555226.344039977 17790900.060092926 0 0 0 0 -50235175.392957091 3474168.8965255469 0 3474168.8965255469 24092247.039746761 0 0 0 0 -57270491.020421028 -28525104.857431293 0 -28525104.857431293 12747397.044528961 0 0 0 0 -124249205.03145123 62398366.813544273 0 62398366.813544273 6657518.2894053459 0 0 0 0 -189350.71845674515 -1654852.4895143509 0 -1654852.4895143509 23417691.697052002 0 0 0 0 24254881.094169617 21683081.964031219 0 21683081.964031219 36700796.75428009 0 0 0 0 23508874.736504912 13276937.514758706 0 13276937.514758706 27007024.888839722 0 0 0 0 35973499.405222654 65480661.907415323 0 65480661.907415323 17661166.936450124 0 0 0 0 366497562.37421227 206911897.26230162 0 206911897.26230162 -360961459.01976162 0 0 0 0 -27807409.209598541 -28584290.498524904 0 -28584290.498524904 67579020.389422059 0 0 0 0 4132568.7387212077 1084069.326833528 0 1084069.326833528 -1046294.3433371317 0 0 0 0 14833107.164878845 5996030.2586860657 0 5996030.2586860657 16767122.659348488 0 0 0 0 -4470116.2525530495 3157598.6361406129 0 3157598.6361406129 10199475.177093128 0 0 0 0 -236024065.82624435 486756079.17088556 0 486756079.17088556 -260775328.36564541 0 0 0 0 -154391.34611813165 1988126.7933962729 0 1988126.7933962729 13987225.806515474 0 0 0 0 10249315.748003006 11438368.330104828 0 11438368.330104828 32290411.97304821 0 0 0 0 23774601.527374268 20843508.481559753 0 20843508.481559753 40534611.317077637 0 0 0 0 -477602.11210389296 680979.2978868729 0 680979.2978868729 1626087.4083692161 0 0 0 0 93763066.853590488 90333607.521947443 0 90333607.521947443 -8687102.569791317 0 0 0 0 -505972.11068954132 4094674.5033078506 0 4094674.5033078506 17730087.3977754 0 0 0 0 -225624975.25650024 -182727709.04214048 0 -182727709.04214048 -61116873.148524702 0 0 0 0 18126092.663013458 9243789.35871315 0 9243789.35871315 28926756.19156456 0 0 0 0 11818660.502351761 8484209.8122577667 0 8484209.8122577667 38860064.52305603 0 0 0 0 12635229.927017033 316244.10544633865 0 316244.10544633865 28221756.073516846 0 0 0 0 -43465.866757951677 -1762352.0782164633 0 -1762352.0782164633 10878116.77528739 0 0 0 0 2545594.9475024939 4481585.4774464369 0 4481585.4774464369 5705691.0816206932 0 0 0 0 648227307.98922575 1683569211.3847547 0 1683569211.3847547 3101624487.9956398 0 0 0 0 1489120.2060217857 -221468.72743034363 0 -221468.72743034363 5578568.0345042199 0 0 0 0 -908586.6160859362 289721.76886595017 0 289721.76886595017 8452354.8381258529 0 0 0 0 23804.156295776367 1576716.5008945465 0 1576716.5008945465 10914155.660408497 0 0 0 0 1724122722.6651802 1954821149.9905128 0 1954821149.9905128 2224932750.1458111 0 0 0 0 4704151.2364585521 4060833.2796700094 0 4060833.2796700094 4223312.2863238389 0 0 0 0 1815171.6184186935 -610946.91178274155 0 -610946.91178274155 7881280.698366642 0 0 0 0 -547055.3228764534 853683.76399087906 0 853683.76399087906 7365678.8001105785 0 0 0 0 331843.8989610672 3303711.8330826759 0 3303711.8330826759 5652004.203805238 0 0 0 0 944794643.29822564 2277347237.6834989 0 2277347237.6834989 4988308349.5904016 0 0 0 0 -4127.9219344112207 120821.74008229433 0 120821.74008229433 562313.89301868854 0 0 0 0 1144707841.601475 1658992495.4648211 0 1658992495.4648211 3658158192.0917583 0 0 0 0 248841675.69597989 1326336517.1316013 0 1326336517.1316013 3776118178.8908539 0 0 0 0 460141120.1212213 1611804727.5399079 0 1611804727.5399079 4094541359.766479 0 0 0 0 656693415.82446432 1613928003.3969293 0 1613928003.3969293 3658955004.5620494 0 0 0 0 228885835.8927542 1171511177.0539436 0 1171511177.0539436 3297657418.0877576 0 0 0 0 -213572117.35204574 675953676.02545595 0 675953676.02545595 3503061073.9093556 0 0 0 0 -128054340.82818396 1070409466.9383485 0 1070409466.9383485 4094303475.1293702 0 0 0 0 407934560.63528883 888227660.90308094 0 888227660.90308094 2501600854.1913624 0 0 0 0 601698422.76951373 1219392107.6675367 0 1219392107.6675367 2576844370.9750538 0 0 0 0 647441840.22346294 1386167634.7282848 0 1386167634.7282848 2823432515.0874591 0 0 0 0 681875837.93286443 1373849883.5107899 0 1373849883.5107899 2759031734.6456594 0 0 0 0 615311283.07462692 1242734016.5212383 0 1242734016.5212383 2517754060.1121426 0 0 0 0 -217212.21776248055 -647989.24388238625 0 -647989.24388238625 7674581.5543135712 0 0 0 0 436879716.18151551 1078246554.4906402 0 1078246554.4906402 3188465591.4957428 0 0 0 0 -1030540051.0347142 -611791512.5576992 0 -611791512.5576992 2230026834.0069237 0 0 0 0 -403028608.36899674 191941299.12189674 0 191941299.12189674 2637160440.6436062 0 0 0 0 -860175301.98102808 194372285.31841993 0 194372285.31841993 4093660499.0723357 0 0 0 0 -60828191.049851298 623078168.52773762 0 623078168.52773762 2758036163.4109678 0 0 0 0 -705642766.12744665 410182620.62016892 0 410182620.62016892 2484669353.1600323 0 0 0 0 -788443699.58908308 -574134976.13918114 0 -574134976.13918114 -49403861.379416555 0 0 0 0 -406851544.29870391 2240273169.8489618 0 2240273169.8489618 -108784059.22320938 0 0 0 0 -344539800.31471986 18135173.968560696 0 18135173.968560696 1488193771.7323647 0 0 0 0 241101302.69448328 1619468803.6789703 0 1619468803.6789703 649366114.16946507 0 0 0 0 259935591.65847886 1413915905.7756493 0 1413915905.7756493 2502625046.1639633 0 0 0 0 -413481.79199569946 401083.4949100595 0 401083.4949100595 1874668.2176762233 0 0 0 0 -910458545.9749856 1238215682.4073563 0 1238215682.4073563 985459214.11420822 0 0 0 0 -154922882.05152845 812409598.27159357 0 812409598.27159357 -112399386.93252563 0 0 0 0 -340577776.27386034 739567290.84730244 0 739567290.84730244 1362750844.4956627 0 0 0 0 769300714.0534215 -283902706.04340744 0 -283902706.04340744 815140705.60720825 0 0 0 0 402046072.82145786 -1183193597.5893745 0 -1183193597.5893745 2566695947.7439947 0 0 0 0 145996607.59552765 239285516.491436 0 239285516.491436 2559527539.8825555 0 0 0 0 -23903.381091054063 1108543.4529899471 0 1108543.4529899471 2477453.9722473212 0 0 0 0 -10520198.761116505 7684820.0201911926 0 7684820.0201911926 43369666.084661484 0 0 0 0 2835963.4847625978 2674342.3765726532 0 2674342.3765726532 1637343.6086073043 0 0 0 0 16165121.631546974 13152479.116317749 0 13152479.116317749 26488313.802797496 0 0 0 0 635878609.78921437 1199271599.1403522 0 1199271599.1403522 2471587600.4799786 0 0 0 0 -479831.72315527895 1237124.8515448612 0 1237124.8515448612 5307379.518807251 0 0 0 0 623917645.02883875 1194311209.9058352 0 1194311209.9058352 2524794588.4893818 0 0 0 0 578893319.4280268 788164566.20267391 0 788164566.20267391 1796435423.8057957 0 0 0 0 -3462070.5744544268 47073301.953098297 0 47073301.953098297 -18363974.201766968 0 0 0 0 18660709.415358543 74630606.49090004 0 74630606.49090004 -7195275.4573097229 0 0 0 0 30601759.616206169 123152449.55728149 0 123152449.55728149 -579449403.97154427 0 0 0 0 -306183200.29420781 198555272.8110218 0 198555272.8110218 461942504.93210411 0 0 0 0 -254598846.04699874 124173627.18586731 0 124173627.18586731 138915750.88637161 0 0 0 0 -67500001.143232346 2823834.4961395264 0 2823834.4961395264 27214830.026348114 0 0 0 0 -107398566.31555462 98017424.193712234 0 98017424.193712234 16278403.895967484 0 0 0 0 -7844358.9792499542 77060930.323015213 0 77060930.323015213 19377021.584884644 0 0 0 0 -69937987.048882484 37074341.181112289 0 37074341.181112289 27231436.218496799 0 0 0 0 16620874.564680099 22631569.378940582 0 22631569.378940582 -2931879.0758628845 0 0 0 0 -988913.40027427673 -23101618.733837128 0 -23101618.733837128 21389137.410074234 0 0 0 0 -99276459.728443861 -56366577.773369789 0 -56366577.773369789 12504105.394668579 0 0 0 0 1745743.8079128265 10653533.129119873 0 10653533.129119873 19578686.502708435 0 0 0 0 11755676.438081741 15976957.83896637 0 15976957.83896637 10486891.683540344 0 0 0 0 2046610.0804862976 557760.49995040894 0 557760.49995040894 10480622.940292358 0 0 0 0 -1958028.9135520961 2974765.8650722997 0 2974765.8650722997 5327661.642996395 0 0 0 0 123255.00598822674 267143.49779499602 0 267143.49779499602 7547778.1232122146 0 0 0 0 13109283.028518677 13722444.407283783 0 13722444.407283783 4527791.4432678223 0 0 0 0 13716631.966457367 19733833.753807068 0 19733833.753807068 21889780.064250946 0 0 0 0 11315621.536625862 1742304.1486206055 0 1742304.1486206055 -4900003.5809631348 0 0 0 0 -184996.43720575317 850056.18289229739 0 850056.18289229739 153592.21339091659 0 0 0 0 -532024457.88511944 -439369385.786708 0 -439369385.786708 129505574.62365341 0 0 0 0 7667030.0162067413 -2345229.7708320618 0 -2345229.7708320618 14777956.088440895 0 0 0 0 -250495.781609572 719418.21300450619 0 719418.21300450619 5538139.6142141204 0 0 0 0 -253339888.74424607 -403409172.74921322 0 -403409172.74921322 -90246503.332244873 0 0 0 0 -450675314.41201806 4556320.1146373749 0 4556320.1146373749 143506371.20755768 0 0 0 0 -188855577.64453793 22060775.814308167 0 22060775.814308167 -111802555.85957694 0 0 0 0 -250005163.88342029 -39732369.599679947 0 -39732369.599679947 379698217.12464142 0 0 0 0 -36686986.78233552 206280491.49860048 0 206280491.49860048 589595040.88877106 0 0 0 0 -40959006.27504015 -185202512.99181747 0 -185202512.99181747 615404319.57605934 0 0 0 0 -77247153.342340231 70332184.108104706 0 70332184.108104706 274641966.14503098 0 0 0 0 453096557.29809618 -159763220.17131424 0 -159763220.17131424 198665577.3955574 0 0 0 0 -55516712.26859355 -65127987.908864975 0 -65127987.908864975 168496168.77413177 0 0 0 0 -312321415.70588601 -235194294.99627829 0 -235194294.99627829 340999896.9675293 0 0 0 0 262503366.76526737 62956527.409908295 0 62956527.409908295 952910930.34875727 0 0 0 0 914559533.80122268 758406699.49279702 0 758406699.49279702 906362004.67294693 0 0 0 0 345398176.99397326 219668596.18964386 0 219668596.18964386 594438759.70082855 0 0 0 0 357094285.97700417 354022360.53353262 0 354022360.53353262 785995479.33440399 0 0 0 0 454892055.71274471 -46890603.529136658 0 -46890603.529136658 474411292.31739807 0 0 0 0 326621403.33056688 -48939149.826965332 0 -48939149.826965332 -173156380.28182983 0 0 0 0 544074240.33523464 83268571.744888306 0 83268571.744888306 121283351.31867599 0 0 0 0 193498589.2222147 35258444.004180908 0 35258444.004180908 139426760.92828369 0 0 0 0 -102744954.16143882 -315536718.31060028 0 -315536718.31060028 75554436.868061066 0 0 0 0 -121226270.91799235 -68862624.180364609 0 -68862624.180364609 276748576.18769836 0 0 0 0 -103285129.3698225 -120596049.26172638 0 -120596049.26172638 -127907414.30873108 0 0 0 0 259744263.84942052 -115067736.12973976 0 -115067736.12973976 -182119480.76140594 0 0 0 0 -171697610.47163248 -39035453.04205513 0 -39035453.04205513 -202410519.73035431 0 0 0 0 -372195277.32632518 -426686564.48258591 0 -426686564.48258591 -558838098.27161407 0 0 0 0 -474590584.3155303 -71618278.020915747 0 -71618278.020915747 -24967779.49887085 0 0 0 0 -378668.06658701133 -147740.07345875166 0 -147740.07345875166 21702.296718288213 0 0 0 0 94915.560199591389 6143296.9374316959 0 6143296.9374316959 1666811.5609743875 0 0 0 0 5004010.7550303936 8129714.9877262115 0 8129714.9877262115 15253755.144386292 0 0 0 0 -283183721.59475708 -59558582.070093155 0 -59558582.070093155 -16167091.880794525 0 0 0 0 691441.69984817505 -128731789.67275238 0 -128731789.67275238 -322039010.23854828 0 0 0 0 60815213.957752705 -218470609.69578552 0 -218470609.69578552 -226682127.40765762 0 0 0 0 -197509489.45749903 -232424912.37844467 0 -232424912.37844467 -167304408.95062256 0 0 0 0 182966414.71717453 -9900361.2621874809 0 -9900361.2621874809 -159753241.02051163 0 0 0 0 60924961.997355461 -97892933.660999298 0 -97892933.660999298 -181218027.74769354 0 0 0 0 161097478.03887153 7037337.6829843521 0 7037337.6829843521 -145090131.08454895 0 0 0 0 3786801.240811944 -3882749.9358663559 0 -3882749.9358663559 -61599467.232315063 0 0 0 0 8945077.5940799713 4368068.2997112274 0 4368068.2997112274 -145119721.76065516 0 0 0 0 2812332.5182312131 10436653.035709143 0 10436653.035709143 10344519.992164612 0 0 0 0 -1491092.2252961481 11142408.099339202 0 11142408.099339202 1934544.9410583004 0 0 0 0 -31723068.113125086 -50992247.589982986 0 -50992247.589982986 -89619872.439878464 0 0 0 0 11842269.48806572 21610527.055927277 0 21610527.055927277 7667636.9856262207 0 0 0 0 3608057.5489757061 16876290.284042358 0 16876290.284042358 8938228.1317749023 0 0 0 0 -7357026.6713479757 -72531851.336650848 0 -72531851.336650848 -80055572.863822937 0 0 0 0 6746066.0132017136 9802151.5521736145 0 9802151.5521736145 8306565.8590087891 0 0 0 0 19497038.273098946 19150974.54940033 0 19150974.54940033 3230026.9066772461 0 0 0 0 14561563.176127434 10712234.981330872 0 10712234.981330872 7746039.0983581543 0 0 0 0 19266475.118276596 20106920.855117798 0 20106920.855117798 1078575.9321746826 0 0 0 0 20000501.388063431 29292843.121635437 0 29292843.121635437 -1235086.6402339935 0 0 0 0 33011358.230633736 17405793.26991272 0 17405793.26991272 1408354.7836952209 0 0 0 0 20225427.789716721 22148684.024711609 0 22148684.024711609 2298073.9538116455 0 0 0 0 16474547.299479008 21749608.934646606 0 21749608.934646606 4516188.6889648438 0 0 0 0 16641992.071801662 19791398.040512085 0 19791398.040512085 3826658.0230045319 0 0 0 0 15028360.41503191 23262326.960380554 0 23262326.960380554 9816134.1633834839 0 0 0 0 20988704.622537613 27525580.408027649 0 27525580.408027649 3814391.2619552612 0 0 0 0 9257139.6870727539 28527600.960159302 0 28527600.960159302 5280704.8825378418 0 0 0 0 11589949.737716675 34579129.459663391 0 34579129.459663391 -1478843.3224945068 0 0 0 0 11692208.726917267 17227972.12405777 0 17227972.12405777 12593760.647521973 0 0 0 0 -16900515.333259583 19881455.081493378 0 19881455.081493378 48161357.996650696 0 0 0 0 9464904.5853462219 2786524.6382598877 0 2786524.6382598877 32786711.158744812 0 0 0 0 -14775706.446563959 38136843.140188217 0 38136843.140188217 21219775.568237305 0 0 0 0 298495.24968338013 40228238.402435303 0 40228238.402435303 3612367.6230583191 0 0 0 0 2681065.6947212219 19810136.591011047 0 19810136.591011047 30131358.524623871 0 0 0 0 9229652.5850973129 29324306.533050537 0 29324306.533050537 14962132.800079346 0 0 0 0 8724088.9189720154 20540684.790374756 0 20540684.790374756 19299284.485740662 0 0 0 0 1566521.3436965942 26925356.882339478 0 26925356.882339478 14475940.720592499 0 0 0 0 9296016.5827312469 13799136.206680298 0 13799136.206680298 21779393.414687157 0 0 0 0 7834493.9111146927 17277486.10027504 0 17277486.10027504 15519441.470092773 0 0 0 0 23756181.827690125 8730521.7741661072 0 8730521.7741661072 18307736.174423218 0 0 0 0 6175354.0522689819 17229090.204101562 0 17229090.204101562 20891623.393218994 0 0 0 0 10748557.27573204 12221886.645876884 0 12221886.645876884 14674894.373603821 0 0 0 0 14249016.063840866 18008391.117424011 0 18008391.117424011 15226417.248565674 0 0 0 0 9334270.8623323441 17579026.560871124 0 17579026.560871124 14367607.852310181 0 0 0 0 -1456467.4917351238 1180530.8933866639 0 1180530.8933866639 2455497.8827934694 0 0 0 0 7001912.8760390282 16892592.770107269 0 16892592.770107269 9703782.4698095322 0 0 0 0 9183461.9412078857 18678617.780567169 0 18678617.780567169 13223160.273239136 0 0 0 0 8507784.5130367279 22172932.148593903 0 22172932.148593903 9689971.184545517 0 0 0 0 10925825.042085648 13093058.735149384 0 13093058.735149384 14178002.812253952 0 0 0 0 -5049768.1226439476 -39237173.848047256 0 -39237173.848047256 28531340.103523254 0 0 0 0 -309061.13087133458 156123.76539190114 0 156123.76539190114 2312867.7127990555 0 0 0 0 3870177.1429986954 12217792.875793457 0 12217792.875793457 9404336.7714176178 0 0 0 0 -32256748.922318697 -27102611.481042862 0 -27102611.481042862 -5340400.8897476196 0 0 0 0 -1279520.2890722356 -1287260.6903181896 0 -1287260.6903181896 3348907.367509447 0 0 0 0 -40550526.482825279 6533014.9796562195 0 6533014.9796562195 30780711.838768005 0 0 0 0 -120472232.7101233 213423282.35172749 0 213423282.35172749 -113664041.91362095 0 0 0 0 -4194981.0519538 -869455.64097968116 0 -869455.64097968116 12686625.08042014 0 0 0 0 840891.45023000624 11926120.26225834 0 11926120.26225834 24772886.094268754 0 0 0 0 28143351.48186326 37439355.669815063 0 37439355.669815063 -88516238.363992691 0 0 0 0 -20573379.338292122 64689982.094110489 0 64689982.094110489 -103522314.43787575 0 0 0 0 139087965.94782186 36312347.550655365 0 36312347.550655365 -120916434.82898712 0 0 0 0 92590648.298592567 99742661.960254669 0 99742661.960254669 -155520910.21095276 0 0 0 0 119427352.9810288 174055253.21920967 0 174055253.21920967 -169660951.89200974 0 0 0 0 -143838940.95145702 5541327.0125722885 0 5541327.0125722885 174705659.63360023 0 0 0 0 191280605.73036146 9010800.9705886841 0 9010800.9705886841 252249789.47655678 0 0 0 0 257106555.35391283 210330745.03012204 0 210330745.03012204 105217016.3037529 0 0 0 0 -19904064.719670534 -194212876.63970184 0 -194212876.63970184 659638236.34465981 0 0 0 0 54938957.809349716 279227294.93545103 0 279227294.93545103 549149402.62388611 0 0 0 0 309987994.14645815 9791467.6266202927 0 9791467.6266202927 814580219.33222198 0 0 0 0 -116040126.76587749 -389913026.54074097 0 -389913026.54074097 279355992.25417709 0 0 0 0 -143918632.5710783 27890852.58307457 0 27890852.58307457 98318544.369171143 0 0 0 0 105856.00726271287 8640639.9538901635 0 8640639.9538901635 26087223.904470392 0 0 0 0 -315559799.63989508 357645508.26780319 0 357645508.26780319 90480682.614280701 0 0 0 0 42746471.115141392 -118181196.42079401 0 -118181196.42079401 146708356.45999908 0 0 0 0 232010.61424317141 -174938.66118829511 0 -174938.66118829511 391885.19684423506 0 0 0 0 -17869251.0703578 45643130.324726105 0 45643130.324726105 205625457.18792725 0 0 0 0 -13673244.630284786 -7365544.8943939209 0 -7365544.8943939209 9644369.2727813721 0 0 0 0 7052822.7186698914 102730803.49485779 0 102730803.49485779 -6569908.8782892227 0 0 0 0 17985374.696714997 30452441.470247746 0 30452441.470247746 2052237.7907867432 0 0 0 0 -14605898.073631525 15291352.738330841 0 15291352.738330841 -29753895.813156128 0 0 0 0 -88906356.051344872 88352093.412021637 0 88352093.412021637 15036376.972438812 0 0 0 0 -598320.603874024 369753.58661136962 0 369753.58661136962 1240281.9805724928 0 0 0 0 -214933661.88440478 -298634046.20870972 0 -298634046.20870972 658742711.58850861 0 0 0 0 7535402.0704967976 6463836.7215385437 0 6463836.7215385437 28456281.86831665 0 0 0 0 -645902.92902046349 6793296.2280452866 0 6793296.2280452866 24448447.314320251 0 0 0 0 -215411922.11509365 -488083575.25627136 0 -488083575.25627136 888894422.27173615 0 0 0 0 -201379479.02175069 -527622070.09356117 0 -527622070.09356117 946142869.7131424 0 0 0 0 72424853.47174263 -349217348.02400208 0 -349217348.02400208 431412818.33914948 0 0 0 0 713821013.13460386 -1064756699.2184525 0 -1064756699.2184525 563083396.83132362 0 0 0 0 74263093.327095121 -564522865.34398651 0 -564522865.34398651 1270835051.7759857 0 0 0 0 8997745.5923473239 -719304204.84817696 0 -719304204.84817696 1027740641.1144562 0 0 0 0 519219224.87876785 -676932891.08366394 0 -676932891.08366394 1105026542.8456955 0 0 0 0 -236135888.89876491 -517957316.90480947 0 -517957316.90480947 1050076475.883461 0 0 0 0 -174387223.57678962 -609483760.43013573 0 -609483760.43013573 995631956.09397125 0 0 0 0 -103292677.46103024 -568356027.50964355 0 -568356027.50964355 824887772.66918945 0 0 0 0 -223337028.16887355 -577350904.08605957 0 -577350904.08605957 1228728035.5961494 0 0 0 0 112770659.33945137 -643580156.15940094 0 -643580156.15940094 1065504915.3723755 0 0 0 0 170981550.79368287 -534958047.02192497 0 -534958047.02192497 1251479314.9918365 0 0 0 0 4092190.494240839 8483482.7591743339 0 8483482.7591743339 12408357.743490741 0 0 0 0 501843218.76131278 -723161847.86631107 0 -723161847.86631107 1266743774.7058792 0 0 0 0 436330302.25064784 -563045413.97537613 0 -563045413.97537613 1171736728.5932083 0 0 0 0 387696510.87352598 -658362896.21221161 0 -658362896.21221161 1431859315.3083649 0 0 0 0 196065795.58305687 -529285828.24236393 0 -529285828.24236393 1568205299.4508896 0 0 0 0 526774418.66032571 -654534394.72403145 0 -654534394.72403145 1440095335.1750107 0 0 0 0 735760827.10346019 -1258175046.1912546 0 -1258175046.1912546 1534354203.8676453 0 0 0 0 1356918839.3068118 -1625254523.7506714 0 -1625254523.7506714 1682228071.7389116 0 0 0 0 925641.99825296761 1213237.149944922 0 1213237.149944922 -899367.8470147159 0 0 0 0 444930515.05426645 -633027628.14105034 0 -633027628.14105034 1745339883.151123 0 0 0 0 522591342.83495378 -767808776.52581596 0 -767808776.52581596 1150585407.7621059 0 0 0 0 -20064246.645249605 -109256684.36720085 0 -109256684.36720085 1727159737.9815865 0 0 0 0 -188519253.98623013 -248222110.07571602 0 -248222110.07571602 708613618.54662704 0 0 0 0 -192658257.25490725 -233508272.45390701 0 -233508272.45390701 1103634159.9507408 0 0 0 0 -231558003.64950156 -578397786.34060287 0 -578397786.34060287 1089629783.0669608 0 0 0 0 -215808960.43010426 -554834979.72517776 0 -554834979.72517776 924403994.51594925 0 0 0 0 -229095677.65595174 -559211589.4269619 0 -559211589.4269619 987547915.44594574 0 0 0 0 -220758180.15131736 -530214110.80347443 0 -530214110.80347443 956446468.80166626 0 0 0 0 -342928879.62509918 -290368437.61263466 0 -290368437.61263466 856783700.82007289 0 0 0 0 152925379.28641033 -385487791.73057652 0 -385487791.73057652 862132485.84985733 0 0 0 0 -841076715.24181414 242762256.91076776 0 242762256.91076776 1693877166.9985065 0 0 0 0 -674772.51524268137 2149640.0953728273 0 2149640.0953728273 5647849.6083699912 0 0 0 0 -363389207.76559591 -606286342.34602547 0 -606286342.34602547 917118315.44515228 0 0 0 0 565067537.52891362 -1416277785.6436863 0 -1416277785.6436863 1935091016.5133429 0 0 0 0 -499570.41449523659 982948.93416147213 0 982948.93416147213 3126749.4295110013 0 0 0 0 273493684.96893406 -1635014984.5481534 0 -1635014984.5481534 4831732811.0260582 0 0 0 0 -1074086617.71171 -668070365.86624837 0 -668070365.86624837 4094784395.5489998 0 0 0 0 8415655.6758101881 -176836126.9308815 0 -176836126.9308815 2647881440.9517174 0 0 0 0 28460556.092957199 -3568049.2292518616 0 -3568049.2292518616 1849562294.4721832 0 0 0 0 358573451.30327606 -672529558.04503632 0 -672529558.04503632 2137299511.093998 0 0 0 0 326471746.08403623 -557278527.04584122 0 -557278527.04584122 1409641407.7295151 0 0 0 0 130860404.90815598 -460963993.61277008 0 -460963993.61277008 1381001075.695961 0 0 0 0 358879005.25587839 -515662204.80924034 0 -515662204.80924034 1395235603.9358063 0 0 0 0 -88250286.281814396 -217799483.7103653 0 -217799483.7103653 1429078043.058075 0 0 0 0 -35926063.697638154 -199547510.0518589 0 -199547510.0518589 40637629.721717834 0 0 0 0 144698827.5733645 -369394265.64172745 0 -369394265.64172745 1044393358.1544857 0 0 0 0 70587569.110247493 -50393085.595207214 0 -50393085.595207214 1011369816.0576553 0 0 0 0 -579065659.4446702 976143615.3765974 0 976143615.3765974 2487847919.7082138 0 0 0 0 -501221372.28845602 1249190339.2324886 0 1249190339.2324886 452767887.94482994 0 0 0 0 891956731.62112725 238762243.07360077 0 238762243.07360077 4096129982.3316975 0 0 0 0 -608558760.62197852 130504949.45188904 0 130504949.45188904 4105518877.9329691 0 0 0 0 -451042494.57062304 -16736878.564383507 0 -16736878.564383507 2599269387.583313 0 0 0 0 -373331585.83234936 -695696945.48931789 0 -695696945.48931789 4095016970.7054176 0 0 0 0 461696329.55486727 -791999398.70565796 0 -791999398.70565796 1546632443.0130806 0 0 0 0 311593192.52623522 -540180043.18972015 0 -540180043.18972015 1861883582.6009636 0 0 0 0 1392038.2410351932 7590359.7876251843 0 7590359.7876251843 13223660.582281992 0 0 0 0 434558796.35677546 -1152017222.9243784 0 -1152017222.9243784 2265365405.2129021 0 0 0 0 855067205.39848936 -2028346070.4351826 0 -2028346070.4351826 4087910858.8153677 0 0 0 0 1648930.6337787057 5269224.485081289 0 5269224.485081289 538531.62620048225 0 0 0 0 406241272.96544927 111415073.70584631 0 111415073.70584631 -55502277.006912231 0 0 0 0 5305552.5291368878 4066075.4283017851 0 4066075.4283017851 1539631.8457388654 0 0 0 0 -689397030.03301299 719778274.2509613 0 719778274.2509613 4088514316.7648621 0 0 0 0 295565165.52445912 345435008.66939163 0 345435008.66939163 1522317214.1309738 0 0 0 0 6194463.588337563 2098943747.135704 0 2098943747.135704 1875062629.6634064 0 0 0 0 -319135.65165088803 1733597.0926839896 0 1733597.0926839896 -56598.135876212269 0 0 0 0 -251341275.97599044 -269818122.54612732 0 -269818122.54612732 945856178.69018936 0 0 0 0 -262564911.93807244 -20103575.095961571 0 -20103575.095961571 154427485.37310791 0 0 0 0 -1355559.1106523646 7059075.4218949229 0 7059075.4218949229 2595280.5093019381 0 0 0 0 37406894.150743723 -33825984.717020988 0 -33825984.717020988 42748299.634605408 0 0 0 0 -1485446.1572006671 2396446.9063411728 0 2396446.9063411728 8114536.3755175993 0 0 0 0 -1553459.0033404827 8729952.6618537903 0 8729952.6618537903 -576202.98286437988 0 0 0 0 -603143.05325013399 9470614.1309566498 0 9470614.1309566498 -1643473.866317749 0 0 0 0 2855888.9269631505 4128465.8179740906 0 4128465.8179740906 -2215416.7925949097 0 0 0 0 -1649882.0683233903 4111541.0854902798 0 4111541.0854902798 3342462.588655293 0 0 0 0 -55187.23810172081 1856574.4882507324 0 1856574.4882507324 -570171.81696891785 0 0 0 0 -590874.82514762878 2183517.9835777283 0 2183517.9835777283 -143177.99269866943 0 0 0 0 -9650749.996866703 4869816.9038352966 0 4869816.9038352966 -8968423.7482538223 0 0 0 0 -155237.88375341892 1549181.0308914185 0 1549181.0308914185 -12222705.353630066 0 0 0 0 788119.60061877058 976291.86237344518 0 976291.86237344518 -1539509.2519071028 0 0 0 0 48418097.318944454 53413801.841072083 0 53413801.841072083 -23897300.978370667 0 0 0 0 -11877937.363969982 43120617.732082605 0 43120617.732082605 -14121365.835586548 0 0 0 0 71614101.360850811 -17394450.903881073 0 -17394450.903881073 -23781497.50958252 0 0 0 0 16348060.125017166 47067335.756568909 0 47067335.756568909 -50435808.969610214 0 0 0 0 -20051745.908524513 13015549.875612259 0 13015549.875612259 3742612.2954711914 0 0 0 0 -2953601.1835001707 12116012.841926575 0 12116012.841926575 -8392200.8937149048 0 0 0 0 16688032.401531219 12708665.844337463 0 12708665.844337463 -39167039.114704132 0 0 0 0 3262912.4085888839 3690892.7672651298 0 3690892.7672651298 -5885720.9650953412 0 0 0 0 -296573370.87322569 -211685209.47940063 0 -211685209.47940063 2892527682.443821 0 0 0 0 126235066.58443165 -227696440.7926712 0 -227696440.7926712 1379951997.7485657 0 0 0 0 -106865823.23204523 525875506.24401093 0 525875506.24401093 2263210782.4394379 0 0 0 0 -855255.68679145537 6972.4793450981379 0 6972.4793450981379 1700237.2016734332 0 0 0 0 -571639338.27650654 1218484328.1940689 0 1218484328.1940689 3053607478.035759 0 0 0 0 -688002071.69751811 551077943.63557053 0 551077943.63557053 3598825401.5822983 0 0 0 0 -984387807.20948672 1651056696.7075386 0 1651056696.7075386 4087799253.7339516 0 0 0 0 -164024443.5022316 1002526707.4923306 0 1002526707.4923306 1489152164.9687347 0 0 0 0 -148889155.34149408 1145579491.2767181 0 1145579491.2767181 2147541416.9843597 0 0 0 0 -182563803.46609533 208514321.14391041 0 208514321.14391041 1744574904.2997284 0 0 0 0 -19042323.8634938 621143462.4088974 0 621143462.4088974 1341021481.3939667 0 0 0 0 69228190.353222668 157834301.42819977 0 157834301.42819977 542760733.80743408 0 0 0 0 298385237.43177772 -142159202.60754967 0 -142159202.60754967 121713108.05077362 0 0 0 0 774102423.14661336 909343801.33524323 0 909343801.33524323 1035850906.2504158 0 0 0 0 1304457069.8382897 2622109080.4402771 0 2622109080.4402771 2232047567.9234848 0 0 0 0 1574429598.5529933 1082208307.9527442 0 1082208307.9527442 -526684745.25208282 0 0 0 0 2442572.0329811745 1234057.5396878123 0 1234057.5396878123 639321.23272949271 0 0 0 0 7833471.0644021984 -1156671992.2535553 0 -1156671992.2535553 4094414735.8865423 0 0 0 0 -57553566.565510139 -779786962.99602509 0 -779786962.99602509 1927358859.5919495 0 0 0 0 -263220122.40059662 198808514.80381012 0 198808514.80381012 -128148790.04412842 0 0 0 0 -277168909.31079292 110235581.94021988 0 110235581.94021988 326376775.5320282 0 0 0 0 10574875.331607342 -258864828.46611023 0 -258864828.46611023 287248497.16881275 0 0 0 0 -202637754.02888703 -13204191.405261993 0 -13204191.405261993 13935730.119750977 0 0 0 0 -84699915.111088753 -84431954.875209808 0 -84431954.875209808 -86368343.254814148 0 0 0 0 2376815.1123018265 -159991650.16669083 0 -159991650.16669083 -20826425.059158325 0 0 0 0 -613837.44827422826 -685656.47612810507 0 -685656.47612810507 -110309.13353169151 0 0 0 0 119319720.6952405 -82726308.698078156 0 -82726308.698078156 -612042106.66705322 0 0 0 0 -15922450.612859726 -69736745.117603302 0 -69736745.117603302 -189493106.37255859 0 0 0 0 29791319.12752502 -17663677.464678288 0 -17663677.464678288 79103282.184112549 0 0 0 0 14860307.100065947 -267397913.66117096 0 -267397913.66117096 63516327.703086853 0 0 0 0 204791225.37760794 -32350496.910266876 0 -32350496.910266876 165857911.78594971 0 0 0 0 4187714.0698604584 65601961.024662018 0 65601961.024662018 628667251.61793518 0 0 0 0 182569673.91302013 -151390712.96369934 0 -151390712.96369934 607448554.52625656 0 0 0 0 -62513255.267644137 406167280.3057313 0 406167280.3057313 106927478.79859161 0 0 0 0 42274467.508618832 -177801240.33013153 0 -177801240.33013153 237744366.13038635 0 0 0 0 -67860054.412000656 -220012239.59289551 0 -220012239.59289551 -125176802.45786285 0 0 0 0 -31405659.167220354 -196145246.98203278 0 -196145246.98203278 -21253602.137757301 0 0 0 0 -320767.80815834657 164742.67464646138 0 164742.67464646138 130649.11903681979 0 0 0 0 150031169.37376887 593553752.55044937 0 593553752.55044937 -131871473.62506104 0 0 0 0 170700085.42587805 90425403.277832031 0 90425403.277832031 -238792286.86853027 0 0 0 0 10817036.497393608 56287573.228485107 0 56287573.228485107 -20472371.498626709 0 0 0 0 82111045.628532648 -464404505.94111633 0 -464404505.94111633 -239266521.23191071 0 0 0 0 67301511.631694794 -36614340.804649353 0 -36614340.804649353 113118086.64753723 0 0 0 0 382208256.91150427 -244819511.37555695 0 -244819511.37555695 144833292.66907501 0 0 0 0 -40859254.417621255 111685087.9744072 0 111685087.9744072 1218631324.8099976 0 0 0 0 25933923.625133708 -8735544.6759600639 0 -8735544.6759600639 38683499.008590698 0 0 0 0 27862008.009934664 -29766931.466171265 0 -29766931.466171265 57976323.941413879 0 0 0 0 195179579.67651424 53049129.791504383 0 53049129.791504383 17622696.285217285 0 0 0 0 155721826.87139416 -138802550.56971455 0 -138802550.56971455 -59854778.82963562 0 0 0 0 -24329230.386657327 -51387035.57000351 0 -51387035.57000351 35461321.20741272 0 0 0 0 -228779049.54332203 -102057047.99306107 0 -102057047.99306107 68782161.406890869 0 0 0 0 -29671976.681941628 -67041737.031074524 0 -67041737.031074524 41943539.658918381 0 0 0 0 -63458433.21310246 -11188069.110523224 0 -11188069.110523224 61175828.082183838 0 0 0 0 -22657588.749676555 13011.449924468994 0 13011.449924468994 11049406.359809875 0 0 0 0 -166350331.36614478 98370684.154612541 0 98370684.154612541 -47696612.05770874 0 0 0 0 -43519701.660860717 10447236.622272491 0 10447236.622272491 14476441.594291687 0 0 0 0 -34519242.440001845 23073874.393928528 0 23073874.393928528 -11199883.326522827 0 0 0 0 -2642738.7324580466 -1224645.390458189 0 -1224645.390458189 645119.91477846168 0 0 0 0 -812292.1070058404 939048.45369226485 0 939048.45369226485 1218482.8692639023 0 0 0 0 -35349004.331629932 9160087.1617736816 0 9160087.1617736816 4489862.6284103394 0 0 0 0 -36201441.613747716 13054817.270523071 0 13054817.270523071 16591929.824371338 0 0 0 0 -5451847.5205001235 -51643976.880630493 0 -51643976.880630493 33468895.587558746 0 0 0 0 -268164.17455391225 334588.47243979946 0 334588.47243979946 448339.65477837622 0 0 0 0 66679525.074459821 101869671.02698421 0 101869671.02698421 121380370.6819458 0 0 0 0 -19846678.301777188 32366783.660831451 0 32366783.660831451 89328993.604259491 0 0 0 0 -11191868.732252562 61452021.319786072 0 61452021.319786072 176587552.32291222 0 0 0 0 -31650499.001754254 -41673422.137584686 0 -41673422.137584686 66646505.397399902 0 0 0 0 -40901031.619576499 -40398553.341682434 0 -40398553.341682434 155256330.78036499 0 0 0 0 -26919062.853352636 -26283020.011870384 0 -26283020.011870384 61142248.22076416 0 0 0 0 -31471174.267478406 -11439430.035572052 0 -11439430.035572052 135270741.25946045 0 0 0 0 -9989222.1539350748 3028712.4710159302 0 3028712.4710159302 80588458.410980225 0 0 0 0 -5945885.184797287 6678109.7948608398 0 6678109.7948608398 83353850.669120789 0 0 0 0 -1930923.8092005253 -2548376.9737014771 0 -2548376.9737014771 80166428.822219849 0 0 0 0 8150646.0374405384 1565176.9415817261 0 1565176.9415817261 46918057.631187439 0 0 0 0 46686797.97097221 10342939.876379967 0 10342939.876379967 -9896970.4120025635 0 0 0 0 625796.71977261431 -150803.32798272744 0 -150803.32798272744 -274861.064147342 0 0 0 0 -18379020.997931004 31937815.810348511 0 31937815.810348511 245297944.71238327 0 0 0 0 -47317250.519303799 33946237.686927795 0 33946237.686927795 280548955.98320007 0 0 0 0 79998510.2321105 85052766.386207581 0 85052766.386207581 104477759.42757416 0 0 0 0 78102110.959973633 -582484.02388334274 0 -582484.02388334274 5296050.7776947021 0 0 0 0 92129313.188606739 91699605.85226059 0 91699605.85226059 49161948.367088318 0 0 0 0 31774809.74623394 39256412.381652832 0 39256412.381652832 -23038065.810523987 0 0 0 0 31606548.701681614 -5618353.6981506348 0 -5618353.6981506348 -10593792.19705677 0 0 0 0 -2247182.0411828756 -8903501.6153526306 0 -8903501.6153526306 11467573.765533447 0 0 0 0 -6576845.73939991 709374.42376708984 0 709374.42376708984 -314996.87725734711 0 0 0 0 1021579.1913594685 377486.95066872612 0 377486.95066872612 -137151.30575352535 0 0 0 0 -2531486.5827230215 5185264.4042625427 0 5185264.4042625427 -627709.36884689331 0 0 0 0 15550179.294599771 31396831.746665955 0 31396831.746665955 36892713.498130798 0 0 0 0 4044867.2628700733 16456163.372303963 0 16456163.372303963 48277240.487503052 0 0 0 0 -2169569.1318588257 49600821.208755493 0 49600821.208755493 130691196.55661011 0 0 0 0 -10827426.882053614 23386554.288370132 0 23386554.288370132 143054801.5055542 0 0 0 0 -22204323.797082543 -3663994.9602241516 0 -3663994.9602241516 69177611.602390289 0 0 0 0 -23669852.878212452 14976893.213832855 0 14976893.213832855 180176274.23231888 0 0 0 0 34631870.555200815 -21596761.101043701 0 -21596761.101043701 -25089944.847183228 0 0 0 0 10388910.056182146 18375646.566928864 0 18375646.566928864 54971022.239105225 0 0 0 0 18764905.576922297 15892754.210950851 0 15892754.210950851 55466263.35874939 0 0 0 0 63675682.700864315 108557897.14617157 0 108557897.14617157 144860331.58244324 0 0 0 0 -1593358.4518861771 30692712.336051941 0 30692712.336051941 56456578.338348389 0 0 0 0 -58521992.821815014 99134746.829566956 0 99134746.829566956 57794104.519866943 0 0 0 0 -20031156.0577631 -43808186.5209198 0 -43808186.5209198 15865799.020187378 0 0 0 0 117372293.2499516 14299188.001224518 0 14299188.001224518 31996039.063995361 0 0 0 0 -29511152.536164761 -21451837.310100555 0 -21451837.310100555 19690144.555023193 0 0 0 0 -580618.34973920579 -551674.25531660765 0 -551674.25531660765 2220153.450680004 0 0 0 0 59381639.282680035 -71605854.932510376 0 -71605854.932510376 -16610857.979385376 0 0 0 0 -240051.8835362785 -93065.998504014686 0 -93065.998504014686 448236.09832344204 0 0 0 0 5651594.1193385124 41032898.853881836 0 41032898.853881836 72413013.797948837 0 0 0 0 3522145.1196274757 -94794333.489898682 0 -94794333.489898682 -14388912.051422119 0 0 0 0 -9226812.5617861748 20229209.492950439 0 20229209.492950439 82376700.524681091 0 0 0 0 -27061039.209518313 -2961542.4473648071 0 -2961542.4473648071 58077200.242370605 0 0 0 0 21738090.891362727 8547098.7666931152 0 8547098.7666931152 -12862157.301948547 0 0 0 0 -210405.80052900477 -723135.10043362901 0 -723135.10043362901 1015780.0103896456 0 0 0 0 1047625.5996274948 -198787.2615814209 0 -198787.2615814209 34477257.120483398 0 0 0 0 -9144680.7377192974 -8771137.8549423218 0 -8771137.8549423218 34328832.072905779 0 0 0 0 262086.03983175755 759142.37136793137 0 759142.37136793137 21524297.658256531 0 0 0 0 -2780652.6856986284 -6961284.9885673523 0 -6961284.9885673523 33036888.701994896 0 0 0 0 302581.91366648476 -438878.52043575048 0 -438878.52043575048 -111654.97168178856 0 0 0 0 690053.88231676817 2091801.7505283356 0 2091801.7505283356 14313274.312461853 0 0 0 0 -2788792.8434898853 8048869.5844421387 0 8048869.5844421387 -4814284.9175815582 0 0 0 0 5401109.768645525 13740229.05670929 0 13740229.05670929 -1773610.8347015381 0 0 0 0 4385.8005153452978 -32188.335179436952 0 -32188.335179436952 7625.5137012153864 0 0 0 0 -50913810.344676733 -30710633.0129776 0 -30710633.0129776 176532665.36308289 0 0 0 0 -46966862.943865776 -55342628.465118408 0 -55342628.465118408 53457759.244293213 0 0 0 0 -48078989.351362944 -31108199.909095764 0 -31108199.909095764 -18826031.250516891 0 0 0 0 -601921.50284568686 -182415.46161359549 0 -182415.46161359549 964182.24332419783 0 0 0 0 96297150.765460253 76067326.79599762 0 76067326.79599762 18192086.553497314 0 0 0 0 30840803.291397095 88080639.42540741 0 88080639.42540741 211538501.05923462 0 0 0 0 70475741.355854988 -41605683.868286133 0 -41605683.868286133 -52931049.662635803 0 0 0 0 10000201.162117958 21077578.830230713 0 21077578.830230713 35722013.681167603 0 0 0 0 -4483324.975492537 8064475.2072935104 0 8064475.2072935104 71716141.899124146 0 0 0 0 -17587105.436508656 -11096401.635370255 0 -11096401.635370255 43720254.869522095 0 0 0 0 -2065178.0682897568 2590163.5473556519 0 2590163.5473556519 71611004.224746704 0 0 0 0 1177259.9803452492 8287143.8512802124 0 8287143.8512802124 77902999.557159424 0 0 0 0 -5438953.9042233061 21760046.531507492 0 21760046.531507492 55230912.602645874 0 0 0 0 12118.181923372729 -332980.82543614879 0 -332980.82543614879 149874.83933353773 0 0 0 0 -92659.790560126305 -9073458.6001205444 0 -9073458.6001205444 50549181.363624573 0 0 0 0 -3553299.3095835745 -3793688.5550193787 0 -3793688.5550193787 61749352.00327301 0 0 0 0 3485280.683316946 1523983.41355896 0 1523983.41355896 44664722.248298645 0 0 0 0 -16782.418780159613 -643891.66776807979 0 -643891.66776807979 462861.65684557473 0 0 0 0 59817863.230403677 280820.58794403076 0 280820.58794403076 -5136099.478263855 0 0 0 0 -4141409.8793894053 -2925941.0654411316 0 -2925941.0654411316 47802850.820351124 0 0 0 0 370727.88530596718 -422741.92652731761 0 -422741.92652731761 -243761.04856834747 0 0 0 0 2079945.9794925936 -1060983.9602375031 0 -1060983.9602375031 24775055.02545929 0 0 0 0 13309229.415941298 1186239.0873756409 0 1186239.0873756409 -9036784.5255470276 0 0 0 0 -6255628.7844281197 -2716557.6682701111 0 -2716557.6682701111 15747017.628372192 0 0 0 0 -736628.61608299613 -8073998.3004302979 0 -8073998.3004302979 11544614.565238953 0 0 0 0 -878892.55297456682 -10589033.633171082 0 -10589033.633171082 40739245.564598083 0 0 0 0 3198354.9860985875 -5004900.0746173859 0 -5004900.0746173859 45750182.155326843 0 0 0 0 214174.56996737578 -237253.68553314358 0 -237253.68553314358 -164565.07920726389 0 0 0 0 5757483.2071993947 -6721206.957616806 0 -6721206.957616806 1137094.9153022766 0 0 0 0 743239.34600901604 -13764725.8592453 0 -13764725.8592453 -6721470.9566783905 0 0 0 0 3983152.9714074135 6018165.6886825562 0 6018165.6886825562 -894099.49268722534 0 0 0 0 -23158818.076004863 -2311734.2711753845 0 -2311734.2711753845 41363945.748893738 0 0 0 0 3273689.5410997272 78715.063551902771 0 78715.063551902771 14207986.192245483 0 0 0 0 -16925315.021995544 -2898635.1794281006 0 -2898635.1794281006 14305201.574172974 0 0 0 0 -3190630.6330382675 12706815.698232651 0 12706815.698232651 40695130.27066803 0 0 0 0 761980.94883443043 -3535891.5268783569 0 -3535891.5268783569 24120832.120292664 0 0 0 0 -194596.83037517115 -567047.12783735245 0 -567047.12783735245 199506.65127081238 0 0 0 0 16090760.52361995 2248757.3525085449 0 2248757.3525085449 33758285.835980415 0 0 0 0 15275741.360919237 43430100.925666809 0 43430100.925666809 66650212.609477997 0 0 0 0 9953712.8356162608 2964121.4243812561 0 2964121.4243812561 17555875.426696777 0 0 0 0 -85929.487848240533 -318465.33327564225 0 -318465.33327564225 112673.66799395159 0 0 0 0 -5843725.8733133674 -3258315.5658760071 0 -3258315.5658760071 62943572.12802887 0 0 0 0 24045317.756653547 -23623671.828094482 0 -23623671.828094482 15757459.566637821 0 0 0 0 -17883001.089620113 -49950428.328857422 0 -49950428.328857422 135197808.41235352 0 0 0 0 36053038.513597608 -6755632.7389602661 0 -6755632.7389602661 20223672.810653687 0 0 0 0 48439668.639468193 68684821.637870789 0 68684821.637870789 121193962.93048096 0 0 0 0 44681819.945323229 64500428.075416565 0 64500428.075416565 95067627.637813568 0 0 0 0 12371450.847117186 46429717.692985535 0 46429717.692985535 113166788.24649048 0 0 0 0 35408403.170752138 57907094.336661339 0 57907094.336661339 90598932.406494141 0 0 0 0 14184206.370346427 51076462.558429718 0 51076462.558429718 101552470.93388748 0 0 0 0 44319145.848648086 35007125.155114174 0 35007125.155114174 89493350.734474182 0 0 0 0 -10460951.457890451 29960266.039327621 0 29960266.039327621 91353571.39679718 0 0 0 0 3721005.3000612259 17173043.529964447 0 17173043.529964447 74524130.774261475 0 0 0 0 34397634.202902734 32733656.027231216 0 32733656.027231216 64759192.533294678 0 0 0 0 12277790.390014291 41186916.437095642 0 41186916.437095642 147049503.98155212 0 0 0 0 11029136.878038645 18122078.728797913 0 18122078.728797913 90901048.128986359 0 0 0 0 -2414086.8503973484 40394366.279476166 0 40394366.279476166 54102915.216537476 0 0 0 0 726051.07088801265 1089115.0886869431 0 1089115.0886869431 51109443.227996826 0 0 0 0 -4067057.9509320259 58186900.501773834 0 58186900.501773834 115153144.85601044 0 0 0 0 -3793154.0352168083 58665379.984191895 0 58665379.984191895 115871314.49594879 0 0 0 0 -4902293.9456319809 49956356.089691162 0 49956356.089691162 61224291.56189537 0 0 0 0 17645296.239665508 33966861.890541077 0 33966861.890541077 69580866.91658783 0 0 0 0 67435249.11847198 102996152.95236015 0 102996152.95236015 85365592.671768188 0 0 0 0 -19406427.689696789 104932601.36415863 0 104932601.36415863 148708204.30686569 0 0 0 0 -13503387.055380344 83277344.803405762 0 83277344.803405762 80915059.632194519 0 0 0 0 24975007.82901907 22098045.278892517 0 22098045.278892517 43591801.593460083 0 0 0 0 -1311630.3655323982 69062932.842338562 0 69062932.842338562 98145333.208175659 0 0 0 0 -56169954.571731567 69654296.713806152 0 69654296.713806152 100556772.66265869 0 0 0 0 -303192.51498377102 -107140.15455943532 0 -107140.15455943532 784584.90865038335 0 0 0 0 -14215592.277836561 -673573.44053649902 0 -673573.44053649902 -2273386.0209236145 0 0 0 0 17769278.535901904 45022983.647657394 0 45022983.647657394 74798295.28074646 0 0 0 0 21662248.220327854 41545157.548782349 0 41545157.548782349 76378864.582702637 0 0 0 0 -6177371.4650082588 74304407.977790833 0 74304407.977790833 131086422.14898682 0 0 0 0 -10687064.652773142 6475673.4893875122 0 6475673.4893875122 4839762.4410705566 0 0 0 0 -13163767.151747465 -37692301.927978516 0 -37692301.927978516 19472122.265892029 0 0 0 0 10083845.584581852 9617246.3649978638 0 9617246.3649978638 -5423302.6366271973 0 0 0 0 -185995.77937345149 -24329.849898796529 0 -24329.849898796529 360219.51250727475 0 0 0 0 69839070.377629757 127317924.68018341 0 127317924.68018341 200047845.93170166 0 0 0 0 33440942.070282221 33266884.074035645 0 33266884.074035645 211670051.9464922 0 0 0 0 39545959.315938473 38063620.735023499 0 38063620.735023499 125173337.97586823 0 0 0 0 79546580.217067838 30039089.341938019 0 30039089.341938019 112598292.45631409 0 0 0 0 2229717.6512908936 52280471.743011475 0 52280471.743011475 119952857.56505966 0 0 0 0 69406483.860707179 79140772.275297701 0 79140772.275297701 105213405.35250854 0 0 0 0 4273428.3552484512 63285173.220100403 0 63285173.220100403 177874805.83172607 0 0 0 0 4308508.347086668 44778567.445539474 0 44778567.445539474 125749554.88197327 0 0 0 0 -2679945.3354502916 20936382.060585976 0 20936382.060585976 101825422.00080109 0 0 0 0 41741322.917056561 35258638.309272766 0 35258638.309272766 94081547.140617371 0 0 0 0 28984868.040761948 51976271.55267334 0 51976271.55267334 114547446.03273773 0 0 0 0 -13554910.21829915 36947313.486213684 0 36947313.486213684 95752180.333280563 0 0 0 0 -24148374.750893831 -6090626.3939743042 0 -6090626.3939743042 65554500.085929871 0 0 0 0 -12262725.9073627 25221230.868534088 0 25221230.868534088 100629935.76725388 0 0 0 0 -10159779.604293942 8036593.7129080296 0 8036593.7129080296 58710510.662895203 0 0 0 0 -14115030.228091478 12452254.964027405 0 12452254.964027405 73227289.951728821 0 0 0 0 -10173386.091239929 7727526.0881729126 0 7727526.0881729126 58733243.142233133 0 0 0 0 -4006469.1903514862 23678297.59369278 0 23678297.59369278 59756207.121807098 0 0 0 0 1636353.7052359581 22441991.935123444 0 22441991.935123444 46876157.095169067 0 0 0 0 -24596205.328287601 19888753.2321558 0 19888753.2321558 103690170.4950943 0 0 0 0 -20595624.572142124 5759209.2961463928 0 5759209.2961463928 62356718.516067505 0 0 0 0 -13259581.206934452 12091409.879245758 0 12091409.879245758 67774552.077800751 0 0 0 0 -9870931.6181969643 1182584.8312568665 0 1182584.8312568665 30610405.57118988 0 0 0 0 -21327339.819509506 5979516.2501678467 0 5979516.2501678467 62293727.996585846 0 0 0 0 -13830095.333885908 7586701.0748443604 0 7586701.0748443604 36999922.669204712 0 0 0 0 1197901.5003204797 148847.85633862391 0 148847.85633862391 93277.642961338162 0 0 0 0 48283052.955283165 44725239.618477821 0 44725239.618477821 -10584383.121208191 0 0 0 0 464468.48968034936 -41402.996154330671 0 -41402.996154330671 -5440.4395402763039 0 0 0 0 -88816175.524926186 -3881043.8626480103 0 -3881043.8626480103 104560826.56208038 0 0 0 0 -23901875.685641766 29292329.71251297 0 29292329.71251297 55776162.977172852 0 0 0 0 10461347.339675426 -41558454.911453247 0 -41558454.911453247 147814207.31161499 0 0 0 0 20241699.003270626 -8856929.1129760742 0 -8856929.1129760742 74408397.228652954 0 0 0 0 -33802084.902892113 -11755346.304641724 0 -11755346.304641724 65968061.067012787 0 0 0 0 429633640.96359253 6619586.9987640381 0 6619586.9987640381 55774157.136734009 0 0 0 0 1808299.0630989186 401695.22998514026 0 401695.22998514026 185164.65256410465 0 0 0 0 -126415008.35437393 63625237.765296936 0 63625237.765296936 48907420.142450333 0 0 0 0 -31872191.975190654 61701660.962675929 0 61701660.962675929 211963459.1673584 0 0 0 0 137342774.89384747 118278198.60759354 0 118278198.60759354 94018708.657672882 0 0 0 0 -739920.93833150552 -372853.01104689343 0 -372853.01104689343 622986.52982230484 0 0 0 0 2294330.5258455276 23544512.184082031 0 23544512.184082031 43218203.033439636 0 0 0 0 24044079.941518307 49554080.595226288 0 49554080.595226288 68511058.69651413 0 0 0 0 -2398923.2698094575 -1966138.2569051669 0 -1966138.2569051669 1443642.9852122441 0 0 0 0 35413463.294677734 27778675.709487915 0 27778675.709487915 32171582.705566406 0 0 0 0 22896377.206434041 32738237.562459946 0 32738237.562459946 31200160.164276123 0 0 0 0 8216708.9202013016 13679373.527084351 0 13679373.527084351 -91537887.987571716 0 0 0 0 -2555426.7153377533 20078174.531227112 0 20078174.531227112 988821.73600006104 0 0 0 0 -86698679.600774765 16436974.608636856 0 16436974.608636856 99306521.704650879 0 0 0 0 66650077.171882629 232882463.86759949 0 232882463.86759949 201055116.05504608 0 0 0 0 -143651263.55899906 -3901846.6990089417 0 -3901846.6990089417 412282908.71433258 0 0 0 0 45383139.822195053 -71502813.811656952 0 -71502813.811656952 108913144.07688904 0 0 0 0 3087511.0228936672 73461395.025205851 0 73461395.025205851 41303428.08795166 0 0 0 0 68365921.190984726 48056771.773807526 0 48056771.773807526 7800488.4491996765 0 0 0 0 18995149.496938229 -59643381.310945511 0 -59643381.310945511 -58845272.581677914 0 0 0 0 -28823695.767762244 -324983435.73165989 0 -324983435.73165989 -202073944.67484283 0 0 0 0 -5061280.5501367822 -6156349.7697966769 0 -6156349.7697966769 20796875.501837738 0 0 0 0 -343294888.69084609 45142776.530557394 0 45142776.530557394 416619211.54800415 0 0 0 0 520615699.51234627 -53079860.597915649 0 -53079860.597915649 -327331540.08456802 0 0 0 0 21787670.199194096 24003050.241570123 0 24003050.241570123 1700819.562461853 0 0 0 0 -317620073.3962431 -279520817.88824463 0 -279520817.88824463 48403897.017547607 0 0 0 0 -23251807.510278702 -37783195.783279419 0 -37783195.783279419 -48578435.982147217 0 0 0 0 -5784481.682624191 -4890806.0624178369 0 -4890806.0624178369 21526802.934824921 0 0 0 0 -88569140.819606781 79990336.977027893 0 79990336.977027893 138786698.44422913 0 0 0 0 103967804.78265667 162524239.58450317 0 162524239.58450317 127997409.53295135 0 0 0 0 119598829.10808659 119462590.28094292 0 119462590.28094292 162533383.30944824 0 0 0 0 142555835.12050796 175290704.76610374 0 175290704.76610374 105216719.40760803 0 0 0 0 20978680.323301315 62192680.863487244 0 62192680.863487244 185079815.26963806 0 0 0 0 173640417.88405466 120104396.86012077 0 120104396.86012077 93122020.16242981 0 0 0 0 -29652164.089477539 17149396.121185303 0 17149396.121185303 173126651.18280697 0 0 0 0 -63895734.84519434 76242045.251260757 0 76242045.251260757 78560996.007843018 0 0 0 0 -241645133.77923203 -251306915.19599152 0 -251306915.19599152 347493124.46322632 0 0 0 0 -15433886.882730484 -498195095.84208679 0 -498195095.84208679 123859601.3087616 0 0 0 0 -414539059.4177103 -187270573.42809296 0 -187270573.42809296 200833616.68289185 0 0 0 0 -351068258.66293812 24555152.001190186 0 24555152.001190186 152092248.34675598 0 0 0 0 655590870.19253159 82387617.254150391 0 82387617.254150391 -14702125.714614868 0 0 0 0 1096472.1537795626 178103.64614643157 0 178103.64614643157 74623.501282362267 0 0 0 0 137882188.81468248 151078047.64130783 0 151078047.64130783 214952542.62632751 0 0 0 0 206052063.87049007 223923229.65392303 0 223923229.65392303 169716799.05476379 0 0 0 0 568231073.13653278 -137077004.98706055 0 -137077004.98706055 -68489862.414031982 0 0 0 0 -95595.417134192074 660384.80647777207 0 660384.80647777207 1479679.3432316333 0 0 0 0 191895911.76803398 190941386.49140167 0 190941386.49140167 102860866.62419891 0 0 0 0 15625485.773750305 -49430407.452186584 0 -49430407.452186584 41983926.923137188 0 0 0 0 -53862571.831214905 -65882755.143302917 0 -65882755.143302917 122830565.8416214 0 0 0 0 160920484.81077957 -80719009.85635376 0 -80719009.85635376 42827830.38972044 0 0 0 0 -17724182.003702164 -268208672.26583862 0 -268208672.26583862 187387432.11291504 0 0 0 0 -179724480.19791794 -43389183.984893799 0 -43389183.984893799 128907488.71224976 0 0 0 0 9582703.6312355995 -17146527.900279999 0 -17146527.900279999 34336779.326370239 0 0 0 0 -9488192.8523073196 -19294896.73260498 0 -19294896.73260498 53493810.659729004 0 0 0 0 2670377.4129042625 -44125812.610080719 0 -44125812.610080719 56066853.999847412 0 0 0 0 -12106665.099305153 -15052415.707168579 0 -15052415.707168579 47788977.053192139 0 0 0 0 7169020.8319606781 2754358.341835022 0 2754358.341835022 12369475.433868408 0 0 0 0 54881987.949007034 -19995207.441665649 0 -19995207.441665649 19163896.620529175 0 0 0 0 -546616.13607479865 2288570.8559713122 0 2288570.8559713122 4700359.0031105205 0 0 0 0 4054405.3095665495 6856248.2515605912 0 6856248.2515605912 4590694.5693281218 0 0 0 0 5947230.5163053274 8130637.7402496338 0 8130637.7402496338 2165061.2199764252 0 0 0 0 2346541.0736393929 11010750.037439346 0 11010750.037439346 831523.70087051392 0 0 0 0 37129.594671159983 11075710.101057053 0 11075710.101057053 14678877.286010742 0 0 0 0 2080270.2627286911 16574130.497253418 0 16574130.497253418 10349994.755813599 0 0 0 0 5539027.1872585919 9259833.79303151 0 9259833.79303151 6002931.6426260471 0 0 0 0 -278091.1127166748 21782967.441383362 0 21782967.441383362 9413726.1559095383 0 0 0 0 -29423724.143140793 28507451.00743103 0 28507451.00743103 40594255.500473022 0 0 0 0 1047251.0773029327 24919705.771980286 0 24919705.771980286 836205.52722167969 0 0 0 0 -10492568.490372658 -1844618.9623718262 0 -1844618.9623718262 43749025.708648682 0 0 0 0 -8079981.0228090286 -6817339.9421539307 0 -6817339.9421539307 52908300.389465332 0 0 0 0 1019.9264354705811 577563.11697387695 0 577563.11697387695 6992914.9486236572 0 0 0 0 34156902.063029289 144219368.36675262 0 144219368.36675262 152340143.65232277 0 0 0 0 -39537202.823046684 57468243.877559662 0 57468243.877559662 64532172.237426758 0 0 0 0 176017677.59049225 55742929.202941895 0 55742929.202941895 -13695662.093315125 0 0 0 0 1739067.5828806488 345442.31374071911 0 345442.31374071911 -1709779.662662372 0 0 0 0 732996.96667440527 8315164.9474430438 0 8315164.9474430438 -1311257.2388672978 0 0 0 0 29098941.138338089 33403431.487960815 0 33403431.487960815 16373834.317955017 0 0 0 0 46522975.857500076 45961995.654144287 0 45961995.654144287 6604858.8632049561 0 0 0 0 12232686.167480469 61428389.713943481 0 61428389.713943481 62964782.568494797 0 0 0 0 2083511.9352617264 22863852.353900909 0 22863852.353900909 6713561.5857021213 0 0 0 0 13203017.33032608 41092675.408988953 0 41092675.408988953 14504057.615823746 0 0 0 0 -1602153.7464063747 13220645.204958791 0 13220645.204958791 768973.79300592467 0 0 0 0 2524611.296143055 15723318.354522705 0 15723318.354522705 12129408.766372681 0 0 0 0 -4365974.7632613182 5449521.0414047241 0 5449521.0414047241 18226962.771820068 0 0 0 0 15800880.305614263 17087611.075965881 0 17087611.075965881 20743231.56149292 0 0 0 0 63242162.989830017 -13971176.360290527 0 -13971176.360290527 26954315.033477783 0 0 0 0 -8871592.6475315094 20886699.634788513 0 20886699.634788513 53403067.784461975 0 0 0 0 -1711798.3041288024 -704715.47128925659 0 -704715.47128925659 3339658.7066061869 0 0 0 0 13125098.168212891 -3250106.8767700195 0 -3250106.8767700195 37551861.538848877 0 0 0 0 5348245.919178009 10037596.188545227 0 10037596.188545227 28286332.066101074 0 0 0 0 7019957.7726604939 553098.08389282227 0 553098.08389282227 35895012.462936401 0 0 0 0 23082050.474143028 1642483.6623458862 0 1642483.6623458862 31986365.154953003 0 0 0 0 -8403770.4450035095 20391428.728023529 0 20391428.728023529 11011288.788314819 0 0 0 0 -490459.33585822815 184548.96402661316 0 184548.96402661316 1129566.8458199929 0 0 0 0 8316421.9713726044 16884213.287220001 0 16884213.287220001 42215084.627960205 0 0 0 0 -5132856.6693849117 4095645.9499200564 0 4095645.9499200564 19941538.988751672 0 0 0 0 -12185239.975793809 3818574.3075582981 0 3818574.3075582981 24896570.101690292 0 0 0 0 999643.71334111691 65288.284922838211 0 65288.284922838211 20065695.340194702 0 0 0 0 128388.02304363251 11807770.582626343 0 11807770.582626343 32478148.216995239 0 0 0 0 -27021.524178832769 2035186.6454391479 0 2035186.6454391479 4362795.967414856 0 0 0 0 -179731.30586385104 3709388.1675175782 0 3709388.1675175782 9470954.536602173 0 0 0 0 -2561601.3862013817 2167028.3893661499 0 2167028.3893661499 4575220.6685791016 0 0 0 0 -2198429.3754648864 5811718.2801567335 0 5811718.2801567335 10461250.951168008 0 0 0 0 3105637.9599609375 13948090.228790283 0 13948090.228790283 18462522.079406738 0 0 0 0 914102.14327100606 6010549.3778428454 0 6010549.3778428454 7443969.4413286559 0 0 0 0 -1141313.3059088129 2032462.8046389502 0 2032462.8046389502 2151927.0706877485 0 0 0 0 -37294762.527636528 20725962.072952271 0 20725962.072952271 22064003.671691895 0 0 0 0 6179954.1396107674 2996753.4288539886 0 2996753.4288539886 7983823.8825759888 0 0 0 0 3069329.8055553436 12729963.972343445 0 12729963.972343445 13817176.85320282 0 0 0 0 3427904.6144323349 20337316.184814453 0 20337316.184814453 30728367.132034302 0 0 0 0 7521528.230340004 10330369.227050781 0 10330369.227050781 17497148.879364014 0 0 0 0 4314721.5581171513 18906294.484893799 0 18906294.484893799 26662294.720298767 0 0 0 0 10163056.071583748 7085735.7983322144 0 7085735.7983322144 42160232.716415405 0 0 0 0 92195.290993641654 218389.04701321572 0 218389.04701321572 1689829.0378391324 0 0 0 0 -1846433.257279248 508588.60454470292 0 508588.60454470292 7765459.1462536883 0 0 0 0 -9059957.9182796478 14210599.437675476 0 14210599.437675476 70195648.458312988 0 0 0 0 13987401.766037464 9920413.3813343048 0 9920413.3813343048 6988315.3784637451 0 0 0 0 23821786.56937544 12186785.461354971 0 12186785.461354971 23373377.983261108 0 0 0 0 13582032.069323063 19537215.043243408 0 19537215.043243408 24040876.581512451 0 0 0 0 -83168151.437052727 83157010.910949707 0 83157010.910949707 34238226.059059143 0 0 0 0 16688130.587738037 -6413847.584487915 0 -6413847.584487915 29899473.756759644 0 0 0 0 -263171.45370274829 610888.35799780488 0 610888.35799780488 861221.84423686471 0 0 0 0 901429.68342379888 6772891.5474279709 0 6772891.5474279709 8706466.8177811615 0 0 0 0 -331844.09011763567 257874.02644640207 0 257874.02644640207 5758587.5547061544 0 0 0 0 -394104.10676908493 -677206.41562271118 0 -677206.41562271118 8365572.239730835 0 0 0 0 -4815112.6381858569 7138957.5425222451 0 7138957.5425222451 13262869.778262641 0 0 0 0 -1291270.0051000393 4564067.2410481488 0 4564067.2410481488 10581091.985572942 0 0 0 0 -1198164.3377806246 2104570.4172668457 0 2104570.4172668457 6359509.4243621826 0 0 0 0 3954765.5412960052 15387885.737480164 0 15387885.737480164 32058268.35319519 0 0 0 0 -746320.47137618065 1418119.7110137939 0 1418119.7110137939 6909557.3058700562 0 0 0 0 -382173.46590210445 947132.34661566839 0 947132.34661566839 3047186.2658033594 0 0 0 0 -714223.63996526599 1447373.6607894897 0 1447373.6607894897 6067797.0802764893 0 0 0 0 -369752.47570800781 1004171.5639648438 0 1004171.5639648438 8094739.4380836487 0 0 0 0 -1187647.696208477 1282123.7325401306 0 1282123.7325401306 1354176.7321166992 0 0 0 0 169579.88329696655 947551.21130371094 0 947551.21130371094 8089495.6103401184 0 0 0 0 30100.691822424531 1256212.5028733015 0 1256212.5028733015 5780097.050239563 0 0 0 0 1984338.740385762 8580900.4840082284 0 8580900.4840082284 10664615.885396648 0 0 0 0 -106930.24279609654 855111.86373366788 0 855111.86373366788 11357965.295022752 0 0 0 0 39347.24231768446 43839.833351172507 0 43839.833351172507 -115338.24516651779 0 0 0 0 8388664.5363445282 94536628.176300049 0 94536628.176300049 57836234.170026779 0 0 0 0 -942569.90351470374 4202193.3356881067 0 4202193.3356881067 7706038.8006156981 0 0 0 0 -1370610.0743924379 983680.27029418945 0 983680.27029418945 2548722.0228042603 0 0 0 0 155831768.9146328 -21622396.255767822 0 -21622396.255767822 -130306367.1544342 0 0 0 0 -293245952.70556259 -172268178.01411438 0 -172268178.01411438 -74920002.815185547 0 0 0 0 -53064.23137992667 139474.5515248999 0 139474.5515248999 485459.5933012329 0 0 0 0 4000862.831413269 18007741.766448975 0 18007741.766448975 -1168019.9797973633 0 0 0 0 1048170.2339312215 6003394.7982507609 0 6003394.7982507609 6246495.4407089613 0 0 0 0 1748044.2327881777 1508962.2636801675 0 1508962.2636801675 -2569498.6116524115 0 0 0 0 -14367414.321928501 26868101.468322754 0 26868101.468322754 58131467.888137817 0 0 0 0 17780584.659204483 62982886.210952759 0 62982886.210952759 76276495.077735901 0 0 0 0 -6484961.0600862503 42615892.478485107 0 42615892.478485107 59756610.382415771 0 0 0 0 96318810.057243347 89569530.495651245 0 89569530.495651245 41901446.262130737 0 0 0 0 -772263.31957054138 4608455.0413360596 0 4608455.0413360596 3196643.1257629395 0 0 0 0 -6730744.2203213573 918614.84947538376 0 918614.84947538376 -14244998.002593994 0 0 0 0 1225771.6655673981 5090583.0365905762 0 5090583.0365905762 -1711251.9588623047 0 0 0 0 -551533.30169900251 1953064.8102317136 0 1953064.8102317136 13892208.29447376 0 0 0 0 6022141.7236316856 5333098.9505205629 0 5333098.9505205629 -1484141.7342839316 0 0 0 0 5182920.4576377869 295398.39253997803 0 295398.39253997803 3098110.97996521 0 0 0 0 252745.16686272621 4943619.8205928802 0 4943619.8205928802 2551735.8028106689 0 0 0 0 1462557.418522235 6552510.686291676 0 6552510.686291676 13903931.006317204 0 0 0 0 -1165329.1051566834 263638.0625625886 0 263638.0625625886 4935415.1517815785 0 0 0 0 -1703982.7974306131 4273956.9024073035 0 4273956.9024073035 5565233.7183344252 0 0 0 0 -16080308.234591484 -14836889.220973969 0 -14836889.220973969 -4506158.5564117432 0 0 0 0 25875644.522566795 25181324.777870178 0 25181324.777870178 -69331776.561836243 0 0 0 0 -5299529.963602066 1271778.1360569 0 1271778.1360569 22982888.567962646 0 0 0 0 -11913809.20876503 74841144.255859375 0 74841144.255859375 -7996753.0683898926 0 0 0 0 -41311762.184120655 61750210.671348572 0 61750210.671348572 65467350.538421631 0 0 0 0 -31346823.464009285 -1082203.2079315186 0 -1082203.2079315186 108826604.30352783 0 0 0 0 -7178899.8221025467 12986067.704078674 0 12986067.704078674 13520990.51782608 0 0 0 0 29695519.988004684 16947336.515724182 0 16947336.515724182 50219520.328155518 0 0 0 0 17083343.138120651 -39077678.484565735 0 -39077678.484565735 68439794.66619873 0 0 0 0 3647697.4127063751 28100853.532310486 0 28100853.532310486 37885149.154922485 0 0 0 0 -11843451.48557663 4042337.0324249268 0 4042337.0324249268 46857357.418533325 0 0 0 0 -8702850.3514633179 18596791.141418457 0 18596791.141418457 55961611.23487854 0 0 0 0 18394086.174139023 25662250.339073181 0 25662250.339073181 57226783.647890091 0 0 0 0 7168068.196457386 21788770.075866699 0 21788770.075866699 71176987.185974121 0 0 0 0 28702788.60031414 22413156.496818542 0 22413156.496818542 71193171.603901148 0 0 0 0 14823760.981974602 -18327713.287361145 0 -18327713.287361145 30316643.936134338 0 0 0 0 48737904.652423859 12904615.171699524 0 12904615.171699524 74344937.195724487 0 0 0 0 61012228.662166774 25787420.562233925 0 25787420.562233925 59305952.706756592 0 0 0 0 -10195924.908640862 -19819495.704231262 0 -19819495.704231262 310912855.92118454 0 0 0 0 26027395.786377907 -25374994.524791718 0 -25374994.524791718 163367968.77020264 0 0 0 0 29433730.345632076 40558222.818967819 0 40558222.818967819 124997791.54484558 0 0 0 0 20773168.137347221 -4968392.8165559769 0 -4968392.8165559769 113070779.12825012 0 0 0 0 2284074.5462088585 1147365.9369659424 0 1147365.9369659424 121641439.28200531 0 0 0 0 5135223.3003511429 25707063.432865143 0 25707063.432865143 113010026.01171875 0 0 0 0 -246586.49729824066 -8715367.1329498291 0 -8715367.1329498291 95606860.755561829 0 0 0 0 -9456817.942728281 11616000.138341904 0 11616000.138341904 90465160.607879639 0 0 0 0 -35593314.5383358 13509994.568367004 0 13509994.568367004 98559331.568244934 0 0 0 0 -34927438.417466164 -11152734.613075256 0 -11152734.613075256 91418122.382522583 0 0 0 0 -15049568.658867836 -7383212.6265563965 0 -7383212.6265563965 92086022.07698822 0 0 0 0 -12429822.273470521 -14827955.82740593 0 -14827955.82740593 63040760.634811401 0 0 0 0 -21514015.422906876 1889122.5513687134 0 1889122.5513687134 83646070.632980347 0 0 0 0 9363722.6374101639 35187548.428894281 0 35187548.428894281 77998740.058502197 0 0 0 0 -30394822.30079937 16537177.175582886 0 16537177.175582886 80307614.588832855 0 0 0 0 10229886.81391716 -335942.18217468262 0 -335942.18217468262 53137117.821289062 0 0 0 0 -11578583.068211555 2578279.0649642944 0 2578279.0649642944 65975966.248519897 0 0 0 0 -16036057.403504372 4986491.1348648071 0 4986491.1348648071 67068789.683898926 0 0 0 0 6663564.5812797546 51581653.679908752 0 51581653.679908752 29584946.133163452 0 0 0 0 59517135.999966621 26123177.865707397 0 26123177.865707397 -92547.635366439819 0 0 0 0 -140072717.47451687 11446850.317504883 0 11446850.317504883 90762355.747695923 0 0 0 0 -24529679.267357826 32365120.956939697 0 32365120.956939697 -7386551.3308486938 0 0 0 0 1585641.0941585745 1871566.4157333262 0 1871566.4157333262 -1567812.0508898124 0 0 0 0 -74561739.25768137 -102739795.62121964 0 -102739795.62121964 -26876176.333251953 0 0 0 0 22759964.929005623 -5050645.1744689941 0 -5050645.1744689941 50889685.192947388 0 0 0 0 27660824.419075012 24329088.419540405 0 24329088.419540405 -2327203.9261169434 0 0 0 0 31143119.951846123 45598256.740081787 0 45598256.740081787 59499309.343984604 0 0 0 0 9266281.2204890251 36474409.744346619 0 36474409.744346619 61300426.823440552 0 0 0 0 8352767.4992008209 13898276.006027222 0 13898276.006027222 67982227.898345947 0 0 0 0 5220102.3652849197 16446008.05342865 0 16446008.05342865 79622545.087833405 0 0 0 0 -9273144.7876133919 -4130945.5370292664 0 -4130945.5370292664 51215370.735427856 0 0 0 0 -116958.84253415644 -37170972.269535065 0 -37170972.269535065 74610792.496589661 0 0 0 0 -40867398.270928651 -11696419.762191772 0 -11696419.762191772 218783776.07746887 0 0 0 0 19724.004944198183 517275.48341171537 0 517275.48341171537 972777.60710571706 0 0 0 0 -100995455.50674301 -117268551.32678223 0 -117268551.32678223 78892992.960926056 0 0 0 0 314925480.58584321 148152635.53360367 0 148152635.53360367 -58874555.996017456 0 0 0 0 64949707.546018362 14550455.631240845 0 14550455.631240845 61020747.246047974 0 0 0 0 -25230973.221722588 5368262.9410247803 0 5368262.9410247803 -14100649.023700714 0 0 0 0 -202644133.00786534 -43886288.361416817 0 -43886288.361416817 95835186.474487305 0 0 0 0 11823133.56207943 44476212.839027405 0 44476212.839027405 21534430.582857132 0 0 0 0 85974.297691018292 1618664.0799560724 0 1618664.0799560724 2870426.0065496117 0 0 0 0 87491617.495055124 79092850.86419487 0 79092850.86419487 8537206.42237854 0 0 0 0 -138332867.87617558 52410484.385601044 0 52410484.385601044 65054498.125320435 0 0 0 0 -59173.550910647857 4959270.5421849843 0 4959270.5421849843 5088740.5646598786 0 0 0 0 -16805503.195845038 22906193.51184845 0 22906193.51184845 30941561.94619751 0 0 0 0 -41680022.796233892 42137720.880508423 0 42137720.880508423 23163236.928344727 0 0 0 0 -34506693.970720738 84009155.113082886 0 84009155.113082886 -1960825.2988739014 0 0 0 0 55413489.014726482 206474780.81224823 0 206474780.81224823 245102389.22563171 0 0 0 0 4769538.5204906762 30653925.857536316 0 30653925.857536316 59835505.929168701 0 0 0 0 -21658568.143592123 -22115249.961194038 0 -22115249.961194038 162186313.00188446 0 0 0 0 321815883.3997134 226941131.94268036 0 226941131.94268036 86747665.716796875 0 0 0 0 1159339.6381232431 242229620.61570346 0 242229620.61570346 1807438980.5384216 0 0 0 0 306174486.35854578 31056109.815056324 0 31056109.815056324 123035952.84649658 0 0 0 0 -518910765.53348839 1218721984.4694347 0 1218721984.4694347 4084602951.778347 0 0 0 0 -212100608.84192944 184104209.07450867 0 184104209.07450867 1498195212.9787617 0 0 0 0 1538741790.9420948 2301268054.3279037 0 2301268054.3279037 1931306904.7513885 0 0 0 0 595987227.09295356 -855565939.25729656 0 -855565939.25729656 936707037.87155151 0 0 0 0 56866.525298835935 1068199.5333240973 0 1068199.5333240973 4995853.7239534557 0 0 0 0 197701775.04634809 291896639.88175964 0 291896639.88175964 756917377.91690063 0 0 0 0 -695694.09742354392 -412093.17266455665 0 -412093.17266455665 11258068.415898502 0 0 0 0 -134230329.36406338 106911736.35016441 0 106911736.35016441 -82211241.089996338 0 0 0 0 -11836690.510286808 -12959851.084121704 0 -12959851.084121704 27013270.76623717 0 0 0 0 -31076368.058243692 -81341528.663002014 0 -81341528.663002014 1040499361.7307739 0 0 0 0 235279174.75574255 32282268.89099884 0 32282268.89099884 -364440503.78359985 0 0 0 0 -379824.83303225541 368972.19491835684 0 368972.19491835684 2077060.0150783022 0 0 0 0 -38685799.755700529 74099562.187969685 0 74099562.187969685 -72579639.470428467 0 0 0 0 -31091288.148622394 146708656.62898254 0 146708656.62898254 133542697.29212952 0 0 0 0 -2915653.0447740555 9801717.1184997559 0 9801717.1184997559 2644000.8179626465 0 0 0 0 71276.657682604739 3231156.3105791211 0 3231156.3105791211 13504323.637981072 0 0 0 0 -86731663.648978233 -63351876.649581909 0 -63351876.649581909 -43914700.263244629 0 0 0 0 610376684.14395905 22996621.883148193 0 22996621.883148193 -93839222.202255249 0 0 0 0 -2171892.2282739677 7647159.9776079208 0 7647159.9776079208 3744115.7719635027 0 0 0 0 -156129697.47379351 268994293.4755249 0 268994293.4755249 157881204.74343872 0 0 0 0 -157329579.32633293 76168210.317264557 0 76168210.317264557 110098560.46386719 0 0 0 0 -407764293.16875076 -120966543.08422852 0 -120966543.08422852 -25636431.285522461 0 0 0 0 -562142.2010981231 400835.2187570408 0 400835.2187570408 985277.73162643611 0 0 0 0 -8649342.3375015259 -224216004.72299194 0 -224216004.72299194 125019211.31768799 0 0 0 0 -39908003.059706211 66308498.846178055 0 66308498.846178055 86467330.481414795 0 0 0 0 347479.53916038043 -1689868.922028888 0 -1689868.922028888 12913413.931434721 0 0 0 0 -73181340.067267418 17508943.264923096 0 17508943.264923096 30885546.60867703 0 0 0 0 -11667121.770796955 -12092902.87424469 0 -12092902.87424469 -231443908.21310425 0 0 0 0 135594294.8590776 311120393.02006531 0 311120393.02006531 -40089855.336242676 0 0 0 0 390510097.05957347 56942922.22151947 0 56942922.22151947 -279608241.80361557 0 0 0 0 -222319573.66385484 -86088055.963352203 0 -86088055.963352203 62635326.792381287 0 0 0 0 3024189.2250413573 -2349232.4979219437 0 -2349232.4979219437 7613521.5728401318 0 0 0 0 -135638161.78672802 -417565005.85211754 0 -417565005.85211754 1018052056.4900818 0 0 0 0 -47818047.902710587 1252814654.4983063 0 1252814654.4983063 4091452340.6557922 0 0 0 0 -240030592.76053494 212901903.11618042 0 212901903.11618042 945284419.56636047 0 0 0 0 -437482514.6136871 -467821092.35650253 0 -467821092.35650253 4086660661.0267181 0 0 0 0 143368329.34379706 -1409320228.7791748 0 -1409320228.7791748 2718197970.6255035 0 0 0 0 -883799731.11051035 -637509607.33449554 0 -637509607.33449554 4086348904.0567398 0 0 0 0 1066936542.6260387 -840834527.01972961 0 -840834527.01972961 52902958.67855072 0 0 0 0 2123866.2455435237 -363917.8338380456 0 -363917.8338380456 3752489.9942134172 0 0 0 0 -100866877.81928658 154681370.42618561 0 154681370.42618561 510566625.97202682 0 0 0 0 -15809598.552645445 -701865012.66134644 0 -701865012.66134644 1375341840.0782318 0 0 0 0 414650038.13656467 163318148.14011288 0 163318148.14011288 21030766.751251221 0 0 0 0 255024282.57892561 -277811340.67659187 0 -277811340.67659187 98204666.147781372 0 0 0 0 51717188.145777345 96317960.199291229 0 96317960.199291229 -106718705.13192749 0 0 0 0 -51902625.87830162 23895256.183631897 0 23895256.183631897 -15738046.232746124 0 0 0 0 -20646978.736356735 10787949.073287964 0 10787949.073287964 80132.415650337934 0 0 0 0 133241.88864969043 9131369.3297889009 0 9131369.3297889009 2650694.5320133995 0 0 0 0 -78066577.325945973 17207583.108350754 0 17207583.108350754 62227225.286407471 0 0 0 0 -35575964.815271139 149741767.51973915 0 149741767.51973915 116935079.04953003 0 0 0 0 1758164.1430558579 8665404.7328982837 0 8665404.7328982837 2641609.3047317164 0 0 0 0 527471230.81349945 -186112712.80285645 0 -186112712.80285645 82243347.371246338 0 0 0 0 56351813.691708088 164392032.23724365 0 164392032.23724365 71958526.10534668 0 0 0 0 185452817.04885638 -37353865.947330475 0 -37353865.947330475 -210169866.42637634 0 0 0 0 -44535518.236333728 -31036657.354297735 0 -31036657.354297735 -55536987.078445435 0 0 0 0 265670.56246047502 -223292.35299447924 0 -223292.35299447924 480550.41735147685 0 0 0 0 79873448.325908184 -38084362.757225037 0 -38084362.757225037 -9020121.8267211914 0 0 0 0 928.27700978086796 896173.27893617004 0 896173.27893617004 1460307.7856032848 0 0 0 0 26654799.067405701 13226150.591850281 0 13226150.591850281 -54286641.165725708 0 0 0 0 11987927.303544521 333153591.62007523 0 333153591.62007523 27652629.933166504 0 0 0 0 35282060.785349846 -86636694.094543457 0 -86636694.094543457 41770793.847045898 0 0 0 0 29595968.376625538 -88589708.519920349 0 -88589708.519920349 130079602.78277588 0 0 0 0 -64224142.797972023 -98125796.102072716 0 -98125796.102072716 26077417.088043213 0 0 0 0 -321713.54355092172 -243543.56747398153 0 -243543.56747398153 2580053.3507348299 0 0 0 0 -69543384.329437733 -42134938.775352478 0 -42134938.775352478 30916562.660949707 0 0 0 0 -20565451.358235121 -4427773.7208824158 0 -4427773.7208824158 63409055.22227478 0 0 0 0 82257497.145419121 44696923.465156555 0 44696923.465156555 40108084.392333984 0 0 0 0 -66054418.126211882 16614579.549041748 0 16614579.549041748 63324890.948608398 0 0 0 0 204379.06461932906 495382.46069378406 0 495382.46069378406 457412.48369631171 0 0 0 0 228074756.60404301 131939439.07201385 0 131939439.07201385 -29918512.217025757 0 0 0 0 46034374.649925709 59905886.447067261 0 59905886.447067261 -163300.20654296875 0 0 0 0 16985598.925368071 113324890.05177307 0 113324890.05177307 84937980.687561035 0 0 0 0 11174585.011482716 37763994.282546997 0 37763994.282546997 -2810320.4034576416 0 0 0 0 -979363.82562303543 4967780.2729797363 0 4967780.2729797363 62300298.40577507 0 0 0 0 -39890202.781020522 51891426.694202423 0 51891426.694202423 34536780.803421021 0 0 0 0 15937.476236544666 918060.78797581792 0 918060.78797581792 1816390.7126551419 0 0 0 0 -2010625.3489926839 2120897.956372112 0 2120897.956372112 2088416.1872761101 0 0 0 0 -115577499.7759161 -26792623.359970093 0 -26792623.359970093 21434483.543952942 0 0 0 0 -37085232.885908365 121157149.31061172 0 121157149.31061172 92131684.978424072 0 0 0 0 -4995836.7919094563 9634149.5879516602 0 9634149.5879516602 4444164.3197174072 0 0 0 0 -25201799.603120089 32383865.746730804 0 32383865.746730804 -35125312.081558228 0 0 0 0 -78048476.641652346 59167970.976703644 0 59167970.976703644 29774653.175994873 0 0 0 0 -1314451.680887382 -192462.23966501094 0 -192462.23966501094 6567781.7986886799 0 0 0 0 -81039497.676975846 -208382986.26693344 0 -208382986.26693344 42276422.726531982 0 0 0 0 -20780810.876207352 50801348.113220215 0 50801348.113220215 3812747.6805419922 0 0 0 0 -2127673.3361399705 2671647.1857571043 0 2671647.1857571043 14288971.883067027 0 0 0 0 -116360413.44902062 21840522.937339783 0 21840522.937339783 8284687.5424804688 0 0 0 0 137768607.76458597 141329419.9381485 0 141329419.9381485 166657839.96383667 0 0 0 0 -10610516.411467552 6362996.0060119629 0 6362996.0060119629 44040875.94821167 0 0 0 0 575638521.77498913 -387413580.41559601 0 -387413580.41559601 -49502198.243865967 0 0 0 0 -17586164.121469498 -30133391.846084595 0 -30133391.846084595 232203542.34262085 0 0 0 0 -13246824.20757103 -7157366.9449462891 0 -7157366.9449462891 118538596.89083862 0 0 0 0 -35835113.748613358 70690605.43637085 0 70690605.43637085 21471400.369949341 0 0 0 0 -23826738.362792969 -45382196.006515503 0 -45382196.006515503 -16121288.052505493 0 0 0 0 51773544.361206055 68041997.587280273 0 68041997.587280273 99296596.619995117 0 0 0 0 -4552482.5115871429 14287405.518882751 0 14287405.518882751 24602452.292669296 0 0 0 0 -2095796.7850141078 2030794.2503179088 0 2030794.2503179088 6953022.8241612837 0 0 0 0 -13678737.812831998 -35705877.353668213 0 -35705877.353668213 41882893.403961182 0 0 0 0 60063665.074900806 86934955.69744873 0 86934955.69744873 55826617.291351318 0 0 0 0 -1137266.602461338 8502502.5888214111 0 8502502.5888214111 25878357.339027405 0 0 0 0 37041374.689352036 13176975.779724121 0 13176975.779724121 35889191.972335815 0 0 0 0 63632349.970385551 47142705.838844299 0 47142705.838844299 17237971.337432861 0 0 0 0 -23567091.000796854 28991567.820983887 0 28991567.820983887 71432227.842590332 0 0 0 0 -18070561.248014331 36649704.242736816 0 36649704.242736816 29633234.465545654 0 0 0 0 -128680052.01722431 -8644908.879699707 0 -8644908.879699707 39062153.650233269 0 0 0 0 -149927173.16103935 -37715616.159988403 0 -37715616.159988403 48853172.800231934 0 0 0 0 -91550753.336800575 -35826265.876502991 0 -35826265.876502991 45947789.283081055 0 0 0 0 -131550541.27745724 -55616302.478866577 0 -55616302.478866577 -37970625.912338257 0 0 0 0 -136455452.56215477 -3439425.9039001465 0 -3439425.9039001465 15604562.363845825 0 0 0 0 -138610423.46548557 -6476039.4212341309 0 -6476039.4212341309 58773193.410858154 0 0 0 0 -108169965.0943737 2636015.2528991699 0 2636015.2528991699 52300293.369056702 0 0 0 0 -108422132.37803078 -15763215.954620361 0 -15763215.954620361 6283344.8134613037 0 0 0 0 -122910396.56615829 -3212969.318611145 0 -3212969.318611145 47998006.785030365 0 0 0 0 -64602225.131805897 76323939.626800537 0 76323939.626800537 -16706545.401027679 0 0 0 0 8642598.3486158252 36997674.136947632 0 36997674.136947632 -23319206.396896362 0 0 0 0 -1237537.5190388146 519621.49616766348 0 519621.49616766348 2618168.9909851402 0 0 0 0 -137608767.55330181 13137853.567657471 0 13137853.567657471 39616608.570480347 0 0 0 0 -143525583.45825195 54626064.751434326 0 54626064.751434326 -31146548.041595459 0 0 0 0 7090415.4853544235 10736256.949508667 0 10736256.949508667 -980153.10461425781 0 0 0 0 8949142.9633515142 5212870.8983123899 0 5212870.8983123899 8255361.6580505371 0 0 0 0 3862217.8681354523 -1350151.6102676392 0 -1350151.6102676392 -33750798.139597893 0 0 0 0 -3600662.7953734398 14905702.130699158 0 14905702.130699158 10467184.444702148 0 0 0 0 -734578.64817320032 -673225.26685422845 0 -673225.26685422845 680568.43318798393 0 0 0 0 30959439.117781162 -82481629.697559357 0 -82481629.697559357 -69463629.287094116 0 0 0 0 -126522052.25310612 -50726131.372673035 0 -50726131.372673035 -10670621.216598511 0 0 0 0 -93825945.435311317 -84340338.574649811 0 -84340338.574649811 -115622923.87948608 0 0 0 0 -1329213.4054045677 -10907685.751140594 0 -10907685.751140594 1540777.9298553467 0 0 0 0 -99105374.830500364 -11195552.03899765 0 -11195552.03899765 21683082.819976807 0 0 0 0 -11081335.21327877 -112718.98374176025 0 -112718.98374176025 -5839241.9710693359 0 0 0 0 -50831380.259936333 -6295813.3785247803 0 -6295813.3785247803 4483237.320526123 0 0 0 0 -312611.58560747548 4409826.9712796826 0 4409826.9712796826 14403837.142053008 0 0 0 0 -3217335.9368826803 -2965734.2399757486 0 -2965734.2399757486 3157173.9810936078 0 0 0 0 -12287262.984548569 -2072299.8094177246 0 -2072299.8094177246 -6685831.1707763672 0 0 0 0 -33377817.148689747 -9260280.1447486877 0 -9260280.1447486877 32325252.547294617 0 0 0 0 -6299495.5651707649 12109182.458045959 0 12109182.458045959 20079100.339813232 0 0 0 0 8267592.22149086 1205259.408782959 0 1205259.408782959 5051958.3292236328 0 0 0 0 -20665.630746632349 333746.15112614259 0 333746.15112614259 1159378.7071682252 0 0 0 0 53900007.153974533 52404367.938140869 0 52404367.938140869 47530299.318023682 0 0 0 0 64506821.188314438 28775476.136901855 0 28775476.136901855 22319126.224121094 0 0 0 0 30497837.054161072 24715847.829498291 0 24715847.829498291 25733102.778137207 0 0 0 0 60173935.429109573 33314152.059402466 0 33314152.059402466 18007983.585174561 0 0 0 0 64176975.059951782 -16405490.793548584 0 -16405490.793548584 65278809.202453613 0 0 0 0 69673707.429565549 21150953.956880569 0 21150953.956880569 1901950.8711547852 0 0 0 0 21922564.39434433 12416127.777923584 0 12416127.777923584 51367500.949462891 0 0 0 0 -1465890.9110519059 2451711.8000282249 0 2451711.8000282249 7056990.8482998908 0 0 0 0 16189780.34122467 22671971.641662598 0 22671971.641662598 34481393.163757324 0 0 0 0 -6235210.6887229681 92132.963859558105 0 92132.963859558105 1853238.1236572266 0 0 0 0 -1124963.207731274 5483729.3840304278 0 5483729.3840304278 15486114.65608573 0 0 0 0 26095793.666368484 -1298883.003944397 0 -1298883.003944397 10406411.175048828 0 0 0 0 -2172696.3113105162 4015721.9573930539 0 4015721.9573930539 11933778.810209751 0 0 0 0 -2811831.3559430134 -1327369.3796942551 0 -1327369.3796942551 6759897.2688013166 0 0 0 0 -784485.20272105129 3223337.5429438762 0 3223337.5429438762 2019885.5636556149 0 0 0 0 -17002810.443611912 13479072.102470398 0 13479072.102470398 1650187.8700866699 0 0 0 0 -654595.77423453331 -9672276.6297569275 0 -9672276.6297569275 -5560881.8396911621 0 0 0 0 92750870.096942902 -42866249.537353516 0 -42866249.537353516 45137894.377075195 0 0 0 0 111303852.14531898 -15785782.665245056 0 -15785782.665245056 12533084.611999512 0 0 0 0 4899.3711700439453 4248759.4028320312 0 4248759.4028320312 18145152.822265625 0 0 0 0 -5257943.4645309448 12240483.646621704 0 12240483.646621704 10957725.087882996 0 0 0 0 -581879.89017714863 1193976.6440193988 0 1193976.6440193988 6469695.5982310623 0 0 0 0 4655281.2924437523 7611739.4017028809 0 7611739.4017028809 9397074.0123291016 0 0 0 0 -27399156.120710373 -4974774.8639831543 0 -4974774.8639831543 3746054.7758636475 0 0 0 0 -8489483.6514632702 -9754823.5588111877 0 -9754823.5588111877 -4159608.3142700195 0 0 0 0 -13357225.321932793 2880442.1390533447 0 2880442.1390533447 13494278.342384338 0 0 0 0 10634916.107103825 -17149710.328849792 0 -17149710.328849792 3184665.3605651855 0 0 0 0 31888.00273990212 -108647.33534019813 0 -108647.33534019813 -175115.27960143238 0 0 0 0 16377349.245135307 11426038.394882202 0 11426038.394882202 26110546.50213623 0 0 0 0 19851263.816167846 23008932.170222282 0 23008932.170222282 -77724981.48425293 0 0 0 0 18878063.153732926 30504646.596408844 0 30504646.596408844 -9168091.6622009277 0 0 0 0 4058609.6358719468 5758459.1431121826 0 5758459.1431121826 10137480.382602692 0 0 0 0 1143243.0472159465 2379194.8243501447 0 2379194.8243501447 1038639.0932278335 0 0 0 0 -8609618.2522680759 10720944.227287292 0 10720944.227287292 1354983.5613718033 0 0 0 0 -7251490.1899548173 43563254.642250061 0 43563254.642250061 2341977.4039154053 0 0 0 0 -9871018.5863153934 -2182206.8870620728 0 -2182206.8870620728 -96174339.551944733 0 0 0 0 -700505.64350901148 721063.09421782265 0 721063.09421782265 5212674.2878989205 0 0 0 0 -34461137.63268137 35594634.38709259 0 35594634.38709259 11862594.868591309 0 0 0 0 179714972.5708456 -24957896.742950439 0 -24957896.742950439 -19989276.283950806 0 0 0 0 -43419082.601434827 15998678.646095276 0 15998678.646095276 13787411.595321655 0 0 0 0 -873086.87472101464 494506.86896823533 0 494506.86896823533 4686491.3467774615 0 0 0 0 -9727815.4188188165 -5937779.1411170959 0 -5937779.1411170959 -9445647.9515228271 0 0 0 0 97803044.447304726 151639492.46755981 0 151639492.46755981 140960177.14723206 0 0 0 0 -333486837.15267205 -76206556.807571411 0 -76206556.807571411 269395628.11100769 0 0 0 0 -286202662.35558385 -81424988.768966675 0 -81424988.768966675 175366261.13952637 0 0 0 0 -143177129.89671326 53825406.878265381 0 53825406.878265381 300022451.22344208 0 0 0 0 -46694126.187520504 12490165.047065735 0 12490165.047065735 20658889.299835205 0 0 0 0 -64123014.264764309 35216860.720977783 0 35216860.720977783 19965647.68170166 0 0 0 0 -171811841.02987587 -4839738.117767334 0 -4839738.117767334 20399248.912109375 0 0 0 0 209032935.18823099 61833561.75440979 0 61833561.75440979 -15709174.489318848 0 0 0 0 73435628.617566109 84253774.01348877 0 84253774.01348877 -6096740.1157913208 0 0 0 0 84693216.905766487 1115057.1904602051 0 1115057.1904602051 -16298733.239776611 0 0 0 0 76803774.81238842 32178264.459716797 0 32178264.459716797 -17071822.144372463 0 0 0 0 42012832.43942976 9178800.4055938721 0 9178800.4055938721 -88490.534301757812 0 0 0 0 -52712457.111661553 26893119.97164917 0 26893119.97164917 -1827249.3890075684 0 0 0 0 -66668390.887742341 62068925.344787598 0 62068925.344787598 -74750002.99420166 0 0 0 0 25983456.678498268 51390441.615234375 0 51390441.615234375 -24939343.468612671 0 0 0 0 -75838029.789998293 52431628.520774841 0 52431628.520774841 10020038.73828125 0 0 0 0 19554472.892511368 28929402.29510498 0 28929402.29510498 4036685.5621032715 0 0 0 0 -99409005.432235777 1777214.0686912537 0 1777214.0686912537 19923171.49621582 0 0 0 0 -114239471.12662244 35272425.544647217 0 35272425.544647217 21730179.82333374 0 0 0 0 -52199578.047690868 -2324016.7152557373 0 -2324016.7152557373 26065068.094976425 0 0 0 0 -34080645.797699928 46281231.772068024 0 46281231.772068024 26084689.594421387 0 0 0 0 56065057.45318985 26540070.298278809 0 26540070.298278809 11425273.778167725 0 0 0 0 28564445.805893421 46747341.489730835 0 46747341.489730835 5623590.4992370605 0 0 0 0 -48011791.417740226 -70819753.896345139 0 -70819753.896345139 24842359.24822998 0 0 0 0 -2409506.7157309735 916943.74914654531 0 916943.74914654531 17146162.029671729 0 0 0 0 -302445293.14701343 -46629984.476737976 0 -46629984.476737976 62818151.368026733 0 0 0 0 -201935954.14478207 -95750944.701690674 0 -95750944.701690674 25453196.531707764 0 0 0 0 -242480725.48843765 3182101.020401001 0 3182101.020401001 60099200.573120117 0 0 0 0 -155120109.81839061 -49035170.353439331 0 -49035170.353439331 40411078.766685486 0 0 0 0 -199874282.82406878 24048069.14515686 0 24048069.14515686 31212569.139083862 0 0 0 0 -242634889.43081999 87514924.329498291 0 87514924.329498291 -51158660.559509277 0 0 0 0 -131962781.87740707 24270533.059951782 0 24270533.059951782 14484789.426513672 0 0 0 0 -1041866.9299164221 5415765.7962822085 0 5415765.7962822085 5737466.332171604 0 0 0 0 7290078.349627018 68795191.707931519 0 68795191.707931519 29844274.086330652 0 0 0 0 -2167949.2248788392 -968402.10445001163 0 -968402.10445001163 18346378.342006445 0 0 0 0 -340316065.4107368 -211115853.79324341 0 -211115853.79324341 129825442.74105835 0 0 0 0 -253887043.17302072 -181707037.92370987 0 -181707037.92370987 -45622226.341033936 0 0 0 0 -142853988.9155426 -14892728.296112061 0 -14892728.296112061 -166549682.71273804 0 0 0 0 -17117884.93514061 3736937.7755069733 0 3736937.7755069733 18991490.102294922 0 0 0 0 -43989303.30667451 -362346620.15370059 0 -362346620.15370059 154892124.30194092 0 0 0 0 -371854269.65837252 -183474097.83196259 0 -183474097.83196259 130329536.29953003 0 0 0 0 3468330.4670333024 4019768.3125861883 0 4019768.3125861883 8193215.228906339 0 0 0 0 9319321.7361812592 6617177.9972381592 0 6617177.9972381592 5103831.2367589772 0 0 0 0 33520655.325242996 -65237793.159690857 0 -65237793.159690857 203644201.67056274 0 0 0 0 149776.41139569477 505845.41885841638 0 505845.41885841638 989741.23609638214 0 0 0 0 314992753.236655 -170830809.05555725 0 -170830809.05555725 -1008348680.0780029 0 0 0 0 -317925013.61363554 -150126948.31002808 0 -150126948.31002808 174462803.23789978 0 0 0 0 -323978770.13502955 -89709971.095989227 0 -89709971.095989227 -427994795.47119141 0 0 0 0 -83470.271459610318 111055.68059183285 0 111055.68059183285 484665.61543492507 0 0 0 0 -157763299.12129593 743277866.47447205 0 743277866.47447205 -2561209452.1729851 0 0 0 0 -417102680.94127321 -362557851.81450653 0 -362557851.81450653 988920305.58499146 0 0 0 0 -89625.697737226161 3190164.1760449577 0 3190164.1760449577 12949586.582663976 0 0 0 0 -194429.40595185757 561059.59842681885 0 561059.59842681885 4232950.43384552 0 0 0 0 -554561948.88406491 73660839.549476624 0 73660839.549476624 261273632.55578613 0 0 0 0 -234111714.17923856 -39405352.691795349 0 -39405352.691795349 297753307.61870575 0 0 0 0 8807585.8503075242 -2216278.9804286957 0 -2216278.9804286957 -900908.3893737793 0 0 0 0 -181644507.93423843 -104522626.36504364 0 -104522626.36504364 30950842.754058838 0 0 0 0 953478.22076960292 5386483.139095488 0 5386483.139095488 -1676067.194296062 0 0 0 0 13405850.783839703 6224423.9449920654 0 6224423.9449920654 141702.19610595703 0 0 0 0 -299694529.84484625 211596958.02081299 0 211596958.02081299 1031437424.9508667 0 0 0 0 2390340.59919554 32240018.891771317 0 32240018.891771317 -25795166.72013855 0 0 0 0 317948.80648474069 1580240.4966952018 0 1580240.4966952018 -494610.67171769589 0 0 0 0 306439.18695609667 362407.73608668894 0 362407.73608668894 4927873.7128398567 0 0 0 0 924446480.30891991 1506549261.8254967 0 1506549261.8254967 2587026918.3250427 0 0 0 0 868164261.49699605 1230537714.2606659 0 1230537714.2606659 1375706338.9096222 0 0 0 0 27048430.194926903 294041400.10707092 0 294041400.10707092 1917623564.3362732 0 0 0 0 -176250382.826132 155049712.61373901 0 155049712.61373901 4097754372.6081924 0 0 0 0 162067661.91784921 933749700.47230911 0 933749700.47230911 4453965771.1943817 0 0 0 0 2274564347.2011032 -1908791682.3599243 0 -1908791682.3599243 5764349712.8737793 0 0 0 0 -1092429604.0995905 98662620.879295349 0 98662620.879295349 2367408183.7015381 0 0 0 0 -1356420504.5347865 -141539533.13283539 0 -141539533.13283539 4123726501.027771 0 0 0 0 -582071212.65014148 -404672802.01103783 0 -404672802.01103783 3215966781.4540253 0 0 0 0 -614577081.63206589 -283394890.35097504 0 -283394890.35097504 2915212822.6741333 0 0 0 0 53235236.114827983 -1159449573.1599808 0 -1159449573.1599808 4094175298.8233309 0 0 0 0 1534350294.7833848 45946487.440290451 0 45946487.440290451 4623890844.9119415 0 0 0 0 115959.6780244648 -825599.11265382683 0 -825599.11265382683 1517344.5737036988 0 0 0 0 377793063.14570552 -1797885519.652153 0 -1797885519.652153 2361907290.9268341 0 0 0 0 397658549.83158576 197949018.69245148 0 197949018.69245148 -248615371.62844086 0 0 0 0 663702688.39685977 -1166082972.4675484 0 -1166082972.4675484 1319629327.5662537 0 0 0 0 -473517725.49510413 -799180689.34350586 0 -799180689.34350586 3275500125.4633532 0 0 0 0 -479409714.86666954 -694892490.1881597 0 -694892490.1881597 2925096553.9662628 0 0 0 0 578652958.25007546 -416457077.73180389 0 -416457077.73180389 133617081.89491272 0 0 0 0 195644929.70547199 211557131.29961395 0 211557131.29961395 20103862.72277832 0 0 0 0 -344594896.24725956 264205791.96479034 0 264205791.96479034 114064503.63088989 0 0 0 0 -73415897.302728176 215169562.15929413 0 215169562.15929413 122344742.81527328 0 0 0 0 -112073.27902921414 -785855.09632417234 0 -785855.09632417234 3791760.6903899536 0 0 0 0 96008935.089530617 103572926.81237602 0 103572926.81237602 128186058.20199585 0 0 0 0 -170644329.68985894 38176030.190461636 0 38176030.190461636 4350327.0868377686 0 0 0 0 17292606.787401438 -3688515.4496078491 0 -3688515.4496078491 -12674687.481040955 0 0 0 0 -28043678.341154963 183223795.62484741 0 183223795.62484741 56063001.771240234 0 0 0 0 124136202.21366572 27726924.186321259 0 27726924.186321259 -123717845.72286987 0 0 0 0 226462.5913537275 418182.36284244806 0 418182.36284244806 667666.50247123465 0 0 0 0 -288202.94952657004 762979.47216395475 0 762979.47216395475 2335596.734903127 0 0 0 0 -26735815.696258545 -219193202.92217255 0 -219193202.92217255 -209649270.50271606 0 0 0 0 -74758860.893364668 -64307164.404594421 0 -64307164.404594421 -81906401.705749512 0 0 0 0 17412613.556427002 -389198.98115158081 0 -389198.98115158081 23512443.316345215 0 0 0 0 77713069.324585676 -62694928.029956818 0 -62694928.029956818 -131473568.11062622 0 0 0 0 167926396.09336472 -108829731.89682007 0 -108829731.89682007 -194115096.48297119 0 0 0 0 172550809.01312923 -33846354.223464966 0 -33846354.223464966 -393727635.78363037 0 0 0 0 -60588730.203671455 149765645.38124084 0 149765645.38124084 -255840647.8855896 0 0 0 0 37788893.739204884 -89417987.977714539 0 -89417987.977714539 205901791.09060669 0 0 0 0 117186158.11277699 50452503.038795471 0 50452503.038795471 26643064.695724487 0 0 0 0 55645.928851424949 115085.34879452735 0 115085.34879452735 698082.55799293518 0 0 0 0 5539792.2372360229 12085451.518486023 0 12085451.518486023 57028933.875335693 0 0 0 0 -112114447.11042786 -55405298.677158356 0 -55405298.677158356 -43667519.192108154 0 0 0 0 -3511513.5867614746 -10931903.924621582 0 -10931903.924621582 38817737.947517395 0 0 0 0 3064513.3846893311 -2305123.9964294434 0 -2305123.9964294434 35223508.951446533 0 0 0 0 -12426618.807317257 2809706.2922439575 0 2809706.2922439575 60644882.918045044 0 0 0 0 -20058478.52202177 -6237655.6965179443 0 -6237655.6965179443 57526141.832702637 0 0 0 0 39317921.23692894 45129356.527458191 0 45129356.527458191 -43531562.779190063 0 0 0 0 -181319122.82824704 -255818597.96598482 0 -255818597.96598482 425069522.52687073 0 0 0 0 -244086.91422978253 -66007.847253061831 0 -66007.847253061831 2748642.1672921628 0 0 0 0 -248626681.51545525 200474098.30887604 0 200474098.30887604 181495811.08789062 0 0 0 0 75203231.143193811 -177237074.09807396 0 -177237074.09807396 293669911.35101318 0 0 0 0 332096553.51605076 -168488002.7005825 0 -168488002.7005825 162460306.67164612 0 0 0 0 -242722485.56743479 110699409.26137543 0 110699409.26137543 424490588.19720459 0 0 0 0 8536485.6934313774 -106222811.41706848 0 -106222811.41706848 562612819.17263794 0 0 0 0 3238121.9736445844 239351387.08014679 0 239351387.08014679 1091517190.0431976 0 0 0 0 -40167313.808125257 -549376974.94142914 0 -549376974.94142914 1329487861.0749207 0 0 0 0 -27792343.170171261 76394422.861312866 0 76394422.861312866 851659400.67488098 0 0 0 0 -588101121.1402564 -239165163.17375183 0 -239165163.17375183 2719614493.2365532 0 0 0 0 -256982957.28668118 68231054.339927673 0 68231054.339927673 1836924140.9659348 0 0 0 0 -478460171.96344686 -324107572.22158813 0 -324107572.22158813 2002437531.9257011 0 0 0 0 -234118722.75199938 -39319498.22933197 0 -39319498.22933197 1217761914.5589409 0 0 0 0 74517853.92710638 472549306.29858398 0 472549306.29858398 679182298.73600006 0 0 0 0 -670612006.13875139 326838482.97029877 0 326838482.97029877 3355870752.7397308 0 0 0 0 -171019251.54596519 752292190.77140808 0 752292190.77140808 2461507301.3491058 0 0 0 0 282655351.70630437 1284884355.4242849 0 1284884355.4242849 2472067453.8165131 0 0 0 0 22674872.302887917 322376703.54281616 0 322376703.54281616 2645537333.2251987 0 0 0 0 -379870735.03035367 -246210886.22343063 0 -246210886.22343063 3460828088.9259949 0 0 0 0 -612792.18910626287 82088.651124183089 0 82088.651124183089 1684783.0156411459 0 0 0 0 -1098206032.4661977 -367922185.96936035 0 -367922185.96936035 4094694782.4474301 0 0 0 0 -47668116.627669148 246109640.87722015 0 246109640.87722015 4095523631.6628036 0 0 0 0 761244319.09792042 124867339.65098572 0 124867339.65098572 3700604160.253109 0 0 0 0 -21500398.879917577 267870407.88258743 0 267870407.88258743 4111736305.195694 0 0 0 0 -1450219.6610633584 217617.88004390523 0 217617.88004390523 3097810.7016944131 0 0 0 0 24880634.93013677 263168049.55255318 0 263168049.55255318 4094442271.3464203 0 0 0 0 -284236.17388754885 -45060.959348127246 0 -45060.959348127246 1609777.2061801776 0 0 0 0 270773219.58958018 1303338803.1727276 0 1303338803.1727276 3277256157.8123627 0 0 0 0 -57144.910324274621 -198850.91583860945 0 -198850.91583860945 1712960.0368865728 0 0 0 0 504052251.17107964 502780742.01217651 0 502780742.01217651 3923825663.9895935 0 0 0 0 -874758667.59133577 187562131.57353973 0 187562131.57353973 4690268514.1907349 0 0 0 0 -483653163.53189754 -131241097.2421875 0 -131241097.2421875 397302238.72769165 0 0 0 0 -80028106.836514831 -674321124.16030884 0 -674321124.16030884 1268370842.2720108 0 0 0 0 -14369914.590553522 282297099.77180862 0 282297099.77180862 706541487.38330078 0 0 0 0 19014855.220853925 401393306.00636888 0 401393306.00636888 3947122149.8132477 0 0 0 0 -99923932.260429382 413555075.54747772 0 413555075.54747772 3615691442.0691528 0 0 0 0 -216564338.84869051 -433369032.16158676 0 -433369032.16158676 2761095252.4747925 0 0 0 0 73341432.603490353 -152756208.74724579 0 -152756208.74724579 2384228602.1179962 0 0 0 0 -109819160.77017975 -258419512.97297668 0 -258419512.97297668 2401246363.932848 0 0 0 0 141276351.95122623 -414010785.5766983 0 -414010785.5766983 1023492644.7736969 0 0 0 0 216136289.20674372 -169226614.69585419 0 -169226614.69585419 1035636148.4419131 0 0 0 0 418109427.63060021 -189378156.93476105 0 -189378156.93476105 -335218173.58236694 0 0 0 0 103116222.12895632 344132545.27496338 0 344132545.27496338 -271244951.99053478 0 0 0 0 64113622.130600333 23399447.005338669 0 23399447.005338669 -240367825.92120361 0 0 0 0 -129302337.40352964 -157132934.16654968 0 -157132934.16654968 -108668690.65317535 0 0 0 0 -53465251.044156551 99164787.513870239 0 99164787.513870239 -144955855.41829681 0 0 0 0 -215009.65031310939 -114628.28583309427 0 -114628.28583309427 3475022.8181036562 0 0 0 0 -283730944.9015429 175885558.59109879 0 175885558.59109879 -87653436.29712677 0 0 0 0 -250614246.04723048 -107741187.04063416 0 -107741187.04063416 88059147.512771606 0 0 0 0 -172561450.34950233 -757359.96445274353 0 -757359.96445274353 -44802299.520950317 0 0 0 0 256118615.60441303 -22219198.694210052 0 -22219198.694210052 -128263243.41993713 0 0 0 0 13158062.75426054 26479028.677745819 0 26479028.677745819 -260066222.82290459 0 0 0 0 -386645.81168559985 495212.17669532821 0 495212.17669532821 -51294.420533396304 0 0 0 0 13456147.501324356 17716201.230808973 0 17716201.230808973 -12415305.244918823 0 0 0 0 43302538.059521675 17470773.440807343 0 17470773.440807343 24962732.166030884 0 0 0 0 41070694.709262133 6214029.2692871094 0 6214029.2692871094 3535722.7040042877 0 0 0 0 -262486.30808213318 55893.402411499992 0 55893.402411499992 3459524.0799025372 0 0 0 0 -744428.77560106083 776265.14430360869 0 776265.14430360869 312184.44736450538 0 0 0 0 -11455779.92071104 13599400.967552185 0 13599400.967552185 -7088525.7429885864 0 0 0 0 -92988458.305368662 -44439520.435216904 0 -44439520.435216904 -16701012.118362427 0 0 0 0 -88719794.334649086 -36066385.860092163 0 -36066385.860092163 -37447946.264877319 0 0 0 0 -28242947.601223946 -62472730.603561401 0 -62472730.603561401 -46846687.261943817 0 0 0 0 -90417253.950312614 -50651353.880599976 0 -50651353.880599976 -15754313.369018555 0 0 0 0 631263.02689211234 600924.51894633844 0 600924.51894633844 1985718.4531687833 0 0 0 0 -18946309.066972733 -2881288.6906433105 0 -2881288.6906433105 -2806761.1598968506 0 0 0 0 11775790.522348881 13487711.454174042 0 13487711.454174042 10349536.663192749 0 0 0 0 6979623.038236618 7914859.1620330811 0 7914859.1620330811 13405688.263793945 0 0 0 0 2942533.2398502827 -16988393.41835022 0 -16988393.41835022 -29641940.718444824 0 0 0 0 -1846550.1256917862 516181.99023756571 0 516181.99023756571 2783408.8477012515 0 0 0 0 -40137720.650634289 -23829759.604782104 0 -23829759.604782104 9018299.9795303345 0 0 0 0 -21650155.995326996 -22622342.571960449 0 -22622342.571960449 62151.701868057251 0 0 0 0 -38333967.601635098 -36680670.089038849 0 -36680670.089038849 -20372672.329345703 0 0 0 0 -22138968.515102744 -24196119.597980499 0 -24196119.597980499 -9569720.3954925537 0 0 0 0 -83054037.319620609 -36085635.332019806 0 -36085635.332019806 -15443724.82862854 0 0 0 0 -54602845.141365528 -55150829.639015198 0 -55150829.639015198 -20318381.515899658 0 0 0 0 -50315805.062262535 -37647752.125198364 0 -37647752.125198364 -12670670.326755524 0 0 0 0 571784.84786558151 4997720.2096252441 0 4997720.2096252441 59445654.131332397 0 0 0 0 -272383.6849373274 -348080.54155601934 0 -348080.54155601934 1946594.520858828 0 0 0 0 -66565332.918867111 -44185003.094612122 0 -44185003.094612122 -10939949.978076935 0 0 0 0 -64879974.624232292 -48346266.414306641 0 -48346266.414306641 -21056677.060274124 0 0 0 0 -52609260.833963633 -69148985.977230072 0 -69148985.977230072 -57066951.900367737 0 0 0 0 -49550659.869978189 -33186497.656711578 0 -33186497.656711578 -31328032.102844238 0 0 0 0 -51474659.333328642 -42301409.3747226 0 -42301409.3747226 -10115661.423324585 0 0 0 0 31247975.680948734 50906013.910139084 0 50906013.910139084 68038079.002685547 0 0 0 0 -97423441.610001564 -83984590.425491333 0 -83984590.425491333 -46364398.77507019 0 0 0 0 -183629.92814639932 -306317.70762443915 0 -306317.70762443915 1161146.4505546503 0 0 0 0 26087030.895998836 58327788.907941818 0 58327788.907941818 70805712.052322388 0 0 0 0 23931693.437172174 47317207.959869385 0 47317207.959869385 50847059.44254303 0 0 0 0 28227255.251129627 36009004.453208923 0 36009004.453208923 77077118.14507103 0 0 0 0 5827983.6523972154 17448947.226309776 0 17448947.226309776 72777525.339126587 0 0 0 0 6878530.8299500942 14457445.123138428 0 14457445.123138428 70021432.135643005 0 0 0 0 -12227929.58113718 15008356.22624588 0 15008356.22624588 78095904.135757446 0 0 0 0 25364791.806476593 23426239.667678833 0 23426239.667678833 27875754.054334641 0 0 0 0 17578505.120486975 18303315.295619965 0 18303315.295619965 71394771.793060303 0 0 0 0 37748063.072167873 48715582.411483765 0 48715582.411483765 73394522.556289673 0 0 0 0 40195.514275164664 113680.6259050942 0 113680.6259050942 70010.369881033897 0 0 0 0 -37576848.024933338 16694933.433574677 0 16694933.433574677 83159932.044799805 0 0 0 0 -6651796.4624048471 18116719.141908646 0 18116719.141908646 79110108.855918884 0 0 0 0 -13519655.266132355 27166212.841239929 0 27166212.841239929 75384320.034292221 0 0 0 0 19498784.317667961 50824885.470420837 0 50824885.470420837 71246480.460830212 0 0 0 0 -624313.38109660149 51257173.131349564 0 51257173.131349564 90427262.670974731 0 0 0 0 49791796.155368328 51667492.223339081 0 51667492.223339081 66196164.60307312 0 0 0 0 69005397.472590446 73004897.543403625 0 73004897.543403625 84117472.243659973 0 0 0 0 28637345.386383057 63217922.307106018 0 63217922.307106018 87498605.915054321 0 0 0 0 40868593.1960783 58286737.172485352 0 58286737.172485352 86343188.082658768 0 0 0 0 9415360.7482056618 53739649.711906433 0 53739649.711906433 108236419.86605072 0 0 0 0 40915590.00530275 53875036.862035453 0 53875036.862035453 118952372.18032837 0 0 0 0 61704357.056865692 53764366.055591583 0 53764366.055591583 88643484.34967041 0 0 0 0 73307939.489038706 15978689.852259636 0 15978689.852259636 119510839.7557373 0 0 0 0 46739200.323747635 37670405.597854614 0 37670405.597854614 107198894.25674438 0 0 0 0 10177538.550069332 49322022.349136353 0 49322022.349136353 82931685.810531616 0 0 0 0 -21508729.272377014 20549869.580764771 0 20549869.580764771 93715663.588352203 0 0 0 0 1171994.968883276 61452817.659002304 0 61452817.659002304 105992557.83706665 0 0 0 0 -9861407.963991046 2049896.4171962738 0 2049896.4171962738 43351854.731658936 0 0 0 0 133914.06735148956 976837.73667653231 0 976837.73667653231 197431.45618332922 0 0 0 0 128558854.45775238 71860421.625205338 0 71860421.625205338 17465471.838485718 0 0 0 0 -14722329.168385506 -6036726.1316833496 0 -6036726.1316833496 58298336.550302505 0 0 0 0 4843289.1707556248 11352218.218696594 0 11352218.218696594 -1780047.8984146118 0 0 0 0 7702508.8016901016 5471801.0499649048 0 5471801.0499649048 -62617.923168182373 0 0 0 0 -46743276.657221794 45762582.665802002 0 45762582.665802002 -6870483.0690813065 0 0 0 0 2617246.4453125 16758901.478355408 0 16758901.478355408 -12257673.879860878 0 0 0 0 -29636775.223453283 39306368.615768433 0 39306368.615768433 57953869.183540344 0 0 0 0 -34723891.254895419 3560663.2817721367 0 3560663.2817721367 53469404.180679321 0 0 0 0 -97596299.730089903 11223829.659198761 0 11223829.659198761 57281934.258926392 0 0 0 0 -48822749.570646524 -43087452.958015442 0 -43087452.958015442 -23248627.307115555 0 0 0 0 -35328373.803889751 30532795.221374512 0 30532795.221374512 -46010261.881725311 0 0 0 0 -132448944.65669703 4092771.5931472778 0 4092771.5931472778 106510520.76407623 0 0 0 0 -71908500.089545488 -59132088.225160599 0 -59132088.225160599 -10510434.276779175 0 0 0 0 -386175.43524435349 500039.97499544919 0 500039.97499544919 1392396.3230358511 0 0 0 0 -18559011.465515614 7868578.072063446 0 7868578.072063446 22008179.359695435 0 0 0 0 -6342840.2917861938 5212068.4771194458 0 5212068.4771194458 14552473.018325806 0 0 0 0 -2891914.868499279 65636817.860759735 0 65636817.860759735 45510013.486579895 0 0 0 0 -92357265.222137451 -80754364.750366211 0 -80754364.750366211 -31268219.604736328 0 0 0 0 -116097384.02877641 -66785448.64982605 0 -66785448.64982605 -27071535.046295166 0 0 0 0 -16202750.497915268 -3164515.468170166 0 -3164515.468170166 10279965.197784424 0 0 0 0 -424200.31525124947 194067.16465509869 0 194067.16465509869 517246.94621650875 0 0 0 0 -126583597.09092784 -58853421.235702515 0 -58853421.235702515 11164067.205093384 0 0 0 0 -40885764.584459305 7423833.6960830688 0 7423833.6960830688 42427917.774471283 0 0 0 0 -142025.35428833892 -360347.18637020886 0 -360347.18637020886 121910.89939739183 0 0 0 0 -7699040.0848491192 18563170.398750305 0 18563170.398750305 15919018.192398071 0 0 0 0 -57491686.003662109 -496834.21812820435 0 -496834.21812820435 58880517.974784851 0 0 0 0 -713992.84801553283 307259.83480833285 0 307259.83480833285 934042.80379145592 0 0 0 0 -74653677.500234365 -9585489.2872009277 0 -9585489.2872009277 47058110.28540802 0 0 0 0 -64623293.74467802 20065653.334701538 0 20065653.334701538 11988307.801246643 0 0 0 0 -25757179.316500664 -12028567.501907349 0 -12028567.501907349 6635034.0526580811 0 0 0 0 -53982797.999879122 -3891718.3309555054 0 -3891718.3309555054 36501057.454177856 0 0 0 0 -17637435.210217953 25495634.832489014 0 25495634.832489014 43701559.177722931 0 0 0 0 -27779443.634222746 27346434.119148254 0 27346434.119148254 81908382.690124512 0 0 0 0 8977409.8842830658 -17767022.298419952 0 -17767022.298419952 34832999.651504517 0 0 0 0 47645546.347876072 30650753.631938934 0 30650753.631938934 -5182887.1259155273 0 0 0 0 18895080.82756424 42702203.257904053 0 42702203.257904053 16563507.311218262 0 0 0 0 7985072.9465007782 38993498.876998901 0 38993498.876998901 7325426.6832580566 0 0 0 0 -10115260.138489723 15157397.89642334 0 15157397.89642334 -20765000.937963486 0 0 0 0 -29472455.291944981 9086387.7535247803 0 9086387.7535247803 39507424.054077148 0 0 0 0 -66832373.486756802 -23467404.875339508 0 -23467404.875339508 25896039.59664917 0 0 0 0 -26463548.861219406 1264500.1012420654 0 1264500.1012420654 23981193.778503418 0 0 0 0 -65218298.873896122 12679693.034118652 0 12679693.034118652 35425641.25201416 0 0 0 0 -39020461.183740139 -1545479.8515548706 0 -1545479.8515548706 22421962.871734619 0 0 0 0 -26525510.05407238 13138103.132507324 0 13138103.132507324 26984932.379737854 0 0 0 0 -20215091.162870407 7624781.7031326294 0 7624781.7031326294 23230890.47013855 0 0 0 0 13334215.611984253 12877228.773544312 0 12877228.773544312 17942489.591766357 0 0 0 0 13510626.969549179 12200431.032623291 0 12200431.032623291 12559133.826538086 0 0 0 0 13654090.177780151 26913017.892623901 0 26913017.892623901 25261931.243713379 0 0 0 0 -2247960.398853302 14771876.244415283 0 14771876.244415283 21885203.899856567 0 0 0 0 -5088129.5663948059 19233672.422828674 0 19233672.422828674 26578187.322875977 0 0 0 0 1017571.4202680588 32567973.715007782 0 32567973.715007782 39811494.061248779 0 0 0 0 41676672.808001891 -32177846.743224144 0 -32177846.743224144 4848851.1217346191 0 0 0 0 60927918.17766571 12182629.062835693 0 12182629.062835693 19320764.345947266 0 0 0 0 -17171.366911407844 -1627461.6345908637 0 -1627461.6345908637 28445.446189366281 0 0 0 0 57299065.213317871 20178379.817352295 0 20178379.817352295 24764241.133361816 0 0 0 0 -1849580.7990761716 -7710504.8184927925 0 -7710504.8184927925 2630123.5368112102 0 0 0 0 61586162.836620331 5049437.6558837891 0 5049437.6558837891 6980564.6300048828 0 0 0 0 -283969.56253606454 -167051.93026850745 0 -167051.93026850745 422386.24353174865 0 0 0 0 -4259001.0332248099 1253833.5170524169 0 1253833.5170524169 8436645.5727347583 0 0 0 0 -9429398.6322625354 -156379.9785554409 0 -156379.9785554409 7049001.0538024902 0 0 0 0 -12048400.803114414 2257838.865447998 0 2257838.865447998 16003490.390187263 0 0 0 0 19427954.310771942 8567775.4430999756 0 8567775.4430999756 10173824.221282959 0 0 0 0 -3019907.3999405503 9012663.9739768244 0 9012663.9739768244 14719010.796905324 0 0 0 0 8470684.6596212387 1703816.9549789429 0 1703816.9549789429 15743745.508499146 0 0 0 0 -8022530.3900518417 10049519.379928589 0 10049519.379928589 19066083.713302612 0 0 0 0 -20776668.148266792 7120078.8310546875 0 7120078.8310546875 20341503.626998901 0 0 0 0 -8552556.2061828375 12177850.783409119 0 12177850.783409119 19306413.058563232 0 0 0 0 -20832486.485347748 6946272.859375 0 6946272.859375 21542744.03314209 0 0 0 0 -20493091.575881481 6908015.3669662476 0 6908015.3669662476 21546737.130912781 0 0 0 0 -20434626.239654064 6186791.0815887451 0 6186791.0815887451 22128141.350528717 0 0 0 0 -21498345.85926652 7094726.8521499634 0 7094726.8521499634 21675786.99520874 0 0 0 0 39223513.301903456 32461057.769560397 0 32461057.769560397 -15231715.289520264 0 0 0 0 425557.67310052318 4900946.4618545361 0 4900946.4618545361 638682.22651362419 0 0 0 0 -1417897.6355269104 1653583.5568652563 0 1653583.5568652563 5178425.1366337389 0 0 0 0 -2682639.7656685058 10881792.482216209 0 10881792.482216209 9838970.9810714722 0 0 0 0 1786621.1219141916 8778519.4311159812 0 8778519.4311159812 23808943.083377078 0 0 0 0 -9311349.3792533875 22951815.032112122 0 22951815.032112122 -13638173.59727335 0 0 0 0 2823699.9630622864 50489776.526428223 0 50489776.526428223 -14667854.169657946 0 0 0 0 8488510.4430509806 47080838.573867798 0 47080838.573867798 -4172959.3565979004 0 0 0 0 8135291.002473712 3663473.30909729 0 3663473.30909729 18886286.294921875 0 0 0 0 -40531703.349179506 51536993.529151917 0 51536993.529151917 88615837.092224121 0 0 0 0 190382378.80165339 125439066.11352539 0 125439066.11352539 6306321.9957427979 0 0 0 0 -50583350.428986549 -44862379.173454285 0 -44862379.173454285 3259834.2988586426 0 0 0 0 -143583038.01893759 -17176236.067871094 0 -17176236.067871094 57930100.13520813 0 0 0 0 -61536696.945814461 186753552.46405792 0 186753552.46405792 114650691.01312256 0 0 0 0 -47886365.417629004 23078103.791835785 0 23078103.791835785 28342956.133361816 0 0 0 0 -28137347.699134827 42915049.186813354 0 42915049.186813354 -7018461.7799987793 0 0 0 0 -19930587.800855637 -590499.56645965576 0 -590499.56645965576 27571580.532165527 0 0 0 0 -8748354.3080692291 3627865.3871994019 0 3627865.3871994019 6134629.894317627 0 0 0 0 -14924040.934124947 24001324.164505005 0 24001324.164505005 22208739.547317505 0 0 0 0 -1172820.198016494 1330388.4692577533 0 1330388.4692577533 1785423.0040212572 0 0 0 0 -16421504.197750092 2499963.5166473389 0 2499963.5166473389 31757871.205953598 0 0 0 0 -3429341.49269117 -525494.10193805769 0 -525494.10193805769 17483796.835671969 0 0 0 0 -1194976.2671380753 1189107.7691994049 0 1189107.7691994049 19134333.815073643 0 0 0 0 -5468565.460703373 -530043.67303466797 0 -530043.67303466797 5673197.6233215332 0 0 0 0 -4248715.8743808931 -2042629.1291290596 0 -2042629.1291290596 19803024.61300569 0 0 0 0 -1161787.5129928589 -25431612.028114319 0 -25431612.028114319 2565387.2256164551 0 0 0 0 -3631131.8588643074 -15529947.119039536 0 -15529947.119039536 15979328.5206604 0 0 0 0 2013022.6187095642 -21657281.155517578 0 -21657281.155517578 4040657.0446243286 0 0 0 0 -61582540.303513288 -73609643.488990784 0 -73609643.488990784 -56066709.632278442 0 0 0 0 1728528.3334503174 -3540434.5602416992 0 -3540434.5602416992 44122322.883956909 0 0 0 0 -2226460.0061714649 -42838939.901475906 0 -42838939.901475906 -12224378.765106201 0 0 0 0 1534056.2972693443 -9765582.4435691833 0 -9765582.4435691833 -15654638.822967529 0 0 0 0 2111548.5354728699 -6670586.5130615234 0 -6670586.5130615234 -25422650.588378906 0 0 0 0 -46691595.756734848 -28522068.466346741 0 -28522068.466346741 12139908.987426758 0 0 0 0 -1995771.9567975856 -3227842.4878442958 0 -3227842.4878442958 26531624.171989359 0 0 0 0 -2076407.3151783908 1380217.3914363794 0 1380217.3914363794 6556465.6211837828 0 0 0 0 -268019661.66631603 -116687483.75236511 0 -116687483.75236511 -18530546.872047424 0 0 0 0 -295037561.04535246 143555557.47166443 0 143555557.47166443 21586348.72845459 0 0 0 0 -479558683.05737662 119184845.89406204 0 119184845.89406204 107300941.90036011 0 0 0 0 -327928431.78912604 -411407908.76807404 0 -411407908.76807404 132729657.80176544 0 0 0 0 -150313134.32895148 -272888374.85183716 0 -272888374.85183716 15455868.653594971 0 0 0 0 -530132023.00253451 -18337416.766822815 0 -18337416.766822815 263128848.71417236 0 0 0 0 -163195635.86596107 317517355.57963562 0 317517355.57963562 69137252.398254395 0 0 0 0 -11157525.334339142 71815897.352752686 0 71815897.352752686 -16025658.800796509 0 0 0 0 10532845.585289001 59937374.71786499 0 59937374.71786499 -10113307.598060608 0 0 0 0 18839596.093537092 38503213.718454361 0 38503213.718454361 -40331449.419494629 0 0 0 0 -12708371.324333191 -52164728.157241821 0 -52164728.157241821 -129900097.28167725 0 0 0 0 48147539.395282745 68675120.301750183 0 68675120.301750183 -215686966.53941345 0 0 0 0 354386825.94715881 306808891.49674225 0 306808891.49674225 451079573.38420105 0 0 0 0 89978588.9228338 26570771.429515839 0 26570771.429515839 156749612.74130249 0 0 0 0 189314624.56987047 169546175.29702759 0 169546175.29702759 61614647.713813782 0 0 0 0 150739564.25943813 -233759973.72877502 0 -233759973.72877502 -16729761.886623383 0 0 0 0 17013909.230763525 -529981003.7988205 0 -529981003.7988205 321732040.28901672 0 0 0 0 690330757.82598758 -127826030.82258606 0 -127826030.82258606 1494742.5183410645 0 0 0 0 639976603.91915262 62000798.238811493 0 62000798.238811493 -104059612.51693726 0 0 0 0 -111123077.89570266 273901933.61172485 0 273901933.61172485 821650234.09861755 0 0 0 0 -142678360.51643687 29840689.347419739 0 29840689.347419739 -132380556.05775452 0 0 0 0 -388960625.22894788 276197022.62892151 0 276197022.62892151 338450748.4261322 0 0 0 0 465056.42692897236 915304.72702750191 0 915304.72702750191 1433726.0460657626 0 0 0 0 271447612.47085285 -288922498.90169144 0 -288922498.90169144 184383622.55950928 0 0 0 0 38423855.282481909 -45821834.940460205 0 -45821834.940460205 576306537.99050903 0 0 0 0 139133317.97184014 -98843051.572814941 0 -98843051.572814941 -81899005.940795898 0 0 0 0 3499808.4559316635 173638712.37294769 0 173638712.37294769 23675108.057575226 0 0 0 0 24931853.471141458 -113173323.04249573 0 -113173323.04249573 -75954012.521087646 0 0 0 0 117809.8133620689 2683619.4602494906 0 2683619.4602494906 24653.873967200518 0 0 0 0 -546807599.26408148 160063135.73595428 0 160063135.73595428 140164606.24958801 0 0 0 0 127785416.54480572 298659648.13076782 0 298659648.13076782 -243810718.90104675 0 0 0 0 25414169.327768549 -80743402.323059082 0 -80743402.323059082 70057478.4347229 0 0 0 0 -122295713.25484157 103849785.39015961 0 103849785.39015961 -17971661.231918335 0 0 0 0 -187708797.08773637 -25951599.2967453 0 -25951599.2967453 -36247564.276123047 0 0 0 0 400685.76754733705 9296068.3859414905 0 9296068.3859414905 135324.61664326489 0 0 0 0 -232790635.28903961 65041361.177368164 0 65041361.177368164 31603758.970611572 0 0 0 0 -18434785.58220315 31005678.282302856 0 31005678.282302856 -13293760.055633545 0 0 0 0 187511601.79260683 -29928220.144954681 0 -29928220.144954681 -51184358.800704956 0 0 0 0 1103023.6630877228 2748251.3215328567 0 2748251.3215328567 4478642.4682780504 0 0 0 0 -54671776.685403466 64692544.355438232 0 64692544.355438232 439840972.85931396 0 0 0 0 -32324230.928309917 21852815.55279541 0 21852815.55279541 52498283.733322144 0 0 0 0 16736202.867249489 69671294.415557861 0 69671294.415557861 15089874.279159546 0 0 0 0 -32360971.296234608 29560241.14263916 0 29560241.14263916 -1531221.740020752 0 0 0 0 -40084271.608175278 71566363.140853882 0 71566363.140853882 -7707417.7157554626 0 0 0 0 -17964530.871599436 -19895753.606005669 0 -19895753.606005669 19758492.563369751 0 0 0 0 -116478086.91511333 34223514.0728302 0 34223514.0728302 -7058971.8047485352 0 0 0 0 -63985283.165786266 49088926.08348465 0 49088926.08348465 20165624.692108154 0 0 0 0 -47191062.078287184 58193010.092712402 0 58193010.092712402 -83299196.833450317 0 0 0 0 -1489003.4639253386 -1788851.7044291496 0 -1788851.7044291496 3767349.188125737 0 0 0 0 -35776226.053736925 -20440810.41355896 0 -20440810.41355896 30524333.059951782 0 0 0 0 -132589493.84927654 95997638.016102791 0 95997638.016102791 -13530680.345977783 0 0 0 0 -124421913.01930881 45644156.08373642 0 45644156.08373642 -20233588.838134766 0 0 0 0 -86735764.597777843 85990145.405883789 0 85990145.405883789 4068378.6243934631 0 0 0 0 1415239.9796159228 7772277.0712351352 0 7772277.0712351352 23880924.935381182 0 0 0 0 -55515247.195439816 68405157.510829926 0 68405157.510829926 918042.22689819336 0 0 0 0 6084169.3730378151 50163619.426338196 0 50163619.426338196 -7503055.9521465302 0 0 0 0 909627.82411050797 40091542.545665741 0 40091542.545665741 15032350.881332397 0 0 0 0 21336895.909534931 3939443.1419448853 0 3939443.1419448853 10288731.186188698 0 0 0 0 -162022862.73082304 88894127.506835938 0 88894127.506835938 64143333.265365601 0 0 0 0 -88584094.856241226 18190931.837310791 0 18190931.837310791 70597528.730064392 0 0 0 0 -882277.44720544014 7043314.9105886929 0 7043314.9105886929 22768350.327105209 0 0 0 0 -172410220.44571114 -143428763.22478485 0 -143428763.22478485 221828381.3527832 0 0 0 0 6276374.054227829 4079133.4464416504 0 4079133.4464416504 -128026489.09028625 0 0 0 0 24633505.872886658 52651988.023727417 0 52651988.023727417 33025822.609886169 0 0 0 0 42082375.456620693 3605399.9223251343 0 3605399.9223251343 130753666.3534317 0 0 0 0 26062403.100690842 50442867.174728394 0 50442867.174728394 215094790.54718781 0 0 0 0 -8298624.0715848804 -34311381.455877304 0 -34311381.455877304 195625640.35876465 0 0 0 0 63786438.635137558 103724638.96546936 0 103724638.96546936 174221343.91007996 0 0 0 0 -123024.08422665554 -123963.56287077442 0 -123963.56287077442 450578.34657963365 0 0 0 0 -108266613.98247337 -133082416.79062653 0 -133082416.79062653 -119675837.77526855 0 0 0 0 -72272802.805223465 -115786623.92121887 0 -115786623.92121887 -79640136.005615234 0 0 0 0 -205550006.40614772 -64860388.173717499 0 -64860388.173717499 39202396.079620361 0 0 0 0 -175932125.35694885 -105441312.93341064 0 -105441312.93341064 -59757709.029022217 0 0 0 0 -532093.78559725953 4258463.9059595782 0 4258463.9059595782 18655297.24511303 0 0 0 0 -119745571.21652508 -20109087.6067276 0 -20109087.6067276 -35526417.702922821 0 0 0 0 -54821409.755834334 21707674.435593128 0 21707674.435593128 33771804.855682373 0 0 0 0 -11624147.407794356 20399498.334457397 0 20399498.334457397 -1508184.3330278397 0 0 0 0 -10052909.134605646 27992187.618404388 0 27992187.618404388 25746170.413146973 0 0 0 0 -75258160.240542412 58507720.873657227 0 58507720.873657227 65802957.347251892 0 0 0 0 -150835263.88015175 33064563.583450317 0 33064563.583450317 50286465.185943604 0 0 0 0 -31441439.972368717 18851067.122932434 0 18851067.122932434 50058290.123657227 0 0 0 0 -22125805.284872055 -21208076.406616211 0 -21208076.406616211 117663708.73443604 0 0 0 0 -121743649.88138866 142791215.94065857 0 142791215.94065857 -44794904.687091827 0 0 0 0 33668682.562673405 -73350339.652641296 0 -73350339.652641296 77374841.90133667 0 0 0 0 871956.94786058972 -137083.69917372987 0 -137083.69917372987 -191024.65279017389 0 0 0 0 24194831.639594078 -24140823.637168884 0 -24140823.637168884 11630839.172790527 0 0 0 0 -39742229.620098189 33653165.89932251 0 33653165.89932251 40875050.1796875 0 0 0 0 -30572057.348960996 13973583.378837585 0 13973583.378837585 2891820.7355194092 0 0 0 0 -108719394.52363527 36440343.600011826 0 36440343.600011826 34910283.837768555 0 0 0 0 -2459642.3207996897 6519174.9100466371 0 6519174.9100466371 11914625.362139001 0 0 0 0 -11306748.978365898 -3381931.9512519836 0 -3381931.9512519836 27243736.95892334 0 0 0 0 -46204705.592041016 4629752.7414855957 0 4629752.7414855957 48178538.566734314 0 0 0 0 -75962221.253043175 -54446874.377838135 0 -54446874.377838135 17091663.196159363 0 0 0 0 -2467632.3061648933 -1139964.6543178223 0 -1139964.6543178223 8185565.7901643962 0 0 0 0 -15408550.98769331 5127704.1521072388 0 5127704.1521072388 -37777526.996763706 0 0 0 0 -19788985.306308746 14534533.870059967 0 14534533.870059967 1610590.1029968262 0 0 0 0 -12909541.526781678 7317493.7096176147 0 7317493.7096176147 4269547.2419557571 0 0 0 0 9461038.8483492136 8059815.2320861816 0 8059815.2320861816 -20080353.007751465 0 0 0 0 8628555.3958975673 -3250086.9608855247 0 -3250086.9608855247 -34061176.477630615 0 0 0 0 -562500.22572455322 381159.98539873213 0 381159.98539873213 1346798.551848352 0 0 0 0 68278343.85492599 41681873.030715942 0 41681873.030715942 -29075781.336967468 0 0 0 0 21281527.809318364 11992721.685886383 0 11992721.685886383 -44717203.331359863 0 0 0 0 -25221435.847156763 50010463.166641235 0 50010463.166641235 -4418652.27684021 0 0 0 0 28705418.092116117 28680527.355499268 0 28680527.355499268 -19550038.266367674 0 0 0 0 -49685016.590483069 89395733.415206909 0 89395733.415206909 -3175355.4374237061 0 0 0 0 28549918.108516216 38424923.904006958 0 38424923.904006958 -16341741.139923096 0 0 0 0 21068693.235444665 27013557.384651184 0 27013557.384651184 44936843.276596069 0 0 0 0 172269321.3071723 28522901.565124512 0 28522901.565124512 39354624.792556763 0 0 0 0 -13021899.43640101 -39362629.817131042 0 -39362629.817131042 -52107398.40234375 0 0 0 0 6757537.8180840015 38530116.843980789 0 38530116.843980789 254435193.01896667 0 0 0 0 70362778.628451467 72320611.332321167 0 72320611.332321167 148435499.36489868 0 0 0 0 119388728.69707727 58099384.37147522 0 58099384.37147522 -33540058.519195557 0 0 0 0 -1860200.6177802682 6683422.0315513611 0 6683422.0315513611 -39373790.729827881 0 0 0 0 -117678815.42112648 21370280.205619812 0 21370280.205619812 24474487.387672424 0 0 0 0 -634420.58591416338 3288308.25917162 0 3288308.25917162 3447759.4807869196 0 0 0 0 6353.3563630394638 4595385.4180143103 0 4595385.4180143103 10998211.565556675 0 0 0 0 22681279.835834503 17786917.43624115 0 17786917.43624115 -23667669.061851501 0 0 0 0 83473585.736973763 -8124841.3577461243 0 -8124841.3577461243 -21280885.589630127 0 0 0 0 1244029.2803293359 4266918.5639418736 0 4266918.5639418736 7432467.412306577 0 0 0 0 -24436307.180944562 13745094.062133789 0 13745094.062133789 -41517441.305328369 0 0 0 0 -76449676.501398385 128916862.23316956 0 128916862.23316956 34361586.812438965 0 0 0 0 25180678.800097585 56336987.157943726 0 56336987.157943726 -124019357.46112061 0 0 0 0 29247360.097973347 -424618046.18156433 0 -424618046.18156433 202174892.54974365 0 0 0 0 -170586741.1334362 -85006046.188232422 0 -85006046.188232422 704611742.28807068 0 0 0 0 43610356.762227446 -51699492.285135269 0 -51699492.285135269 207625270.5526123 0 0 0 0 78505138.955640435 114461348.44045258 0 114461348.44045258 301210148.34835815 0 0 0 0 148701.11740980551 399400.97567668185 0 399400.97567668185 806257.20665571094 0 0 0 0 -35272059.103528738 27321991.923995972 0 27321991.923995972 406385922.43455887 0 0 0 0 -6547224.4486273527 -113418.69583129883 0 -113418.69583129883 404043292.3956604 0 0 0 0 -73077949.123886049 64487000.734962463 0 64487000.734962463 470471541.69555664 0 0 0 0 -37519388.418076038 -1608098.6249084473 0 -1608098.6249084473 -192306374.62917328 0 0 0 0 -16304164.695551157 -93343672.795387268 0 -93343672.795387268 1132737.4773712158 0 0 0 0 -105249006.55178666 -52637555.667884827 0 -52637555.667884827 -16095443.475067139 0 0 0 0 709262.11699247966 -108346.08961266279 0 -108346.08961266279 107727.67247341573 0 0 0 0 90285335.878829002 -157394532.07778931 0 -157394532.07778931 -279655683.67448425 0 0 0 0 27309446.976351261 -204319250.61238098 0 -204319250.61238098 -82230604.640930176 0 0 0 0 72560347.882272959 -195096908.98474121 0 -195096908.98474121 -218029257.65127563 0 0 0 0 136116610.31440318 -200730489.1832428 0 -200730489.1832428 -96945068.476013184 0 0 0 0 -10963549.106739283 -79204119.426498413 0 -79204119.426498413 134965947.29122925 0 0 0 0 -11087488.163056992 -83833394.918093204 0 -83833394.918093204 -7179568.3563537598 0 0 0 0 26891352.540205598 -123958321.15960693 0 -123958321.15960693 187195762.07168579 0 0 0 0 -80564170.155914605 -45402388.315174103 0 -45402388.315174103 32175923.991729736 0 0 0 0 -78476009.489688396 -13104525.673484802 0 -13104525.673484802 156734808.73690796 0 0 0 0 -44949359.008134127 30475437.074226379 0 30475437.074226379 59709493.957366943 0 0 0 0 -46614006.641432047 23995398.802558899 0 23995398.802558899 83376864.090461731 0 0 0 0 -14503834.309969306 38122210.651626587 0 38122210.651626587 114845229.70417786 0 0 0 0 -23755905.965002775 58200093.745925903 0 58200093.745925903 95949849.46559906 0 0 0 0 43536518.396234989 149111825.62076569 0 149111825.62076569 312917401.56130981 0 0 0 0 -16323843.624064922 -9818077.9889984131 0 -9818077.9889984131 8907895.1018791199 0 0 0 0 -35489729.514880791 -24514632.258702755 0 -24514632.258702755 1260032.3278045654 0 0 0 0 -53648966.350634813 -6142026.3325653076 0 -6142026.3325653076 23485833.767913818 0 0 0 0 -34668310.029181957 -13048836.922851562 0 -13048836.922851562 21716296.899703979 0 0 0 0 -17383569.472017288 -33455333.320861816 0 -33455333.320861816 -56559528.696487427 0 0 0 0 -65793192.806829929 -51364304.011035919 0 -51364304.011035919 1719040.6401672363 0 0 0 0 -55276693.635193825 -34525307.84526825 0 -34525307.84526825 -14723767.741638184 0 0 0 0 -8854574.3556649685 -13222629.886886597 0 -13222629.886886597 -15260484.255187988 0 0 0 0 -37160766.649026513 26270299.252861023 0 26270299.252861023 12835186.711120605 0 0 0 0 1549865.4731112814 -411215.09853722155 0 -411215.09853722155 378882.9554329589 0 0 0 0 -42756851.124327183 -70674489.713066101 0 -70674489.713066101 -74278005.083053589 0 0 0 0 13702478.318226337 -91927118.459655762 0 -91927118.459655762 246404024.69345093 0 0 0 0 198725324.86257339 -2797795.6150360107 0 -2797795.6150360107 72337603.230926514 0 0 0 0 -121403880.62409782 -155032999.90638733 0 -155032999.90638733 176593358.77888489 0 0 0 0 -95004538.70295018 -101811776.9594841 0 -101811776.9594841 245653075.6672821 0 0 0 0 -30558481.307044387 -174330861.1004715 0 -174330861.1004715 325664837.74937439 0 0 0 0 70896373.798505068 -119952569.66389465 0 -119952569.66389465 138679478.38421631 0 0 0 0 -54943282.662833691 141760196.08855438 0 141760196.08855438 531426416.68056488 0 0 0 0 384997.31718905643 -270668.63857304305 0 -270668.63857304305 259121.44447665662 0 0 0 0 8250767.0371506214 -14026567.834365845 0 -14026567.834365845 -39299606.316078186 0 0 0 0 -15546341.303917378 -103302898.3210907 0 -103302898.3210907 265137888.41937256 0 0 0 0 -34957424.824519038 60308201.332252502 0 60308201.332252502 348555455.68729401 0 0 0 0 -5384863.8452634811 5612902.8091278076 0 5612902.8091278076 12287925.165054321 0 0 0 0 1046410.8304807427 -848412.54091018438 0 -848412.54091018438 732100.27287347615 0 0 0 0 1960482.6685212851 -29123712.524879456 0 -29123712.524879456 -13588446.190673828 0 0 0 0 13786798.157902718 7269231.8198852539 0 7269231.8198852539 7718470.7165222168 0 0 0 0 -812577.34744620323 13505599.183120728 0 13505599.183120728 -4676051.1273803711 0 0 0 0 -17393532.948035955 -4420622.961933136 0 -4420622.961933136 29779511.157501221 0 0 0 0 -3930729.5774030685 -2983542.9982452393 0 -2983542.9982452393 27344909.141586304 0 0 0 0 1620347.6720978566 -842951.22206196189 0 -842951.22206196189 949270.90263145417 0 0 0 0 -11362244.320469856 -12502227.677688599 0 -12502227.677688599 -5760867.0109138489 0 0 0 0 51230.069678946194 -85209.088733005337 0 -85209.088733005337 -2316.0463609993458 0 0 0 0 -1200908.3797941208 3398459.0694122314 0 3398459.0694122314 9088144.696685791 0 0 0 0 20589.794636486331 -1990933.6408660654 0 -1990933.6408660654 3953212.9898392409 0 0 0 0 -11763060.468863238 2407568.0679225922 0 2407568.0679225922 5467729.4566040039 0 0 0 0 -4093828.5289357603 8710863.9081268311 0 8710863.9081268311 9437676.1627354622 0 0 0 0 -17847060.864789009 -11006969.807159424 0 -11006969.807159424 2212508.7080154419 0 0 0 0 -5562650.091514647 -8489941.084728241 0 -8489941.084728241 -2999117.1767730713 0 0 0 0 588569.69295493327 -3773205.1555786133 0 -3773205.1555786133 9592604.509185791 0 0 0 0 2946342.2637933441 -4632713.9280471802 0 -4632713.9280471802 7940008.7149047852 0 0 0 0 544269.8960001599 -5367768.7454223633 0 -5367768.7454223633 12363883.607055664 0 0 0 0 -59275.92769089801 126172.43984211981 0 126172.43984211981 -112028.27494193614 0 0 0 0 1530742.0463359952 2281644.424118042 0 2281644.424118042 403183.04449462891 0 0 0 0 4501427.7441600189 -8985834.1134185791 0 -8985834.1134185791 14889255.975814819 0 0 0 0 -3335883.4534092583 1261505.0034332275 0 1261505.0034332275 928127.51885986328 0 0 0 0 -2210206.3771881619 457760.09628982097 0 457760.09628982097 2043360.2736336626 0 0 0 0 -6791301.7654151917 1853568.9542694092 0 1853568.9542694092 8848063.5578460693 0 0 0 0 -764610.34630134702 -398059.44738769531 0 -398059.44738769531 27394.986991882324 0 0 0 0 -11210212.495985031 2068107.8759155273 0 2068107.8759155273 12186180.400085449 0 0 0 0 -12841369.881355286 -3738906.165222168 0 -3738906.165222168 5522502.3014526367 0 0 0 0 -1530025.5981035233 1319714.9388580322 0 1319714.9388580322 6894900.4861564636 0 0 0 0 -493034.63946528046 -874403.12426719069 0 -874403.12426719069 1988721.290679425 0 0 0 0 874745.08963292511 -1323966.3585662842 0 -1323966.3585662842 3358206.6310043335 0 0 0 0 2289228.9516191483 -3900815.6874084473 0 -3900815.6874084473 -34056.674835205078 0 0 0 0 -1299.3312761642687 -2275726.0503768921 0 -2275726.0503768921 5802919.2046813965 0 0 0 0 2532474.6073362683 -3526764.0651397705 0 -3526764.0651397705 2173427.4508056641 0 0 0 0 1585056.6393753146 -1705710.4208984375 0 -1705710.4208984375 4218069.5867919922 0 0 0 0 -127227.07202671244 284886.75769793242 0 284886.75769793242 -258897.93267154694 0 0 0 0 624555.71738901397 -2927998.0789432526 0 -2927998.0789432526 4175133.715637207 0 0 0 0 -710295.36574168981 -216857.02554374933 0 -216857.02554374933 1980220.6657685861 0 0 0 0 -1089.9462148772382 -214197.98977661133 0 -214197.98977661133 1197871.8944549561 0 0 0 0 314999.05938661098 -1127548.8395385742 0 -1127548.8395385742 2114123.5501098633 0 0 0 0 812921.64300705516 -863220.67210106924 0 -863220.67210106924 756140.32905475795 0 0 0 0 76103295.295784563 38239078.655082703 0 38239078.655082703 -85313.960737228394 0 0 0 0 1184527.5322182972 -1534762.4825802818 0 -1534762.4825802818 1429836.4611032978 0 0 0 0 -4366195.1910209656 -8335220.4546356201 0 -8335220.4546356201 -621217.29787635803 0 0 0 0 -16661439.506648064 -1781740.0384674072 0 -1781740.0384674072 11288167.374980927 0 0 0 0 -15059957.296150208 -5983197.1432495117 0 -5983197.1432495117 7453821.6587371826 0 0 0 0 7560.7433458978157 -30536989.434568405 0 -30536989.434568405 148497515.70767593 0 0 0 0 19716982.96419828 -47823852.531774521 0 -47823852.531774521 -59916770.291973114 0 0 0 0 -17144.263678098388 -159037.12811636552 0 -159037.12811636552 524967.0584499836 0 0 0 0 -70348001.578357577 68436578.876106262 0 68436578.876106262 347340389.45811462 0 0 0 0 86258460.39703393 -120376603.09710693 0 -120376603.09710693 359863349.92454529 0 0 0 0 79715708.226690829 56035485.266716003 0 56035485.266716003 -10592572.437179565 0 0 0 0 -33806.646073937329 -292504.85845837742 0 -292504.85845837742 1120253.1548736319 0 0 0 0 -13842484.721251249 -95794985.791664124 0 -95794985.791664124 2520716.5299139023 0 0 0 0 -85854900.456491306 -204360939.56256866 0 -204360939.56256866 -154463569.11424255 0 0 0 0 -153403141.40197518 66099501.976249933 0 66099501.976249933 418046229.25860596 0 0 0 0 -158719572.41129404 -210646329.98536682 0 -210646329.98536682 -45591349.955915451 0 0 0 0 190043623.28577232 9701205.4687042236 0 9701205.4687042236 -179545277.49474144 0 0 0 0 11601765.225796625 116033176.76810455 0 116033176.76810455 195434577.9818573 0 0 0 0 -13794938.252134392 -13701188.925606728 0 -13701188.925606728 19221546.393867493 0 0 0 0 -43051936.826101258 -27612523.928031921 0 -27612523.928031921 104637592.36117554 0 0 0 0 -2143041.0740714823 63798871.116649628 0 63798871.116649628 63655161.364212036 0 0 0 0 -16344180.059696577 -38686.781921386719 0 -38686.781921386719 11973510.278808594 0 0 0 0 -105432.49621406072 299995.35234878212 0 299995.35234878212 119753.63724952936 0 0 0 0 7463667.1507664248 4904700.5035705566 0 4904700.5035705566 7860253.6456298828 0 0 0 0 5154563.0287996531 -4629139.4655609131 0 -4629139.4655609131 20691433.095428467 0 0 0 0 -11289452.673929721 7831510.8097229004 0 7831510.8097229004 15400484.240509033 0 0 0 0 -3316120.929598473 10692208.732543945 0 10692208.732543945 14754280.050231934 0 0 0 0 -5557963.5253851786 -3382731.5518875122 0 -3382731.5518875122 -998832.66339111328 0 0 0 0 -764953.10097508132 3386803.7748718262 0 3386803.7748718262 6426468.6699752808 0 0 0 0 -2899614.7133610286 -465909.84468078613 0 -465909.84468078613 7416080.5140991211 0 0 0 0 3671993.3669653088 197292.08125305176 0 197292.08125305176 1501503.2775268555 0 0 0 0 3165551.9090478662 476446.20779418945 0 476446.20779418945 6871332.3302001953 0 0 0 0 6634123.9045707416 898968.29386901855 0 898968.29386901855 1243183.7846374512 0 0 0 0 4896046.3666949831 4616983.1422271729 0 4616983.1422271729 8928479.7713546753 0 0 0 0 6590174.4194848519 3207536.3574066162 0 3207536.3574066162 4458552.2004394531 0 0 0 0 6653.0702818982618 2605044.7663040161 0 2605044.7663040161 30410110.928771973 0 0 0 0 -503754.01030696742 -8768274.6348419189 0 -8768274.6348419189 8348876.8157234192 0 0 0 0 -3562893.2654731777 -3939328.3090591431 0 -3939328.3090591431 66068620.189208984 0 0 0 0 2184222.8616974838 1211932.8717575073 0 1211932.8717575073 25548190.798217773 0 0 0 0 2799169.5311935991 -8132361.6207275391 0 -8132361.6207275391 64925514.748106301 0 0 0 0 -19080024.734656908 -44764099.761894226 0 -44764099.761894226 50200376.045333862 0 0 0 0 445037.91544604301 -11709568.480758667 0 -11709568.480758667 64931148.04107666 0 0 0 0 15830344.786204778 -5385182.44090271 0 -5385182.44090271 16406292.347600937 0 0 0 0 55400922.313323945 -34100032.517410278 0 -34100032.517410278 -19330141.341369629 0 0 0 0 61700549.426964678 73915831.616661072 0 73915831.616661072 74549346.57321167 0 0 0 0 -144634.38562760819 128909.31327100936 0 128909.31327100936 210305.89572106302 0 0 0 0 36180422.885622285 57208570.102275848 0 57208570.102275848 43114528.458312988 0 0 0 0 12811893.456290301 30373302.810974121 0 30373302.810974121 31483583.368034363 0 0 0 0 30098242.98732169 15998455.818344116 0 15998455.818344116 -4329370.825592041 0 0 0 0 40661000.467350058 37430796.252664566 0 37430796.252664566 18266174.191986084 0 0 0 0 -1939682.9241697714 57833946.353302002 0 57833946.353302002 103069128.74786377 0 0 0 0 4586539.6160503775 41980092.23638916 0 41980092.23638916 52544717.25378418 0 0 0 0 16216403.44081774 34887339.657043457 0 34887339.657043457 30760104.847839355 0 0 0 0 -14259937.783275433 31169851.245323181 0 31169851.245323181 72086879.642021179 0 0 0 0 -14325222.821656905 32087097.560653687 0 32087097.560653687 65093855.823097229 0 0 0 0 -3866550.9219377637 17698361.191131592 0 17698361.191131592 29125418.396789551 0 0 0 0 162416.48105487972 18048318.668136597 0 18048318.668136597 20802013.257110596 0 0 0 0 -479735.96276451647 25946667.60848999 0 25946667.60848999 45481437.028366089 0 0 0 0 5181908.7345217802 15475794.439338684 0 15475794.439338684 21925224.045654297 0 0 0 0 1070662.7062079906 6823625.8409729004 0 6823625.8409729004 9548377.5228271484 0 0 0 0 1114825.8814769983 6830732.8718109131 0 6830732.8718109131 11185207.629699707 0 0 0 0 -608386.48986266553 14301028.846405029 0 14301028.846405029 29891580.190948486 0 0 0 0 -28611168.756508283 -9852396.2706336975 0 -9852396.2706336975 18155637.039001465 0 0 0 0 11869568.734550595 64114681.336730957 0 64114681.336730957 -11803159.717496872 0 0 0 0 -528814.33349764103 566200.23514556326 0 566200.23514556326 522279.15132895112 0 0 0 0 -19889079.739961639 2908814.8307113647 0 2908814.8307113647 13209144.761047363 0 0 0 0 -97867.385839678347 -5343671.7467803955 0 -5343671.7467803955 6374939.5224838257 0 0 0 0 -12406360.788153525 -4241336.9560928345 0 -4241336.9560928345 -2399480.345123291 0 0 0 0 -1291132.6316509477 1867420.8167030541 0 1867420.8167030541 894214.87147124112 0 0 0 0 6266321.3910298198 14617039.29699707 0 14617039.29699707 -10505351.19909668 0 0 0 0 -2718812.1002018759 6795665.7696990967 0 6795665.7696990967 -4370068.8228759766 0 0 0 0 -2001209.0830460638 -3720055.8834686279 0 -3720055.8834686279 -6693004.5008926392 0 0 0 0 -2729119.476141423 5824517.9536705017 0 5824517.9536705017 11491756.588348389 0 0 0 0 -4471264.3750601634 7983229.2300338745 0 7983229.2300338745 10242692.643371582 0 0 0 0 -5122229.8236932158 -2951921.2911834717 0 -2951921.2911834717 2094876.2865600586 0 0 0 0 -2656090.9938852615 3084629.8709805235 0 3084629.8709805235 1501765.0834248269 0 0 0 0 -9683360.1170210838 -3016479.644203186 0 -3016479.644203186 19899534.4347229 0 0 0 0 35151.590495303273 117358.52159500122 0 117358.52159500122 -11848440.110900879 0 0 0 0 -8144677.4179842249 1835820.9121551514 0 1835820.9121551514 5787171.6947021484 0 0 0 0 -2143589.5228309063 1177156.5162639841 0 1177156.5162639841 2528143.6160033941 0 0 0 0 -912272.4190792219 977128.67023815215 0 977128.67023815215 2622869.0774837583 0 0 0 0 -4568529.4109424502 -1537697.7159423828 0 -1537697.7159423828 -6096005.3315429688 0 0 0 0 -2986923.3451239509 1891655.2632624507 0 1891655.2632624507 3403389.6392085105 0 0 0 0 -1824990.7453025579 475703.55848693848 0 475703.55848693848 3100276.9030761719 0 0 0 0 -2270452.0820269738 2243977.3694007937 0 2243977.3694007937 2477613.649333179 0 0 0 0 -2174921.5629401291 607759.90964481235 0 607759.90964481235 2547268.940654492 0 0 0 0 -1673406.2344512939 77986.406875610352 0 77986.406875610352 2420368.691192627 0 0 0 0 -2892717.2919816975 386116.4475896135 0 386116.4475896135 4803023.4950209912 0 0 0 0 -1020497.0999082923 -1080420.4023094177 0 -1080420.4023094177 1917566.7849121094 0 0 0 0 -1041638.8143482506 -1431916.4498443604 0 -1431916.4498443604 4906612.3103246689 0 0 0 0 10906.290883103413 -494180.20162390918 0 -494180.20162390918 3311137.3119549956 0 0 0 0 -567308.77044151281 125982.07510375977 0 125982.07510375977 5147312.0983109474 0 0 0 0 -90489.869885992972 569495.90033149719 0 569495.90033149719 4207003.9325866699 0 0 0 0 -383563.3476008994 1183079.4931143969 0 1183079.4931143969 430672.91924573481 0 0 0 0 -707900.53136857681 99665.352782972157 0 99665.352782972157 1379775.1685593724 0 0 0 0 -3714699.3493368104 4130447.6543807983 0 4130447.6543807983 1978046.335144043 0 0 0 0 -327206.06894759153 -185193.86627197266 0 -185193.86627197266 4158976.1524105072 0 0 0 0 -634372.10874490975 479578.74580001831 0 479578.74580001831 4101631.5575561523 0 0 0 0 1943387.104564786 3979123.8670578003 0 3979123.8670578003 208563.72393798828 0 0 0 0 1142247.8175932094 2367910.5811386108 0 2367910.5811386108 -2516705.7765808105 0 0 0 0 -481.72257340946737 640431.70941162109 0 640431.70941162109 3963354.7614135742 0 0 0 0 -1700939.2153428199 2101912.7066345215 0 2101912.7066345215 5600879.4996757507 0 0 0 0 -1729057.6675476981 -1180385.1440124512 0 -1180385.1440124512 2957558.5232696533 0 0 0 0 -166634.10520119558 46440.444161381572 0 46440.444161381572 375452.44359710813 0 0 0 0 3636233.3668680564 1020764.4582977295 0 1020764.4582977295 1238269.996761322 0 0 0 0 5820.5050224146817 -264280.29585255682 0 -264280.29585255682 2709447.3190557044 0 0 0 0 -812790.55285257939 275104.67877197266 0 275104.67877197266 5562994.6490020752 0 0 0 0 -76195.676581748005 209367.18664550781 0 209367.18664550781 4219562.3842010498 0 0 0 0 47767.92517982237 -2784758.3624267578 0 -2784758.3624267578 2730313.6903266907 0 0 0 0 -495.97339083359748 -2916355.6467819214 0 -2916355.6467819214 3089146.0980529785 0 0 0 0 -1476108.7516535725 -1924287.2139282227 0 -1924287.2139282227 4367712.9463500977 0 0 0 0 294340.67691753479 -2106779.4940109253 0 -2106779.4940109253 3749344.143157959 0 0 0 0 -1450583.0796332806 -2884759.4206237793 0 -2884759.4206237793 3433229.1300735474 0 0 0 0 -1299708.6428892664 -1919024.7629356384 0 -1919024.7629356384 4172042.9884338379 0 0 0 0 -137277.4530776469 -3243127.3145904541 0 -3243127.3145904541 3110533.4149627686 0 0 0 0 -3896362.1709529581 -2095614.543712616 0 -2095614.543712616 4167312.6497802734 0 0 0 0 -2172599.7928238851 -4320660.5208129883 0 -4320660.5208129883 2919055.5473632812 0 0 0 0 1194.160280640313 -3013686.8919525146 0 -3013686.8919525146 2981139.0207519531 0 0 0 0 -147242.57236155123 -3006365.3052978516 0 -3006365.3052978516 3034177.6828460693 0 0 0 0 314209.71262305649 -1561128.2003326416 0 -1561128.2003326416 5766473.8986358643 0 0 0 0 -2180400.035797108 -5736389.0095748901 0 -5736389.0095748901 1657650.4366607666 0 0 0 0 777816.48902074434 -2935339.0985107422 0 -2935339.0985107422 2264332.5787391663 0 0 0 0 -1096570.1563072279 -1906549.6804351807 0 -1906549.6804351807 16889706.359733582 0 0 0 0 695604.59584277682 -460191.52270126343 0 -460191.52270126343 5010424.3446044922 0 0 0 0 -120.63970559163187 -2775475.1158069354 0 -2775475.1158069354 6813562.8828582764 0 0 0 0 -305702.09686983936 -454182.14469909668 0 -454182.14469909668 11787539.889396667 0 0 0 0 -17507994.080970049 -12203498.120498657 0 -12203498.120498657 5901455.4384765625 0 0 0 0 -8043213.3315227032 -2789241.3351821899 0 -2789241.3351821899 6320385.2294769287 0 0 0 0 -35548.355033222069 -2120928.0971194664 0 -2120928.0971194664 4699690.7417434752 0 0 0 0 -25317305.458450317 -12992369.107337952 0 -12992369.107337952 7035057.6410675049 0 0 0 0 -11840131.681147046 -10730958.410926819 0 -10730958.410926819 10240994.064451694 0 0 0 0 -14946998.184999943 -12652048.301048279 0 -12652048.301048279 -1145180.6290588379 0 0 0 0 -20487477.605549812 2329807.6693267822 0 2329807.6693267822 7820062.7694244385 0 0 0 0 -6195067.0116018057 -5519047.6602344513 0 -5519047.6602344513 10816942.796905518 0 0 0 0 -5961807.6873674393 12713139.576644897 0 12713139.576644897 30652845.408966064 0 0 0 0 -49493087.946648598 -20022655.393745422 0 -20022655.393745422 18963137.806976318 0 0 0 0 -7252372.0858123656 -4352862.9092407227 0 -4352862.9092407227 4945164.6439361572 0 0 0 0 -308570.75866765826 -2018814.3057560707 0 -2018814.3057560707 5445895.1340545118 0 0 0 0 7081661.1197493076 -24170898.740011215 0 -24170898.740011215 -4069360.9518737793 0 0 0 0 -7773400.5847191811 -1125142.5100631714 0 -1125142.5100631714 6631476.7975382805 0 0 0 0 -1140048.8935309916 1870452.2514236858 0 1870452.2514236858 661148.33422027528 0 0 0 0 -30573165.153541088 26065561.580886841 0 26065561.580886841 24171272.360473633 0 0 0 0 -100280.71765851974 6092673.8393325806 0 6092673.8393325806 -3216601.4772727489 0 0 0 0 -989094.34925512073 -1281244.0437273709 0 -1281244.0437273709 6219045.7063427418 0 0 0 0 -1876007.278367304 21098.135961197317 0 21098.135961197317 3450719.3910159841 0 0 0 0 -8223504.9923252463 1570563.1442861557 0 1570563.1442861557 20883131.016021729 0 0 0 0 -3182223.0290327072 11784587.230178833 0 11784587.230178833 30956372.723098755 0 0 0 0 -157699.42197290994 108684.00472401455 0 108684.00472401455 636343.57036995888 0 0 0 0 4761631.0930023193 3760955.8918457031 0 3760955.8918457031 8480712.7913398743 0 0 0 0 -3655332.6961379051 -18047852.104606628 0 -18047852.104606628 5184529.8340435028 0 0 0 0 -443596.53822219372 -7072073.1689910889 0 -7072073.1689910889 23231237.986938477 0 0 0 0 2686969.1780912876 -7122290.3942565918 0 -7122290.3942565918 22486499.529312134 0 0 0 0 3626030.3749568462 1330452.8627243042 0 1330452.8627243042 28309429.374313354 0 0 0 0 1714171.1457856894 24619005.94316864 0 24619005.94316864 43681143.613876343 0 0 0 0 -7637335.3808017969 4292768.4364886284 0 4292768.4364886284 42402560.664962769 0 0 0 0 7315916.960457325 -4904979.2545623779 0 -4904979.2545623779 14592884.738235474 0 0 0 0 -11719291.465284348 -1785540.628944397 0 -1785540.628944397 14153395.876457214 0 0 0 0 9180207.9717184156 10585416.807294846 0 10585416.807294846 7246852.7953033447 0 0 0 0 -7335463.0758261681 15556717.7603302 0 15556717.7603302 8463059.4101886749 0 0 0 0 -21950765.709867239 15159691.649522781 0 15159691.649522781 37281634.888977051 0 0 0 0 -5300368.5761806965 19223927.884658813 0 19223927.884658813 14462721.903594971 0 0 0 0 -28234041.04534471 -3049577.1993751526 0 -3049577.1993751526 14084364.268081665 0 0 0 0 -1995966.0045135021 8462492.0129623413 0 8462492.0129623413 17299324.632278442 0 0 0 0 23433871.769635201 44583283.902740479 0 44583283.902740479 -20341208.648124695 0 0 0 0 5266038.1696019173 73830209.648857117 0 73830209.648857117 -27390330.780807495 0 0 0 0 16423948.030231476 142233877.82574463 0 142233877.82574463 106586186.54586983 0 0 0 0 154862.59464550018 66276262.12310791 0 66276262.12310791 48817596.560565948 0 0 0 0 -5240392.3045157297 37821338.821109667 0 37821338.821109667 2932247.1467895508 0 0 0 0 11867023.785282373 -5315257.7119598389 0 -5315257.7119598389 -15989844.35408783 0 0 0 0 15526737.129140735 37756089.077110291 0 37756089.077110291 -22773529.967422485 0 0 0 0 -30294506.905025959 -69100704.436836243 0 -69100704.436836243 -94163115.470413208 0 0 0 0 69529122.815498054 40052160.020507812 0 40052160.020507812 -161941518.26445007 0 0 0 0 13377083.609879494 -8946752.9494171143 0 -8946752.9494171143 -22888538.69833374 0 0 0 0 -41879624.987134695 -22718325.970275879 0 -22718325.970275879 14984939.94102478 0 0 0 0 -8124133.9887989759 -10199450.580879211 0 -10199450.580879211 17065873.297409058 0 0 0 0 3737880.7050673962 2821871.540512085 0 2821871.540512085 1918702.4643096924 0 0 0 0 2246623.5359704494 -931831.63565826416 0 -931831.63565826416 35815876.055084229 0 0 0 0 -3289842.723331213 -16394037.998542786 0 -16394037.998542786 20876552.214935303 0 0 0 0 -8382018.6590573788 -1576931.6065826416 0 -1576931.6065826416 33752118.694961548 0 0 0 0 7870331.1550679207 -5723478.4146347046 0 -5723478.4146347046 34271414.73500061 0 0 0 0 -5362792.6049344689 13182235.122264862 0 13182235.122264862 10852952.580184937 0 0 0 0 6102976.6426083446 22594729.476318359 0 22594729.476318359 22373707.881668091 0 0 0 0 1244587.141690731 13460227.133605957 0 13460227.133605957 10808214.295516968 0 0 0 0 17566749.009836912 10518820.251861572 0 10518820.251861572 4902087.6697006226 0 0 0 0 -6603301.0300402045 12647837.668243408 0 12647837.668243408 5096787.2663726807 0 0 0 0 3452098.8854683116 6603997.8593959808 0 6603997.8593959808 22335916.062225342 0 0 0 0 9702691.9412154406 10137652.674884796 0 10137652.674884796 -18502574.979400635 0 0 0 0 -948748.17194995331 3506127.00959941 0 3506127.00959941 2168939.8462773357 0 0 0 0 -7654703.3299567699 -8049437.1862487793 0 -8049437.1862487793 53358002.092224121 0 0 0 0 -1793212.4078915166 3359436.3672689423 0 3359436.3672689423 1462838.6759463653 0 0 0 0 678605.45177453756 -7981491.7042999268 0 -7981491.7042999268 -2577433.7633666992 0 0 0 0 -4654634.7550354004 -2155184.7110671997 0 -2155184.7110671997 34794836.662689209 0 0 0 0 8564745.752876699 5544702.8703460693 0 5544702.8703460693 -24663083.228126049 0 0 0 0 -8086051.5148899555 -3930708.0102920532 0 -3930708.0102920532 -150485.21937561035 0 0 0 0 5302725.3112851679 1245099.1815643311 0 1245099.1815643311 -231446.13720989227 0 0 0 0 -5036075.7961497605 -3587450.6503829956 0 -3587450.6503829956 21908309.310073853 0 0 0 0 8525573.0004516542 5489312.2897338867 0 5489312.2897338867 2328650.8568000793 0 0 0 0 -795027.8527854979 817086.33232116699 0 817086.33232116699 25203049.746994019 0 0 0 0 14712998.274309456 1167520.6178741455 0 1167520.6178741455 25210966.004852295 0 0 0 0 -2827566.6752546411 -3951419.3111829758 0 -3951419.3111829758 52868851.492492676 0 0 0 0 -1764627.7943381257 5145237.0298576355 0 5145237.0298576355 47925879.101074219 0 0 0 0 11769804.345513523 -6751324.9316253662 0 -6751324.9316253662 53257206.203262329 0 0 0 0 651478.36119434237 7951232.7850952148 0 7951232.7850952148 26029341.597816467 0 0 0 0 -3305223.6055265665 5970521.3809890747 0 5970521.3809890747 37045288.217315674 0 0 0 0 -7417358.6710079312 7852420.7307434082 0 7852420.7307434082 53315128.048080921 0 0 0 0 -5959263.5151909813 20983102.808750153 0 20983102.808750153 48318781.662322998 0 0 0 0 -20977141.813034616 25550161.556438446 0 25550161.556438446 88134700.138366699 0 0 0 0 -12410223.450600505 14623680.641204834 0 14623680.641204834 56138930.778198242 0 0 0 0 -12949552.260681264 14109036.752658844 0 14109036.752658844 78177369.299072266 0 0 0 0 -21912429.519731492 21753200.775619507 0 21753200.775619507 77199937.136058807 0 0 0 0 -4968978.9160996079 11399146.465454102 0 11399146.465454102 83010856.632316589 0 0 0 0 -6122283.2373755872 273863.63586425781 0 273863.63586425781 89029721.984954834 0 0 0 0 -17801571.608028799 12391754.052658081 0 12391754.052658081 97892646.664474487 0 0 0 0 -5645437.9652659036 17677214.801029205 0 17677214.801029205 129264878.04016113 0 0 0 0 49870643.440963656 -7284812.4054336548 0 -7284812.4054336548 34192726.745193481 0 0 0 0 -11164229.187866509 920558.62060546875 0 920558.62060546875 168481746.78622437 0 0 0 0 23269391.590146303 -37280428.639938354 0 -37280428.639938354 129665170.12069702 0 0 0 0 24708718.620899141 -21060877.60369873 0 -21060877.60369873 73108703.498565674 0 0 0 0 3184982.4383599311 15983109.915328979 0 15983109.915328979 29196854.174697876 0 0 0 0 -18528993.711050391 -84444813.997665405 0 -84444813.997665405 -10276709.583435059 0 0 0 0 6383489.8784226179 17575743.286552429 0 17575743.286552429 41749753.592437744 0 0 0 0 3972987.8486041427 9914007.9672775269 0 9914007.9672775269 25127102.056427002 0 0 0 0 31780358.541989565 12853433.171173096 0 12853433.171173096 23488027.897064209 0 0 0 0 13589367.08595255 -8009750.3310165405 0 -8009750.3310165405 48384316.511245728 0 0 0 0 9176696.6318075135 2348225.2995910645 0 2348225.2995910645 57792332.369812012 0 0 0 0 -4887692.4719422162 5302297.2643814087 0 5302297.2643814087 12714421.113464355 0 0 0 0 -2231906.264390111 6225642.9796447754 0 6225642.9796447754 11747081.842987061 0 0 0 0 -3803696.4739227146 16326963.767677307 0 16326963.767677307 28889175.26020813 0 0 0 0 -11564386.371524572 8598721.8132324219 0 8598721.8132324219 21232930.776865005 0 0 0 0 -9153471.4985982254 -7155914.0586662292 0 -7155914.0586662292 3560165.0450286865 0 0 0 0 47491.355391942809 83269.016780652106 0 83269.016780652106 612976.7441749014 0 0 0 0 -22160171.802025467 -1137581.8208999634 0 -1137581.8208999634 29896118.564421177 0 0 0 0 -2144244.7968084216 1841522.5803070068 0 1841522.5803070068 13692957.346412659 0 0 0 0 -20953.239409749265 338741.53489675373 0 338741.53489675373 1176582.4290931262 0 0 0 0 -1437106.0318981782 1785279.6280937195 0 1785279.6280937195 5671832.8093109131 0 0 0 0 69989413.086258069 63823894.410385132 0 63823894.410385132 161522466.72618484 0 0 0 0 298748600.04584283 249225522.79389954 0 249225522.79389954 207691900.89515686 0 0 0 0 231997536.10072005 255171684.18991852 0 255171684.18991852 386162707.14044189 0 0 0 0 407638108.19504714 339119327.44625854 0 339119327.44625854 281899786.73675537 0 0 0 0 77494.645779323109 276118.39218866453 0 276118.39218866453 396495.44542908669 0 0 0 0 -98180386.862345219 88210777.302780151 0 88210777.302780151 -86060998.609443665 0 0 0 0 370305.97047230403 -90923.319106027484 0 -90923.319106027484 65272.290341954678 0 0 0 0 106868151.33706231 384510398.24752235 0 384510398.24752235 -563441542.465271 0 0 0 0 -81050485.1539011 59232414.539138794 0 59232414.539138794 -37721645.29850769 0 0 0 0 918438.94131126383 3186762.9368462628 0 3186762.9368462628 2017223.055261001 0 0 0 0 34442401.101547718 234051723.44894409 0 234051723.44894409 203124297.74072266 0 0 0 0 5287085.1076505184 263009782.82806396 0 263009782.82806396 736372742.09375 0 0 0 0 98987.712166726589 4645511.9451293945 0 4645511.9451293945 8449728.7065429688 0 0 0 0 386534.29291340709 4848953.2967529297 0 4848953.2967529297 8380017.1013183594 0 0 0 0 -123894.0174357444 5061856.4706497192 0 5061856.4706497192 8924444.0788879395 0 0 0 0 -828861.80424126983 4514465.2685546875 0 4514465.2685546875 8669450.9949798584 0 0 0 0 1947282.4584758037 8364846.3150895499 0 8364846.3150895499 2637854.6236727685 0 0 0 0 304497.97124731541 7333615.3071746826 0 7333615.3071746826 8039583.8411369324 0 0 0 0 3521490.0552207679 10977111.940803528 0 10977111.940803528 11679708.835281372 0 0 0 0 -101985818.78807616 -35730666.305259705 0 -35730666.305259705 17721401.104675293 0 0 0 0 134940130.18230599 138432667.87139511 0 138432667.87139511 157463870.58050537 0 0 0 0 348328144.27302456 353257963.34158325 0 353257963.34158325 280352049.82641602 0 0 0 0 87252349.197248936 -8378015.3526000977 0 -8378015.3526000977 160603715.42488861 0 0 0 0 25403527.8977952 -179503211.54992676 0 -179503211.54992676 36826864.844940186 0 0 0 0 483847244.46008968 71436099.681030273 0 71436099.681030273 -271776948.94345093 0 0 0 0 -61971889.667696953 -879200.36836242676 0 -879200.36836242676 118276903.16455078 0 0 0 0 103070528.96939993 -28845302.396972656 0 -28845302.396972656 -99194991.37310791 0 0 0 0 73278767.933874786 43068161.25522995 0 43068161.25522995 68942590.33807373 0 0 0 0 2261675.1310355673 563107.83391609415 0 563107.83391609415 -3631848.5706740767 0 0 0 0 -1443411.7642149925 48824227.333381653 0 48824227.333381653 -128826929.56677246 0 0 0 0 19205095.412676692 8180275.6953659058 0 8180275.6953659058 -67892260.313812256 0 0 0 0 3719552.5427944884 11068653.015189631 0 11068653.015189631 1461333.1371783316 0 0 0 0 -566946.69084381894 5722867.4713587835 0 5722867.4713587835 12653559.416442228 0 0 0 0 -25589.223498940468 10654699.352584839 0 10654699.352584839 -6387168.6100156307 0 0 0 0 745218.77811405621 4531254.2190534025 0 4531254.2190534025 7996918.9217942823 0 0 0 0 -6951849.3569121361 9842582.6612548828 0 9842582.6612548828 40845988.655432224 0 0 0 0 -920585.80074700713 11260674.386726379 0 11260674.386726379 16641694.26953125 0 0 0 0 3643692.0637913225 15010612.860550873 0 15010612.860550873 5317589.9913713485 0 0 0 0 -1862667.6567377299 9623547.0881118774 0 9623547.0881118774 14308959.036087036 0 0 0 0 821188.62152099609 9407604.2924499512 0 9407604.2924499512 11789014.59149611 0 0 0 0 -2752958.9219868779 17362508.407409668 0 17362508.407409668 19670247.261018753 0 0 0 0 -1536727.5727732405 12588204.380950451 0 12588204.380950451 11903064.796798706 0 0 0 0 -113535.53464109171 3730761.4752723798 0 3730761.4752723798 4005768.5563499909 0 0 0 0 -13887626.82316196 5863605.8477706909 0 5863605.8477706909 63686779.451733589 0 0 0 0 1103131.8767732084 15213365.126068115 0 15213365.126068115 4060355.7361397743 0 0 0 0 -1169392.1539208591 -2247493.9844665527 0 -2247493.9844665527 42194310.974136353 0 0 0 0 -21763366.127904058 14860603.009262085 0 14860603.009262085 33906049.582923889 0 0 0 0 -2948199.2199751139 17124675.21787262 0 17124675.21787262 31197073.155822754 0 0 0 0 3264261.4548266977 12439396.46295929 0 12439396.46295929 25995678.946380615 0 0 0 0 -5036326.5872149467 8307314.3469543457 0 8307314.3469543457 23938756.242538452 0 0 0 0 -3246712.053196013 24118943.186447144 0 24118943.186447144 16586702.689956665 0 0 0 0 -3388912.7909043878 19136676.149917603 0 19136676.149917603 13355576.479003906 0 0 0 0 -1520851.5993721511 1962281.0259849206 0 1962281.0259849206 2596816.7911519408 0 0 0 0 -30790446.083673477 43930505.529197693 0 43930505.529197693 10222548.185546875 0 0 0 0 2223494.3558166656 9391496.9120114595 0 9391496.9120114595 18723241.598348334 0 0 0 0 -5112587.1176410913 15924026.670455933 0 15924026.670455933 27344412.225646973 0 0 0 0 -9635852.663564086 24739787.421432495 0 24739787.421432495 19535627.260101318 0 0 0 0 -51133882.694725931 6192751.6302490234 0 6192751.6302490234 42156730.881072998 0 0 0 0 -30599392.045585394 -21351802.723007202 0 -21351802.723007202 -7839340.1270751953 0 0 0 0 -97551799.789408088 -48991553.834762573 0 -48991553.834762573 11227773.469421387 0 0 0 0 -44212689.279423952 -57447194.159500122 0 -57447194.159500122 -220357344.63977051 0 0 0 0 -85794590.055748537 1668796.5426425934 0 1668796.5426425934 16412676.332611084 0 0 0 0 -3831734.6213306347 -1198037.8883848935 0 -1198037.8883848935 5711157.0120600536 0 0 0 0 -46264884.43590641 -23596167.293312073 0 -23596167.293312073 39115811.846040726 0 0 0 0 -1981081.1511788669 -2492086.4895764235 0 -2492086.4895764235 23906262.906578764 0 0 0 0 -60360185.505115271 -148466017.09513092 0 -148466017.09513092 -181663253.36331177 0 0 0 0 19562349.038819313 -171057610.48382568 0 -171057610.48382568 -179292014.13195801 0 0 0 0 -137374449.47530693 -52965592.465999603 0 -52965592.465999603 -103924305.65986633 0 0 0 0 117612058.56339136 42922473.757259369 0 42922473.757259369 -84221875.776580811 0 0 0 0 -70536885.537367553 22186925.023925781 0 22186925.023925781 -68824435.915100098 0 0 0 0 80773781.771558583 -79673454.141525269 0 -79673454.141525269 -217058782.27798462 0 0 0 0 -59218571.809383154 -2134125.7256851196 0 -2134125.7256851196 124815478.47354889 0 0 0 0 -26168580.398902893 -46310016.602783203 0 -46310016.602783203 183850598.38607788 0 0 0 0 -115975197.57498932 125742370.05418396 0 125742370.05418396 104118049.7255249 0 0 0 0 363729.70554208837 1867562.7254393764 0 1867562.7254393764 553441.92992568016 0 0 0 0 -81235898.705534697 19159875.911130905 0 19159875.911130905 350519858.50523376 0 0 0 0 -2035070.069695052 -3405604.8647196908 0 -3405604.8647196908 25552604.104270928 0 0 0 0 -33173492.157665253 -106880989.02734756 0 -106880989.02734756 296489321.8598938 0 0 0 0 75523676.565238953 -284928355.68785095 0 -284928355.68785095 631361718.72821045 0 0 0 0 92803647.597377777 -107706983.44845963 0 -107706983.44845963 122405521.46662903 0 0 0 0 188007383.57728386 61629490.891921997 0 61629490.891921997 -260234275.69503784 0 0 0 0 -46024127.864340454 -18906240.145709276 0 -18906240.145709276 73084361.371429443 0 0 0 0 499518.76791477203 -30160355.554866791 0 -30160355.554866791 114991235.56781769 0 0 0 0 36492801.848030567 -24687628.629901886 0 -24687628.629901886 6477843.3368682861 0 0 0 0 19132045.274324417 10680866.278961182 0 10680866.278961182 2418536.0355224609 0 0 0 0 4339696.4164876938 31873119.657333374 0 31873119.657333374 18744172.758947372 0 0 0 0 -14500386.816533566 18046512.915058136 0 18046512.915058136 15933111.047836304 0 0 0 0 1771864.2934410642 8873548.1443945598 0 8873548.1443945598 948415.61053204536 0 0 0 0 37189332.897769451 33407103.400245667 0 33407103.400245667 -18762344.178993225 0 0 0 0 -29905080.415106893 52417718.274367332 0 52417718.274367332 76983890.43548584 0 0 0 0 -8584874.4153933525 14147864.188568115 0 14147864.188568115 23579410.362243652 0 0 0 0 975780.19079756457 7812338.0370144658 0 7812338.0370144658 18130148.058552228 0 0 0 0 -10567876.238513827 14402767.420307159 0 14402767.420307159 30398307.723449707 0 0 0 0 5402418.6923295259 17056914.425094604 0 17056914.425094604 18137208.885009766 0 0 0 0 -93117.126107933582 21808.434147670865 0 21808.434147670865 1309225.3487614617 0 0 0 0 1877210.8979692459 14285309.632331848 0 14285309.632331848 38127033.951400757 0 0 0 0 6291816.9566812515 10404533.112091064 0 10404533.112091064 3308040.1219711304 0 0 0 0 -726252.66385717504 1154484.5006738231 0 1154484.5006738231 11608432.360119179 0 0 0 0 15891146.114452362 -4681786.5205345154 0 -4681786.5205345154 26456106.656103134 0 0 0 0 6910103.714394331 13142804.37071991 0 13142804.37071991 50446156.384544373 0 0 0 0 -3100289.3845510483 18624099.837940216 0 18624099.837940216 58286363.519727707 0 0 0 0 8018139.6697657108 3941386.9222488403 0 3941386.9222488403 36008066.525398254 0 0 0 0 -410862.83693340933 476447.74654692411 0 476447.74654692411 5174968.0777121224 0 0 0 0 -11483550.112540007 -1107613.7425422668 0 -1107613.7425422668 92004976.771011353 0 0 0 0 -14341483.528887272 52235447.451637268 0 52235447.451637268 125282031.62677002 0 0 0 0 8502755.1092624664 77087423.785957336 0 77087423.785957336 104893806.01251221 0 0 0 0 -412581.95825288678 185950.99407280982 0 185950.99407280982 541269.34140214324 0 0 0 0 -56105014.288159847 -68463799.574821472 0 -68463799.574821472 -4010583.3594417572 0 0 0 0 -45205046.468316078 -20124196.28868103 0 -20124196.28868103 72707210.187034607 0 0 0 0 -33493165.03988874 40575676.492763519 0 40575676.492763519 93249412.262252808 0 0 0 0 -23543000.617825508 43631218.82485199 0 43631218.82485199 93047240.234924316 0 0 0 0 -3854831.866202116 43967535.738960266 0 43967535.738960266 72803724.899837494 0 0 0 0 5176210.4485985637 63457278.898433685 0 63457278.898433685 85174599.139022827 0 0 0 0 -15115090.322593689 34627487.322982788 0 34627487.322982788 47942015.242452621 0 0 0 0 -34011269.849322438 29988798.221111298 0 29988798.221111298 75897126.232818604 0 0 0 0 -33394470.040212154 26083024.153968811 0 26083024.153968811 90218454.280107498 0 0 0 0 12727746.906545162 34889718.829185486 0 34889718.829185486 71148171.259857178 0 0 0 0 -30584481.351260662 47930710.371582031 0 47930710.371582031 66861256.155540466 0 0 0 0 -27407062.352711052 27268042.737065792 0 27268042.737065792 70941948.276016235 0 0 0 0 -6492364.9355288744 40142178.292426109 0 40142178.292426109 44186041.838043213 0 0 0 0 -9434097.7019524574 28270685.945899963 0 28270685.945899963 58304762.367767334 0 0 0 0 -221774.01002374408 -14396.143121086061 0 -14396.143121086061 1560798.6041060779 0 0 0 0 -4397245.5063143969 12089897.936878204 0 12089897.936878204 11624843.45349884 0 0 0 0 -10858642.260457039 24226078.55834198 0 24226078.55834198 78241453.324222565 0 0 0 0 -3531898.537935257 8396794.3354797363 0 8396794.3354797363 67066450.159049988 0 0 0 0 951644.79202461243 17732312.246444702 0 17732312.246444702 40195757.697067261 0 0 0 0 169664.24776029587 15112885.705322266 0 15112885.705322266 38943111.473304749 0 0 0 0 8150724.5649842322 33868736.21539402 0 33868736.21539402 46825519.08807373 0 0 0 0 -1474383.0482579949 1784155.2928619161 0 1784155.2928619161 7105811.4470391124 0 0 0 0 13306944.898748875 20293898.607688904 0 20293898.607688904 37665795.948516846 0 0 0 0 -1316986.9937004931 2691373.4864537194 0 2691373.4864537194 5782155.7380878851 0 0 0 0 1480160.0903730392 20373604.218063354 0 20373604.218063354 53050057.304695129 0 0 0 0 1696428.8465471773 12321904.454856526 0 12321904.454856526 -3795170.0239034351 0 0 0 0 6182452.5283411145 39197191.028741837 0 39197191.028741837 54098970.952987671 0 0 0 0 1224071.623704195 9101681.3164749146 0 9101681.3164749146 34622101.914855957 0 0 0 0 1741384.8417096138 -3135252.46900177 0 -3135252.46900177 -7903962.1794128418 0 0 0 0 -4691249.974482907 3329214.5729378611 0 3329214.5729378611 21425695.642176066 0 0 0 0 8072185.0611850023 28414894.121536255 0 28414894.121536255 -10678244.880981445 0 0 0 0 -12366225.819133401 17623028.988471985 0 17623028.988471985 128671552.93768311 0 0 0 0 3922596.1983435601 25779745.681724548 0 25779745.681724548 65712911.490966797 0 0 0 0 15519865.536434412 816738.18840026855 0 816738.18840026855 142717091.57915688 0 0 0 0 -13969790.188205361 49805127.080810547 0 49805127.080810547 72953354.540374756 0 0 0 0 -5835359.2003980279 13636906.61623764 0 13636906.61623764 82608926.721923828 0 0 0 0 -18111135.035464227 34641493.527679443 0 34641493.527679443 139253293.01623535 0 0 0 0 26082584.981176615 56733818.812606812 0 56733818.812606812 63869659.883979797 0 0 0 0 1979874.5696638548 12582649.069420435 0 12582649.069420435 8523548.1692059357 0 0 0 0 -1201546.5281924009 27641190.651779175 0 27641190.651779175 -21147114.578475952 0 0 0 0 2956107.22146523 6316128.2117919922 0 6316128.2117919922 40628199.559692383 0 0 0 0 10947460.221513987 17243594.162685394 0 17243594.162685394 15481672.542320251 0 0 0 0 -42577252.013412476 57560316.352996826 0 57560316.352996826 72167255.63013649 0 0 0 0 -45207255.943156838 25426026.121871948 0 25426026.121871948 79389911.836387634 0 0 0 0 -1054044.5062787444 38425.320215493441 0 38425.320215493441 2629368.3112009764 0 0 0 0 37979078.34522593 61486940.381652832 0 61486940.381652832 -12412994.786235809 0 0 0 0 -23889441.270612806 66319225.457695007 0 66319225.457695007 98782959.803833008 0 0 0 0 2686542.8981992928 12283049.282023799 0 12283049.282023799 7762236.591058502 0 0 0 0 7596076.9839448929 4218516.9034881592 0 4218516.9034881592 -50379818.253748894 0 0 0 0 51458409.330945015 -1314115.6678619385 0 -1314115.6678619385 -52779218.99937439 0 0 0 0 9092005.2941410542 12322587.654830933 0 12322587.654830933 22196162.119918823 0 0 0 0 -54637157.817292809 22030644.000442505 0 22030644.000442505 387528462.24580383 0 0 0 0 -25660860.646780014 154194819.42831421 0 154194819.42831421 160083745.04040527 0 0 0 0 37857052.993699551 101745218.37486267 0 101745218.37486267 169697857.59740829 0 0 0 0 23603396.15858078 16221028.193725586 0 16221028.193725586 390548591.86456299 0 0 0 0 5989896.8086688519 8128538.2752227783 0 8128538.2752227783 142924428.66946411 0 0 0 0 59309407.618181467 16334669.916244507 0 16334669.916244507 144089873.0721283 0 0 0 0 1416284.1578999297 505735.46199040115 0 505735.46199040115 1328372.02579353 0 0 0 0 -18427985.469085336 26890297.135986328 0 26890297.135986328 246150278.06045532 0 0 0 0 -47848473.081920117 -41102173.026580811 0 -41102173.026580811 329122057.6395874 0 0 0 0 195250846.73515964 -154383085.8471756 0 -154383085.8471756 359368106.31295776 0 0 0 0 716568.5746346144 33655.530818037689 0 33655.530818037689 289963.33204211295 0 0 0 0 544506827.28320825 130562311.48628235 0 130562311.48628235 -495034218.84255981 0 0 0 0 -168728205.16238308 -11197320.629638672 0 -11197320.629638672 800997399.32391357 0 0 0 0 151601437.2966046 52603619.373657227 0 52603619.373657227 95335347.485076904 0 0 0 0 -203135894.8477124 -31406951.885871887 0 -31406951.885871887 108429001.91555023 0 0 0 0 -119639981.29532799 216353384.823843 0 216353384.823843 -190310479.55752563 0 0 0 0 -79225139.065233469 18728712.195068359 0 18728712.195068359 39142300.611663818 0 0 0 0 1680817.2046794076 833852.89410084486 0 833852.89410084486 2945954.2355396822 0 0 0 0 -22847087.106480122 43954226.403213501 0 43954226.403213501 -85781309.666473389 0 0 0 0 -6394791.8092976213 -16764463.723945618 0 -16764463.723945618 182872037.77157593 0 0 0 0 -21958957.537725329 36864203.519699097 0 36864203.519699097 155910471.61555481 0 0 0 0 19185737.973910511 -7500072.1231842041 0 -7500072.1231842041 158088127.95033264 0 0 0 0 15449602.069165885 -63556633.349914551 0 -63556633.349914551 239202932.64532471 0 0 0 0 -79072653.050460815 3886920.4174880981 0 3886920.4174880981 68964315.464439392 0 0 0 0 -37437530.078526735 -20933405.737747192 0 -20933405.737747192 83319227.895889282 0 0 0 0 -35781528.085653305 -8341367.9222564697 0 -8341367.9222564697 57657006.748901367 0 0 0 0 -37746030.456283331 11891501.920715332 0 11891501.920715332 80001556.157974243 0 0 0 0 -31469239.494229525 26963828.042002678 0 26963828.042002678 60091270.921569824 0 0 0 0 -88450615.654212832 41976475.749717712 0 41976475.749717712 30778014.821212769 0 0 0 0 -37441152.030459523 8578156.1929321289 0 8578156.1929321289 24733514.740188599 0 0 0 0 -138982803.7404983 -15798670.912834167 0 -15798670.912834167 161429010.4546814 0 0 0 0 -112960259.27392721 29316275.241844177 0 29316275.241844177 56363410.656433105 0 0 0 0 -85671527.29015398 -85951036.811401367 0 -85951036.811401367 223896711.99926758 0 0 0 0 42531480.477243409 -64266794.763877869 0 -64266794.763877869 109653331.46354675 0 0 0 0 -41123504.492186546 -40510749.730667114 0 -40510749.730667114 113634884.36642456 0 0 0 0 -43342574.580145963 -68243293.011956692 0 -68243293.011956692 114174621.51849365 0 0 0 0 -42657393.388388634 -52737784.315200806 0 -52737784.315200806 77089870.329162598 0 0 0 0 25105076.264556352 -66568649.160903931 0 -66568649.160903931 67423733.505142212 0 0 0 0 -75816281.788936585 -19476252.113760948 0 -19476252.113760948 107526924.46069336 0 0 0 0 -77980284.729753256 -45377702.008834839 0 -45377702.008834839 100442558.22491455 0 0 0 0 -78623650.531890988 -33897228.480278015 0 -33897228.480278015 86910115.831115723 0 0 0 0 -50847108.454165697 -31321872.393310547 0 -31321872.393310547 78104498.4506073 0 0 0 0 -70494961.825242877 -40168124.897468567 0 -40168124.897468567 76793148.388671875 0 0 0 0 -85266794.824568659 -8372912.1216125488 0 -8372912.1216125488 40236338.183197021 0 0 0 0 -34598004.958566904 8091122.6575317383 0 8091122.6575317383 40106967.758453369 0 0 0 0 -32563858.984012991 137603700.59347534 0 137603700.59347534 1684780.755859375 0 0 0 0 -116068733.06864151 52425527.325241089 0 52425527.325241089 25526638.7526474 0 0 0 0 -40072448.367158949 -1375372.260345459 0 -1375372.260345459 2225155.5155334473 0 0 0 0 -85353818.203923941 6831125.0338516235 0 6831125.0338516235 79956720.674743652 0 0 0 0 -37449.988669804727 -41884.457291346043 0 -41884.457291346043 -217173.86405913532 0 0 0 0 -171844247.01222748 163409468.26797485 0 163409468.26797485 4549553.1487426758 0 0 0 0 69647594.624709085 -167560603.89415359 0 -167560603.89415359 -292987076.51545715 0 0 0 0 -294382741.76830149 47133349.7240448 0 47133349.7240448 72194090.936702728 0 0 0 0 -26501145.05776453 82734432.167137146 0 82734432.167137146 -202291883.62313461 0 0 0 0 -128850860.11262572 -144703655.88638306 0 -144703655.88638306 18107654.093444824 0 0 0 0 -378549.4973060381 156905.34153731167 0 156905.34153731167 1157840.6396684796 0 0 0 0 -36790846.674897075 162334194.71865845 0 162334194.71865845 -582421453.01700592 0 0 0 0 -45696145.011045933 -3834531.7455291748 0 -3834531.7455291748 100074549.10029602 0 0 0 0 345600.71689085173 5540460.2993805557 0 5540460.2993805557 2595196.6017482448 0 0 0 0 -1921964.0337997 -4159273.8906553388 0 -4159273.8906553388 3525957.6390839107 0 0 0 0 503044.09544277191 173518.94819641113 0 173518.94819641113 17438960.433349609 0 0 0 0 -12039751.910395145 -12113457.5207901 0 -12113457.5207901 78392945.175857544 0 0 0 0 -54657149.188193202 -18368428.237930298 0 -18368428.237930298 93306979.940948486 0 0 0 0 15347538.072006226 38961992.533279419 0 38961992.533279419 91694151.168045044 0 0 0 0 -3407896.564969229 -3134093.8724374622 0 -3134093.8724374622 5870565.0661693774 0 0 0 0 4729851.718042016 40085115.80081749 0 40085115.80081749 100532707.24893188 0 0 0 0 -6965389.3365988731 -5641250.8100204468 0 -5641250.8100204468 89781806.391891479 0 0 0 0 -7084532.292155236 27305657.792182922 0 27305657.792182922 121305515.29360962 0 0 0 0 -1140355.6125268936 1993256.1773147583 0 1993256.1773147583 16084391.636749268 0 0 0 0 -1414229.1790331602 2815981.6308784485 0 2815981.6308784485 17422726.879501343 0 0 0 0 240016.56067232951 6115488.0284164399 0 6115488.0284164399 4814862.4449407421 0 0 0 0 -6633973.5266895294 51815595.140075684 0 51815595.140075684 -151109532.88134766 0 0 0 0 -3343082.1062831879 28673844.864334106 0 28673844.864334106 -108287181.74278259 0 0 0 0 -19033531.869170174 23987432.246871948 0 23987432.246871948 -90078655.92199707 0 0 0 0 -80885112.504941463 23447348.736953735 0 23447348.736953735 -83405234.297492981 0 0 0 0 -8463235.6936969608 8914415.8752326965 0 8914415.8752326965 -85505513.572250366 0 0 0 0 -23147771.330385327 36421449.96887207 0 36421449.96887207 -41857019.195419312 0 0 0 0 22396513.194965124 34305181.83631134 0 34305181.83631134 -108407522.00990295 0 0 0 0 16173640.324891567 21786931.780700684 0 21786931.780700684 -36537999.211334229 0 0 0 0 -3519928.5676217079 5375140.0612564087 0 5375140.0612564087 -2004036.3163948059 0 0 0 0 -5914017.7843807936 45592957.186294556 0 45592957.186294556 11997198.574638367 0 0 0 0 18824521.154985711 41874616.706683636 0 41874616.706683636 8442954.6537322998 0 0 0 0 -15009627.587084234 -44436028.241447449 0 -44436028.241447449 12862135.7602005 0 0 0 0 -21576327.406553671 12357400.82428503 0 12357400.82428503 19470655.100143433 0 0 0 0 -59083600.177337408 46856364.106773376 0 46856364.106773376 -24910619.020622253 0 0 0 0 15461317.869016573 -9368480.5230865479 0 -9368480.5230865479 -13883519.761455536 0 0 0 0 -59452165.663272746 -68542604.54027994 0 -68542604.54027994 -58290635.323806763 0 0 0 0 -174775.96863891854 -133505.49190166965 0 -133505.49190166965 -41671.586942449212 0 0 0 0 -68572992.245902389 78466960.794750214 0 78466960.794750214 -48285285.004684448 0 0 0 0 -42778144.083124794 -48416172.291152954 0 -48416172.291152954 38235078.59336853 0 0 0 0 -198466527.79565108 148744200.75192261 0 148744200.75192261 81927787.665924072 0 0 0 0 -28898477.90066576 99431838.355621338 0 99431838.355621338 -101454583.36645508 0 0 0 0 -182091789.03848684 272801994.65135193 0 272801994.65135193 -38034170.831573486 0 0 0 0 183873496.7528576 -3749603.3527603149 0 -3749603.3527603149 -77810019.064743042 0 0 0 0 12103857.930564672 -15108365.246948242 0 -15108365.246948242 -50136541.939189911 0 0 0 0 -133765607.34654608 -9494586.3611297607 0 -9494586.3611297607 27090730.469894409 0 0 0 0 -5426.2287085271391 -218827.85322225047 0 -218827.85322225047 113428.7486384958 0 0 0 0 -31372.419910558252 -624616.5852727883 0 -624616.5852727883 318500.11158944666 0 0 0 0 134926673.53339422 -34072810.832489014 0 -34072810.832489014 -57816581.297492981 0 0 0 0 31656368.544176057 31440350.594169617 0 31440350.594169617 52945067.550750732 0 0 0 0 13316560.164983034 -23944008.220924854 0 -23944008.220924854 23693729.077682495 0 0 0 0 75520041.018914789 -115747246.07398987 0 -115747246.07398987 -10010805.180404663 0 0 0 0 -134862689.999762 -14941180.055709124 0 -14941180.055709124 105587242.3757782 0 0 0 0 59216876.202348486 -120513238.94822693 0 -120513238.94822693 12341884.343093872 0 0 0 0 -75320.766752720825 -853359.11194597685 0 -853359.11194597685 404737.52030433714 0 0 0 0 21582957.944783568 2412261.580406189 0 2412261.580406189 841986.83117675781 0 0 0 0 59166208.816051126 -28127251.86151123 0 -28127251.86151123 2245467.8284912109 0 0 0 0 47953696.96345365 -37238777.833816528 0 -37238777.833816528 2618089.2997741699 0 0 0 0 15507624.684289098 -39863324.147171021 0 -39863324.147171021 14262977.948928833 0 0 0 0 -110481.39603197644 -97284.428197488189 0 -97284.428197488189 308940.70285523962 0 0 0 0 217276920.87144709 -132053128.81539917 0 -132053128.81539917 81077590.879211426 0 0 0 0 72029469.423642159 -89055993.891220093 0 -89055993.891220093 -219588604.39428711 0 0 0 0 110470880.03197193 -163146213.57362366 0 -163146213.57362366 14831859.664447308 0 0 0 0 53975802.681246221 -144639598.01313019 0 -144639598.01313019 15330486.222980738 0 0 0 0 201112320.12686276 74923987.17527771 0 74923987.17527771 149716366.23963165 0 0 0 0 67585705.937635183 -206487722.63178635 0 -206487722.63178635 248894703.3890686 0 0 0 0 45848815.939003587 -7775256.8237075806 0 -7775256.8237075806 114246883.49407959 0 0 0 0 46813582.236785322 -17139640.869400024 0 -17139640.869400024 -21211112.186592102 0 0 0 0 -7169319.142098248 69021481.004226685 0 69021481.004226685 20878676.583190918 0 0 0 0 169543773.02079052 13773929.812736511 0 13773929.812736511 13912508.524658203 0 0 0 0 85512667.206045836 34928838.601161957 0 34928838.601161957 31177693.626831055 0 0 0 0 83692987.424551934 52824578.307849884 0 52824578.307849884 27182925.810806274 0 0 0 0 112278146.98698771 25121987.236328125 0 25121987.236328125 19058557.821277618 0 0 0 0 84579954.274108306 54616556.766658783 0 54616556.766658783 30758084.650466919 0 0 0 0 81779608.854736298 82468463.584663391 0 82468463.584663391 33995948.597121239 0 0 0 0 47630499.414500952 26583308.410404205 0 26583308.410404205 1168767.1823730469 0 0 0 0 143207814.83226472 75706276.715942383 0 75706276.715942383 -11069593.015459061 0 0 0 0 82418869.589045644 66369357.056289673 0 66369357.056289673 212177.32249450684 0 0 0 0 72424908.748880357 10141279.502296448 0 10141279.502296448 -13521955.260421753 0 0 0 0 51038912.93140316 26176051.954032898 0 26176051.954032898 -18931043.226760864 0 0 0 0 16294763.225070506 -77575181.868537903 0 -77575181.868537903 12225141.962783813 0 0 0 0 -63589018.37651965 83555530.896461487 0 83555530.896461487 3517653.3042488098 0 0 0 0 -29471903.430264831 70975300.362335205 0 70975300.362335205 -20763326.671403885 0 0 0 0 -12289845.246530116 122341761.05644608 0 122341761.05644608 -76190449.967956543 0 0 0 0 256856.45560671922 270030.13834714144 0 270030.13834714144 -81371.373118281364 0 0 0 0 -9282617.9420981407 -3561011.1082382202 0 -3561011.1082382202 8879883.5849914551 0 0 0 0 82580054.769001871 -4774908.6672363281 0 -4774908.6672363281 -42371143.696121216 0 0 0 0 165029.91692590551 198476.87814239785 0 198476.87814239785 53537.976212769747 0 0 0 0 -192807741.0654906 220081937.35861206 0 220081937.35861206 227995605.14221191 0 0 0 0 223009137.26009563 105011972.28376007 0 105011972.28376007 3672174.326965332 0 0 0 0 40629969.925380655 19162259.959774971 0 19162259.959774971 -128528801.23164368 0 0 0 0 -11502713.990980208 -88597353.866348267 0 -88597353.866348267 38152939.020095825 0 0 0 0 145804351.11769682 29646535.042449951 0 29646535.042449951 93607073.975006104 0 0 0 0 19570360.071247309 -16644117.72794342 0 -16644117.72794342 327092160.8392334 0 0 0 0 182895492.77658141 -79795079.516723633 0 -79795079.516723633 235020121.72937012 0 0 0 0 155974917.49780315 203910438.35884857 0 203910438.35884857 726029575.08117676 0 0 0 0 136785081.89809841 50464093.541107178 0 50464093.541107178 152011555.92572021 0 0 0 0 176675669.37221763 309389152.68123698 0 309389152.68123698 245536252.04702759 0 0 0 0 -79775522.1613096 16739732.546305656 0 16739732.546305656 495519010.04953003 0 0 0 0 14935260.652243793 14096665.919143677 0 14096665.919143677 161533227.74652481 0 0 0 0 105142661.90190603 205124533.40254974 0 205124533.40254974 287575269.18240565 0 0 0 0 -17225548.054631218 15138926.306694031 0 15138926.306694031 288476239.19650269 0 0 0 0 6915440.2579742968 46782161.760604858 0 46782161.760604858 206231116.34165955 0 0 0 0 3165024.7632804289 30780109.997671127 0 30780109.997671127 150710965.1789856 0 0 0 0 46230162.701279372 64835490.051582336 0 64835490.051582336 89627386.613861084 0 0 0 0 50766181.286163211 98375507.098007202 0 98375507.098007202 168524656.90309143 0 0 0 0 69277535.581954688 70905248.708000183 0 70905248.708000183 88735721.175842285 0 0 0 0 86445000.905122086 98946191.74356842 0 98946191.74356842 92129103.746276855 0 0 0 0 54668889.145106107 106067319.28387451 0 106067319.28387451 93511611.934295654 0 0 0 0 -7603379.4934623241 45484044.070106506 0 45484044.070106506 35378441.489074707 0 0 0 0 44640377.944092035 27611963.899459839 0 27611963.899459839 59618606.414932251 0 0 0 0 43588658.98287338 53259080.285575867 0 53259080.285575867 71239617.872573853 0 0 0 0 45292061.349533528 40259742.148674011 0 40259742.148674011 152168004.88851929 0 0 0 0 137187.17537865043 14798441.999443054 0 14798441.999443054 196550678.25587463 0 0 0 0 18972635.282925248 -24656726.881584167 0 -24656726.881584167 132313062.60057068 0 0 0 0 27561.903152957559 18101.140220068395 0 18101.140220068395 193579.71542459726 0 0 0 0 23106631.864441812 -32912511.359755516 0 -32912511.359755516 -24300468.136322021 0 0 0 0 14687.284283471585 -83077.726175732911 0 -83077.726175732911 165891.96977331489 0 0 0 0 -20761223.938925125 -88996361.678380013 0 -88996361.678380013 45907484.82711792 0 0 0 0 8836857.6515121982 49299580.600431442 0 49299580.600431442 86374231.370849609 0 0 0 0 3866221.3507939279 62153011.694801331 0 62153011.694801331 140946547.97606659 0 0 0 0 -5594147.3684412539 20106253.124069214 0 20106253.124069214 36137874.355045319 0 0 0 0 -25490314.168969888 22335132.335723877 0 22335132.335723877 87887998.493652344 0 0 0 0 15785.04474988344 -171712.69185257331 0 -171712.69185257331 345899.77507047355 0 0 0 0 -37115272.445604116 -24168206.125549316 0 -24168206.125549316 35239419.656381249 0 0 0 0 -35282484.446898013 -9806239.5594387054 0 -9806239.5594387054 48298271.357940674 0 0 0 0 18104014.295926392 6874259.1565093994 0 6874259.1565093994 45093633.381521225 0 0 0 0 -2070158.5460445434 35427557.365409851 0 35427557.365409851 104770149.08001709 0 0 0 0 4637825.9885994196 -21077628.130088806 0 -21077628.130088806 158716795.49381256 0 0 0 0 54477445.488654077 3999311.1108932495 0 3999311.1108932495 97959084.329498291 0 0 0 0 4283542.1687474623 39971189.824800491 0 39971189.824800491 74839285.824142456 0 0 0 0 33952743.305420667 20426095.374908447 0 20426095.374908447 49290697.801956177 0 0 0 0 61719469.591963232 53663139.784645081 0 53663139.784645081 50038553.496780396 0 0 0 0 84659836.461422563 44136330.502838135 0 44136330.502838135 50719977.244325638 0 0 0 0 48698381.546934083 27268338.410770416 0 27268338.410770416 57689062.849273682 0 0 0 0 90418745.942593455 -1246361.4105834961 0 -1246361.4105834961 76930516.470733643 0 0 0 0 118834593.85967574 -48942449.842781067 0 -48942449.842781067 100713869.18147278 0 0 0 0 91661089.430418193 -18051672.545295715 0 -18051672.545295715 65598272.819915771 0 0 0 0 59715925.023205414 -48670877.896284103 0 -48670877.896284103 145323975.80899048 0 0 0 0 5861717.0709843189 -35070927.107650757 0 -35070927.107650757 155442326.24949646 0 0 0 0 230065405.31342119 -98880709.215502739 0 -98880709.215502739 88126636.110839844 0 0 0 0 73474601.997984946 -124379374.29115677 0 -124379374.29115677 266906742.11314392 0 0 0 0 -7227210.7583260536 47036640.538124084 0 47036640.538124084 275585777.15111971 0 0 0 0 22334702.911231309 4573525.7574653625 0 4573525.7574653625 72707298.629501343 0 0 0 0 -109904.09009233827 -120805.08151531965 0 -120805.08151531965 657233.43367891153 0 0 0 0 119991.56390232535 -274350.91754900664 0 -274350.91754900664 455739.82901574671 0 0 0 0 4429208.1234201491 575465.69569396973 0 575465.69569396973 92619710.747110844 0 0 0 0 -13482.084730853268 -17503.766644529998 0 -17503.766644529998 347664.85738683585 0 0 0 0 -15037364.48141396 12437086.257408142 0 12437086.257408142 161802992.6697998 0 0 0 0 -3314433.0461123735 -26010136.653617859 0 -26010136.653617859 152910962.02377319 0 0 0 0 6252957.483671695 -34327544.851272583 0 -34327544.851272583 156853455.99919891 0 0 0 0 6207426.1529655159 -3432134.7304916382 0 -3432134.7304916382 107106718.26111603 0 0 0 0 -874543.88396391273 -26754681.323471069 0 -26754681.323471069 152905398.48510742 0 0 0 0 1430375.6653925674 -35725924.010782242 0 -35725924.010782242 186775610.94247437 0 0 0 0 28018837.796816133 -5011303.30260849 0 -5011303.30260849 131324752.51467896 0 0 0 0 24729785.81453811 -36679240.291599274 0 -36679240.291599274 151385655.016716 0 0 0 0 715984.3658944834 -11970478.086341858 0 -11970478.086341858 132104807.45705414 0 0 0 0 6205754.8257813677 -13584935.684289932 0 -13584935.684289932 130046484.13787842 0 0 0 0 -4198691.5543032847 8101054.3001251221 0 8101054.3001251221 115216570.45570374 0 0 0 0 6563989.5534579754 -15337594.570381165 0 -15337594.570381165 127974114.32859802 0 0 0 0 2693821.0360193579 3557189.4549150467 0 3557189.4549150467 115845294.10163879 0 0 0 0 3125666.8003204614 -3685604.7285232544 0 -3685604.7285232544 108088683.63404846 0 0 0 0 -3759848.8522365652 7585582.33959198 0 7585582.33959198 101809942.10456848 0 0 0 0 8067567.0287903249 -1043222.61743927 0 -1043222.61743927 87453384.887435913 0 0 0 0 14104.047755430191 -10633.146199055016 0 -10633.146199055016 181947.48242258886 0 0 0 0 -2420300.949239145 16577788.0730896 0 16577788.0730896 69173779.991973877 0 0 0 0 -2645727.3151886137 4875339.2726593018 0 4875339.2726593018 95793319.92350769 0 0 0 0 4346823.7206418812 6550604.7976379395 0 6550604.7976379395 89026624.811563492 0 0 0 0 8874.1465243037164 -10192.295112960041 0 -10192.295112960041 62423.859707118943 0 0 0 0 -3892174.7478058636 -4046652.5683288574 0 -4046652.5683288574 18188555.095701218 0 0 0 0 4256681.2774306722 5196272.8817257881 0 5196272.8817257881 95485066.734649658 0 0 0 0 -7354641.676570572 -3785114.0198364258 0 -3785114.0198364258 116634686.47462463 0 0 0 0 618.18074945888975 -5129205.7408599854 0 -5129205.7408599854 95303098.657363892 0 0 0 0 3724636.5446620733 2695287.3145980835 0 2695287.3145980835 119733265.8449707 0 0 0 0 -12845.541230725512 -7877433.0195617676 0 -7877433.0195617676 132655950.8177948 0 0 0 0 2085226.7488840818 -7990061.5057220459 0 -7990061.5057220459 131823392.44834137 0 0 0 0 8996.5227029798625 -6984510.5312347412 0 -6984510.5312347412 131411473.14894867 0 0 0 0 8959418.9434355404 -14083536.669662476 0 -14083536.669662476 104753992.29652405 0 0 0 0 2787280.6295085689 -4499320.2270336151 0 -4499320.2270336151 148872962.87431335 0 0 0 0 17915458.931453552 -39797240.757386446 0 -39797240.757386446 99525885.159973145 0 0 0 0 17612704.035158075 -47257516.692401886 0 -47257516.692401886 -21113628.823539734 0 0 0 0 -4664855.2646166142 35249225.753329277 0 35249225.753329277 216823161.83177185 0 0 0 0 1038.8073807772307 -84265.080365341157 0 -84265.080365341157 188704.44683149457 0 0 0 0 11243201.618746802 -24312795.432151794 0 -24312795.432151794 145111470.66675186 0 0 0 0 51392602.187997386 -5143689.5328521729 0 -5143689.5328521729 49739012.709335327 0 0 0 0 -38095851.063707106 8941588.0677936077 0 8941588.0677936077 80442036.168884277 0 0 0 0 -1301271.0924672 11158172.549571991 0 11158172.549571991 95965675.083236694 0 0 0 0 -10993553.000488222 28005602.77444458 0 28005602.77444458 66685031.678039551 0 0 0 0 -2207779.6938762218 17543672.618339539 0 17543672.618339539 165033235.2171936 0 0 0 0 -12892312.521298226 -11668097.935119629 0 -11668097.935119629 133364457.05319214 0 0 0 0 40521934.308851078 26845776.306221008 0 26845776.306221008 110003191.66560745 0 0 0 0 -3635.0470415947393 5360158.8957061768 0 5360158.8957061768 108311947.69645691 0 0 0 0 -579878.71527495421 -19647912.32081604 0 -19647912.32081604 79956619.734283447 0 0 0 0 11451150.708491467 -1424167.9953193665 0 -1424167.9953193665 107042776.41731262 0 0 0 0 -119165.97005081177 23381190.612884521 0 23381190.612884521 -15459607.312761068 0 0 0 0 -1749813.3675384521 32184143.759605408 0 32184143.759605408 -909813.36511230469 0 0 0 0 20870806.512029648 35216802.584075928 0 35216802.584075928 -987463.44780182838 0 0 0 0 -17134686.307592392 38939702.532028198 0 38939702.532028198 14874251.34752655 0 0 0 0 -17861481.496321678 37858830.163957596 0 37858830.163957596 18197230.152145386 0 0 0 0 -21729822.467815399 28940493.086120605 0 28940493.086120605 14947747.327606201 0 0 0 0 -11284577.275953293 30090395.78912735 0 30090395.78912735 2549871.9247436523 0 0 0 0 -10411402.199584961 29475619.1512146 0 29475619.1512146 -2071712.5452880859 0 0 0 0 -342807.85177479684 42762372.43132782 0 42762372.43132782 5890660.518951416 0 0 0 0 -16440463.973804474 26639513.276199341 0 26639513.276199341 3368741.0344161987 0 0 0 0 83107388.140019417 -93673900.846893311 0 -93673900.846893311 -179477711.81248856 0 0 0 0 -776498.64049630705 6845858.8921162616 0 6845858.8921162616 11603702.47227118 0 0 0 0 -12035874.990520477 27540527.377288818 0 27540527.377288818 3552345.3870201111 0 0 0 0 -31397403.575363159 26455728.38885498 0 26455728.38885498 -26769922.297981262 0 0 0 0 -12767841.093698502 -17400362.361804962 0 -17400362.361804962 73027718.48866272 0 0 0 0 97042848.738426208 -421331350.11477661 0 -421331350.11477661 33941112.663640976 0 0 0 0 59895580.331794739 17216225.244430542 0 17216225.244430542 -13987979.798909187 0 0 0 0 35482093.393287659 -5802399.5829925537 0 -5802399.5829925537 392623475.45246887 0 0 0 0 37128579.551353455 1128477.9242019653 0 1128477.9242019653 414426436.76916504 0 0 0 0 59935356.224233866 345451286.14562011 0 345451286.14562011 -21502424.716121674 0 0 0 0 -83258235.671630859 81615883.416320801 0 81615883.416320801 951933270.51806641 0 0 0 0 -22405096.472358704 -571954025.56063843 0 -571954025.56063843 280530760.51688766 0 0 0 0 -197208030.41261292 -526034455.34913635 0 -526034455.34913635 745172324.85117722 0 0 0 0 -21442054.329204559 5678963.2996520996 0 5678963.2996520996 -15906141.886800766 0 0 0 0 -10213984.646011353 26096724.16607666 0 26096724.16607666 680937.93943786621 0 0 0 0 3816913.9305631183 11230721.72429491 0 11230721.72429491 14757131.336873043 0 0 0 0 26672033.013904572 10371399.989593506 0 10371399.989593506 -74034775.058265686 0 0 0 0 -13087677.452088812 3064014.6211896278 0 3064014.6211896278 25725111.728091314 0 0 0 0 -71222301.534275055 -34898830.697780609 0 -34898830.697780609 115702940.53315163 0 0 0 0 -4284225.3405680656 12649264.861438751 0 12649264.861438751 24604134.4945755 0 0 0 0 -2647193.9065022185 16229525.211925026 0 16229525.211925026 13368913.997684333 0 0 0 0 -9192143.6155827474 -2870262.4615688063 0 -2870262.4615688063 31394218.122838587 0 0 0 0 22115796.003370106 -73203664.897922993 0 -73203664.897922993 -112414161.61047363 0 0 0 0 32068335.009389877 49824049.203456879 0 49824049.203456879 -22568644.112266541 0 0 0 0 31186764.660564423 30503480.80645752 0 30503480.80645752 -59777723.979736328 0 0 0 0 3176007.8491649628 30866955.20059967 0 30866955.20059967 19491331.020835876 0 0 0 0 59036408.588477135 52193444.292201996 0 52193444.292201996 23948928.979804993 0 0 0 0 216385556.65247822 -77369690.54300499 0 -77369690.54300499 23226025.217208862 0 0 0 0 -22732849.525766373 7298418.4269561768 0 7298418.4269561768 -457901.31212615967 0 0 0 0 -33123905.381292343 -29811129.779064178 0 -29811129.779064178 361239803.34708405 0 0 0 0 -15766949.599889755 -1712300.2710952759 0 -1712300.2710952759 262714647.81671524 0 0 0 0 127695810.80857277 160799474.4419775 0 160799474.4419775 187562790.79672241 0 0 0 0 -19426084.59485817 -26284820.939025879 0 -26284820.939025879 97706886.040962219 0 0 0 0 -25500360.438604355 31544412.462417603 0 31544412.462417603 157203867.53083801 0 0 0 0 -935168.88600635529 58550080.076459885 0 58550080.076459885 32334416.160614014 0 0 0 0 -29803601.302732468 35389989.652893066 0 35389989.652893066 59361202.531894684 0 0 0 0 -24480414.858651161 16884525.576051712 0 16884525.576051712 45023925.021270752 0 0 0 0 -36331731.795145035 14321166.100261688 0 14321166.100261688 62763582.326782227 0 0 0 0 -42907569.398033142 -4857593.9844436646 0 -4857593.9844436646 10946205.161153793 0 0 0 0 52883153.110644341 73891996.065872192 0 73891996.065872192 46666196.379166603 0 0 0 0 -6597296.1866044998 6549593.8297348022 0 6549593.8297348022 32129512.776101112 0 0 0 0 -47500307.970506668 15467951.777759552 0 15467951.777759552 18516122.702468872 0 0 0 0 -2800428.8497430086 4936136.7342739627 0 4936136.7342739627 6424489.9419195354 0 0 0 0 -34782311.989116669 26434842.815162659 0 26434842.815162659 21769276.891592026 0 0 0 0 -33000740.790769577 24650715.470497131 0 24650715.470497131 23355903.260971069 0 0 0 0 -643346.56488218857 7831352.9930262491 0 7831352.9930262491 31050754.594231546 0 0 0 0 -99605451.848477364 160848858.1415863 0 160848858.1415863 91519940.353065491 0 0 0 0 12000271.518483162 646817.49273681641 0 646817.49273681641 -38167446.435699463 0 0 0 0 25314098.126036644 -11804739.259750366 0 -11804739.259750366 -52959644.466911316 0 0 0 0 1131305.6451871567 1963776.5497485176 0 1963776.5497485176 -2244288.2281544656 0 0 0 0 -75907190.876163006 20614716.744859695 0 20614716.744859695 39208486.86207962 0 0 0 0 -36378698.234278679 7166273.192363739 0 7166273.192363739 28636187.991669655 0 0 0 0 -53125988.466653347 -23355522.153335571 0 -23355522.153335571 48160537.512546539 0 0 0 0 -4401568.3475847244 -6965454.3358154297 0 -6965454.3358154297 24251500.733306885 0 0 0 0 -3053793.0389842987 -31075946.795717239 0 -31075946.795717239 20735427.569620132 0 0 0 0 -382337.96557617188 6046073.431646347 0 6046073.431646347 38773944.223823547 0 0 0 0 -2056012.9889284698 5536839.4851566739 0 5536839.4851566739 27309026.977167487 0 0 0 0 -28394389.479598999 44006599.229082108 0 44006599.229082108 -3165866.653213501 0 0 0 0 -4917132.8366747797 -1874569.4385362864 0 -1874569.4385362864 40425172.729064941 0 0 0 0 10698145.841105461 -21940602.383985519 0 -21940602.383985519 61825617.836179733 0 0 0 0 -497802.64097095234 245238.24247912131 0 245238.24247912131 12307681.7146238 0 0 0 0 -7541345.6149482727 3992337.8353652954 0 3992337.8353652954 49071164.757026672 0 0 0 0 6624458.537558198 2150818.6010608673 0 2150818.6010608673 22744263.214550018 0 0 0 0 6318588.4354317188 417533.4234046936 0 417533.4234046936 34645402.778137207 0 0 0 0 43756132.978339195 -22711348.710699081 0 -22711348.710699081 16522436.758507729 0 0 0 0 31045851.60055542 57200603.221834183 0 57200603.221834183 42294578.708410263 0 0 0 0 -15727496.01125145 18602964.85572052 0 18602964.85572052 11582853.674285889 0 0 0 0 2843513.4849815369 30702056.045799255 0 30702056.045799255 6279150.0876483917 0 0 0 0 -24360409.884952545 23167034.043807983 0 23167034.043807983 5842202.7917938232 0 0 0 0 -3825304.716791431 2690293.3228472862 0 2690293.3228472862 5623622.97694204 0 0 0 0 -25933146.922992706 37070298.493598938 0 37070298.493598938 5118695.4662017822 0 0 0 0 -29300551.830677032 41787842.222137451 0 41787842.222137451 27263779.471216202 0 0 0 0 -2243511.9336620923 13916095.719241994 0 13916095.719241994 -1774513.1331698149 0 0 0 0 -6749145.5583000183 17037382.734146118 0 17037382.734146118 7900680.9598083496 0 0 0 0 -1402664.2137985229 18195157.876708984 0 18195157.876708984 -6336458.9739685059 0 0 0 0 42732.203959688544 9346888.7853771616 0 9346888.7853771616 4189061.1803903803 0 0 0 0 -2361622.9505300522 9202623.7359762192 0 9202623.7359762192 1005485.1380157471 0 0 0 0 -1307565.8501274469 5622802.6930720825 0 5622802.6930720825 10216226.142669875 0 0 0 0 -4575213.5181398392 995793.68426513672 0 995793.68426513672 8934747.8799571991 0 0 0 0 -2676189.4679350853 4198178.2649765015 0 4198178.2649765015 3044317.7272586823 0 0 0 0 -3084020.862639904 4009082.1575088501 0 4009082.1575088501 6929344.1397323608 0 0 0 0 -2751870.5128693581 2935950.4219589233 0 2935950.4219589233 5217017.9683151245 0 0 0 0 -3375079.5385291148 1344176.4601493478 0 1344176.4601493478 12821937.060092684 0 0 0 0 -1918482.6954374472 820382.73662250116 0 820382.73662250116 29632989.214080706 0 0 0 0 -3238260.118253231 4651160.6408081055 0 4651160.6408081055 8309784.5888843536 0 0 0 0 -125676213.78381538 21870551.290462494 0 21870551.290462494 -44532212.070251465 0 0 0 0 74399.69380913768 6009679.7207599515 0 6009679.7207599515 -1958497.7295369133 0 0 0 0 -2112788.5944217215 2563350.5284211189 0 2563350.5284211189 9679450.1961289886 0 0 0 0 -4880392.6317005157 13632470.924129486 0 13632470.924129486 6399218.2665710449 0 0 0 0 -2039347.3227926493 2059241.3678207397 0 2059241.3678207397 3270521.2319335938 0 0 0 0 -5320339.7653047163 10629331.335861787 0 10629331.335861787 10605227.664544895 0 0 0 0 -70600435.971471786 59832285.970108032 0 59832285.970108032 -47622425.274230957 0 0 0 0 -97073551.941324711 81193869.86256218 0 81193869.86256218 65801946.542724609 0 0 0 0 -5200274.3107824326 8567453.3402748108 0 8567453.3402748108 4392097.5052032471 0 0 0 0 -97808861.92206192 74440012.158920288 0 74440012.158920288 3892811.7041358948 0 0 0 0 3300779.0789642511 5057909.7135612145 0 5057909.7135612145 -3799337.4477884695 0 0 0 0 5585262.7882003784 -3557826.0712585449 0 -3557826.0712585449 3790313.6656861305 0 0 0 0 -5390188.4846935496 -1555104.1887345314 0 -1555104.1887345314 2914289.0623703003 0 0 0 0 -4534029.7765111327 7576205.9562519249 0 7576205.9562519249 9294781.9613482803 0 0 0 0 -1692095.2096491551 542439.43479007948 0 542439.43479007948 12292285.973823398 0 0 0 0 -15136596.539442062 16892731.862365723 0 16892731.862365723 10292833.637145996 0 0 0 0 116578.93745847791 178486.34834011737 0 178486.34834011737 -244434.46310211346 0 0 0 0 25316709.216881245 13283289.45715332 0 13283289.45715332 5112273.2165374756 0 0 0 0 -6025500.5341180786 -2753819.5038948059 0 -2753819.5038948059 10925230.932437897 0 0 0 0 -13826110.646682978 9421741.510269165 0 9421741.510269165 22327010.492031097 0 0 0 0 55806530.003570557 -7438308.5449142456 0 -7438308.5449142456 -984388.30862426758 0 0 0 0 56086682.162735939 134936447.36853027 0 134936447.36853027 42706786.649215698 0 0 0 0 -79305644.579372406 38770446.99603653 0 38770446.99603653 190772645.25445557 0 0 0 0 -48556953.678302765 -15814142.793889999 0 -15814142.793889999 287589813.12223053 0 0 0 0 44075508.073212296 -53292767.006764174 0 -53292767.006764174 64911902.429916382 0 0 0 0 -10962107.541563034 -1668436.632101059 0 -1668436.632101059 67445341.955345154 0 0 0 0 -69667231.880313873 80725047.222946167 0 80725047.222946167 55664456.079681396 0 0 0 0 200389.00149440765 6391022.6276168823 0 6391022.6276168823 -2819306.9749364853 0 0 0 0 9312831.0709428787 9310203.1926956177 0 9310203.1926956177 -1570327.2320995331 0 0 0 0 7091406.6216039658 7686601.0684165955 0 7686601.0684165955 5023366.2795591354 0 0 0 0 1906623.1061372757 12284463.529708862 0 12284463.529708862 10594970.288167953 0 0 0 0 9201647.7224490643 4419341.656867981 0 4419341.656867981 14073744.698791504 0 0 0 0 14878075.785656691 -2836738.6616401672 0 -2836738.6616401672 18118547.85213089 0 0 0 0 12846669.392050028 4483731.0419387817 0 4483731.0419387817 3288333.4121112823 0 0 0 0 23156336.16701138 -11433251.95626545 0 -11433251.95626545 15239941.423561096 0 0 0 0 6248881.4878110886 5420182.0817584991 0 5420182.0817584991 16924069.904254675 0 0 0 0 9116819.0291297436 5530291.9664764404 0 5530291.9664764404 16904149.926578522 0 0 0 0 65118.011076394934 1603697.0699370801 0 1603697.0699370801 6219472.0454143025 0 0 0 0 -2966058.7483730316 23585648.499011993 0 23585648.499011993 23311513.140972137 0 0 0 0 -3611885.4568719864 4228657.6470012665 0 4228657.6470012665 38704942.093242645 0 0 0 0 -441029.04431426525 1394855.8906917572 0 1394855.8906917572 8767766.7314071655 0 0 0 0 277561289.35191917 -118714264.73215485 0 -118714264.73215485 114755996.16482544 0 0 0 0 27224.203888501972 1295616.4746326227 0 1295616.4746326227 2478829.0193417864 0 0 0 0 100914800.7472434 -207131147.85839653 0 -207131147.85839653 184687629.91113281 0 0 0 0 13219670.990708351 115284602.83659077 0 115284602.83659077 366080979.36975098 0 0 0 0 -9658679.5452772379 12426370.452543259 0 12426370.452543259 -2066110.8066215515 0 0 0 0 -42048738.548380852 32605623.995866776 0 32605623.995866776 333063359.68689346 0 0 0 0 257515.32874932094 105184.07918228116 0 105184.07918228116 552039.92077595741 0 0 0 0 3960245.152454155 677286.28947898187 0 677286.28947898187 -209852.57562857494 0 0 0 0 87829497.049863815 84899975.158462524 0 84899975.158462524 -50617124.055203915 0 0 0 0 176853492.18003559 -76249101.420480728 0 -76249101.420480728 163228991.06831741 0 0 0 0 18836642.998882294 75935393.365257263 0 75935393.365257263 40893858.674659252 0 0 0 0 192155597.76203707 182117483.53554225 0 182117483.53554225 84801666.726448059 0 0 0 0 42866094.612482071 -38921126.999065399 0 -38921126.999065399 339490766.59871674 0 0 0 0 -443619661.98271716 96865153.759290099 0 96865153.759290099 263234079.1242218 0 0 0 0 866022789.14077449 262533735.59203815 0 262533735.59203815 -281929770.39529419 0 0 0 0 477425696.49687386 1126825342.8575287 0 1126825342.8575287 -289681598.7057848 0 0 0 0 -374565881.82123756 716077516.35529423 0 716077516.35529423 134964281.78056335 0 0 0 0 72966712.151987076 239647016.94984436 0 239647016.94984436 -55344498.748748779 0 0 0 0 4840184.5189089775 -18852038.578624725 0 -18852038.578624725 16154118.568340302 0 0 0 0 355580648.47757149 -139186041.14599037 0 -139186041.14599037 37593878.341758728 0 0 0 0 1513534.6525731399 -75726.040824884549 0 -75726.040824884549 -228700.56418968178 0 0 0 0 -118931129.57664824 120735092.92858696 0 120735092.92858696 232716100.8467865 0 0 0 0 -159648338.10718918 -98573484.350627899 0 -98573484.350627899 439672457.16724396 0 0 0 0 677426348.11217117 -510682375.2853775 0 -510682375.2853775 -110385252.60601807 0 0 0 0 -5735364.4930366185 -5757740.3603238147 0 -5757740.3603238147 20956334.082411703 0 0 0 0 -40447049.336670876 -55864796.644382477 0 -55864796.644382477 -69317904.235832214 0 0 0 0 -30864207.04788053 -5674791.2274198532 0 -5674791.2274198532 8575129.4589691162 0 0 0 0 10212419.067139149 14928948.319950104 0 14928948.319950104 -62596088.368621826 0 0 0 0 24892497.488856792 11561100.521389008 0 11561100.521389008 7191719.8160552979 0 0 0 0 16813036.230708122 25450470.259054184 0 25450470.259054184 36658819.586791992 0 0 0 0 7748693.4659671783 8264898.4267196655 0 8264898.4267196655 22708723.775497437 0 0 0 0 5917525.8588700294 11366695.011993408 0 11366695.011993408 18843158.998100281 0 0 0 0 -8960313.1096317992 -3134415.6959517114 0 -3134415.6959517114 22051734.978768572 0 0 0 0 2235381.98969841 1815525.0862236023 0 1815525.0862236023 19666497.34116745 0 0 0 0 -14458856.955007553 -38482094.950977325 0 -38482094.950977325 -17281982.907981873 0 0 0 0 198696653.67519379 -293236082.98672485 0 -293236082.98672485 257393677.81246948 0 0 0 0 -4025574.6784567069 -7763646.3706995957 0 -7763646.3706995957 454382.44189438224 0 0 0 0 43241349.64780575 -84854979.431245208 0 -84854979.431245208 173245053.35762024 0 0 0 0 337457934.33820152 32455488.511421204 0 32455488.511421204 -150347189.72769165 0 0 0 0 1691926.9448728012 1920036.302381523 0 1920036.302381523 -1702283.1544577368 0 0 0 0 -4046219.8578096209 -8086557.602657442 0 -8086557.602657442 -359206.77341750637 0 0 0 0 -158502191.88628578 172774792.06305313 0 172774792.06305313 3560422.0695648193 0 0 0 0 337898944.82684898 446482857.8806839 0 446482857.8806839 -494341489.71235657 0 0 0 0 -3456716.1006031036 3538467.3257369995 0 3538467.3257369995 20722077.307662964 0 0 0 0 -10947065.286744777 -164407.1353485398 0 -164407.1353485398 22369058.23995477 0 0 0 0 -38650356.330096722 -52482182.097334862 0 -52482182.097334862 -23375361.573150635 0 0 0 0 36960802.199284077 -36785076.677458763 0 -36785076.677458763 -31189683.53578949 0 0 0 0 328723309.63679123 281518238.68530273 0 281518238.68530273 313793754.01660156 0 0 0 0 -1698268.2083923847 -1527414.4998531314 0 -1527414.4998531314 384009.46351378784 0 0 0 0 298682067.12200069 164302824.92616272 0 164302824.92616272 18772790.926712036 0 0 0 0 -84526000.728340149 58289448.610656738 0 58289448.610656738 106866022.64376831 0 0 0 0 95218992.1960392 101613075.20851898 0 101613075.20851898 -16558063.640151978 0 0 0 0 103004750.63074303 69874679.672935486 0 69874679.672935486 27754143.381813049 0 0 0 0 -10196606.50561142 9200809.0155334473 0 9200809.0155334473 23985939.944046021 0 0 0 0 -2070191.1722044945 11893215.718322754 0 11893215.718322754 23226999.247746468 0 0 0 0 -640742.06306219101 13060205.076721191 0 13060205.076721191 24115393.41400528 0 0 0 0 42511.456559240818 17766348.435097694 0 17766348.435097694 28107572.002227783 0 0 0 0 781837.19826936722 12538847.163536072 0 12538847.163536072 24254704.955871582 0 0 0 0 5010358.8045370579 18417900.126677275 0 18417900.126677275 30517815.237442017 0 0 0 0 888706.18934774399 12658255.307987213 0 12658255.307987213 36450769.1980896 0 0 0 0 -3117863.1269798279 15237443.966396332 0 15237443.966396332 51229989.219791412 0 0 0 0 -3550112.6190704107 10922850.423913956 0 10922850.423913956 32374006.47441864 0 0 0 0 -5526574.7879285812 14228792.017944336 0 14228792.017944336 29568291.042022705 0 0 0 0 -4262644.9405755997 16548098.158477783 0 16548098.158477783 33380372.238798141 0 0 0 0 -5238525.840023756 13640633.051803589 0 13640633.051803589 19509879.954174042 0 0 0 0 -32790223.090298414 8865230.6470184326 0 8865230.6470184326 31307147.963905334 0 0 0 0 -6137886.1953580379 9107257.0105400085 0 9107257.0105400085 24442784.944458008 0 0 0 0 -353137.19707386929 -36393.361041009426 0 -36393.361041009426 486278.73356778175 0 0 0 0 -30680092.376072168 -20379780.566673279 0 -20379780.566673279 -2657035.9908752441 0 0 0 0 12116045.371632099 26613689.90681076 0 26613689.90681076 64132652.600021362 0 0 0 0 -7675462.2933675721 -2549935.8295192719 0 -2549935.8295192719 10672469.900169373 0 0 0 0 -4030977.5872915983 4797768.0690383911 0 4797768.0690383911 11237916.603750229 0 0 0 0 -19313002.894515991 12457598.033489227 0 12457598.033489227 27349403.213851929 0 0 0 0 -1037431.3221278191 15103827.243144989 0 15103827.243144989 29874843.725601196 0 0 0 0 -6945301.9912037849 17035086.72460556 0 17035086.72460556 28916966.89204073 0 0 0 0 -1144268.364923954 15564484.188674927 0 15564484.188674927 24548033.270217896 0 0 0 0 -5066747.9689846039 16145231.797562599 0 16145231.797562599 24699829.00164032 0 0 0 0 -4161537.158839941 11379171.720630646 0 11379171.720630646 27003051.280143738 0 0 0 0 58370127.228147984 77754806.839752197 0 77754806.839752197 67117209.715587616 0 0 0 0 15136060.893264484 51290787.569341898 0 51290787.569341898 85974129.620803833 0 0 0 0 -5808368.2294733524 54281173.301933289 0 54281173.301933289 107340347.90114784 0 0 0 0 90446583.035293132 128735858.57213211 0 128735858.57213211 140005368.15643048 0 0 0 0 52482487.65218389 50673134.233703613 0 50673134.233703613 79692042.951583862 0 0 0 0 1945406.9470217228 15837396.657981873 0 15837396.657981873 51659382.275203705 0 0 0 0 -4702714.621571064 -20287172.282588959 0 -20287172.282588959 -3296668.4916763306 0 0 0 0 -5411308.689452529 33480066.699840546 0 33480066.699840546 45941482.262138367 0 0 0 0 -216498.22419698053 275612.33934653364 0 275612.33934653364 792028.80518488586 0 0 0 0 -675964.32450653659 120688.04338211194 0 120688.04338211194 1144050.0342834815 0 0 0 0 -2740377.751070261 9622152.1314239502 0 9622152.1314239502 22261009.288391113 0 0 0 0 2118780.0834263563 4848705.2555770874 0 4848705.2555770874 24498437.38297081 0 0 0 0 -2666383.0940978527 10078096.051368713 0 10078096.051368713 24711586.540878296 0 0 0 0 4090669.5829247236 5360438.3282623291 0 5360438.3282623291 26710239.398479462 0 0 0 0 -386415.77481116354 -897600.86142587662 0 -897600.86142587662 12312546.733810425 0 0 0 0 -750693.96145209554 506683.4738720879 0 506683.4738720879 1918302.5796687976 0 0 0 0 -220367.8005151434 896449.21044100821 0 896449.21044100821 2181433.7624909952 0 0 0 0 -9677071.7807999179 -19352787.97437501 0 -19352787.97437501 23034132.783088684 0 0 0 0 -819244.57605998428 1109359.5590086319 0 1109359.5590086319 3584568.0776636824 0 0 0 0 651498.86194914579 2067657.7887964249 0 2067657.7887964249 22456214.610702515 0 0 0 0 4371431.5504221916 11443181.037788391 0 11443181.037788391 24620293.174455643 0 0 0 0 -5287571.5180921555 38611314.436485291 0 38611314.436485291 22601320.785758972 0 0 0 0 2823697.1425728798 444118.91038513184 0 444118.91038513184 27650999.701324463 0 0 0 0 39553409.712033868 31779165.207328796 0 31779165.207328796 28109337.063781738 0 0 0 0 -6152505.8933422267 22821164.539875031 0 22821164.539875031 107274241.21966553 0 0 0 0 -22694.421912431717 6405437.5817108154 0 6405437.5817108154 33872065.259910583 0 0 0 0 -4186178.8976700902 22114135.737876892 0 22114135.737876892 83678631.03994751 0 0 0 0 -3428824.8608946204 7382963.5500221252 0 7382963.5500221252 37910503.822105408 0 0 0 0 755678.05753548583 12546847.919726312 0 12546847.919726312 -1019051.5177982044 0 0 0 0 -3420197.2012959719 22143569.095916748 0 22143569.095916748 83277843.578094482 0 0 0 0 -1709056.2000894025 12950443.297884941 0 12950443.297884941 95889859.692855835 0 0 0 0 -4482450.8535826802 9382681.3125286102 0 9382681.3125286102 42742573.749343872 0 0 0 0 -160884.5410161959 12565672.611339606 0 12565672.611339606 869388.33478713338 0 0 0 0 -3093940.316614151 24368480.117103577 0 24368480.117103577 82802472.301361084 0 0 0 0 -1419374.2431393862 17392667.602127075 0 17392667.602127075 68582076.955604553 0 0 0 0 -10263807.677032828 9958024.7983169556 0 9958024.7983169556 78770573.903457642 0 0 0 0 1235508.1501273513 1457328.7468080521 0 1457328.7468080521 24817340.838348389 0 0 0 0 -8484411.702275604 -5782377.2417297363 0 -5782377.2417297363 51469371.164924622 0 0 0 0 -5195885.5258128643 4831615.0865325928 0 4831615.0865325928 67303639.217857361 0 0 0 0 3183556.9417092502 -5009125.4545059204 0 -5009125.4545059204 44061557.012329102 0 0 0 0 257817.73994806409 19426371.526977539 0 19426371.526977539 85229637.2527771 0 0 0 0 -7288742.0132245421 -413109.52410125732 0 -413109.52410125732 80079047.832811356 0 0 0 0 -3185041.1262773275 5602974.5579681396 0 5602974.5579681396 88758827.723205566 0 0 0 0 -3318584.4006094113 5207354.1462459564 0 5207354.1462459564 97945959.615570068 0 0 0 0 926433.29922837019 -14452294.376480103 0 -14452294.376480103 74224148.140472412 0 0 0 0 377535.92841845751 -13746505.067276001 0 -13746505.067276001 96079657.66204834 0 0 0 0 -1568416.3889143765 -8597334.6729278564 0 -8597334.6729278564 110261517.94058228 0 0 0 0 1717610.2739722552 1333881.7048362419 0 1333881.7048362419 6099960.6918313056 0 0 0 0 1234445.3023403883 -289265.80488586426 0 -289265.80488586426 103357264.0651474 0 0 0 0 5008253.4564003348 368515.08776855469 0 368515.08776855469 101833940.31639099 0 0 0 0 -11670713.750957459 -5981102.5388412476 0 -5981102.5388412476 55950577.654752731 0 0 0 0 11736392.294633001 18541862.830635071 0 18541862.830635071 60372927.671075821 0 0 0 0 -5497611.2571540624 10779201.474395752 0 10779201.474395752 87269899.899841309 0 0 0 0 -4093684.0680608749 10866490.221748352 0 10866490.221748352 28267140.537852287 0 0 0 0 -11505632.253398836 11948194.014736176 0 11948194.014736176 110658394.82798767 0 0 0 0 -1834348.5055161128 13158007.028967381 0 13158007.028967381 6432973.747130122 0 0 0 0 -7243340.2830731869 13202169.96963501 0 13202169.96963501 39960799.377090454 0 0 0 0 -8229460.5795955658 9406410.3471832275 0 9406410.3471832275 43262239.247924805 0 0 0 0 -1027073.2387615506 12625222.513921879 0 12625222.513921879 2951975.2333727311 0 0 0 0 -4381926.6594964862 7174326.9168243408 0 7174326.9168243408 101841271.76037598 0 0 0 0 -746766.09455996752 22745950.698257446 0 22745950.698257446 73579802.049026489 0 0 0 0 3183565.1168011129 2049688.1415557861 0 2049688.1415557861 69922117.987609863 0 0 0 0 -10662395.268015504 -736509.4577331543 0 -736509.4577331543 63016858.384033203 0 0 0 0 -3558028.5607913733 -12070198.387954712 0 -12070198.387954712 21496563.325012207 0 0 0 0 -4157487.5645487607 10038441.170192719 0 10038441.170192719 41961422.388542175 0 0 0 0 -7039672.4813818829 -5057591.9379239976 0 -5057591.9379239976 21148583.728688739 0 0 0 0 -108579492.69841957 -53385511.984378815 0 -53385511.984378815 11314266.322814941 0 0 0 0 2221864.6755549908 16971632.154495239 0 16971632.154495239 50245031.568695068 0 0 0 0 -12417451.962183736 -10415974.602199554 0 -10415974.602199554 32415791.526748657 0 0 0 0 -72124991.616952896 -209262975.55603027 0 -209262975.55603027 -39486734.301567078 0 0 0 0 -6487047.2794170575 -4575832.9488696046 0 -4575832.9488696046 23923212.627574489 0 0 0 0 -121718626.11511421 -2801978.3209724426 0 -2801978.3209724426 202844058.64692688 0 0 0 0 -11673594.741891861 16836226.308708191 0 16836226.308708191 4143448.1345853806 0 0 0 0 91409585.284075737 4344651.5068283081 0 4344651.5068283081 49500895.075897217 0 0 0 0 26600234.429660797 79716461.961402893 0 79716461.961402893 98696021.559310913 0 0 0 0 -53474402.807979584 -24401176.752120972 0 -24401176.752120972 67966502.768737793 0 0 0 0 48106978.199871063 135827587.26062775 0 135827587.26062775 53633629.093845367 0 0 0 0 -887619.26852012891 -283907.40352763422 0 -283907.40352763422 2994598.5436225608 0 0 0 0 2573944.4593544006 57102877.788925171 0 57102877.788925171 137287304.67723846 0 0 0 0 -1833358.7461247444 86620254.744444847 0 86620254.744444847 -25960001.359741211 0 0 0 0 -79921783.04781723 31482361.117607117 0 31482361.117607117 65266207.984119415 0 0 0 0 -69832547.722330093 108867390.68113708 0 108867390.68113708 79025280.694137573 0 0 0 0 -12384489.841175079 52721666.723743439 0 52721666.723743439 103034227.2740097 0 0 0 0 -104687146.46408772 123634217.18930769 0 123634217.18930769 54898713.990997314 0 0 0 0 -110608935.97919464 19126718.580299377 0 19126718.580299377 92235287.929672241 0 0 0 0 -15960060.854152024 -16128705.917770386 0 -16128705.917770386 23541299.282089233 0 0 0 0 -1694001.414261261 2483162.1980022602 0 2483162.1980022602 5032631.8504619449 0 0 0 0 -8057685.0567116123 -4937265.7313417271 0 -4937265.7313417271 19431917.245058596 0 0 0 0 -15536843.039161682 10528983.167064667 0 10528983.167064667 31016127.6926651 0 0 0 0 -8100047.4496496916 -2291543.9577655792 0 -2291543.9577655792 27454673.269210815 0 0 0 0 9059388.9402704239 14995784.457565308 0 14995784.457565308 52820611.352531433 0 0 0 0 381741.22764935344 3660595.1007751487 0 3660595.1007751487 9750674.462701289 0 0 0 0 -4822354.9512985116 -2465354.0440799892 0 -2465354.0440799892 12131842.718006112 0 0 0 0 -10816365.061641693 10927888.13218689 0 10927888.13218689 37208661.188613892 0 0 0 0 10158612.242857695 6307546.0561318398 0 6307546.0561318398 31534445.087402344 0 0 0 0 -28632734.658025742 2608490.4145278931 0 2608490.4145278931 48049332.465484619 0 0 0 0 61853694.242050171 29822736.857879639 0 29822736.857879639 62587725.053295135 0 0 0 0 -34630922.634033203 7120058.4486541748 0 7120058.4486541748 114677999.62717438 0 0 0 0 -233412.27128517255 490234.49636908993 0 490234.49636908993 3036893.7063461896 0 0 0 0 9816509.8473587036 3010489.8890991211 0 3010489.8890991211 35232873.9193573 0 0 0 0 12704383.021305084 16173002.595718384 0 16173002.595718384 25397040.882141113 0 0 0 0 33804647.261205673 20104452.090332031 0 20104452.090332031 22753730.851531982 0 0 0 0 22025550.604746819 -6539527.4368267059 0 -6539527.4368267059 4559400.9138183594 0 0 0 0 20060325.054981232 27362455.136398315 0 27362455.136398315 19459495.541519165 0 0 0 0 -18267791.883626938 -13600021.409622192 0 -13600021.409622192 76281216.315406799 0 0 0 0 -5866243.4259740487 246668.7767276112 0 246668.7767276112 11437861.985584043 0 0 0 0 -15342539.045549393 10265135.674236298 0 10265135.674236298 37111616.572677612 0 0 0 0 -19217358.316726685 -2421781.9856109619 0 -2421781.9856109619 28948139.257198334 0 0 0 0 -88974686.527889252 -148189392.96211243 0 -148189392.96211243 192136394.50900269 0 0 0 0 141725015.18590164 7417032.3733940125 0 7417032.3733940125 -9340620.1517944336 0 0 0 0 -757930.25524900854 740271.98268442973 0 740271.98268442973 2775350.0956809111 0 0 0 0 -145460474.26051331 26004586.396255493 0 26004586.396255493 48504080.499069214 0 0 0 0 20347664.615946382 66793070.292306006 0 66793070.292306006 78118858.781494141 0 0 0 0 77691851.047710419 85689294.544761658 0 85689294.544761658 75362786.1796875 0 0 0 0 -266318530.3114624 -287605229.44641113 0 -287605229.44641113 209605879.92089844 0 0 0 0 58560216.298904419 29588382.498947144 0 29588382.498947144 11635618.378847122 0 0 0 0 -750484.55367123149 36288.290836755186 0 36288.290836755186 2485531.55663573 0 0 0 0 -144378973.2289505 14402895.94203186 0 14402895.94203186 157598348.0017395 0 0 0 0 139844855.85827637 329855611.76123047 0 329855611.76123047 507596648.67345428 0 0 0 0 400508507.51537323 -285865596.91845703 0 -285865596.91845703 248925488.42331314 0 0 0 0 -5939325.4493103027 106603793.18979645 0 106603793.18979645 274999131.84777832 0 0 0 0 -1225893.717838834 -1010182.8925830387 0 -1010182.8925830387 4309837.64354451 0 0 0 0 -124601495.47012711 20291433.813049316 0 20291433.813049316 197822185.79452515 0 0 0 0 -124162061.52434731 -43676199.81690979 0 -43676199.81690979 105352165.228508 0 0 0 0 -13939066.719368458 -1950589.3707866669 0 -1950589.3707866669 6588768.9932403564 0 0 0 0 -28932589.928692818 27414644.894872665 0 27414644.894872665 74982143.961547852 0 0 0 0 136623.27986907959 10392657.501235962 0 10392657.501235962 -10310652.904251099 0 0 0 0 -8930788.7166156769 11032202.40750885 0 11032202.40750885 -310838.98844909668 0 0 0 0 -4740383.2877731323 5757463.5979614258 0 5757463.5979614258 5458578.0676116943 0 0 0 0 -541429.58082962036 -10504056.02306366 0 -10504056.02306366 -14232988.209298134 0 0 0 0 47656167.156641006 78334157.92591095 0 78334157.92591095 29198909.050514221 0 0 0 0 5719174.7839107513 36132548.098182678 0 36132548.098182678 21655980.123596191 0 0 0 0 -6694066.5387325287 39880318.046386719 0 39880318.046386719 41194876.842666626 0 0 0 0 -10839652.671192169 46086528.102218628 0 46086528.102218628 64811974.113471508 0 0 0 0 -18586463.082355499 28694907.578613281 0 28694907.578613281 42859006.4375 0 0 0 0 -9927730.2710075378 7044361.9520568848 0 7044361.9520568848 3970895.1182098389 0 0 0 0 -29312404.634012699 8762262.1228256226 0 8762262.1228256226 72257365.640228271 0 0 0 0 -8713966.1005468369 8445509.9599304199 0 8445509.9599304199 70854229.034515381 0 0 0 0 -20091917.411411881 38634407.690137863 0 38634407.690137863 102240236.95721436 0 0 0 0 -6393790.3918280602 16488734.509979248 0 16488734.509979248 17856331.228866577 0 0 0 0 -25390051.548285246 21857616.585865021 0 21857616.585865021 19181096.205734253 0 0 0 0 10132266.596973896 11100908.681762695 0 11100908.681762695 -75661003.909698486 0 0 0 0 68835790.012311935 -38567115.779342651 0 -38567115.779342651 34272818.844359398 0 0 0 0 3591340.3944128752 138537395.25774574 0 138537395.25774574 -19214369.977905273 0 0 0 0 -52787146.3054142 -9120454.7545623779 0 -9120454.7545623779 34807822.569763184 0 0 0 0 -24598030.962698936 29703048.362869263 0 29703048.362869263 142195312.16938782 0 0 0 0 46939536.408371449 57882726.423721313 0 57882726.423721313 78488471.487937927 0 0 0 0 -3742374.4292227584 -4305579.0379105285 0 -4305579.0379105285 3493959.2794929892 0 0 0 0 -19410357.059976101 -8873791.7513427734 0 -8873791.7513427734 32073686.152496338 0 0 0 0 42404509.752083778 -79960779.28213501 0 -79960779.28213501 61651847.67225647 0 0 0 0 -90760091.139143467 30358819.482597351 0 30358819.482597351 60474103.136230469 0 0 0 0 -57938104.616072655 -57213159.135910034 0 -57213159.135910034 118462958.56425476 0 0 0 0 -2536350.4036375452 -2362708.7975262031 0 -2362708.7975262031 4955121.7561002523 0 0 0 0 -8849311.7349157333 945054.8922958374 0 945054.8922958374 18375717.767715454 0 0 0 0 -422192.50747746776 4821635.1546623111 0 4821635.1546623111 11021408.180315614 0 0 0 0 123932229.97908998 123295061.84294891 0 123295061.84294891 -34978460.795013428 0 0 0 0 -7176300.9127789922 -1861424.9675802551 0 -1861424.9675802551 9577507.9068083838 0 0 0 0 1862869.9014015198 1941890.6391296387 0 1941890.6391296387 7239905.9101715088 0 0 0 0 -5784438.1275558472 -2664943.6329650879 0 -2664943.6329650879 17096976.815200806 0 0 0 0 -4798824.1607044684 6133752.9825420529 0 6133752.9825420529 20044798.6176681 0 0 0 0 -6596853.3455734253 6082056.0954742432 0 6082056.0954742432 10059859.695602417 0 0 0 0 -8072018.9153308868 665553.51410675049 0 665553.51410675049 15365767.478942871 0 0 0 0 -2401374.1863783989 -419100.39736982808 0 -419100.39736982808 10717146.568037629 0 0 0 0 -13497299.040984154 11284008.241101265 0 11284008.241101265 29905563.720306396 0 0 0 0 -180925.3804397583 2746575.0383911133 0 2746575.0383911133 7551957.1618652344 0 0 0 0 -2867430.8050323147 4302450.9621348605 0 4302450.9621348605 9951047.684627017 0 0 0 0 -42974813.49584198 29038341.153564453 0 29038341.153564453 227098944.70293427 0 0 0 0 61384111.145767212 -198315196.65517426 0 -198315196.65517426 -84095531.449188232 0 0 0 0 -245821915.13212776 197833430.2349472 0 197833430.2349472 133062348.35955811 0 0 0 0 135549151.98373413 99960596.704116821 0 99960596.704116821 -171059427.75511169 0 0 0 0 164091102.05089951 18095607.944198608 0 18095607.944198608 -8733265.954208374 0 0 0 0 -2318146.8273515701 2502542.3403244019 0 2502542.3403244019 5695822.7807769775 0 0 0 0 -1658244.4491541071 5462767.4520187229 0 5462767.4520187229 12564395.468007244 0 0 0 0 40240271.214645386 13921737.6847229 0 13921737.6847229 61842358.465820312 0 0 0 0 454674.63933682442 2761299.2336597443 0 2761299.2336597443 12814778.665084839 0 0 0 0 -6630072.9780753506 -553233.72558135912 0 -553233.72558135912 9265440.2207336575 0 0 0 0 -2746859.3658905029 2065882.0063781738 0 2065882.0063781738 3560037.4558105469 0 0 0 0 -1770422.9476600308 4054978.0730104893 0 4054978.0730104893 13745102.942900406 0 0 0 0 989236.7122919918 3537381.4325740784 0 3537381.4325740784 11561077.261380628 0 0 0 0 -7017708.9671982098 -2653647.3720755056 0 -2653647.3720755056 7861734.4657179266 0 0 0 0 -2613783.4082279205 1915147.5996398926 0 1915147.5996398926 7920928.2196044922 0 0 0 0 -652239.08480834961 2482125.599899292 0 2482125.599899292 8079374.6110229492 0 0 0 0 -6328943.3693008535 -653406.37882711738 0 -653406.37882711738 15653818.11052506 0 0 0 0 4517557.482667923 -657150.45825195312 0 -657150.45825195312 3331794.1384391785 0 0 0 0 -2287000.1187473875 3029972.4300682619 0 3029972.4300682619 9661444.7876111642 0 0 0 0 -3372733.5866953097 -2460445.6641503125 0 -2460445.6641503125 5811671.2135329843 0 0 0 0 -2481509.5713859797 556501.73346710205 0 556501.73346710205 10021914.580360413 0 0 0 0 9092521.5667557716 24872370.51839447 0 24872370.51839447 54615738.886856079 0 0 0 0 -2358503.3416633606 3311988.095664978 0 3311988.095664978 15646670.475948334 0 0 0 0 -290615.84437482711 3146070.8189350292 0 3146070.8189350292 8437560.9847021922 0 0 0 0 -1879965.652112484 3307578.8993606567 0 3307578.8993606567 14448164.491714478 0 0 0 0 -631502.03724785976 1404818.3428874314 0 1404818.3428874314 2655315.3285614885 0 0 0 0 -7459805.127825737 28737241.895217896 0 28737241.895217896 107526629.59794617 0 0 0 0 -20090097.833436966 24420946.223403931 0 24420946.223403931 156617417.86915588 0 0 0 0 -350924.07132196426 38784036.775085449 0 38784036.775085449 -56769914.598690033 0 0 0 0 36995421.755877018 47827504.97883606 0 47827504.97883606 -103906621.82556152 0 0 0 0 11410849.632455111 49950807.978778839 0 49950807.978778839 -144283869.20233154 0 0 0 0 -32716573.518686295 78180197.904022217 0 78180197.904022217 -105986879.01974487 0 0 0 0 -202835.27872683154 7517585.0483114831 0 7517585.0483114831 8570306.181790702 0 0 0 0 -31544021.853230476 40730523.170288086 0 40730523.170288086 -104577363.9594574 0 0 0 0 5311742.4717607498 105340744.73695374 0 105340744.73695374 -152340974.85955811 0 0 0 0 24465030.58276844 12333987.310256958 0 12333987.310256958 -204002406.18521118 0 0 0 0 -1074792.5720135567 720882.92439632863 0 720882.92439632863 2383949.2800020054 0 0 0 0 13166215.559957504 84177299.206802368 0 84177299.206802368 -114152024.93231201 0 0 0 0 45374934.63206768 79649616.944694519 0 79649616.944694519 -113544171.70797729 0 0 0 0 2039749.5134425163 70348557.131645203 0 70348557.131645203 -62377539.206268311 0 0 0 0 40289663.268302917 36597428.897628784 0 36597428.897628784 -52232473.860912323 0 0 0 0 -21509292.428505182 146087917.22271919 0 146087917.22271919 -69505483.167892456 0 0 0 0 -112664410.79214907 120885141.31027603 0 120885141.31027603 -55069330.170425415 0 0 0 0 1070809.0958471298 38278305.137702942 0 38278305.137702942 -58140041.248901367 0 0 0 0 1550784.102033223 8547266.8434642926 0 8547266.8434642926 11049780.810859229 0 0 0 0 -3089369.1498045921 84340886.983070374 0 84340886.983070374 -81973086.0728302 0 0 0 0 -362587763.10271454 -167408409.16197968 0 -167408409.16197968 194189967.60292053 0 0 0 0 -40712901.158420563 10373960.174869537 0 10373960.174869537 35025182.086559296 0 0 0 0 -4122839.128685277 4918014.568018958 0 4918014.568018958 9504027.6310605388 0 0 0 0 -20164734.013496399 -15928862.904224396 0 -15928862.904224396 11032166.540466309 0 0 0 0 965337.63833167544 10669174.04180456 0 10669174.04180456 24095002.923072919 0 0 0 0 1260359.5208307309 8699331.4444535896 0 8699331.4444535896 22720749.856047429 0 0 0 0 -138144579.23623562 26347552.864965439 0 26347552.864965439 53184042.130096436 0 0 0 0 -317431384.88932514 288690864.74404907 0 288690864.74404907 -157056209.33874512 0 0 0 0 62556921.62657547 138656670.51994324 0 138656670.51994324 -247784735.50047302 0 0 0 0 90400968.77498436 -13945865.957763672 0 -13945865.957763672 -141390061.24750519 0 0 0 0 66837616.268333435 152183176.19537354 0 152183176.19537354 -70527230.901824951 0 0 0 0 -115696882.34013987 41328003.68970108 0 41328003.68970108 10106171.072479248 0 0 0 0 20485618.938807964 77166740.519615173 0 77166740.519615173 11578652.217834473 0 0 0 0 532599.62949994323 -451106.74976426736 0 -451106.74976426736 -139756.41813933849 0 0 0 0 120595693.62525606 100140777.80511475 0 100140777.80511475 -7745620.4461212158 0 0 0 0 69526625.769785166 59542707.117679596 0 59542707.117679596 -197199950.46906281 0 0 0 0 18107289.868683815 52251603.677131653 0 52251603.677131653 53505905.587638855 0 0 0 0 75370148.056800365 21655835.038215637 0 21655835.038215637 11471010.293937683 0 0 0 0 55621930.861299038 32865746.674316406 0 32865746.674316406 -56662736.24439621 0 0 0 0 10658409.737302601 50905555.395054817 0 50905555.395054817 1024203.3286437988 0 0 0 0 21908758.255584717 -45541332.971298218 0 -45541332.971298218 47426876.141365051 0 0 0 0 32040077.525566101 -6709891.5542221069 0 -6709891.5542221069 3710187.7039680481 0 0 0 0 -560993.8096056208 -497842.8152211979 0 -497842.8152211979 884425.230785124 0 0 0 0 -942359.39698616788 164658.67570233718 0 164658.67570233718 -5268.1163946576416 0 0 0 0 -1687143.246963501 -645737.2710723877 0 -645737.2710723877 3309880.8398971558 0 0 0 0 -788857.87908554077 -477856.43325805664 0 -477856.43325805664 2039744.6201629639 0 0 0 0 -1973278.6831121445 -554978.86376476288 0 -554978.86376476288 1943161.9447631836 0 0 0 0 -1506885.626543045 612569.82878112793 0 612569.82878112793 830264.37680053711 0 0 0 0 -2584986.8935089847 783003.88281016797 0 783003.88281016797 951887.09058172069 0 0 0 0 -2246697.2336730957 610061.19520568848 0 610061.19520568848 1748698.5565795898 0 0 0 0 -387370.484790802 -241153.70239257812 0 -241153.70239257812 569540.78965759277 0 0 0 0 -2522397.0316112945 348174.78436778858 0 348174.78436778858 1293628.2529371269 0 0 0 0 -405030.6517791748 491963.16546630859 0 491963.16546630859 2375450.8318481445 0 0 0 0 845036.07858276367 -1163574.6993026733 0 -1163574.6993026733 1975742.3673706055 0 0 0 0 -2948489.8804473877 -611077.60302734375 0 -611077.60302734375 2259279.993560791 0 0 0 0 -63117.539490753785 35257.744699759409 0 35257.744699759409 51447.342245452106 0 0 0 0 218255251.26041031 -117117526.48630524 0 -117117526.48630524 -240164898.37987518 0 0 0 0 -469331.16575622559 -1617459.9559020996 0 -1617459.9559020996 3758465.6469726562 0 0 0 0 -858187.20289230347 -2092465.4263420105 0 -2092465.4263420105 3758438.557220459 0 0 0 0 -1763311.809162626 255026.49179048836 0 255026.49179048836 -41118.523759447038 0 0 0 0 -494852.82561012916 -2353716.7239356041 0 -2353716.7239356041 2466370.5669541992 0 0 0 0 72873315.841697693 63022939.074073792 0 63022939.074073792 -95993486.322494507 0 0 0 0 -155887490.1348114 105226899.37832642 0 105226899.37832642 157819711.36102295 0 0 0 0 117834254.73286247 -24893135.795354843 0 -24893135.795354843 -24293120.350967407 0 0 0 0 307529459.77981567 -368467034.65869141 0 -368467034.65869141 272250603.50257874 0 0 0 0 49218.905037116259 -183413.86794580519 0 -183413.86794580519 99992.146421246231 0 0 0 0 -150467362.43598175 -95875157.994293213 0 -95875157.994293213 3293565.172328949 0 0 0 0 83529990.608013153 156916023.30491638 0 156916023.30491638 12529242.786972046 0 0 0 0 -419307244.95083618 78753149.687133789 0 78753149.687133789 60639643.469177246 0 0 0 0 15508645.016368866 29920441.964317322 0 29920441.964317322 -145746343.63349724 0 0 0 0 -14509811.499237061 26407503.941101074 0 26407503.941101074 -59437612.830200195 0 0 0 0 -1299546.1284476481 1117849.16192526 0 1117849.16192526 2823788.2348897271 0 0 0 0 -808864.39377878793 -700905.6592381224 0 -700905.6592381224 410155.23366007209 0 0 0 0 -153905582.96825409 94319131.660644531 0 94319131.660644531 83886073.249542236 0 0 0 0 440339831.00100708 848609386.82881165 0 848609386.82881165 -413213194.4284668 0 0 0 0 -478263858.01855087 64175035.643089294 0 64175035.643089294 63333430.569610596 0 0 0 0 -55854229.372810364 -65885226.853538513 0 -65885226.853538513 -1538881.2664031982 0 0 0 0 -80062726.109977722 -8829303.0732727051 0 -8829303.0732727051 25241410.032196045 0 0 0 0 -158946682.67409897 -28847324.715965271 0 -28847324.715965271 55651520.953460693 0 0 0 0 -62750889.499206543 44325919.379333496 0 44325919.379333496 63051121.143470764 0 0 0 0 -79456815.316402435 -14393402.071487427 0 -14393402.071487427 60778251.072250366 0 0 0 0 -83417390.55639267 -2981008.8346557617 0 -2981008.8346557617 58101601.663566589 0 0 0 0 21720069.054870605 -52464705.411376953 0 -52464705.411376953 55013063.224594116 0 0 0 0 -4128686.2751426697 -10270078.550254822 0 -10270078.550254822 35979830.761520386 0 0 0 0 -31401240.788657188 -11222502.468788147 0 -11222502.468788147 46316832.319869995 0 0 0 0 -40666418.914733887 1171164.913192749 0 1171164.913192749 45465623.260110855 0 0 0 0 -43052462.443130493 -23559328.94354248 0 -23559328.94354248 51286429.524353027 0 0 0 0 -19443229.66192627 37946501.014823914 0 37946501.014823914 60696853.047533035 0 0 0 0 -65941588.369286537 -11036829.781360626 0 -11036829.781360626 14019495.868804932 0 0 0 0 69800783.142183304 42168695.828990936 0 42168695.828990936 45189417.994911194 0 0 0 0 -11549895.225819588 9797485.8831329346 0 9797485.8831329346 76742155.617584229 0 0 0 0 -3690703.80594486 -21663655.318398952 0 -21663655.318398952 117426652.73622131 0 0 0 0 51417943.585170746 32303108.280960083 0 32303108.280960083 70906591.372451782 0 0 0 0 -12810293.858586311 18858973.305582047 0 18858973.305582047 246714785.7684021 0 0 0 0 42775727.505827904 7477234.8240089417 0 7477234.8240089417 140904069.5978241 0 0 0 0 -8771854.8328132629 14504235.508865356 0 14504235.508865356 167341741.45249939 0 0 0 0 71295827.725576401 82158661.750770569 0 82158661.750770569 63047066.873121262 0 0 0 0 80781817.849340439 59852625.61566925 0 59852625.61566925 64341394.817401886 0 0 0 0 45694959.358540773 92430485.138020039 0 92430485.138020039 62134492.528686523 0 0 0 0 48895565.62984848 63688801.941329956 0 63688801.941329956 71190040.995742798 0 0 0 0 5548506.1518821716 -3148882.7312774658 0 -3148882.7312774658 -8518336.6673049927 0 0 0 0 3215518.2615509033 4006586.796005249 0 4006586.796005249 -6010099.0591888428 0 0 0 0 -3814935.3994483948 -7066262.6366500854 0 -7066262.6366500854 -5289523.8888511658 0 0 0 0 71915747.767753601 262133150.92451477 0 262133150.92451477 136450506.13499451 0 0 0 0 -1122975.2757697199 -174528.35001765192 0 -174528.35001765192 1569229.1499402747 0 0 0 0 64932696.811050415 52016979.473144531 0 52016979.473144531 43524862.661132812 0 0 0 0 118058654.6495018 133969292.30641174 0 133969292.30641174 227002224.76913452 0 0 0 0 18012650.846298218 129070744.90522766 0 129070744.90522766 289036796.36151123 0 0 0 0 -137235.1271553915 -108417.28085221723 0 -108417.28085221723 46720.80574583821 0 0 0 0 -74800438.826969147 406412537.43897247 0 406412537.43897247 -2197808.5789489746 0 0 0 0 -12408898.307403564 -98165742.028594971 0 -98165742.028594971 255313138.19970703 0 0 0 0 240036584.97141647 -167305888.99153137 0 -167305888.99153137 318225796.66052246 0 0 0 0 -23979145.06319809 114844671.11849213 0 114844671.11849213 140182092.91755676 0 0 0 0 -13435768.996997833 173524874.59144211 0 173524874.59144211 443950126.6100769 0 0 0 0 -71731867.270298004 9379808.3473358154 0 9379808.3473358154 139888033.0748291 0 0 0 0 -56998630.896770477 -75684944.125350952 0 -75684944.125350952 56326554.575653076 0 0 0 0 -58593678.222141266 -25478081.87538147 0 -25478081.87538147 32289628.504257202 0 0 0 0 -79892322.321678162 -50459646.265930176 0 -50459646.265930176 120817704.10192871 0 0 0 0 11386150.519641876 8617479.4195098877 0 8617479.4195098877 665052.83834838867 0 0 0 0 -384862.60028266907 5008653.4039726257 0 5008653.4039726257 4418423.2930755615 0 0 0 0 -166477.77415847778 -918285.27270507812 0 -918285.27270507812 2751451.0475959778 0 0 0 0 2740948.4301013947 -742255.25930023193 0 -742255.25930023193 -5427919.7623748779 0 0 0 0 35167975.721031189 -36466663.397964478 0 -36466663.397964478 37855282.843536377 0 0 0 0 2348272.5853252411 -2188225.1956634521 0 -2188225.1956634521 -1835768.8678131104 0 0 0 0 -410339.68702690676 -680072.10300011933 0 -680072.10300011933 502582.06070991047 0 0 0 0 -583319.84875011444 2072742.6849117279 0 2072742.6849117279 -2004230.6348876953 0 0 0 0 -295838.48399395775 -98984.902454219759 0 -98984.902454219759 721778.81754209846 0 0 0 0 -2851208.6227139402 929338.44070358574 0 929338.44070358574 2174976.6731704846 0 0 0 0 3358053.7168309689 3457812.0761942863 0 3457812.0761942863 714066.8782043457 0 0 0 0 12488920.972784042 56608335.665390015 0 56608335.665390015 77345583.619735718 0 0 0 0 -410519.12654244155 -338489.94500672817 0 -338489.94500672817 250098.2349269893 0 0 0 0 7117408.8416595459 30843119.605361938 0 30843119.605361938 130816105.23994446 0 0 0 0 -7755962.3661556244 51461678.585494995 0 51461678.585494995 180658071.72680664 0 0 0 0 -11569914.908283234 67912652.271102905 0 67912652.271102905 164749858.06872559 0 0 0 0 -1369614.0930671692 47584384.095291138 0 47584384.095291138 169974726.11767578 0 0 0 0 -20229072.248397827 15410144.281097412 0 15410144.281097412 162617576.47174072 0 0 0 0 -20570528.798171997 79216529.807777405 0 79216529.807777405 188017703.16723633 0 0 0 0 20758024.64396286 131281977.40214539 0 131281977.40214539 252655469.9756012 0 0 0 0 98453038.722793579 132490111.65341187 0 132490111.65341187 173943632.94743347 0 0 0 0 -72725287.368385315 28510255.562911987 0 28510255.562911987 283047800.50947571 0 0 0 0 101022444.19184875 222848963.22581482 0 222848963.22581482 319728759.2545166 0 0 0 0 36965270.56212616 80503639.258911133 0 80503639.258911133 363784826.10997009 0 0 0 0 106532281.8180809 4708425.2538909912 0 4708425.2538909912 195588421.88435364 0 0 0 0 -37708881.723426819 58293939.814342499 0 58293939.814342499 176332605.95501709 0 0 0 0 33069299.647839546 129660876.77159882 0 129660876.77159882 85313395.155136108 0 0 0 0 33889468.892837524 92866475.196609497 0 92866475.196609497 150316851.14576721 0 0 0 0 20582114.430078506 59925338.36126709 0 59925338.36126709 99058504.606414795 0 0 0 0 53271741.376358986 67208420.833396912 0 67208420.833396912 41369420.650894165 0 0 0 0 31342071.177570343 115535742.87549591 0 115535742.87549591 155463483.59092712 0 0 0 0 25547751.836471558 84870941.663467407 0 84870941.663467407 94938118.713043213 0 0 0 0 31050904.845813751 66990668.458938599 0 66990668.458938599 91227568.359701157 0 0 0 0 28406398.748493195 58871313.085952759 0 58871313.085952759 110336078.47265053 0 0 0 0 24872707.697859764 84299550.751716614 0 84299550.751716614 113507402.02420044 0 0 0 0 17100372.725482941 61329738.801528931 0 61329738.801528931 152106505.7311554 0 0 0 0 -131839.25851394469 979200.56708520465 0 979200.56708520465 387879.68890111893 0 0 0 0 30435754.55796814 -59195369.937408447 0 -59195369.937408447 21091089.654541016 0 0 0 0 -958062.66806960106 666451.78488826752 0 666451.78488826752 1101800.1087341309 0 0 0 0 -2182194.855900174 -168523.72064261511 0 -168523.72064261511 1869169.1565297619 0 0 0 0 -19375.537515737116 -33807.145521894097 0 -33807.145521894097 -270867.65665537119 0 0 0 0 38738848.159301758 496901.89315032959 0 496901.89315032959 -303516.81156158447 0 0 0 0 3735344.297586441 -24066850.903373718 0 -24066850.903373718 41388657.679611206 0 0 0 0 181592019.52632952 169279390.64351654 0 169279390.64351654 82911397.961730957 0 0 0 0 106505161.94660187 103320427.11560059 0 103320427.11560059 36808815.569181919 0 0 0 0 60025852.056083679 43156963.47454834 0 43156963.47454834 148998661.59490967 0 0 0 0 44690080.859613419 158053070.52386665 0 158053070.52386665 250671565.62524414 0 0 0 0 67271001.908668518 -38394840.064105988 0 -38394840.064105988 39618498.617004395 0 0 0 0 -1512668.6361670047 -85429.671841174364 0 -85429.671841174364 1273958.0109254494 0 0 0 0 2123005.6168251038 631124.28897094727 0 631124.28897094727 -5562164.195892334 0 0 0 0 -869393.36367225647 3097069.3422470093 0 3097069.3422470093 6454238.2590560913 0 0 0 0 487628.80631256104 6167695.2098846436 0 6167695.2098846436 -6225932.5611553192 0 0 0 0 -1661199.2543650779 2014195.8375857314 0 2014195.8375857314 426938.74609574676 0 0 0 0 -1867486.4767284393 700655.63182830811 0 700655.63182830811 1516065.5658569336 0 0 0 0 -89118.523832321167 -1022385.6389961243 0 -1022385.6389961243 1510208.3166503906 0 0 0 0 6272591.8115558624 4010923.040512085 0 4010923.040512085 -3891339.4559936523 0 0 0 0 -6366924.3266282082 2401986.5116596222 0 2401986.5116596222 816398.32684326172 0 0 0 0 -643466.64038765524 1270081.6371044214 0 1270081.6371044214 -221817.69920728356 0 0 0 0 -194085.33130902704 408844.32900362182 0 408844.32900362182 -68220.557333379984 0 0 0 0 -5991643.9966049194 -8671112.9649620056 0 -8671112.9649620056 34152009.581878662 0 0 0 0 4559846.3875656128 -5620856.8084030151 0 -5620856.8084030151 4293730.0904922485 0 0 0 0 3931392.5613441467 1868920.4030532837 0 1868920.4030532837 -653623.95558929443 0 0 0 0 -13802423.475128174 -4307673.2634506226 0 -4307673.2634506226 21775203.246200562 0 0 0 0 1326991.1578512192 -10169400.0359478 0 -10169400.0359478 18566043.864685059 0 0 0 0 -1842862.5758171082 -931216.92678070068 0 -931216.92678070068 11473903.938613892 0 0 0 0 1163046.1657333374 -5083228.1652450562 0 -5083228.1652450562 11714409.813034058 0 0 0 0 -2121506.989398472 -250697.26597881317 0 -250697.26597881317 930767.6676145345 0 0 0 0 -8515360.6339244843 5345934.2130126953 0 5345934.2130126953 2906592.2337265015 0 0 0 0 1158539.6605987549 671766.03638839722 0 671766.03638839722 -2431987.2036819458 0 0 0 0 -3441649.4999427795 8217453.3594970703 0 8217453.3594970703 7868018.2297172546 0 0 0 0 -902412.44853973389 12306195.996841431 0 12306195.996841431 -1449862.553314209 0 0 0 0 -1176931.7737119179 -425789.59665970504 0 -425789.59665970504 531144.52078674547 0 0 0 0 -15912167.067742348 -11233254.047992706 0 -11233254.047992706 17667418.699981689 0 0 0 0 4069946.906085968 10598015.666427612 0 10598015.666427612 21979239.990674973 0 0 0 0 19796046.836938858 -10589182.428375244 0 -10589182.428375244 -16461608.753036499 0 0 0 0 -17670779.483455658 61977799.286956787 0 61977799.286956787 -87191036.537895203 0 0 0 0 -758399.69041675422 -315583.18525959551 0 -315583.18525959551 733170.86423836648 0 0 0 0 77151443.797100067 30417315.891906738 0 30417315.891906738 -30553745.913314819 0 0 0 0 -52145463.879655838 -33888971.367080688 0 -33888971.367080688 122059637.27074051 0 0 0 0 -71374465.557534218 -2308312.3019790649 0 -2308312.3019790649 123107108.48553467 0 0 0 0 -237971778.68815231 115039618.76416016 0 115039618.76416016 86388221.92729187 0 0 0 0 -131901896.4677372 64582252.758102417 0 64582252.758102417 70794932.763137817 0 0 0 0 -9973927.541683197 13680430.536483765 0 13680430.536483765 -31187290.2474823 0 0 0 0 -11393545.150213718 179337.91079139709 0 179337.91079139709 18195322.287704468 0 0 0 0 -15048780.071022034 -1709142.2716674805 0 -1709142.2716674805 19677446.380157471 0 0 0 0 -23458325.234957695 -18231941.356788635 0 -18231941.356788635 49527574.751998901 0 0 0 0 -44250840.05516243 1158110.4289245605 0 1158110.4289245605 37577294.958969116 0 0 0 0 8512579.5350980759 -51953772.979549408 0 -51953772.979549408 47103504.686752319 0 0 0 0 -57946113.744732857 -59335115.230575562 0 -59335115.230575562 82135507.931625366 0 0 0 0 -24481807.015456676 -53936747.968852997 0 -53936747.968852997 78021898.845199585 0 0 0 0 -9499918.4779367447 -50632835.636386871 0 -50632835.636386871 59460186.614685059 0 0 0 0 -26973751.664093971 -54287214.231405258 0 -54287214.231405258 116785284.16189575 0 0 0 0 13421697.862186432 -80188207.804756165 0 -80188207.804756165 154453201.53201294 0 0 0 0 208165446.07778931 228529832.86724472 0 228529832.86724472 220045032.73024178 0 0 0 0 51769174.754827499 -41496457.984981537 0 -41496457.984981537 -25160086.405502319 0 0 0 0 54922225.159912825 -63717499.385239601 0 -63717499.385239601 20045921.518569946 0 0 0 0 -413864.3787506707 54363.033826120198 0 54363.033826120198 1171346.0595960766 0 0 0 0 -17472509.63136673 57444578.482910156 0 57444578.482910156 -17950197.677882195 0 0 0 0 4241793.8743305206 15470238.718780518 0 15470238.718780518 49704916.051651001 0 0 0 0 -523285.05997943878 3680029.7295894623 0 3680029.7295894623 40439910.599365234 0 0 0 0 6397589.4856681824 4454170.1781539917 0 4454170.1781539917 30896001.56280899 0 0 0 0 6526023.3039608002 -10790951.523757935 0 -10790951.523757935 23310102.969497681 0 0 0 0 -33582577.012570381 304834.74056243896 0 304834.74056243896 126220397.90879822 0 0 0 0 -35619220.341850996 11282068.931077957 0 11282068.931077957 67070367.998840332 0 0 0 0 44527069.332078934 73603535.302959442 0 73603535.302959442 69476197.277099609 0 0 0 0 -69064749.187036514 2519008.3037567139 0 2519008.3037567139 77724161.547409058 0 0 0 0 -64580537.365136147 32722711.470016479 0 32722711.470016479 10756453.471054077 0 0 0 0 -17066386.754544258 44721156.310920715 0 44721156.310920715 34691988.167015076 0 0 0 0 -145757161.34173059 71038654.289382935 0 71038654.289382935 49024149.023757935 0 0 0 0 -115553968.08595848 -6325689.2607917786 0 -6325689.2607917786 33393566.053466797 0 0 0 0 58590397.497862339 77286877.107278824 0 77286877.107278824 13965204.528030396 0 0 0 0 -6054899.4797263145 20223866.176727295 0 20223866.176727295 16799116.620727539 0 0 0 0 59211782.076766968 47633737.466747284 0 47633737.466747284 45767834.079174042 0 0 0 0 -992273.44625774352 1615122.3841576222 0 1615122.3841576222 3362011.5402772576 0 0 0 0 53887233.757667542 70087227.754776001 0 70087227.754776001 32806574.311355591 0 0 0 0 -88876639.003170967 -13215215.915019989 0 -13215215.915019989 42585964.967575073 0 0 0 0 -30456303.453086853 -7470443.3155670166 0 -7470443.3155670166 -6364791.3685188293 0 0 0 0 -319283.57036954304 567783.30467622727 0 567783.30467622727 1170694.6422329023 0 0 0 0 -43417600.792150497 -118131590.32409286 0 -118131590.32409286 240460858.67759705 0 0 0 0 52338178.092954636 -108435613.62264633 0 -108435613.62264633 45075466.629173279 0 0 0 0 230102845.58692646 172342880.47246552 0 172342880.47246552 105153944.03161621 0 0 0 0 -22910028.802727938 -12480787.555019379 0 -12480787.555019379 91571139.65284729 0 0 0 0 -69760515.82174325 102094063.41074562 0 102094063.41074562 257833729.52191162 0 0 0 0 535527510.53415871 -33286708.478302002 0 -33286708.478302002 -129906505.59138489 0 0 0 0 232996650.43563461 -147689497.25480652 0 -147689497.25480652 -152920969.98762512 0 0 0 0 -96182714.114559174 67524874.518585205 0 67524874.518585205 253013825.35001373 0 0 0 0 5323960.7648735046 69896189.325057983 0 69896189.325057983 159536299.00656891 0 0 0 0 -421538.34624042362 -426339.46439491212 0 -426339.46439491212 277110.41215095297 0 0 0 0 -73489260.895771027 -19558427.913551331 0 -19558427.913551331 110210633.359375 0 0 0 0 42033226.719560146 67441171.709640503 0 67441171.709640503 90491973.212310791 0 0 0 0 37018541.24502182 76822122.844360352 0 76822122.844360352 88674216.531497955 0 0 0 0 20773282.061563492 74449738.709098816 0 74449738.709098816 95782226.406723022 0 0 0 0 100890101.24957132 52658456.995384216 0 52658456.995384216 75879995.433120728 0 0 0 0 31311625.929395676 -24263722.202068329 0 -24263722.202068329 83596940.010269165 0 0 0 0 64401998.898677826 88727494.820915222 0 88727494.820915222 109790444.99351501 0 0 0 0 -27535722.984423637 10290499.96629715 0 10290499.96629715 117972383.17604065 0 0 0 0 -70320180.438788414 -30597390.920173645 0 -30597390.920173645 102703303.08172989 0 0 0 0 -19652016.849163055 -22467051.09601593 0 -22467051.09601593 98466057.176635742 0 0 0 0 -23244986.245812535 -5570123.0748996735 0 -5570123.0748996735 87371669.218292236 0 0 0 0 -54117600.614850998 -18272371.067771912 0 -18272371.067771912 87164412.795192719 0 0 0 0 -60758347.720205307 -5678402.2246627808 0 -5678402.2246627808 71459717.873626709 0 0 0 0 -52158116.87037468 -932751.01301574707 0 -932751.01301574707 49351496.583427429 0 0 0 0 -44796081.204069138 -31360473.239082336 0 -31360473.239082336 81253267.188217163 0 0 0 0 -22829365.229020119 -61828628.621929169 0 -61828628.621929169 86676231.875854492 0 0 0 0 -57280351.849987984 -40798635.615272522 0 -40798635.615272522 74557719.678642273 0 0 0 0 -130588965.00033474 -95526308.06212616 0 -95526308.06212616 76141801.892589569 0 0 0 0 -13040789.355291367 -141177660.1605072 0 -141177660.1605072 25142285.410949707 0 0 0 0 -51651246.989196777 51694909.587856293 0 51694909.587856293 105140194.24824524 0 0 0 0 -144104182.94725418 -27433753.340087891 0 -27433753.340087891 109968508.96257591 0 0 0 0 -740864.85713120364 -674966.53425735235 0 -674966.53425735235 580760.5833598692 0 0 0 0 -74881801.449262619 -118429227.74463654 0 -118429227.74463654 -131947012.21281815 0 0 0 0 -209769477.08946347 -76719782.780247688 0 -76719782.780247688 25959270.135528564 0 0 0 0 -184771895.80496311 61196884.949920654 0 61196884.949920654 87698791.071975708 0 0 0 0 -65148957.547976494 -4572801.1577148438 0 -4572801.1577148438 196212563.80587006 0 0 0 0 38036080.749258041 110909469.85458374 0 110909469.85458374 59868341.221939087 0 0 0 0 -78881889.452626228 50481085.918212891 0 50481085.918212891 -18541211.492279053 0 0 0 0 17050793.296497345 63340909.251296997 0 63340909.251296997 127631478.86831665 0 0 0 0 31733821.351285934 57348132.630004883 0 57348132.630004883 110941984.1973877 0 0 0 0 33771082.167819977 66099845.949203491 0 66099845.949203491 100979329.31292725 0 0 0 0 27158480.778761029 68237643.918714523 0 68237643.918714523 103835700.74427795 0 0 0 0 35604178.923921585 66947325.670928955 0 66947325.670928955 90567593.30437088 0 0 0 0 31158000.921638489 56570277.659385681 0 56570277.659385681 115229401.74752808 0 0 0 0 29085787.583618164 48363553.985137939 0 48363553.985137939 87837085.057998657 0 0 0 0 45806208.605713844 58767257.903816223 0 58767257.903816223 92683492.700683594 0 0 0 0 16323429.046035767 19365693.420089722 0 19365693.420089722 67760469.844207764 0 0 0 0 -1955035.3031692505 45818129.909912109 0 45818129.909912109 89187719.454170227 0 0 0 0 -3035698.248583436 28536003.243932724 0 28536003.243932724 117506407.56922913 0 0 0 0 -1800865.2077271231 -1172707.71299031 0 -1172707.71299031 1429799.8059649132 0 0 0 0 -2579238.7953948975 -1955768.0586547852 0 -1955768.0586547852 128204262.2669878 0 0 0 0 11319439.420404434 42057660.285987854 0 42057660.285987854 129592697.34693909 0 0 0 0 -18941414.149646759 -26389007.057662964 0 -26389007.057662964 -357628.85137939453 0 0 0 0 22833690.634056091 30089878.328399658 0 30089878.328399658 139291101.43045044 0 0 0 0 13946321.039543152 65071550.091491699 0 65071550.091491699 155143418.08410645 0 0 0 0 -279390.17607113067 79083.120130084455 0 79083.120130084455 305897.8891043663 0 0 0 0 24497784.173416138 87561832.902542114 0 87561832.902542114 200040701.51037598 0 0 0 0 13813400.559726715 51475330.172927856 0 51475330.172927856 150878307.58648682 0 0 0 0 13515655.870674133 36021518.333129883 0 36021518.333129883 192576282.8404274 0 0 0 0 23432089.597396851 56041670.784240723 0 56041670.784240723 115469823.98073578 0 0 0 0 27482032.565414429 43310899.515563965 0 43310899.515563965 150724953.09365845 0 0 0 0 964424.34845471382 -11341339.511480331 0 -11341339.511480331 10359874.027404785 0 0 0 0 -22379499.698703766 -7748363.9723205566 0 -7748363.9723205566 36233308.511383057 0 0 0 0 -64241497.399856567 -30433093.802658081 0 -30433093.802658081 53366344.264503479 0 0 0 0 -52500929.84195137 -39823121.46987915 0 -39823121.46987915 43664379.399383545 0 0 0 0 -42164023.029251099 -26867167.276031494 0 -26867167.276031494 17781844.338363647 0 0 0 0 -33117168.38727951 -36111554.238529205 0 -36111554.238529205 3692723.8931427002 0 0 0 0 -73967154.189056396 -61919209.426651001 0 -61919209.426651001 20954936.067321777 0 0 0 0 -56569409.873950005 -35546791.144207001 0 -35546791.144207001 -16737589.872207642 0 0 0 0 -75007180.223695755 -47559053.303359985 0 -47559053.303359985 47044082.249938965 0 0 0 0 -57193486.493289948 -42285579.84324646 0 -42285579.84324646 856577.59457397461 0 0 0 0 -78383740.906383514 -46789651.446853638 0 -46789651.446853638 65267506.919441223 0 0 0 0 -30825594.385383606 -17105622.517440796 0 -17105622.517440796 45380556.07673645 0 0 0 0 -40083437.556339264 19121317.074073792 0 19121317.074073792 -29729490.953634262 0 0 0 0 -37741341.325066566 -413464.72996520996 0 -413464.72996520996 93400851.84198761 0 0 0 0 -36752954.27545929 116258449.13058472 0 116258449.13058472 -8449412.0413284302 0 0 0 0 -35071478.830220222 128107104.00608826 0 128107104.00608826 37095761.102539062 0 0 0 0 -59751073.460435867 106136696.8447876 0 106136696.8447876 69021666.499343872 0 0 0 0 -59761345.85925293 97385194.358833313 0 97385194.358833313 33618717.114807129 0 0 0 0 -53419439.856865883 83286354.968265533 0 83286354.968265533 36556193.604827881 0 0 0 0 -7630796.8188724518 -33717516.54763031 0 -33717516.54763031 20492373.33471489 0 0 0 0 -86242386.662411213 -60361885.123416901 0 -60361885.123416901 71600249.00239563 0 0 0 0 -61361923.141610146 71884310.341827393 0 71884310.341827393 22739183.153106689 0 0 0 0 824187.82856868254 -1826547.6509109195 0 -1826547.6509109195 -1589433.8498839363 0 0 0 0 -20437985.502469063 -84273833.364760876 0 -84273833.364760876 -49236500.115249634 0 0 0 0 -46984475.124842644 -8001984.3950881958 0 -8001984.3950881958 57473010.672901154 0 0 0 0 -862455.23049033433 -8800601.606783092 0 -8800601.606783092 19031613.33836985 0 0 0 0 25343731.34647274 -30237038.272201538 0 -30237038.272201538 -16258884.751441956 0 0 0 0 30863383.796378136 -55547689.506942749 0 -55547689.506942749 -70396441.913416862 0 0 0 0 -20173035.586463928 -85891476.305130005 0 -85891476.305130005 -74153568.245132446 0 0 0 0 1276334.6044637423 -7805393.0748735294 0 -7805393.0748735294 17066400.341632538 0 0 0 0 -11022603.485936642 -61264594.817306519 0 -61264594.817306519 -94330535.981231689 0 0 0 0 -28423385.631124839 -13504209.210943222 0 -13504209.210943222 25483523.780578613 0 0 0 0 -14320252.394260406 34500368.731941223 0 34500368.731941223 -125362333.3968277 0 0 0 0 6190788.1507534981 -75085946.022018433 0 -75085946.022018433 65000746.846851349 0 0 0 0 -1735442.8586421758 31432553.344705105 0 31432553.344705105 127059751.19585419 0 0 0 0 -85137247.465069294 -87885823.238698959 0 -87885823.238698959 22477942.212913513 0 0 0 0 -40012832.000100136 -20643842.825553894 0 -20643842.825553894 -4793076.4128456116 0 0 0 0 17482659.863829613 -56519874.878982544 0 -56519874.878982544 14139207.981521606 0 0 0 0 -13399609.316885233 9365643.5667476654 0 9365643.5667476654 82860817.64465332 0 0 0 0 1654154.0910609961 -42823612.141412735 0 -42823612.141412735 -39839117.612060547 0 0 0 0 129126345.50636363 78679425.430475235 0 78679425.430475235 84660465.518821716 0 0 0 0 24370517.82090807 -13308449.8422966 0 -13308449.8422966 95446836.87537384 0 0 0 0 -53800166.030507088 -24058401.862030029 0 -24058401.862030029 -64062937.402038574 0 0 0 0 -98295373.996929169 -53179153.554611206 0 -53179153.554611206 8115110.5718536377 0 0 0 0 -155361488.70701599 177222524.47872162 0 177222524.47872162 -209365867.93202209 0 0 0 0 774559.75927857868 -9221853.3882189579 0 -9221853.3882189579 18691377.298252039 0 0 0 0 -66227526.948368073 -78920838.868774414 0 -78920838.868774414 -32540639.322790146 0 0 0 0 -7265031.6265925057 1143451.399375841 0 1143451.399375841 6620932.4115095325 0 0 0 0 -53257062.202548027 32960369.873451233 0 32960369.873451233 49364945.313034058 0 0 0 0 -98759356.630599976 135517987.7390976 0 135517987.7390976 -285294792.99035645 0 0 0 0 418312161.87114334 -210559596.33514404 0 -210559596.33514404 -183552663.49661255 0 0 0 0 988311.70470619202 -127384719.96543121 0 -127384719.96543121 -96996923.987365723 0 0 0 0 122986079.08513069 -391491099.07158852 0 -391491099.07158852 -29564181.162017822 0 0 0 0 -326818383.6102109 -135804945.82578087 0 -135804945.82578087 -903251043.13024902 0 0 0 0 200354547.88607025 402257505.74936676 0 402257505.74936676 433593249.51202393 0 0 0 0 -180609594.55103683 251824039.48454285 0 251824039.48454285 884674222.61999226 0 0 0 0 17609900.044979095 -453616741.97506714 0 -453616741.97506714 806032361.29580688 0 0 0 0 871049.93288881704 -6804248.256346155 0 -6804248.256346155 15400547.409106791 0 0 0 0 -803911333.28375244 -571823424.68048859 0 -571823424.68048859 1588415775.9868927 0 0 0 0 -118594544.65398073 -67661911.804782867 0 -67661911.804782867 48723899.760482788 0 0 0 0 14168901.339263916 -19284026.29637146 0 -19284026.29637146 -26052490.074462891 0 0 0 0 68623012.418305397 94306278.166698456 0 94306278.166698456 51003620.978027344 0 0 0 0 28767270.827467918 129157961.75185966 0 129157961.75185966 221325615.20509338 0 0 0 0 1037823.705991745 45306885.598796844 0 45306885.598796844 112699011.1910553 0 0 0 0 -49325371.227310181 92499148.336799622 0 92499148.336799622 92330204.162689209 0 0 0 0 6391339.351436615 111701162.66690063 0 111701162.66690063 47018867.785987854 0 0 0 0 -355505257.73374557 -365624426.41629028 0 -365624426.41629028 -381485115.07080078 0 0 0 0 721974.8657989637 -1504101.858723104 0 -1504101.858723104 1988587.519609578 0 0 0 0 783208.55665078945 -4299150.2479844857 0 -4299150.2479844857 9692968.0667155012 0 0 0 0 -64980329.039872885 -54297062.803030014 0 -54297062.803030014 70089934.907623291 0 0 0 0 98830118.50448066 196366619.56513262 0 196366619.56513262 328233578.19905853 0 0 0 0 132145734.13942838 102675557.39445496 0 102675557.39445496 143051504.64060974 0 0 0 0 58339008.07741642 105316511.88047791 0 105316511.88047791 163964739.35557556 0 0 0 0 4031513.6358165741 -4340281.1515159607 0 -4340281.1515159607 62995125.133255005 0 0 0 0 4133760.4000481963 77231684.516388416 0 77231684.516388416 143174278.073349 0 0 0 0 172628424.00577068 213668031.12645721 0 213668031.12645721 220252503.89422607 0 0 0 0 83824445.123886526 163491943.51305294 0 163491943.51305294 261828371.03977966 0 0 0 0 104830834.4152832 98615018.159797668 0 98615018.159797668 112102882.7074585 0 0 0 0 138815959.31061319 220964888.71049881 0 220964888.71049881 385601598.18978882 0 0 0 0 277744576.2071529 274354686.64264679 0 274354686.64264679 354570408.5458374 0 0 0 0 305196370.40460634 173436487.82282257 0 173436487.82282257 452143887.51565552 0 0 0 0 183363824.58225393 245681163.34610748 0 245681163.34610748 410638644.27732849 0 0 0 0 205954882.89379978 197324374.84492874 0 197324374.84492874 367851209.28107262 0 0 0 0 106367128.47487235 151553017.6139698 0 151553017.6139698 547866687.27411652 0 0 0 0 103808178.57287931 179581952.00897598 0 179581952.00897598 377297750.63858032 0 0 0 0 139912507.60126591 196647195.39243317 0 196647195.39243317 188354490.2778511 0 0 0 0 76106292.239050865 133018860.5699234 0 133018860.5699234 267086140.35374451 0 0 0 0 123070640.77256393 156724396.4549942 0 156724396.4549942 137394006.90387917 0 0 0 0 100626173.25901031 254932243.33744812 0 254932243.33744812 367294663.92497253 0 0 0 0 81997643.841106415 69943097.647796631 0 69943097.647796631 80174918.602050781 0 0 0 0 168722849.49972153 -4356145.1892852783 0 -4356145.1892852783 -92226209.248748779 0 0 0 0 230511659.24111176 172112558.2986145 0 172112558.2986145 -49233524.279125214 0 0 0 0 187587811.8139267 272235138.20596313 0 272235138.20596313 201421575.22563934 0 0 0 0 99793332.057994843 191256178.90000916 0 191256178.90000916 370045355.69671631 0 0 0 0 281447746.09959412 330436323.16644287 0 330436323.16644287 265969848.02464294 0 0 0 0 280078204.19260192 364498050.91650271 0 364498050.91650271 575220250.18229675 0 0 0 0 124783588.83914948 180861166.5936203 0 180861166.5936203 586922447.55986023 0 0 0 0 86906692.392778397 262922784.5122509 0 262922784.5122509 493245894.17614746 0 0 0 0 90861415.592124939 157600656.09347534 0 157600656.09347534 581471599.10203552 0 0 0 0 98805710.11051178 217248733.22686768 0 217248733.22686768 641473473.03320312 0 0 0 0 92621997.136548996 183830600.55800629 0 183830600.55800629 650920333.60946655 0 0 0 0 168270907.20404053 49325260.843154907 0 49325260.843154907 669377501.99353409 0 0 0 0 124935293.14636654 190427548.18242395 0 190427548.18242395 973966129.71888733 0 0 0 0 84597285.409132242 175879677.25818062 0 175879677.25818062 575820464.06827545 0 0 0 0 112848244.24416924 166617467.64896393 0 166617467.64896393 439273211.34621429 0 0 0 0 60522383.957515717 199020676.83684921 0 199020676.83684921 569174909.98077393 0 0 0 0 111830065.12503624 135610071.96265411 0 135610071.96265411 595695229.02022171 0 0 0 0 127038111.81402588 180747598.05334854 0 180747598.05334854 603764194.54695892 0 0 0 0 105954848.76004124 159004989.08320236 0 159004989.08320236 581593561.69128418 0 0 0 0 193985452.1999588 152605252.87577057 0 152605252.87577057 557663982.79499865 0 0 0 0 219035234.44407845 321462558.12081003 0 321462558.12081003 279503394.44017029 0 0 0 0 201152810.65657139 78991886.925075531 0 78991886.925075531 471586633.5760498 0 0 0 0 115651941.19731712 125326143.86296082 0 125326143.86296082 559653465.75068665 0 0 0 0 52610639.757511139 135910126.65145493 0 135910126.65145493 694104294.8387146 0 0 0 0 -9881391.4422750473 267875240.88743591 0 267875240.88743591 562742892.0476265 0 0 0 0 166059669.52503872 9731989.1948432922 0 9731989.1948432922 874097673.32300568 0 0 0 0 143453923.25995541 340242327.33282471 0 340242327.33282471 724769224.67711449 0 0 0 0 573531906.41597331 125432257.56267929 0 125432257.56267929 424070401.8501358 0 0 0 0 154598202.21234584 130943865.14817429 0 130943865.14817429 579475222.13005066 0 0 0 0 -177857603.11663342 110389442.92856598 0 110389442.92856598 -174927497.67959595 0 0 0 0 -34652343.991125584 43746560.014070511 0 43746560.014070511 29094492.368255615 0 0 0 0 -126089953.58594894 -17009178.698356628 0 -17009178.698356628 24324693.188732147 0 0 0 0 -17542951.836231232 103297198.03956604 0 103297198.03956604 -26113439.838825226 0 0 0 0 -17468927.058185577 95012839.553474426 0 95012839.553474426 63773618.898441315 0 0 0 0 38833421.139446259 61653412.057220459 0 61653412.057220459 41778024.677528381 0 0 0 0 38185754.563418925 47114761.305166245 0 47114761.305166245 180631806.07693481 0 0 0 0 -23586190.269958496 -13042740.720870972 0 -13042740.720870972 172411455.76164246 0 0 0 0 -2024405.3303794861 -32825467.843963623 0 -32825467.843963623 148992692.1910553 0 0 0 0 -58255885.378475189 -112906997.47774506 0 -112906997.47774506 394238012.25793457 0 0 0 0 -9489314.4864082336 -20961197.665260315 0 -20961197.665260315 380884349.72109985 0 0 0 0 -126596466.13754272 -120625992.9166069 0 -120625992.9166069 709536800.262146 0 0 0 0 -125994874.84361267 -100545680.13589478 0 -100545680.13589478 527973779.84713745 0 0 0 0 -57098146.134552002 -760144.37252807617 0 -760144.37252807617 407826895.97795105 0 0 0 0 -85402994.386978149 -176498541.73434448 0 -176498541.73434448 379713114.93138885 0 0 0 0 -144182193.96993899 -214797749.22985387 0 -214797749.22985387 -211437369.94033813 0 0 0 0 -126172771.96875381 -281028629.10971069 0 -281028629.10971069 316763988.06271362 0 0 0 0 -562359280.84654427 -540899845.48680878 0 -540899845.48680878 418179633.64416504 0 0 0 0 -143199596.06397247 -186921821.41003418 0 -186921821.41003418 368209399.4299469 0 0 0 0 -50099236.517889023 -146747360.1842804 0 -146747360.1842804 79452226.366333008 0 0 0 0 539665691.18386078 701642312.62545776 0 701642312.62545776 461243630.1125412 0 0 0 0 -443370.89846751932 -476316.53161238879 0 -476316.53161238879 3680160.990960598 0 0 0 0 311181594.01358032 377716514.9056015 0 377716514.9056015 93997694.431602478 0 0 0 0 57907279.383125305 393294964.77826691 0 393294964.77826691 572935515.40494919 0 0 0 0 209632616.67111206 495811753.75810242 0 495811753.75810242 507769615.63021088 0 0 0 0 -727085546.88290787 -22571845.393108368 0 -22571845.393108368 479259154.58738327 0 0 0 0 -318080292.18268108 881635143.07975006 0 881635143.07975006 936182686.80453491 0 0 0 0 583281612.10140228 86422002.183776855 0 86422002.183776855 415313647.51506042 0 0 0 0 -292014.53800109029 -2198280.883669652 0 -2198280.883669652 8348785.7517628223 0 0 0 0 -459637178.69081712 -141315831.13174582 0 -141315831.13174582 1819412.7153625488 0 0 0 0 -435507261.32957077 73328104.919944763 0 73328104.919944763 34619806.314651489 0 0 0 0 -149305405.57217026 55294726.410606384 0 55294726.410606384 -46327531.931587219 0 0 0 0 -184788390.38272381 -70344569.424049377 0 -70344569.424049377 -98999074.73274231 0 0 0 0 -244359277.96479034 434005.48930358887 0 434005.48930358887 68583701.88848877 0 0 0 0 918325121.12179565 -1155358883.0231552 0 -1155358883.0231552 -1369016549.8772583 0 0 0 0 2069174564.1577969 2126264281.8736572 0 2126264281.8736572 970633980.88943481 0 0 0 0 329315340.92248917 -183246183.05051422 0 -183246183.05051422 797691902.68904114 0 0 0 0 -1141058639.8343964 -641035717.92359924 0 -641035717.92359924 194280927.15963745 0 0 0 0 214504.53710598778 -1321851.3017350417 0 -1321851.3017350417 3251371.9674723223 0 0 0 0 -185472968.77484226 -53580705.155414581 0 -53580705.155414581 66845831.513366699 0 0 0 0 860082.57070989814 -3206014.3435722515 0 -3206014.3435722515 6678476.7249674201 0 0 0 0 -156464282.63341141 19237679.97769928 0 19237679.97769928 21068224.250350952 0 0 0 0 -151686371.4583168 49326251.463447571 0 49326251.463447571 118001590.98739624 0 0 0 0 -141032671.92905807 58231408.958908081 0 58231408.958908081 46940130.302555084 0 0 0 0 -185405030.11244774 17962040.095939636 0 17962040.095939636 107652263.28811646 0 0 0 0 -100073308.26867294 52698476.282592773 0 52698476.282592773 100835896.7802124 0 0 0 0 -137227940.99482346 81931145.856658936 0 81931145.856658936 172564610.35325623 0 0 0 0 -97589666.240875244 91115729.960006714 0 91115729.960006714 128134113.185215 0 0 0 0 -74865117.479541779 93226305.475448608 0 93226305.475448608 132329408.29917908 0 0 0 0 -104666614.94935608 107747454.48439026 0 107747454.48439026 182687104.61886597 0 0 0 0 -25770003.776035309 93453163.242904663 0 93453163.242904663 112100126.99983978 0 0 0 0 -74877428.852363586 117714770.16241455 0 117714770.16241455 201583803.97796631 0 0 0 0 -46577366.435623169 66646580.858596802 0 66646580.858596802 120326434.33273315 0 0 0 0 -136830679.54333305 102514388.06016541 0 102514388.06016541 136213749.25689697 0 0 0 0 -165384951.00500011 60592693.630025864 0 60592693.630025864 70285860.288452148 0 0 0 0 -54988516.75793457 98380799.157531738 0 98380799.157531738 40846218.875595093 0 0 0 0 48960692.110908508 78045749.824104309 0 78045749.824104309 31983799.532241821 0 0 0 0 45394035.009593964 74078925.160369873 0 74078925.160369873 33124390.283859253 0 0 0 0 -45464580.938938141 80567848.24911499 0 80567848.24911499 144037415.35409546 0 0 0 0 -27841284.890670776 106250141.09222412 0 106250141.09222412 136586997.74953842 0 0 0 0 -40253668.672569275 71581024.456932068 0 71581024.456932068 219420402.87617493 0 0 0 0 -39107270.508514881 49543897.514911652 0 49543897.514911652 489414765.24621582 0 0 0 0 16925.766235351562 304173136.50950623 0 304173136.50950623 161870312.71734619 0 0 0 0 8113227.9767189026 391951282.55949402 0 391951282.55949402 410018558.66415405 0 0 0 0 34904648.250728607 223333926.67921448 0 223333926.67921448 125871013.04953003 0 0 0 0 -33444609.100616455 216775154.60128784 0 216775154.60128784 341204311.09207153 0 0 0 0 -37917821.654453278 152988610.26359558 0 152988610.26359558 189543653.24445343 0 0 0 0 -54176896.256503105 160698881.64699173 0 160698881.64699173 201129444.51937866 0 0 0 0 -89966440.275943756 114460119.0161972 0 114460119.0161972 210136332.40805054 0 0 0 0 -49112701.687831879 113623331.44338989 0 113623331.44338989 180157753.75032043 0 0 0 0 -18247863.024175644 106131630.26180267 0 106131630.26180267 210941985.02304077 0 0 0 0 -28889207.007530212 119830709.1450119 0 119830709.1450119 196815035.95294189 0 0 0 0 65104828.000968933 174533200.46826172 0 174533200.46826172 195200524.96568298 0 0 0 0 84181034.290893555 91943723.021202087 0 91943723.021202087 202783054.3216629 0 0 0 0 -10789593.01704216 76615298.826278687 0 76615298.826278687 225390727.60689545 0 0 0 0 591419.55362085998 41473.765386726707 0 41473.765386726707 -340231.42791279592 0 0 0 0 99320408.039432526 184161402.27501678 0 184161402.27501678 146854442.8418808 0 0 0 0 3137754.9022102356 19882085.719070435 0 19882085.719070435 29768759.472106934 0 0 0 0 -90591490.276752472 22954323.340774536 0 22954323.340774536 -4916775.0886230469 0 0 0 0 -316418.61412556656 -234629.2438511923 0 -234629.2438511923 175499.7207815852 0 0 0 0 -476073.33170799259 436030.78783411905 0 436030.78783411905 176053.67082813382 0 0 0 0 176231330.88853836 181524881.89170837 0 181524881.89170837 166512690.42790222 0 0 0 0 -40813235.647472382 191481751.542202 0 191481751.542202 418294010.67523193 0 0 0 0 70226996.533210754 63534184.437744141 0 63534184.437744141 35472106.377487183 0 0 0 0 -35643909.666786194 -39669669.581954956 0 -39669669.581954956 2479908.7035522461 0 0 0 0 -67694266.964508057 108786609.55181885 0 108786609.55181885 259942002.47942352 0 0 0 0 -66133319.991142273 114622438.89472198 0 114622438.89472198 262644433.41381836 0 0 0 0 -62893451.864963531 58093315.415603638 0 58093315.415603638 248494170.45483398 0 0 0 0 -107909717.13516808 91790394.801860809 0 91790394.801860809 237973141.34777832 0 0 0 0 -123238674.94612122 55987380.11328125 0 55987380.11328125 159574614.125 0 0 0 0 -74689816.692316055 76095044.968711853 0 76095044.968711853 149355792.89633179 0 0 0 0 -68057923.246395111 90982748.283401489 0 90982748.283401489 169290322.9918251 0 0 0 0 -79877841.532119751 77820105.084945679 0 77820105.084945679 235598116.36698914 0 0 0 0 -10339016.092723846 72509870.725440979 0 72509870.725440979 235983431.23502159 0 0 0 0 -49207735.409088135 12305035.799385071 0 12305035.799385071 262592903.733078 0 0 0 0 -123342617.70648193 27518552.11340332 0 27518552.11340332 262255055.74372864 0 0 0 0 -120184783.73801613 -108855838.05610275 0 -108855838.05610275 162004439.47000122 0 0 0 0 -149451915.69029999 45923572.082077026 0 45923572.082077026 368052046.04621887 0 0 0 0 -124733812.75752258 82159838.732368469 0 82159838.732368469 393608807.85092163 0 0 0 0 -266138542.19913864 20482526.050216675 0 20482526.050216675 590458027.46090698 0 0 0 0 -258171896.35589981 -88480718.914505005 0 -88480718.914505005 389143962.78091311 0 0 0 0 -85738010.287311554 127432147.95942688 0 127432147.95942688 422554279.99458313 0 0 0 0 -140961176.92140961 85401061.645927429 0 85401061.645927429 441006210.87451172 0 0 0 0 -33308.046624839306 -101500.7921811454 0 -101500.7921811454 -46435.228031806648 0 0 0 0 -1822147.9224482188 524400.7920017764 0 524400.7920017764 1429942.9901022464 0 0 0 0 570296938.96618652 -483075764.64103699 0 -483075764.64103699 -230231051.0065918 0 0 0 0 -1504918963.5273743 360827973.8833313 0 360827973.8833313 -143317259.72880363 0 0 0 0 -297461218.75380707 -261793654.53709412 0 -261793654.53709412 -145460892.79022217 0 0 0 0 -655707724.13054657 -15792708.174331665 0 -15792708.174331665 53485382.113800049 0 0 0 0 319063650.73918152 31255068.818622589 0 31255068.818622589 -174238252.8394928 0 0 0 0 -143542238.45482063 459527920.57935715 0 459527920.57935715 -364866150.88023376 0 0 0 0 -259024402.70785141 166674800.1309433 0 166674800.1309433 92376758.514152527 0 0 0 0 85866221.686767578 218797207.17338562 0 218797207.17338562 47328334.903686523 0 0 0 0 -2855740.4582505627 1464039.6323381141 0 1464039.6323381141 1418013.313041389 0 0 0 0 -170375689.14481354 -185674192.68948364 0 -185674192.68948364 -168940556.43521881 0 0 0 0 -94343993.485519409 96980579.613250732 0 96980579.613250732 5850968.5092201233 0 0 0 0 -39863183.562450409 -76464704.317123413 0 -76464704.317123413 -20158698.95111084 0 0 0 0 4961763.1824359894 5243721.4896087646 0 5243721.4896087646 8630606.4005661011 0 0 0 0 8706894.840795517 12819231.716545105 0 12819231.716545105 -15537056.145935059 0 0 0 0 9027378.8634319305 16067450.044384003 0 16067450.044384003 3308826.0028839111 0 0 0 0 -2463158.868054172 1561200.6566605344 0 1561200.6566605344 807768.41192129254 0 0 0 0 271734546.76362991 -53891400.306945801 0 -53891400.306945801 10465597.002830505 0 0 0 0 6478026.9432497025 -978584.25081253052 0 -978584.25081253052 -630659.70352172852 0 0 0 0 -210131.69366264343 1753609.6029129028 0 1753609.6029129028 6030740.5589294434 0 0 0 0 -1410791.5484790802 4525810.7905960083 0 4525810.7905960083 393363.2195892334 0 0 0 0 -4251698.1443727016 -12134827.985524654 0 -12134827.985524654 -21175277.951263428 0 0 0 0 -889067.71311693359 -185403.00584961474 0 -185403.00584961474 1318024.4465435892 0 0 0 0 -12856364.227888107 8410933.1073303223 0 8410933.1073303223 5532088.0783081055 0 0 0 0 15270309.976222992 5292823.4805908203 0 5292823.4805908203 5126398.2116394043 0 0 0 0 98752833.934835434 113832871.640522 0 113832871.640522 44095158.36026001 0 0 0 0 -3707890.7147331238 -50497813.584330559 0 -50497813.584330559 -45462102.611282349 0 0 0 0 -561915.3861651402 -68522.90270768851 0 -68522.90270768851 706069.03770528734 0 0 0 0 -8618646.7195777893 30278255.764678955 0 30278255.764678955 59038231.720161438 0 0 0 0 -16551552.110607147 65784435.7395401 0 65784435.7395401 19426899.021909237 0 0 0 0 -177797859.0075531 19044898.21862793 0 19044898.21862793 40474450.736671448 0 0 0 0 959319.6540647666 6978485.4992901497 0 6978485.4992901497 20439997.922670148 0 0 0 0 25175720.208677292 38484064.641075134 0 38484064.641075134 -2914906.4769439697 0 0 0 0 43538045.759397507 25341252.543823242 0 25341252.543823242 -51676411.375 0 0 0 0 -143601447.99790001 61661231.794776917 0 61661231.794776917 33652291.139263153 0 0 0 0 232707.94569197204 4606499.7568582231 0 4606499.7568582231 16596672.831552766 0 0 0 0 -1025157772.8792305 405043666.13755798 0 405043666.13755798 384218071.34112549 0 0 0 0 -278875584.74914455 -374561656.70936203 0 -374561656.70936203 42305372.836105347 0 0 0 0 -269175.63132795133 1974748.5607122565 0 1974748.5607122565 10324406.424225792 0 0 0 0 -431944352.42427635 -278995047.93912506 0 -278995047.93912506 465653369.34509277 0 0 0 0 -22727423.950473785 83764316.238868713 0 83764316.238868713 -36405872.756103516 0 0 0 0 -133743396.79701614 94477189.665084839 0 94477189.665084839 87479448.901885986 0 0 0 0 13622896.976617813 11094262.789466858 0 11094262.789466858 84806822.029296875 0 0 0 0 67847640.38968277 43987380.346588135 0 43987380.346588135 25617434.293388367 0 0 0 0 53715320.958765984 85727536.957336426 0 85727536.957336426 90836912.926025391 0 0 0 0 16209723.293262482 19663159.470397949 0 19663159.470397949 63126854.279388428 0 0 0 0 73510720.994880676 -7417187.7462310791 0 -7417187.7462310791 233425940.08486176 0 0 0 0 77068646.233963013 70794594.929916382 0 70794594.929916382 192452195.66668701 0 0 0 0 416108340.09649658 -6161158.870803833 0 -6161158.870803833 16182665.017456055 0 0 0 0 130070451.4299202 -109821176.74769592 0 -109821176.74769592 534559969.7024231 0 0 0 0 173166468.38576889 182864577.01792908 0 182864577.01792908 -74295982.469543457 0 0 0 0 146823678.41345978 -56166187.24029541 0 -56166187.24029541 81733000.322540283 0 0 0 0 -180631.47304162756 -284470.11812371761 0 -284470.11812371761 126845.85507464968 0 0 0 0 96577725.983308792 -3560662.183681488 0 -3560662.183681488 -174758682.65406799 0 0 0 0 -2872950.8918609619 33516941.737426758 0 33516941.737426758 75665868.006195068 0 0 0 0 128234316.80026436 63363552.265968323 0 63363552.265968323 -119967899.64932251 0 0 0 0 -43953070.013542175 118519256.42469025 0 118519256.42469025 -35508898.424697876 0 0 0 0 67554681.269554138 29037101.187980652 0 29037101.187980652 -50982760.482923508 0 0 0 0 43605646.659616299 9385206.6741279662 0 9385206.6741279662 -64831301.846221924 0 0 0 0 30433591.526363373 -22364653.858398438 0 -22364653.858398438 -5485270.6760025024 0 0 0 0 -100432871.66220784 -284978980.88813019 0 -284978980.88813019 183699173.98248291 0 0 0 0 780220.28851606289 -808347.32203362137 0 -808347.32203362137 266179.6701361537 0 0 0 0 32954891.275654912 82578290.41791153 0 82578290.41791153 31374911.299118042 0 0 0 0 165759292.32406187 4111027.0598945618 0 4111027.0598945618 -138440370.02865601 0 0 0 0 -9635192.7888069153 34947589.216041565 0 34947589.216041565 79830620.555627823 0 0 0 0 589914207.36418152 -365077162.18117523 0 -365077162.18117523 181469766.25795746 0 0 0 0 615964231.25591755 426311228.11173248 0 426311228.11173248 -176210667.29321289 0 0 0 0 -158233505.92327785 78392838.411636353 0 78392838.411636353 -46741506.73802948 0 0 0 0 -560779460.08679056 711542052.29631042 0 711542052.29631042 -88016172.452850342 0 0 0 0 -360336261.4846077 -174596560.23885345 0 -174596560.23885345 72876863.17538166 0 0 0 0 -206617277.89178276 258366715.66923523 0 258366715.66923523 1251385513.6089478 0 0 0 0 27888855.022665262 -314559919.74056816 0 -314559919.74056816 191633856.00593567 0 0 0 0 -67240280.576417923 -150416486.77692413 0 -150416486.77692413 252251195.28895569 0 0 0 0 -1791079.2678757911 -1721622.8018576924 0 -1721622.8018576924 5473834.5158447474 0 0 0 0 302802248.92340279 -240069299.04264069 0 -240069299.04264069 179818574.08453369 0 0 0 0 31671928.826966763 74557774.569076538 0 74557774.569076538 160598278.347229 0 0 0 0 279457760.87104863 527951153.24655294 0 527951153.24655294 642492554.19509888 0 0 0 0 -528849.66540498682 -875400.09528578597 0 -875400.09528578597 1936928.4233184159 0 0 0 0 893981854.5054884 -636689851.0656662 0 -636689851.0656662 294762520.81370544 0 0 0 0 2165935.0578012466 -70843269.510276794 0 -70843269.510276794 1022050253.7847443 0 0 0 0 -19800064.17271924 144900354.01921558 0 144900354.01921558 630795538.92298889 0 0 0 0 12424647.487267971 55490718.751014709 0 55490718.751014709 184421019.16529846 0 0 0 0 -1887029.0099350172 1928596.49833823 0 1928596.49833823 3171008.1567200869 0 0 0 0 -190334388.66942167 495182110.98457336 0 495182110.98457336 -596632067.35179901 0 0 0 0 -75171556.858182669 41900827.867385864 0 41900827.867385864 464410475.39509583 0 0 0 0 -98351250.174490452 295461340.68190765 0 295461340.68190765 538670515.4707489 0 0 0 0 -161538834.40853715 296202344.75320435 0 296202344.75320435 494322169.54467773 0 0 0 0 -107466101.97309256 286081203.19561195 0 286081203.19561195 -40560095.9659729 0 0 0 0 96300491.826197624 274049756.51512909 0 274049756.51512909 -495440928.60707092 0 0 0 0 -191619611.873456 224307657.18684387 0 224307657.18684387 -58640485.739868164 0 0 0 0 -182048909.71896791 227195410.40083885 0 227195410.40083885 -189239124.38746643 0 0 0 0 -4277180.1704092491 2032232.5167679638 0 2032232.5167679638 5932943.5292399339 0 0 0 0 -316759260.82022953 154573109.48699951 0 154573109.48699951 47641341.327407837 0 0 0 0 -2880916.4865861661 -2792221.4096683562 0 -2792221.4096683562 11705503.466342196 0 0 0 0 -121997947.49750125 -97449994.277663469 0 -97449994.277663469 -64093490.329315186 0 0 0 0 86668739.468313217 -172874370.89361572 0 -172874370.89361572 243842741.19548416 0 0 0 0 -4919633.6476666052 850127.03534974158 0 850127.03534974158 4762562.2059449553 0 0 0 0 70968624.87717247 -194370091.00553894 0 -194370091.00553894 227820586.41711426 0 0 0 0 -34557181.708368301 -150052694.48704529 0 -150052694.48704529 -64775132.928771973 0 0 0 0 -216207155.35359764 -204425302.70358276 0 -204425302.70358276 -22423002.43283844 0 0 0 0 -492730855.72829938 -128817744.93542039 0 -128817744.93542039 115567921.32618713 0 0 0 0 -62152628.079360962 -211730159.13350677 0 -211730159.13350677 -9395763.3305358887 0 0 0 0 -1741563.1407768668 -2884831.5094016986 0 -2884831.5094016986 10693146.711808398 0 0 0 0 -561336342.19566679 40311841.500469685 0 40311841.500469685 292292020.6105957 0 0 0 0 -229409687.14459991 39811917.863494873 0 39811917.863494873 346084519.4262619 0 0 0 0 -246360898.03352547 121520475.51493073 0 121520475.51493073 -16806721.602592468 0 0 0 0 -54142650.182153702 -219624456.68466187 0 -219624456.68466187 14051188.746700287 0 0 0 0 52361031.386482954 -532978305.18192291 0 -532978305.18192291 583091302.5617218 0 0 0 0 -210533593.62954593 119285943.50270462 0 119285943.50270462 529145462.81472778 0 0 0 0 448004662.55470276 226076601.37501526 0 226076601.37501526 -150283350.46040726 0 0 0 0 263049598.48192215 288853477.73995972 0 288853477.73995972 -113843685.12674332 0 0 0 0 66318415.815658569 64436192.55513382 0 64436192.55513382 5175721.6512908936 0 0 0 0 92424179.422714233 97224473.913284302 0 97224473.913284302 18382349.291488647 0 0 0 0 167851365.08211136 402932170.83745575 0 402932170.83745575 428172986.79339886 0 0 0 0 6749431.6693954468 -8736478.7950839996 0 -8736478.7950839996 90716890.492286682 0 0 0 0 -24760.71347518824 -250014.27933610976 0 -250014.27933610976 1312540.5155953839 0 0 0 0 196296417.50461388 328628101.62965775 0 328628101.62965775 89565830.173706055 0 0 0 0 93041695.01795578 266166423.23814392 0 266166423.23814392 332378488.26216507 0 0 0 0 64966489.766590118 185075070.01312256 0 185075070.01312256 98362384.254577637 0 0 0 0 194174364.17011261 316046246.82338333 0 316046246.82338333 24961152.924377441 0 0 0 0 103077365.46688843 139817376.63318634 0 139817376.63318634 100453960.93199921 0 0 0 0 -21810508.397453308 -2320287.8784141541 0 -2320287.8784141541 14637105.507369995 0 0 0 0 302195387.65758848 92331478.608658791 0 92331478.608658791 9008325.240524292 0 0 0 0 -35682986.479606628 -258383462.00656891 0 -258383462.00656891 -750527683.35329056 0 0 0 0 -483827586.01954651 -63556975.369529724 0 -63556975.369529724 489585976.97589111 0 0 0 0 -1952368.5088946354 642206.21805820242 0 642206.21805820242 1668016.0147050284 0 0 0 0 -744314410.28318787 -417140707.50987244 0 -417140707.50987244 433841087.78170776 0 0 0 0 -231517407.11592293 -120381173.55023193 0 -120381173.55023193 280103423.5838623 0 0 0 0 -315363355.64952469 -632002212.10255432 0 -632002212.10255432 23910680.717300415 0 0 0 0 489602556.22717857 93854688.255844116 0 93854688.255844116 -125746931.77186584 0 0 0 0 516690697.03408241 -408260074.64063263 0 -408260074.64063263 188812662.18013 0 0 0 0 -83000872.987112045 491048628.56707001 0 491048628.56707001 -569943667.34532928 0 0 0 0 -119574.43833781965 388463.29837033059 0 388463.29837033059 3250701.2455557138 0 0 0 0 12244481.187979221 342257543.58508682 0 342257543.58508682 996357454.55853271 0 0 0 0 640591173.88809967 1108257986.9641724 0 1108257986.9641724 -326308012.11399031 0 0 0 0 -94262611.642888069 -59683108.552532196 0 -59683108.552532196 107390087.89979553 0 0 0 0 423484004.7667675 -247733599.19664478 0 -247733599.19664478 315710786.07669067 0 0 0 0 -40201942.156450272 72847925.484790802 0 72847925.484790802 163245697.27518463 0 0 0 0 480690824.59741402 85902346.279598236 0 85902346.279598236 -360190169.11344481 0 0 0 0 251675430.31571627 425857300.60687757 0 425857300.60687757 745528183.47912598 0 0 0 0 621955.95780586451 -731635.32185193524 0 -731635.32185193524 1224542.8681632653 0 0 0 0 250802352.66152573 281308981.94643402 0 281308981.94643402 325008825.55651855 0 0 0 0 157922844.81706619 329970629.36313629 0 329970629.36313629 524036451.33869934 0 0 0 0 -19609320.898417473 216797336.80592346 0 216797336.80592346 774729651.59780884 0 0 0 0 237818786.83249283 190637101.83251953 0 190637101.83251953 87635903.464691162 0 0 0 0 98622835.711170197 172880921.92033386 0 172880921.92033386 355337788.62915039 0 0 0 0 463465.54334337264 -969323.33107629418 0 -969323.33107629418 2596908.5494867787 0 0 0 0 172648870.09214783 43890845.517219543 0 43890845.517219543 52048821.707597733 0 0 0 0 50947188.183738708 39874004.327835083 0 39874004.327835083 86763853.419326782 0 0 0 0 -85862071.35243988 -415862540.54179382 0 -415862540.54179382 1427160789.0258179 0 0 0 0 89269973.444004059 82960312.457778931 0 82960312.457778931 80640501.254562378 0 0 0 0 50933994.978272438 91295821.572715759 0 91295821.572715759 79759738.037399292 0 0 0 0 54695825.734169006 86928375.688911438 0 86928375.688911438 195526583.81451416 0 0 0 0 79058177.371520996 74142310.963912964 0 74142310.963912964 199570425.21863556 0 0 0 0 30132952.50453949 27022507.905029297 0 27022507.905029297 176029445.02888107 0 0 0 0 23113876.689178467 70640639.494766235 0 70640639.494766235 368143243.33303833 0 0 0 0 -10624081.590370178 79838191.277130127 0 79838191.277130127 372760351.09739685 0 0 0 0 98830805.000810623 175562794.33218288 0 175562794.33218288 340178705.34039307 0 0 0 0 -52581735.620773315 123614391.56515503 0 123614391.56515503 513644699.12692261 0 0 0 0 -7307925.8160476685 108893899.10560608 0 108893899.10560608 505176009.17050171 0 0 0 0 -60393654.814229965 7881175.8159751892 0 7881175.8159751892 521892979.31335449 0 0 0 0 -118191215.68239594 20952717.359619141 0 20952717.359619141 530288246.25933838 0 0 0 0 -198728544.9347477 5239750.8587875366 0 5239750.8587875366 738891091.49124146 0 0 0 0 -183244458.17749405 40350978.25491333 0 40350978.25491333 815706008.40060425 0 0 0 0 -164206409.43183899 60360802.284820557 0 60360802.284820557 695223193.39693737 0 0 0 0 -99746449.811876297 84092959.943893433 0 84092959.943893433 696694906.96096802 0 0 0 0 -194363077.78559303 137507246.08473206 0 137507246.08473206 753210621.64349365 0 0 0 0 -84053781.684295654 124510580.21067047 0 124510580.21067047 740706719.90969849 0 0 0 0 -255952387.15259171 102509130.8106842 0 102509130.8106842 815455018.17808342 0 0 0 0 -175615900.45990372 250240092.80799103 0 250240092.80799103 563891902.72607422 0 0 0 0 -109295515.90267372 133780014.13090515 0 133780014.13090515 742612041.57278061 0 0 0 0 -99048335.158290863 179904682.90910339 0 179904682.90910339 701001937.45384979 0 0 0 0 236175424.74924707 142300405.11026382 0 142300405.11026382 460284022.96008301 0 0 0 0 95760552.827962875 147977865.32917786 0 147977865.32917786 698008724.8576355 0 0 0 0 -65700494.69361496 90424338.925806046 0 90424338.925806046 753284799.61738586 0 0 0 0 129416184.17395592 40412229.277320862 0 40412229.277320862 940809275.82021713 0 0 0 0 193641113.85632133 544327398.82805252 0 544327398.82805252 653444488.29630661 0 0 0 0 586164791.65809441 247693800.75593567 0 247693800.75593567 535029124.77406311 0 0 0 0 179671821.71883965 315981886.00014496 0 315981886.00014496 545324715.28292847 0 0 0 0 197955311.81890297 224843845.54615402 0 224843845.54615402 359453388.60405731 0 0 0 0 120605421.96876526 207045048.69216156 0 207045048.69216156 488860302.50105286 0 0 0 0 110307884.12530994 201176652.05315399 0 201176652.05315399 500485884.03166962 0 0 0 0 104976502.51338005 122177036.50539398 0 122177036.50539398 614182409.51554871 0 0 0 0 79130023.038482666 39232834.893981934 0 39232834.893981934 353277326.63157654 0 0 0 0 47138759.030565262 114256427.66875076 0 114256427.66875076 234898651.58434296 0 0 0 0 -37598467.032711029 -24494330.541000366 0 -24494330.541000366 129780993.20127869 0 0 0 0 -223337417.54363823 122902908.07751465 0 122902908.07751465 273633251.37600708 0 0 0 0 -251779224.94449615 373370807.96186066 0 373370807.96186066 519230389.37155914 0 0 0 0 30173306.769255638 134620361.45321655 0 134620361.45321655 226468107.9493866 0 0 0 0 -35788786.770421982 166659487.95154572 0 166659487.95154572 458883588.74269867 0 0 0 0 223614949.08811188 -635640148.57601929 0 -635640148.57601929 403991899.10175323 0 0 0 0 165327668.76582026 -444225801.11253166 0 -444225801.11253166 252437501.432724 0 0 0 0 -87991599.497347832 -377631677.22656631 0 -377631677.22656631 413497300.67722321 0 0 0 0 154072925.27602386 -343339903.01145935 0 -343339903.01145935 189002323.854496 0 0 0 0 -260263.59187526852 -1334955.6010554596 0 -1334955.6010554596 3244319.2276121899 0 0 0 0 -267542816.92454433 -229569544.93071365 0 -229569544.93071365 268476891.0671463 0 0 0 0 -966355.06120970543 -2594386.3427916788 0 -2594386.3427916788 8247100.3736604825 0 0 0 0 -622849815.28660774 205778011.76192093 0 205778011.76192093 375460893.54589844 0 0 0 0 88058087.254205704 731723847.02154541 0 731723847.02154541 599150530.3884964 0 0 0 0 47231527.732578993 90770102.775913239 0 90770102.775913239 73936379.174537659 0 0 0 0 178392915.9678452 -63414025.573940277 0 -63414025.573940277 1508318620.6902161 0 0 0 0 905743478.85038948 -379700426.40052032 0 -379700426.40052032 425465039.48368073 0 0 0 0 878856975.42797279 422333681.16819 0 422333681.16819 778708769.4745903 0 0 0 0 701179367.32136154 -951831883.23801529 0 -951831883.23801529 757560470.5118103 0 0 0 0 -95317760.802629471 -304630005.92501831 0 -304630005.92501831 1480243658.8137054 0 0 0 0 133843540.04697704 -67224464.976249695 0 -67224464.976249695 494505209.92243958 0 0 0 0 20890372.541098595 164005035.34223938 0 164005035.34223938 327314860.44538879 0 0 0 0 -182819900.46988773 -131518909.93675995 0 -131518909.93675995 758802464.62923431 0 0 0 0 -97905613.915733531 -243462814.67152643 0 -243462814.67152643 586067587.49447632 0 0 0 0 19696956.093628883 -419473974.93961334 0 -419473974.93961334 749966640.10076904 0 0 0 0 15606228.625249624 -4749701.0207109451 0 -4749701.0207109451 -14657925.270050049 0 0 0 0 603540.33994703833 -231249.2528917212 0 -231249.2528917212 -480100.80108623952 0 0 0 0 -1939439.8420137763 44273155.866962433 0 44273155.866962433 1944922.6719055176 0 0 0 0 -346597912.63193226 24985427.701936722 0 24985427.701936722 2921380.1355133057 0 0 0 0 -348179763.94500542 45673440.484130859 0 45673440.484130859 321976727.35648346 0 0 0 0 165235607.7691803 -100279473.41676331 0 -100279473.41676331 226568178.51112366 0 0 0 0 67843682.17974472 38661296.836185455 0 38661296.836185455 -136395155.92976379 0 0 0 0 138407027.91783047 202385346.64148712 0 202385346.64148712 213312252.1699481 0 0 0 0 -234891349.82225704 262049837.00402069 0 262049837.00402069 58799400.40460968 0 0 0 0 237229622.28898907 -69972829.237298965 0 -69972829.237298965 27947863.516921997 0 0 0 0 324437057.0188427 119166510.15989685 0 119166510.15989685 -11553151.290304184 0 0 0 0 619840723.3599987 211772139.03646088 0 211772139.03646088 227980149.18202209 0 0 0 0 451517316.268116 -133905448.53942108 0 -133905448.53942108 345073157.5667572 0 0 0 0 619788650.13336515 -227082876.64020157 0 -227082876.64020157 67275064.615036011 0 0 0 0 505022004.01563835 -71866825.745429993 0 -71866825.745429993 6924730.0631866455 0 0 0 0 409568040.11184812 -165694186.70216846 0 -165694186.70216846 -79443192.397277832 0 0 0 0 546212831.33003139 -93236198.418979645 0 -93236198.418979645 -125340144.39466095 0 0 0 0 1403640.7632062659 986777.60379570723 0 986777.60379570723 -85960.676507618278 0 0 0 0 167081667.96212864 -188731498.35955811 0 -188731498.35955811 18140203.918418884 0 0 0 0 43613868.074485302 -66486931.369121552 0 -66486931.369121552 -50168468.327674866 0 0 0 0 -864248.37358899042 1216502.8917900715 0 1216502.8917900715 2323553.6301697418 0 0 0 0 -1949311.475112915 489534.79613494873 0 489534.79613494873 1081451.3243713379 0 0 0 0 795453.58914935798 1797733.7964755259 0 1797733.7964755259 3220386.6568500474 0 0 0 0 -1232684.617713809 6380989.5033435822 0 6380989.5033435822 6172908.8000640869 0 0 0 0 23128999.220603943 135851701.42583847 0 135851701.42583847 -88142237.418495178 0 0 0 0 3500306.3782110214 4919914.1845855713 0 4919914.1845855713 4616562.8652114868 0 0 0 0 746537.55168056488 4358280.766078949 0 4358280.766078949 4935944.7456665039 0 0 0 0 822490.93227720261 5979061.8722000122 0 5979061.8722000122 4036663.3796234131 0 0 0 0 321626.16524592042 3652375.1242240295 0 3652375.1242240295 4553137.7757526487 0 0 0 0 -316994912.21022987 -117021957.91067505 0 -117021957.91067505 80056948.40776062 0 0 0 0 -248858555.47706795 57305602.948867798 0 57305602.948867798 133481489.96918488 0 0 0 0 -40552078.691398621 -49056609.224149704 0 -49056609.224149704 -882946.16834259033 0 0 0 0 -33876616.598898411 -100062082.81463814 0 -100062082.81463814 237366670.75457764 0 0 0 0 451153681.70019239 -293233555.15679681 0 -293233555.15679681 366682692.52631378 0 0 0 0 224244591.68192101 -74248301.277534485 0 -74248301.277534485 195890791.35775757 0 0 0 0 483595273.10029411 -204501441.51945496 0 -204501441.51945496 71381122.426807404 0 0 0 0 211525069.91456413 -145847588.19812012 0 -145847588.19812012 52855769.213503838 0 0 0 0 214996590.91056061 -37565085.01707077 0 -37565085.01707077 58426216.589286804 0 0 0 0 298439798.56629944 -61980182.037685394 0 -61980182.037685394 -38322924.785202026 0 0 0 0 392964945.12075615 -103963377.91419983 0 -103963377.91419983 -53196283.548658371 0 0 0 0 518448569.95282555 -16725224.058868408 0 -16725224.058868408 -52324188.002227783 0 0 0 0 379940948.47284508 -123460818.31600952 0 -123460818.31600952 105940442.81526184 0 0 0 0 210955519.21643591 -74465484.81525898 0 -74465484.81525898 -91331743.182632446 0 0 0 0 378226146.96043015 -97516944.67779541 0 -97516944.67779541 -148847077.88182068 0 0 0 0 215200983.47004128 -44258380.258708954 0 -44258380.258708954 4574204.0085296631 0 0 0 0 -12615475.232025146 -48228475.100028992 0 -48228475.100028992 -46133600.076503754 0 0 0 0 -47542546.904325485 14027006.517566681 0 14027006.517566681 -124392570.12651062 0 0 0 0 -15816269.612575531 -38798803.826530457 0 -38798803.826530457 42767923.544448853 0 0 0 0 -23599006.468956828 -124091512.86833262 0 -124091512.86833262 -72463986.570800781 0 0 0 0 -2756288.2921956843 -4188208.2512947749 0 -4188208.2512947749 9907634.3996859938 0 0 0 0 -241822186.5265789 -130150584.07432556 0 -130150584.07432556 7185251.2359848022 0 0 0 0 -204608922.7541008 -168110284.69408417 0 -168110284.69408417 -114745856.85568237 0 0 0 0 -17867117.720077515 -5030603.7965507507 0 -5030603.7965507507 17055318.183074951 0 0 0 0 -12285189.670372248 -6402380.3932299614 0 -6402380.3932299614 16153558.285064697 0 0 0 0 -13907001.886360168 1128250.7468261719 0 1128250.7468261719 25925648.36831665 0 0 0 0 -11679711.336450577 -2353095.4931259155 0 -2353095.4931259155 17567597.161281586 0 0 0 0 -10554111.917645454 -1485166.0233192444 0 -1485166.0233192444 10727421.003646851 0 0 0 0 -17751109.877916336 -3381853.991104126 0 -3381853.991104126 19386707.083343506 0 0 0 0 -14043262.08235836 -7796843.3892631531 0 -7796843.3892631531 6934913.8386077881 0 0 0 0 -21173536.96385479 -4115073.7930870056 0 -4115073.7930870056 10702024.123153687 0 0 0 0 -29390128.092079163 -11329703.000614166 0 -11329703.000614166 13094835.082527161 0 0 0 0 -1021137.1001471779 -5134059.0732820928 0 -5134059.0732820928 10904364.930987716 0 0 0 0 30570270.526597977 -46106660.551277161 0 -46106660.551277161 14084810.323905945 0 0 0 0 349473.22227277327 -1414747.8456066949 0 -1414747.8456066949 1311221.0139910206 0 0 0 0 -21301917.507236004 -3954787.4501266479 0 -3954787.4501266479 10898013.659957886 0 0 0 0 6596306.2896528244 -10338653.672821045 0 -10338653.672821045 6981388.265083313 0 0 0 0 -394015.93159068329 -6844172.6156158 0 -6844172.6156158 10988500.683677219 0 0 0 0 -11046598.823130608 -30403569.763462067 0 -30403569.763462067 20249965.717061996 0 0 0 0 3876890.5887770951 -11030061.161941376 0 -11030061.161941376 -3375223.5233596191 0 0 0 0 -4486167.6132888794 -23378465.386642456 0 -23378465.386642456 -79612092.94697237 0 0 0 0 2569900.693523407 -25732659.169513702 0 -25732659.169513702 20406963.100280762 0 0 0 0 8432179.6137943268 -40483938.00100708 0 -40483938.00100708 30792478.180648804 0 0 0 0 16668615.117078304 -10220405.83490181 0 -10220405.83490181 -955214.81575012207 0 0 0 0 27224139.095569611 -30534814.380073547 0 -30534814.380073547 2153024.2408370972 0 0 0 0 32467986.864519119 -27759258.050960541 0 -27759258.050960541 -2717955.9927597046 0 0 0 0 37593866.004318237 -16749063.442977905 0 -16749063.442977905 680808.76962280273 0 0 0 0 -856068.43941162387 -565818.81434988789 0 -565818.81434988789 -110146.81639494747 0 0 0 0 -6705415.1205482483 -19555821.614681244 0 -19555821.614681244 5783992.0475769043 0 0 0 0 12941001.286202379 -17465348.468438271 0 -17465348.468438271 7440307.7831833288 0 0 0 0 -37352827.95045948 44540234.752067566 0 44540234.752067566 3160659.8108215332 0 0 0 0 70976636.529071808 -189955065.39905548 0 -189955065.39905548 -114205972.4163866 0 0 0 0 83356019.039157867 -123229761.84928131 0 -123229761.84928131 11551201.660721302 0 0 0 0 -111666522.06336975 -156720962.99347878 0 -156720962.99347878 34218132.934947968 0 0 0 0 8321617.5102812322 -20886586.615724877 0 -20886586.615724877 19486308.627864823 0 0 0 0 108943910.82824135 -29566571.71969986 0 -29566571.71969986 -154781316.14529419 0 0 0 0 -108793529.61467743 -67899351.953496933 0 -67899351.953496933 73784008.643119812 0 0 0 0 -7674573.4814186096 -6197077.2080974579 0 -6197077.2080974579 18137143.373886108 0 0 0 0 -38204430.579267502 -5060037.1819763184 0 -5060037.1819763184 49825284.359268188 0 0 0 0 -451243.2302802559 -6209179.6899624439 0 -6209179.6899624439 6092259.2643187866 0 0 0 0 -10806198.922562767 -4152740.5879069287 0 -4152740.5879069287 19070814.438509636 0 0 0 0 -7330409.2056856155 -7004572.9444389343 0 -7004572.9444389343 17000895.828109741 0 0 0 0 -11495922.964948654 410029.25288391113 0 410029.25288391113 23998909.879920959 0 0 0 0 -6581221.4294128139 -6327360.6213426739 0 -6327360.6213426739 28077997.671792753 0 0 0 0 -81635955.432407379 -88302456.377853394 0 -88302456.377853394 198172968.36597633 0 0 0 0 101572877.03067863 -120999236.73821604 0 -120999236.73821604 72531262.52532959 0 0 0 0 104869034.87528765 -194766541.06367552 0 -194766541.06367552 133470112.32937622 0 0 0 0 -150100977.25022888 -2304818.5031776428 0 -2304818.5031776428 48097651.391069412 0 0 0 0 -150363478.87084198 74599310.439538956 0 74599310.439538956 4995374.415435791 0 0 0 0 -133389765.98284531 36040176.981700897 0 36040176.981700897 91807481.000104904 0 0 0 0 -267058713.37213898 206593072.90654373 0 206593072.90654373 204923026.12113059 0 0 0 0 -109885570.70455933 -94839590.112280846 0 -94839590.112280846 259214633.25569916 0 0 0 0 -301414091.81890488 117698134.82894516 0 117698134.82894516 304711110.34596252 0 0 0 0 16988102.958637238 -315638593.10987091 0 -315638593.10987091 481575193.75088501 0 0 0 0 33091901.410987854 -275883992.89961243 0 -275883992.89961243 437010291.20664978 0 0 0 0 -423626653.07027435 90212454.647666931 0 90212454.647666931 744867970.75568771 0 0 0 0 -200660072.27861404 104611137.3804512 0 104611137.3804512 200646657.24049377 0 0 0 0 482032086.23491478 -435469784.91473007 0 -435469784.91473007 345569102.76702881 0 0 0 0 39481747.750330925 109414188.79720688 0 109414188.79720688 412389471.95703411 0 0 0 0 507441392.97121716 -89767519.520502687 0 -89767519.520502687 9474546.5850753784 0 0 0 0 2413869.3965637721 -3147904.3896817779 0 -3147904.3896817779 -236736.52013309114 0 0 0 0 68322372.930641174 1112423468.9773674 0 1112423468.9773674 583259777.99625397 0 0 0 0 -257245852.0789547 -235121113.64021301 0 -235121113.64021301 1249635968.4388123 0 0 0 0 128313612.78456116 -552580294.29049683 0 -552580294.29049683 890395167.09475708 0 0 0 0 311438704.74535751 -183956039.53085327 0 -183956039.53085327 90295807.196228027 0 0 0 0 32334448.724612236 56536363.795385361 0 56536363.795385361 92052225.127733231 0 0 0 0 -70971963.346534729 -288821172.69512558 0 -288821172.69512558 694334477.44617462 0 0 0 0 -31572589.024101257 -180424818.02377129 0 -180424818.02377129 85519966.681591034 0 0 0 0 19642524.122826099 -41242496.043549538 0 -41242496.043549538 65729939.216960907 0 0 0 0 -7690002.23325634 -64216727.148210526 0 -64216727.148210526 59768738.697216034 0 0 0 0 -7284054.0026807785 -99770838.881170273 0 -99770838.881170273 259228473.52456093 0 0 0 0 4965209.1960945129 10321959.265693665 0 10321959.265693665 14545893.914628983 0 0 0 0 25092370.693750486 19564025.549776673 0 19564025.549776673 18448242.454164505 0 0 0 0 4787745.509976387 -11326949.804525375 0 -11326949.804525375 10219723.170459747 0 0 0 0 30316948.115886807 -11132559.539329767 0 -11132559.539329767 7063609.0488014221 0 0 0 0 6407173.6480464432 -8637465.3476581387 0 -8637465.3476581387 -158495.37675933167 0 0 0 0 786346.46843928099 -13264962.844625473 0 -13264962.844625473 3937678.5830726624 0 0 0 0 2198306.7869579587 668027.66589804366 0 668027.66589804366 -2334244.5757737774 0 0 0 0 123223067.53304863 -71453282.022762299 0 -71453282.022762299 -31926758.389251709 0 0 0 0 184720713.13309479 24147837.703302383 0 24147837.703302383 -38625660.395111084 0 0 0 0 302411991.45090485 -76979928.573917389 0 -76979928.573917389 -46544141.056892395 0 0 0 0 283572660.24022341 44446129.395009995 0 44446129.395009995 -42072303.031547546 0 0 0 0 25304260.53276825 28255949.723897934 0 28255949.723897934 22539999.889561057 0 0 0 0 30864310.944274068 11113354.156612396 0 11113354.156612396 11037383.361064911 0 0 0 0 24169431.725607872 12655913.749159098 0 12655913.749159098 7440301.889755249 0 0 0 0 17649204.032379176 10160731.895195168 0 10160731.895195168 16775890.272665644 0 0 0 0 24897606.619138569 -40349616.371089458 0 -40349616.371089458 49897912.745769501 0 0 0 0 6871347.4856778271 11154403.457271878 0 11154403.457271878 39926898.644476742 0 0 0 0 31014882.002830505 34990016.924302101 0 34990016.924302101 71214136.521175385 0 0 0 0 26996579.662601471 21018447.789134979 0 21018447.789134979 24234279.252775192 0 0 0 0 27555880.101593018 36219946.961707115 0 36219946.961707115 71237218.095245361 0 0 0 0 20591693.049377441 42275632.190143585 0 42275632.190143585 84365734.566139221 0 0 0 0 16379269.560245514 39690360.60747242 0 39690360.60747242 108340490.9369812 0 0 0 0 3051358.8576993942 38540846.861535907 0 38540846.861535907 85648300.077125549 0 0 0 0 1729512.7175331116 26004564.441861153 0 26004564.441861153 74332344.365776062 0 0 0 0 10812484.103046417 36701060.55971241 0 36701060.55971241 85895529.947113037 0 0 0 0 74352426.939562798 12528002.097114563 0 12528002.097114563 -140991971.0778389 0 0 0 0 3519406.8462697938 -2524250.5371148884 0 -2524250.5371148884 -9470992.5983197093 0 0 0 0 -14903059.194899173 -19764715.186742503 0 -19764715.186742503 44483279.018954799 0 0 0 0 17483421.465240479 26052009.685134888 0 26052009.685134888 100328638.08655167 0 0 0 0 12483319.483167648 34013931.652942657 0 34013931.652942657 135065049.47233391 0 0 0 0 13690107.261230469 22613418.204575539 0 22613418.204575539 122918351.96446991 0 0 0 0 -5497626.3626436144 -10648018.897858396 0 -10648018.897858396 31558402.702748187 0 0 0 0 -12684047.545986652 -30083081.988052368 0 -30083081.988052368 6531180.1034240723 0 0 0 0 -18132327.657248735 -44704601.624759674 0 -44704601.624759674 -44774547.67780441 0 0 0 0 -15949438.44312191 -24555107.232650757 0 -24555107.232650757 2338470.4966964722 0 0 0 0 -64123685.111457288 -27303532.654977798 0 -27303532.654977798 -44603792.376731873 0 0 0 0 -1849735.0243270164 -16675313.264820173 0 -16675313.264820173 18995559.481215358 0 0 0 0 3742738.9755859375 -14078731.956180573 0 -14078731.956180573 4244673.1916046143 0 0 0 0 12766018.71622395 3375560.90952239 0 3375560.90952239 9231796.0383143518 0 0 0 0 -23636516.378747225 -28465448.057731628 0 -28465448.057731628 -16957136.536895752 0 0 0 0 -13900508.928574085 -34384982.054931641 0 -34384982.054931641 -40350687.353912354 0 0 0 0 4019369.0109587954 -20397298.527345065 0 -20397298.527345065 -14143087.417726438 0 0 0 0 -5552077.0864292383 -15914430.027664185 0 -15914430.027664185 -2373293.8641014099 0 0 0 0 -11228956.361798607 -40847422.358529612 0 -40847422.358529612 25059400.605590735 0 0 0 0 -6708540.7321477197 -26857237.024405725 0 -26857237.024405725 27438643.83721488 0 0 0 0 2614355.1759061082 -9742826.6957950518 0 -9742826.6957950518 -10328911.720068417 0 0 0 0 7941540.5728049278 -36453539.188674927 0 -36453539.188674927 -95489821.913726807 0 0 0 0 -27106193.147048712 -50575698.606407166 0 -50575698.606407166 -92061379.254730225 0 0 0 0 -1575446.4917992125 -962363.79257214814 0 -962363.79257214814 2573076.5353988856 0 0 0 0 -22745176.027291298 -83444947.444152832 0 -83444947.444152832 -92711237.127487183 0 0 0 0 -91058079.753647089 -68484671.316200256 0 -68484671.316200256 18166113.98727417 0 0 0 0 7830714.9152069092 -16086759.177360535 0 -16086759.177360535 -15881350.62046814 0 0 0 0 9456046.0649542119 -18800413.212066688 0 -18800413.212066688 -37534765.06310302 0 0 0 0 13238644.680490177 -10721729.134871274 0 -10721729.134871274 -10533434.219024159 0 0 0 0 4128345.2003035434 -11022870.386094196 0 -11022870.386094196 243614.26592603326 0 0 0 0 36279932.641744852 -24724397.364753723 0 -24724397.364753723 -61266991.421112061 0 0 0 0 30555353.34830904 -5772944.0455245972 0 -5772944.0455245972 -26851190.454223633 0 0 0 0 -1351280.0916780829 -76407482.037249804 0 -76407482.037249804 -83549334.359207153 0 0 0 0 -4866985.5991010666 -100912765.04582977 0 -100912765.04582977 -15309099.884643555 0 0 0 0 -84055257.181513786 -74673365.508178711 0 -74673365.508178711 -1578661.2792129517 0 0 0 0 -98347566.968471527 -30380558.80393219 0 -30380558.80393219 -2654623.9363555908 0 0 0 0 14101045.957799911 -48881084.008159637 0 -48881084.008159637 -107068418.23069763 0 0 0 0 52242707.421557188 56225617.667228699 0 56225617.667228699 -242181758.80343628 0 0 0 0 -69980003.499503851 -99321149.97077179 0 -99321149.97077179 56972260.970046997 0 0 0 0 28259431.93410933 84929337.910415649 0 84929337.910415649 -25275588.369186401 0 0 0 0 -93827766.27066429 -108712019.94703388 0 -108712019.94703388 13585801.271911621 0 0 0 0 22724.174161045346 -4952706.3686557394 0 -4952706.3686557394 4719346.3818498552 0 0 0 0 12208551.071647644 -42844920.686401367 0 -42844920.686401367 -123219257.68741608 0 0 0 0 -130015843.9246521 -193249175.36430359 0 -193249175.36430359 -15104741.730758667 0 0 0 0 -30675045.47042942 -78373074.218067169 0 -78373074.218067169 174557734.68760681 0 0 0 0 42929174.859184265 -8741020.6449432373 0 -8741020.6449432373 76754304.001113892 0 0 0 0 -10275618.525053024 -108450831.85712433 0 -108450831.85712433 52316442.989639282 0 0 0 0 80800766.688161135 -33043668.855587006 0 -33043668.855587006 -247002063.80702209 0 0 0 0 -18178011.505888514 -26747378.43926385 0 -26747378.43926385 48495453.217999063 0 0 0 0 -96899022.620998859 -256297631.68616772 0 -256297631.68616772 -190945866.16785431 0 0 0 0 25555223.797310948 -79856564.32012558 0 -79856564.32012558 -48722469.778991699 0 0 0 0 39738514.248186111 23453607.530555725 0 23453607.530555725 2567444.098526001 0 0 0 0 -195486.30128243068 -1817169.6500134077 0 -1817169.6500134077 -2061242.0592141002 0 0 0 0 -184029014.16544586 -289318061.70681572 0 -289318061.70681572 300883194.46432495 0 0 0 0 134911309.58463955 78409658.465057373 0 78409658.465057373 -125712814.11238861 0 0 0 0 118368162.88547528 31327400.524360657 0 31327400.524360657 -195811436.80661011 0 0 0 0 32300689.80801747 -42181250.862999439 0 -42181250.862999439 -144237774.33834839 0 0 0 0 132574322.00151175 -105814127.12837791 0 -105814127.12837791 -141374098.14685059 0 0 0 0 177796565.36046135 30113552.474374771 0 30113552.474374771 -222360440.80560303 0 0 0 0 243102183.69551051 -1351604.1750297546 0 -1351604.1750297546 -65548904.196151733 0 0 0 0 132579956.87298 -9907339.1366271973 0 -9907339.1366271973 167718445.42365265 0 0 0 0 -1080788.8616511542 -1902166.3249136917 0 -1902166.3249136917 4477414.9927394167 0 0 0 0 200314036.81911206 -103370733.01717377 0 -103370733.01717377 -75498717.4559021 0 0 0 0 107419387.21212459 291858456.764534 0 291858456.764534 -315116646.85241699 0 0 0 0 148369711.61431634 355658257.67476177 0 355658257.67476177 381768864.59086609 0 0 0 0 -928413.37003930099 -244827.20090398565 0 -244827.20090398565 2243540.4228902161 0 0 0 0 450865708.38609344 90208863.726219177 0 90208863.726219177 111918423.24708557 0 0 0 0 -34321355.818653107 47575806.956291199 0 47575806.956291199 423155845.22448611 0 0 0 0 -14759140.964981079 125829094.33688354 0 125829094.33688354 187132144.39689636 0 0 0 0 -148174715.46554947 -38341812.070251465 0 -38341812.070251465 205261998.85290527 0 0 0 0 -109339600.43002796 101971267.12348175 0 101971267.12348175 107253877.4158783 0 0 0 0 -45095820.500394344 11702870.5109272 0 11702870.5109272 229905098.7855835 0 0 0 0 31169339.245386124 213076071.01055145 0 213076071.01055145 344093606.79975128 0 0 0 0 15575180.767899513 52839611.725639343 0 52839611.725639343 105602258.10631561 0 0 0 0 46905073.576221466 265063296.24216461 0 265063296.24216461 508346336.41015625 0 0 0 0 46207253.562550239 374641673.76388192 0 374641673.76388192 634513780.06962585 0 0 0 0 -53337025.965686798 205466774.97424316 0 205466774.97424316 534575116.4602356 0 0 0 0 18120409.768806458 228901746.84056091 0 228901746.84056091 421125675.97277224 0 0 0 0 -43047274.06234169 193349102.68589783 0 193349102.68589783 630833024.56086731 0 0 0 0 93239934.425117493 479479126.05065536 0 479479126.05065536 780253088.86227417 0 0 0 0 -19499860.743877411 146700408.22203064 0 146700408.22203064 1038201785.9487 0 0 0 0 -2477776.3402519226 215439256.9162674 0 215439256.9162674 602373126.99435425 0 0 0 0 2659048.7791862488 8763361.365814209 0 8763361.365814209 610477100.38329983 0 0 0 0 31115162.91960907 5891483.1537094116 0 5891483.1537094116 780174077.96405029 0 0 0 0 69621396.568405151 119710172.33728027 0 119710172.33728027 720090889.51977539 0 0 0 0 59953117.339956284 55197905.886550903 0 55197905.886550903 493132022.49069214 0 0 0 0 162719987.23365784 -125456733.17144775 0 -125456733.17144775 335501201.76487732 0 0 0 0 11455645.876150131 100471780.88399887 0 100471780.88399887 342921725.46322632 0 0 0 0 61096519.644023895 -91599954.345626831 0 -91599954.345626831 461254536.74512482 0 0 0 0 259259738.28976822 -181469963.885849 0 -181469963.885849 167111488.4181366 0 0 0 0 125350360.11579132 -146397926.08714294 0 -146397926.08714294 555656679.03901672 0 0 0 0 189214335.89605713 -42354844.711593628 0 -42354844.711593628 414119326.86883545 0 0 0 0 195120467.28620911 -18736305.7084198 0 -18736305.7084198 865697503.10721588 0 0 0 0 152474274.67408752 -224939117.595047 0 -224939117.595047 799055430.82376099 0 0 0 0 280391672.39807129 -349174528.63697815 0 -349174528.63697815 896519582.87982178 0 0 0 0 281868767.14321518 -64855023.781925201 0 -64855023.781925201 459701508.80575562 0 0 0 0 80684470.622524261 39194928.431495667 0 39194928.431495667 1383594751.2502441 0 0 0 0 385780664.31843567 -395239529.49603271 0 -395239529.49603271 1743677250.7108612 0 0 0 0 -10180492.277421951 353558593.39750671 0 353558593.39750671 2095327693.0774384 0 0 0 0 613556056.07411051 1055657044.5613222 0 1055657044.5613222 1298334069.1874542 0 0 0 0 156303736.73160553 422763738.91737366 0 422763738.91737366 1032077325.2604446 0 0 0 0 8567489.6909751892 14744532.103187561 0 14744532.103187561 1282472043.6921387 0 0 0 0 56789896.440869331 507905244.47003937 0 507905244.47003937 1255459268.6654968 0 0 0 0 -466760435.50542259 -246524979.87498474 0 -246524979.87498474 1266162859.5492859 0 0 0 0 -168674877.07920647 313222317.9827652 0 313222317.9827652 1927703274.1318359 0 0 0 0 -368998233.67926788 -67877489.017448425 0 -67877489.017448425 1368764891.2606812 0 0 0 0 -84400821.693710327 464427218.97821045 0 464427218.97821045 1718973816.4562836 0 0 0 0 728815200.90072632 934260788.10620117 0 934260788.10620117 1723945400.315094 0 0 0 0 1519233734.7218399 220329803.42218018 0 220329803.42218018 1012705379.9654541 0 0 0 0 -243691332.82311249 -18935999.063827515 0 -18935999.063827515 957111653.50770569 0 0 0 0 -144155535.7790184 -35981724.009689331 0 -35981724.009689331 736381418.99298096 0 0 0 0 -144707637.73075867 -275215401.60868835 0 -275215401.60868835 750470277.04742432 0 0 0 0 -212919218.07775116 -183858727.2169342 0 -183858727.2169342 754338134.25099182 0 0 0 0 -197452315.4178009 -120157741.37611389 0 -120157741.37611389 942759089.65838623 0 0 0 0 -241491807.80045319 182462079.67616272 0 182462079.67616272 1126847376.6000671 0 0 0 0 -264377531.37527466 47468486.60319519 0 47468486.60319519 1371731646.7389832 0 0 0 0 -278329864.0025444 -192348531.6071167 0 -192348531.6071167 1004350768.4847717 0 0 0 0 -150923032.37949371 168080646.86154175 0 168080646.86154175 1141485469.927002 0 0 0 0 -278699965.24058914 -36470402.565410614 0 -36470402.565410614 1008369151.1278381 0 0 0 0 -258680847.47689438 92833698.354709625 0 92833698.354709625 959391785.3614502 0 0 0 0 -241369839.24412918 -22385298.351593018 0 -22385298.351593018 856916271.99645996 0 0 0 0 148161581.27676392 293845465.7227211 0 293845465.7227211 378291120.85816956 0 0 0 0 -255526359.30093384 123612269.77770233 0 123612269.77770233 917358079.4092865 0 0 0 0 -268154018.76481628 244464126.69810486 0 244464126.69810486 972475855.1410675 0 0 0 0 -227036519.65116119 154812425.64128113 0 154812425.64128113 1178233433.7185974 0 0 0 0 356253250.99762917 600953883.33665466 0 600953883.33665466 823359582.01087189 0 0 0 0 624182.33383750543 -261197.82177486271 0 -261197.82177486271 -266825.36564050615 0 0 0 0 406957827.20388412 811126988.58773041 0 811126988.58773041 1143516386.6952209 0 0 0 0 -518482253.13994408 -221941098.84531403 0 -221941098.84531403 626245209.21508789 0 0 0 0 27787235.6353302 320747957.21022034 0 320747957.21022034 1029405664.5763569 0 0 0 0 113989878.02626801 410919194.57965088 0 410919194.57965088 1313020865.9067383 0 0 0 0 68196688.349781036 -176413207.02269745 0 -176413207.02269745 -58885477.270355225 0 0 0 0 2868269.075031348 -2092255.9762707725 0 -2092255.9762707725 -2396137.50227198 0 0 0 0 24989676.129501343 165647805.63845825 0 165647805.63845825 -87178910.740142822 0 0 0 0 -216723599.71902847 41345248.981403351 0 41345248.981403351 -13088309.06427002 0 0 0 0 25175325.099639893 59845685.205909729 0 59845685.205909729 230800837.44044495 0 0 0 0 -91836283.003713608 36536014.974292755 0 36536014.974292755 254823389.01567078 0 0 0 0 154041.51274810173 -859755.64735855162 0 -859755.64735855162 1043707.5003591627 0 0 0 0 -231752179.93240643 175839714.17917538 0 175839714.17917538 -47163714.38609314 0 0 0 0 -317885013.61877728 -29976486.060630798 0 -29976486.060630798 83911685.892456055 0 0 0 0 -19969.7150182724 78102581.705154419 0 78102581.705154419 -56066645.615127563 0 0 0 0 4449758.691491711 -8039364.5490571856 0 -8039364.5490571856 -4267834.8921451531 0 0 0 0 69382393.905561447 -32804545.910461426 0 -32804545.910461426 -55177682.723907471 0 0 0 0 6382649.4824237823 90477600.603710175 0 90477600.603710175 -36462095.254699707 0 0 0 0 64780345.84192276 -13647676.465782166 0 -13647676.465782166 -80549522.739181519 0 0 0 0 11792256.799362183 -56446563.915328979 0 -56446563.915328979 -47155946.35269165 0 0 0 0 100518156.24205971 -41989992.060134888 0 -41989992.060134888 -55815686.886516571 0 0 0 0 68836233.392198563 6820482.7863082886 0 6820482.7863082886 10734471.308410645 0 0 0 0 53262074.162336349 -97379141.982719421 0 -97379141.982719421 254498245.35664749 0 0 0 0 81212707.888473988 9345204.4030265808 0 9345204.4030265808 245475235.44171143 0 0 0 0 180598861.93894196 -93984315.879020691 0 -93984315.879020691 60288175.361938477 0 0 0 0 125615231.4356308 40973275.022697449 0 40973275.022697449 129110909.46016884 0 0 0 0 121802618.62761497 -23574161.76896286 0 -23574161.76896286 -24976098.603164673 0 0 0 0 38972163.745125987 -26502107.715571404 0 -26502107.715571404 583001176.58532715 0 0 0 0 -38341753.127195865 -71565107.557151794 0 -71565107.557151794 566115773.98620605 0 0 0 0 772044.49636114575 -66237230.534141541 0 -66237230.534141541 602699268.02606201 0 0 0 0 55061675.799121678 -98578940.624755859 0 -98578940.624755859 621134469.8008728 0 0 0 0 189871451.34249467 -89578777.562152863 0 -89578777.562152863 607054941.92047119 0 0 0 0 41388397.274300396 -59245795.013671875 0 -59245795.013671875 720676628.98216248 0 0 0 0 -250668.83177688072 -310354315.72621155 0 -310354315.72621155 807050549.87789917 0 0 0 0 -8717377.9633302093 -137503077.26654053 0 -137503077.26654053 598796740.07769012 0 0 0 0 -37834262.754675955 -95703763.297523499 0 -95703763.297523499 538866580.34194946 0 0 0 0 -83058850.661359102 -70917480.363494873 0 -70917480.363494873 538341453.56665802 0 0 0 0 -46477415.544079572 -119877758.63459778 0 -119877758.63459778 475137129.61022949 0 0 0 0 -84158966.54852131 -58843607.097615719 0 -58843607.097615719 457379403.09928894 0 0 0 0 -105692336.60364121 13116701.077392578 0 13116701.077392578 517271415.29730225 0 0 0 0 -41326558.434955806 -48575559.200843811 0 -48575559.200843811 487488567.40003967 0 0 0 0 -47478762.913672879 120253072.89474487 0 120253072.89474487 551958799.52902222 0 0 0 0 -45433980.870545864 -36080431.4503479 0 -36080431.4503479 520895083.51795959 0 0 0 0 -85821775.572392225 52704124.758865356 0 52704124.758865356 430778536.90302467 0 0 0 0 -151485233.91674954 -48402154.744750977 0 -48402154.744750977 443026699.0164032 0 0 0 0 -73933217.201789856 -71143177.004989624 0 -71143177.004989624 265288763.13000488 0 0 0 0 -67001297.154312909 34068376.029571533 0 34068376.029571533 368411823.98294067 0 0 0 0 -88374185.188267231 24086156.993499756 0 24086156.993499756 371747372.51193237 0 0 0 0 -47962241.018734932 81263113.000244141 0 81263113.000244141 382748730.22511482 0 0 0 0 -66548132.896651626 46193692.835361481 0 46193692.835361481 380782620.11528015 0 0 0 0 32195652.165288754 123489320.79144669 0 123489320.79144669 337028783.72731018 0 0 0 0 29810764.868061602 70674267.461158752 0 70674267.461158752 275173354.51078796 0 0 0 0 -964994.0510610044 2498788.1825332642 0 2498788.1825332642 540200886.32797623 0 0 0 0 8314533.0536166215 -33414415.011047363 0 -33414415.011047363 670365110.70552063 0 0 0 0 -5510.5577948511946 -2682409.4041157188 0 -2682409.4041157188 -2196286.3458862305 0 0 0 0 89268805.840247273 284091034.76754761 0 284091034.76754761 782796102.96760559 0 0 0 0 -254160.05790351774 -46699.482342213392 0 -46699.482342213392 874821.55961328745 0 0 0 0 -1965703.9214755548 -1998971.5605163574 0 -1998971.5605163574 -140511.40797424316 0 0 0 0 19326928.234708309 99846240.341743469 0 99846240.341743469 267310960.65835571 0 0 0 0 -49275.075689729238 -432224.80556814745 0 -432224.80556814745 1078136.6867622882 0 0 0 0 -1930125.090515723 -3729012.7856154442 0 -3729012.7856154442 -711466.39862060547 0 0 0 0 -2331819.8139645606 -1507258.2249069214 0 -1507258.2249069214 1122843.4931182861 0 0 0 0 5859.0820919159096 -4033692.061920166 0 -4033692.061920166 1655428.5707244873 0 0 0 0 -3122961.1277369084 -2813493.8920135498 0 -2813493.8920135498 7744171.7320709229 0 0 0 0 -3294740.6492444426 -1706583.3680953979 0 -1706583.3680953979 1749426.8106689453 0 0 0 0 -2813452.5089437701 -494318.89180755615 0 -494318.89180755615 3238358.9540100098 0 0 0 0 -3599388.2689099922 5028592.8666419983 0 5028592.8666419983 -670637.04528808594 0 0 0 0 27582.301635010444 -60160.53157620132 0 -60160.53157620132 63199.76381662488 0 0 0 0 174801.80484984815 -3160800.7588195801 0 -3160800.7588195801 15736269.105676651 0 0 0 0 -15704507.860266313 -10505853.638061523 0 -10505853.638061523 14808016.408935547 0 0 0 0 -3809642.6448807139 4356090.6778945923 0 4356090.6778945923 8490819.3923902512 0 0 0 0 58.568134673331997 -3706033.8358230591 0 -3706033.8358230591 46490940.728279114 0 0 0 0 12568588.415921204 1391941.8009185791 0 1391941.8009185791 -1403527.6925048828 0 0 0 0 944193.14946976304 -2423983.9468841553 0 -2423983.9468841553 7659851.0872278214 0 0 0 0 1618312.707651943 -2019278.5371627808 0 -2019278.5371627808 6346323.4870300293 0 0 0 0 1950342.2723639086 -2533805.3013381958 0 -2533805.3013381958 5805001.2698364258 0 0 0 0 1258057.6350220442 -2440527.609664917 0 -2440527.609664917 15507167.185882568 0 0 0 0 912832.93284024298 -843627.9215927124 0 -843627.9215927124 4759794.8329772949 0 0 0 0 -2777627.9734282065 -310198.0242805481 0 -310198.0242805481 832214.58088684082 0 0 0 0 61182.431997675812 -191919.20331378281 0 -191919.20331378281 244744.52978031337 0 0 0 0 620932.94169180095 -2176948.9192199707 0 -2176948.9192199707 6525058.5105285645 0 0 0 0 2539829.620662719 -345961.55587005615 0 -345961.55587005615 -785922.64459228516 0 0 0 0 159875.46537022508 -23232.421510584652 0 -23232.421510584652 -201144.74766358733 0 0 0 0 9675281.2285353504 26397427.846440315 0 26397427.846440315 10407518.334320068 0 0 0 0 243760.31697015843 -950294.32360732183 0 -950294.32360732183 -22511.114612787962 0 0 0 0 -8860357.0509194136 -62157188.181884766 0 -62157188.181884766 128208196.08692932 0 0 0 0 -2192853.7774869539 -1152205.9725189209 0 -1152205.9725189209 951525.3070602417 0 0 0 0 6710220.1593945473 -22156575.066543341 0 -22156575.066543341 71381972.204162598 0 0 0 0 172523.79429663206 -751918.77846389264 0 -751918.77846389264 947502.59883204103 0 0 0 0 30263904.513398647 66796983.727905273 0 66796983.727905273 81783639.157911301 0 0 0 0 -26276960.038119256 18504084.830528259 0 18504084.830528259 175041385.73400879 0 0 0 0 -36203049.507469654 20841850.129829407 0 20841850.129829407 271826823.5100708 0 0 0 0 -49315776.97042644 43038912.323059082 0 43038912.323059082 268967502.92292786 0 0 0 0 -45652503.457817197 22508898.2784729 0 22508898.2784729 306080443.42479706 0 0 0 0 -60271169.047466993 -31440766.317337036 0 -31440766.317337036 296283010.86804581 0 0 0 0 49400664.437538385 -14244173.927581787 0 -14244173.927581787 317942423.37133789 0 0 0 0 66756542.677045345 -166266214.75426483 0 -166266214.75426483 119865260.85235596 0 0 0 0 166093.84356716345 -103594.47220040858 0 -103594.47220040858 -92806.585258640349 0 0 0 0 -53024851.928572416 62557.938888549805 0 62557.938888549805 331730485.31362915 0 0 0 0 -71349259.306864977 78416872.232902527 0 78416872.232902527 3939670.8695220947 0 0 0 0 -31665036.563537598 830714.81594848633 0 830714.81594848633 290895076.06924057 0 0 0 0 -528265.63511681557 -55103017.476074219 0 -55103017.476074219 421107532.3909874 0 0 0 0 25258.001260548597 -43156.249161973596 0 -43156.249161973596 218921.24179997295 0 0 0 0 3892159.4682329893 -38388754.904907227 0 -38388754.904907227 424010943.92915344 0 0 0 0 -102451909.90442741 7938098.9901733398 0 7938098.9901733398 294231612.91790771 0 0 0 0 -114531999.06420708 -59011751.150856018 0 -59011751.150856018 61388922.009994507 0 0 0 0 -622343.44008608907 -2931808.7861824036 0 -2931808.7861824036 493923.73348999023 0 0 0 0 50867.189710465333 -1010656.3398145027 0 -1010656.3398145027 1560765.0507336706 0 0 0 0 -9610730.7312998772 16982820.415740967 0 16982820.415740967 77971466.723117828 0 0 0 0 229686.30102294986 -931022.37367438152 0 -931022.37367438152 -7470.5505482405424 0 0 0 0 -367288.2056684792 -1689075.162894249 0 -1689075.162894249 -40538.120483398438 0 0 0 0 970660.67245858908 -1946534.3267364502 0 -1946534.3267364502 9000.4546508789062 0 0 0 0 -528558.67268273234 -1819868.1277618408 0 -1819868.1277618408 5009268.9921112061 0 0 0 0 1706134.0756061301 -3169689.3397789001 0 -3169689.3397789001 1920238.7554626465 0 0 0 0 -2034917.8903234303 -2376268.9645576477 0 -2376268.9645576477 2100559.0560913086 0 0 0 0 -412734.62497347593 -1051398.0868988037 0 -1051398.0868988037 1612601.7344665527 0 0 0 0 197287.38165941834 -3166912.2100028992 0 -3166912.2100028992 551996.87002563477 0 0 0 0 176323.09487983584 -116432.42546463013 0 -116432.42546463013 1990745.0648651123 0 0 0 0 1069541.4864339754 365415.92484092712 0 365415.92484092712 3882286.1376953125 0 0 0 0 -463130.90607994795 -129147.74840545654 0 -129147.74840545654 4477132.0912928581 0 0 0 0 -97390630.086057544 -85237770.935184479 0 -85237770.935184479 -54868056.066574097 0 0 0 0 -3498852.0770286322 -74302362.718040466 0 -74302362.718040466 -63015435.178077698 0 0 0 0 253964.18964103266 -944580.19922425225 0 -944580.19922425225 1272831.6414346546 0 0 0 0 -1174619.0048638582 -696425.75926208496 0 -696425.75926208496 2789908.2664046288 0 0 0 0 161757.11934616556 -1000407.5978129804 0 -1000407.5978129804 1543155.5056698173 0 0 0 0 -135685642.09150445 -117779182.11017609 0 -117779182.11017609 -23546380.929733276 0 0 0 0 -107162806.18832669 -29809530.629835129 0 -29809530.629835129 44708135.524261475 0 0 0 0 -35631489.942332029 -56208690.651874542 0 -56208690.651874542 191538151.06317139 0 0 0 0 -45267887.207304955 10148740.149559021 0 10148740.149559021 13404047.151916504 0 0 0 0 -60566437.027265549 1296821.3659362793 0 1296821.3659362793 -26370170.484275103 0 0 0 0 -65579853.900543034 -50771247.758838654 0 -50771247.758838654 127271670.22842407 0 0 0 0 -60437721.108097911 -3787437.790473938 0 -3787437.790473938 290577693.31672668 0 0 0 0 -53199980.046763897 36508976.305343628 0 36508976.305343628 139158202.52404213 0 0 0 0 -40912992.991374314 43313552.018140793 0 43313552.018140793 193365814.08128357 0 0 0 0 -57635144.070068359 -10428667.862319946 0 -10428667.862319946 357618501.9880805 0 0 0 0 -112115549.40551174 -8792528.2390708923 0 -8792528.2390708923 357741214.87347412 0 0 0 0 -81494561.905513942 -78326546.582687378 0 -78326546.582687378 258227342.92463684 0 0 0 0 -76704696.097232252 90967711.450962067 0 90967711.450962067 564102117.04124451 0 0 0 0 -206669.53142307582 -70689.137454211712 0 -70689.137454211712 220104.52501810715 0 0 0 0 7762007.9635778666 21030011.2057724 0 21030011.2057724 367174776.04000854 0 0 0 0 -85487763.626572609 31907818.97542572 0 31907818.97542572 366251075.93057251 0 0 0 0 -53985337.014257789 -5982533.4389038086 0 -5982533.4389038086 376719102.30111694 0 0 0 0 -3688015.6574982405 -8741902.0793151855 0 -8741902.0793151855 369645031.23275757 0 0 0 0 -68275337.311600924 -12736663.523651123 0 -12736663.523651123 371589719.04318237 0 0 0 0 -41987894.423856705 32103.837112426758 0 32103.837112426758 352319331.35079956 0 0 0 0 -2747659.064637661 -6717845.086730957 0 -6717845.086730957 352062169.14706421 0 0 0 0 -16661551.641213179 7339136.0097427368 0 7339136.0097427368 355236600.0039444 0 0 0 0 -27685246.08782652 -26606742.582622528 0 -26606742.582622528 399207080.31530762 0 0 0 0 -392085.17876300274 -153219.12436898798 0 -153219.12436898798 416408.41472281143 0 0 0 0 -27604265.969455123 30339030.636558533 0 30339030.636558533 469804702.93548584 0 0 0 0 -24320822.916846603 13422130.999435425 0 13422130.999435425 457348743.66684532 0 0 0 0 -31635339.331580386 39306081.008560181 0 39306081.008560181 610099453.96570587 0 0 0 0 -189584.06324844438 -90772.383151836693 0 -90772.383151836693 229955.61669036373 0 0 0 0 -653770.314661026 -22568141.753714561 0 -22568141.753714561 374128353.56054688 0 0 0 0 -32205857.598248541 -14880381.545555115 0 -14880381.545555115 372109910.35643768 0 0 0 0 -97347018.26195015 19360601.777348518 0 19360601.777348518 416400180.13456726 0 0 0 0 -105723489.89690262 -14128428.743408203 0 -14128428.743408203 375348252.06777573 0 0 0 0 -178723387.08084309 -43857430.674751282 0 -43857430.674751282 384327261.87166977 0 0 0 0 -15936093.914911091 -10612131.477296829 0 -10612131.477296829 323516511.24226379 0 0 0 0 -95406157.814226508 23625688.79284668 0 23625688.79284668 428119345.60315704 0 0 0 0 -131234741.36441332 27891590.329761505 0 27891590.329761505 450964703.96915436 0 0 0 0 -105543274.8334294 46767561.439033508 0 46767561.439033508 384969039.15782166 0 0 0 0 -102463934.85333967 73982197.292900085 0 73982197.292900085 476172602.74555206 0 0 0 0 -22566544.660385489 220958409.73261261 0 220958409.73261261 553749207.60990906 0 0 0 0 -96841300.020272851 -29875324.350017548 0 -29875324.350017548 732762693.37210083 0 0 0 0 14575265.759135991 -128769480.60678101 0 -128769480.60678101 612506081.45152283 0 0 0 0 -109596841.40712214 13678072.200771332 0 13678072.200771332 618139061.84695435 0 0 0 0 -21436484.427149653 -113974159.57498169 0 -113974159.57498169 498693054.50947571 0 0 0 0 -628158.90825375915 -79639130.943126678 0 -79639130.943126678 468251207.09884644 0 0 0 0 113720716.26426929 -182120136.14033842 0 -182120136.14033842 341399501.00637817 0 0 0 0 110192600.86240759 -205269516.53566885 0 -205269516.53566885 384168166.54705811 0 0 0 0 39696485.232022047 -115812927.21356201 0 -115812927.21356201 309064682.88579559 0 0 0 0 38114337.86278975 -117378858.2747879 0 -117378858.2747879 343346295.4380722 0 0 0 0 -49012235.426138312 -55917708.921077728 0 -55917708.921077728 380035447.13334656 0 0 0 0 -70670705.467824101 -61323276.163833618 0 -61323276.163833618 417743533.39370537 0 0 0 0 -15446860.181268811 -8883372.5407905579 0 -8883372.5407905579 201536374.55387878 0 0 0 0 11071003.066956431 -64082647.164081573 0 -64082647.164081573 291098788.64183044 0 0 0 0 45075162.74728293 -57950755.591521263 0 -57950755.591521263 188064564.98973083 0 0 0 0 108030282.85689366 -85866356.630683899 0 -85866356.630683899 197069711.25646973 0 0 0 0 41773591.0607512 -76734398.009811401 0 -76734398.009811401 205014217.22685528 0 0 0 0 -21230319.472491026 -79324507.3879776 0 -79324507.3879776 82687217.978538513 0 0 0 0 12671269.151696533 -5675601.736541748 0 -5675601.736541748 59416722.328063965 0 0 0 0 154237195.26543152 -74467976.362060547 0 -74467976.362060547 81963016.008735657 0 0 0 0 131644931.86381239 -146238799.48184204 0 -146238799.48184204 117716210.71591187 0 0 0 0 104011465.44724262 -106508992.98103333 0 -106508992.98103333 66329047.42868042 0 0 0 0 121033318.48018242 -170728213.62569237 0 -170728213.62569237 16449529.089141846 0 0 0 0 105206648.28073847 -97680094.838792801 0 -97680094.838792801 -45890027.371246338 0 0 0 0 94768047.98765707 -189406297.92127228 0 -189406297.92127228 -28984762.621520996 0 0 0 0 -338063.03977808927 40482.832394570112 0 40482.832394570112 676441.73267367482 0 0 0 0 19207718.584979445 -24994515.20198822 0 -24994515.20198822 24338783.516857147 0 0 0 0 39342543.3742975 -22236192.809997559 0 -22236192.809997559 22553712.517807007 0 0 0 0 26927.502312075318 -8579.4248093962669 0 -8579.4248093962669 12786.344293013215 0 0 0 0 130245108.6572105 -86480402.783449173 0 -86480402.783449173 5061744.9396362305 0 0 0 0 280960389.76497835 -118926265.47161865 0 -118926265.47161865 10828565.901809692 0 0 0 0 260436677.30686492 -87934126.371292114 0 -87934126.371292114 61692841.76210022 0 0 0 0 392762518.77858829 -149710176.56194997 0 -149710176.56194997 24228494.560058594 0 0 0 0 1387.0014242420593 -136725.05709893513 0 -136725.05709893513 206273.63541215658 0 0 0 0 184693044.21376556 -165011106.52122498 0 -165011106.52122498 244377001.63200378 0 0 0 0 3172338.7895715404 13990663.771757722 0 13990663.771757722 63196870.092681885 0 0 0 0 25336497.493467718 -143270833.59817505 0 -143270833.59817505 132986338.14472198 0 0 0 0 165621871.51024514 -117735299.01148224 0 -117735299.01148224 119811303.85542297 0 0 0 0 166543457.06510183 -109799953.68236542 0 -109799953.68236542 159542387.45874023 0 0 0 0 109540974.21332169 -100303080.76508331 0 -100303080.76508331 189523638.21075439 0 0 0 0 136052614.87235984 -167293276.29509211 0 -167293276.29509211 249384191.61549377 0 0 0 0 140896454.78022575 -132033997.62536716 0 -132033997.62536716 199843631.67356873 0 0 0 0 139415312.62697059 -6444395.6430587769 0 -6444395.6430587769 151391706.02664185 0 0 0 0 151765619.23539239 -17505888.715492249 0 -17505888.715492249 159264413.16602325 0 0 0 0 220413312.15229136 148714389.43570709 0 148714389.43570709 221217989.36751556 0 0 0 0 70329749.405608788 -77602878.186010361 0 -77602878.186010361 91876291.782073975 0 0 0 0 -12941334.373100996 62784329.617189407 0 62784329.617189407 197011903.00975037 0 0 0 0 121664461.3618041 -163645944.09016418 0 -163645944.09016418 171916657.29891205 0 0 0 0 59323909.978720009 39039146.005210876 0 39039146.005210876 25612664.606239319 0 0 0 0 -179201.73308784061 348869.90717674047 0 348869.90717674047 721135.1772923544 0 0 0 0 9807322.1649813652 -34350266.238800049 0 -34350266.238800049 50135789.089447021 0 0 0 0 26985077.897230029 -10663329.347600937 0 -10663329.347600937 22032397.874465942 0 0 0 0 8611150.0397477746 -25629633.318750381 0 -25629633.318750381 27003539.989654541 0 0 0 0 19443768.672109991 -24130783.079639435 0 -24130783.079639435 27210480.23677063 0 0 0 0 54182748.591449261 51907127.526054382 0 51907127.526054382 10530007.81778717 0 0 0 0 33880922.374352694 -5840332.4923629761 0 -5840332.4923629761 25201688.762191772 0 0 0 0 39366002.902798176 76167644.419017792 0 76167644.419017792 -23990181.617874146 0 0 0 0 152424625.55054927 20335118.171264648 0 20335118.171264648 -46611847.639907837 0 0 0 0 -95005684.014865935 330082920.84705067 0 330082920.84705067 875159662.0904541 0 0 0 0 389184.53872748115 -422979.31194126606 0 -422979.31194126606 298987.62791746855 0 0 0 0 -167788730.37802267 -149990776.74298096 0 -149990776.74298096 702781270.54556274 0 0 0 0 -128239.00099111767 261637.31674192846 0 261637.31674192846 446762.35646612942 0 0 0 0 108796107.71285224 -71255047.408111572 0 -71255047.408111572 65591402.213821411 0 0 0 0 104462703.07248497 335848049.66653442 0 335848049.66653442 769328694.94346619 0 0 0 0 80488832.274092942 417097073.56951523 0 417097073.56951523 -257378178.14453125 0 0 0 0 -200175068.27710581 17606174.881759644 0 17606174.881759644 1304468108.0466003 0 0 0 0 392559737.34915876 491033271.08331299 0 491033271.08331299 -1195231134.197403 0 0 0 0 168762106.43610764 49858462.685424805 0 49858462.685424805 1302318595.39505 0 0 0 0 -191861624.38288689 -169789444.97381592 0 -169789444.97381592 1183427587.7873077 0 0 0 0 -438215.01233931771 937105.00796893239 0 937105.00796893239 1086063.0466627851 0 0 0 0 -208585042.27150393 234674155.53935623 0 234674155.53935623 87959462.651168823 0 0 0 0 290809096.0062027 376580769.72903442 0 376580769.72903442 -359828445.82208252 0 0 0 0 -109128591.32027632 -10723552.685788155 0 -10723552.685788155 -546666636.97233582 0 0 0 0 321403198.26533413 119934723.49733734 0 119934723.49733734 97079619.260447502 0 0 0 0 443692591.06949866 -170195414.76095104 0 -170195414.76095104 -71093022.121902466 0 0 0 0 307111800.75210524 -45658190.906692505 0 -45658190.906692505 210300538.99262238 0 0 0 0 493194372.58742481 -184786689.6335907 0 -184786689.6335907 160575579.44070816 0 0 0 0 297764570.95291603 -27233881.976844788 0 -27233881.976844788 94756947.10218811 0 0 0 0 239910741.74059939 -233919686.0712204 0 -233919686.0712204 277895229.41551971 0 0 0 0 -1647037.4095097184 -140083249.71455383 0 -140083249.71455383 699772711.73705673 0 0 0 0 317382328.75981784 -405404787.74858856 0 -405404787.74858856 530541113.14840698 0 0 0 0 1120797000.8540211 -481872134.99314117 0 -481872134.99314117 389514530.33662415 0 0 0 0 131799996.97659385 -451922479.11855316 0 -451922479.11855316 1382141452.2701035 0 0 0 0 188206565.38619173 544988390.08686066 0 544988390.08686066 1237196549.2345886 0 0 0 0 1783589.8508530315 -2229740.089548409 0 -2229740.089548409 2588325.2863436341 0 0 0 0 349451876.04100734 -911745053.66689301 0 -911745053.66689301 1265186206.6396637 0 0 0 0 161416762.2650263 -484065076.06107712 0 -484065076.06107712 330872077.43856812 0 0 0 0 -14008180.243766546 -19629473.795013428 0 -19629473.795013428 530513255.73464966 0 0 0 0 14356600.191731095 151927681.58275604 0 151927681.58275604 1456605676.8334045 0 0 0 0 600838710.28896451 508216066.7465477 0 508216066.7465477 623032733.76791382 0 0 0 0 318305252.39179665 -228359116.88922501 0 -228359116.88922501 17533013.259635925 0 0 0 0 258122079.2818464 -445346065.90266418 0 -445346065.90266418 379257237.28356171 0 0 0 0 179694985.16483265 -501600226.40044975 0 -501600226.40044975 338927079.63493347 0 0 0 0 873589748.80718184 -525149706.14707947 0 -525149706.14707947 3324322.8951416016 0 0 0 0 90060060.634281039 99613355.511241913 0 99613355.511241913 307442367.64129639 0 0 0 0 13069764.017771006 135666876.23068237 0 135666876.23068237 293975765.90560913 0 0 0 0 3441648.2212792556 -5503294.6841183715 0 -5503294.6841183715 8000689.2205355316 0 0 0 0 -213155559.31407166 -304690431.82171249 0 -304690431.82171249 -92750867.933914185 0 0 0 0 -48193803.745839596 -2344959.8343200684 0 -2344959.8343200684 -10950941.055112481 0 0 0 0 -32228917.5583781 14779447.0667696 0 14779447.0667696 -227542569.77191162 0 0 0 0 -37218645.02698189 8293466.0058307648 0 8293466.0058307648 153373790.65678406 0 0 0 0 -163670831.45573044 237907948.33737183 0 237907948.33737183 41405921.773391724 0 0 0 0 -303785852.68468189 166781636.57004166 0 166781636.57004166 324569511.65667725 0 0 0 0 -256681159.09657669 64135072.933895111 0 64135072.933895111 448763491.50804138 0 0 0 0 -209760824.36303711 -26737646.397361755 0 -26737646.397361755 548594430.80975342 0 0 0 0 -118443163.31690347 110262365.82562447 0 110262365.82562447 218688732.20223999 0 0 0 0 -139195936.28268242 63567636.384307861 0 63567636.384307861 236419095.92134094 0 0 0 0 -157978333.90461445 100376677.27716064 0 100376677.27716064 258754791.07959747 0 0 0 0 -134180620.89516926 61967106.923851013 0 61967106.923851013 315199108.42004395 0 0 0 0 -30893364.062674522 60633697.460319519 0 60633697.460319519 315711231.66160583 0 0 0 0 -31772766.892188072 70794554.235527039 0 70794554.235527039 234742370.7841568 0 0 0 0 49719300.598475695 94741244.939903259 0 94741244.939903259 265039923.46368408 0 0 0 0 90504196.008733869 -27708374.825050354 0 -27708374.825050354 211071715.63925171 0 0 0 0 26241534.944342345 49423529.03288269 0 49423529.03288269 118609156.17755127 0 0 0 0 48756817.367578506 -83522351.872032166 0 -83522351.872032166 489473867.53712463 0 0 0 0 43489845.151787475 -302346446.90638494 0 -302346446.90638494 287643282.82328796 0 0 0 0 -170674469.15383524 69172414.936364412 0 69172414.936364412 383240854.94812012 0 0 0 0 67037334.638942905 154738046.2274704 0 154738046.2274704 385392035.72316742 0 0 0 0 120943616.31430742 74313051.291923523 0 74313051.291923523 262571345.32685852 0 0 0 0 41538151.308018208 123186535.08451843 0 123186535.08451843 406669509.44512177 0 0 0 0 1412124.8259217567 187498.97935874015 0 187498.97935874015 -1082954.9731002897 0 0 0 0 209730081.43424511 147861777.74500275 0 147861777.74500275 34094123.32611084 0 0 0 0 278913.20230401104 47675.731421746314 0 47675.731421746314 84270.595879890025 0 0 0 0 16234748.612123489 168296507.13465881 0 168296507.13465881 394141009.58386993 0 0 0 0 55554803.369450331 16126941.858543396 0 16126941.858543396 322474088.47756958 0 0 0 0 -27352775.38277483 64577330.642910004 0 64577330.642910004 163126249.17767334 0 0 0 0 36858404.32780236 90184944.705678463 0 90184944.705678463 147972748.66473389 0 0 0 0 29082455.076701641 36758710.402664185 0 36758710.402664185 21017279.278289795 0 0 0 0 4245570.4916803837 4493042.7533988953 0 4493042.7533988953 2516848.4946136475 0 0 0 0 4835433.8957683025 815750.30595744774 0 815750.30595744774 -2133127.4033430368 0 0 0 0 44457642.011701107 -5115115.0566329956 0 -5115115.0566329956 29943427.30214262 0 0 0 0 98482.66447279416 2667950.3600507602 0 2667950.3600507602 3066120.6377398148 0 0 0 0 3634738.7855124474 3643567.9034423828 0 3643567.9034423828 2671565.9991455078 0 0 0 0 6723388.2488992214 6219765.9165267944 0 6219765.9165267944 4163178.3462982178 0 0 0 0 22654218.215605259 17555231.057674408 0 17555231.057674408 18647396.172515869 0 0 0 0 3642356.8455487047 2629322.9969972707 0 2629322.9969972707 -2720327.3778600767 0 0 0 0 5365485.9159069061 4802070.5026397705 0 4802070.5026397705 3986498.5331840515 0 0 0 0 4992642.1426931173 5437695.6395189762 0 5437695.6395189762 5820444.6989746094 0 0 0 0 3285403.6045496464 4885879.2182273865 0 4885879.2182273865 6668402.5653457642 0 0 0 0 -946924.50273970468 4556100.381862985 0 4556100.381862985 12489244.179896466 0 0 0 0 -432775815.98526001 -83616432.400283813 0 -83616432.400283813 345166300.16018677 0 0 0 0 -545394813.7181406 99612542.626785278 0 99612542.626785278 116372259.32778931 0 0 0 0 -9514815.8267612457 32398309.325233459 0 32398309.325233459 4655173.2306804657 0 0 0 0 1373349.7001501117 5600139.1636132225 0 5600139.1636132225 -845403.87389870733 0 0 0 0 4982464.5829255879 5267648.9154999256 0 5267648.9154999256 6795131.8486328125 0 0 0 0 22611560.781840324 13501751.423408508 0 13501751.423408508 -6782860.9401283264 0 0 0 0 -571170.05345830135 2298663.6245827731 0 2298663.6245827731 8245551.4614267573 0 0 0 0 -340802505.34917641 297945154.54074478 0 297945154.54074478 57999397.058670044 0 0 0 0 12775606.207460403 15191092.867019653 0 15191092.867019653 10899884.164901733 0 0 0 0 -63879813.406994343 32138229.933727264 0 32138229.933727264 40390655.388717651 0 0 0 0 -8415748.2075157166 17060485.157478333 0 17060485.157478333 180387092.66407776 0 0 0 0 -92359138.282864571 1109137.6752548218 0 1109137.6752548218 179006423.727005 0 0 0 0 -78635115.187790871 -46809141.337474823 0 -46809141.337474823 346310648.98590088 0 0 0 0 -56451533.093896866 75624209.351848602 0 75624209.351848602 312500656.41270447 0 0 0 0 -164517.55791976396 658578.32866369933 0 658578.32866369933 2885475.793645218 0 0 0 0 87471651.303465843 -228968598.4919548 0 -228968598.4919548 324504735.84089661 0 0 0 0 25109046.49023056 -111891873.60029602 0 -111891873.60029602 107909892.57534027 0 0 0 0 -129723388.60469437 -44412878.401977539 0 -44412878.401977539 351912590.22550964 0 0 0 0 -131877763.12051898 -142371894.56956029 0 -142371894.56956029 550975120.23692322 0 0 0 0 -175060603.9696722 1464270745.9170074 0 1464270745.9170074 339500676.63668823 0 0 0 0 794238757.8080101 267626410.94652557 0 267626410.94652557 -231310487.29472351 0 0 0 0 -618627181.55576706 81548653.515296936 0 81548653.515296936 205971476.62303162 0 0 0 0 2284727.250526818 -6562560.9583986141 0 -6562560.9583986141 14047656.857234709 0 0 0 0 -388053861.69199401 -140105324.91925812 0 -140105324.91925812 33835239.273269653 0 0 0 0 -24263542.054941177 174788319.82143402 0 174788319.82143402 -25767215.603027344 0 0 0 0 -24289557.733350754 177983013.76491547 0 177983013.76491547 -143318432.64109802 0 0 0 0 -80542032.052818298 186312662.89425659 0 186312662.89425659 248992088.17297363 0 0 0 0 -81361790.570093155 262062833.47107697 0 262062833.47107697 -78184122.878479004 0 0 0 0 185976251.60915947 270314677.37385559 0 270314677.37385559 -102783000.56313324 0 0 0 0 68243257.30945158 157401096.2390976 0 157401096.2390976 94196761.363006592 0 0 0 0 135974817.06533718 -234093990.28497601 0 -234093990.28497601 264000089.0849762 0 0 0 0 778438101.48919106 -39843540.541809082 0 -39843540.541809082 143584039.93205643 0 0 0 0 549071428.70525336 -445148931.4020195 0 -445148931.4020195 370118077.66604614 0 0 0 0 -104428198.54235363 -32819690.493484497 0 -32819690.493484497 17579922.217071533 0 0 0 0 -83133193.163721085 -164975658.96755981 0 -164975658.96755981 837508989.66292572 0 0 0 0 399734698.31473446 461465674.25216293 0 461465674.25216293 368709545.68005371 0 0 0 0 1774943.9189504446 17431.023447208107 0 17431.023447208107 -43901.149614013731 0 0 0 0 669018421.0041399 -85139150.477325439 0 -85139150.477325439 -938920638.26396179 0 0 0 0 546040603.00146961 -121561605.12123871 0 -121561605.12123871 -949542422.88194275 0 0 0 0 -164105544.89434624 -150787641.02148438 0 -150787641.02148438 -384666875.92805481 0 0 0 0 649889428.54623842 -357607002.24781799 0 -357607002.24781799 -807030776.97309875 0 0 0 0 265873158.53756285 241110065.16976166 0 241110065.16976166 807879788.29994583 0 0 0 0 778215723.62011838 -156180829.97268677 0 -156180829.97268677 -1070363074.4115906 0 0 0 0 -467938752.39414537 -464103368.39582825 0 -464103368.39582825 160338374.20884705 0 0 0 0 -114273254.93984449 648570504.70175171 0 648570504.70175171 967450927.53511047 0 0 0 0 1567500.0121481926 -4799835.2570506893 0 -4799835.2570506893 10874822.869922459 0 0 0 0 -78468546.963685989 -240532622.75191498 0 -240532622.75191498 824581827.57269287 0 0 0 0 41045793.787967443 -494230921.15372467 0 -494230921.15372467 405988607.7618866 0 0 0 0 101052618.61021782 -243565805.44943094 0 -243565805.44943094 359845528.6234436 0 0 0 0 103271784.19209217 -165604869.9282105 0 -165604869.9282105 83038068.584991455 0 0 0 0 647186.51386791468 -130666414.82146454 0 -130666414.82146454 169466694.05130005 0 0 0 0 -3344852.6382687688 -43329192.117362976 0 -43329192.117362976 -192808455.21487427 0 0 0 0 -40048676.399923325 10970634.899307251 0 10970634.899307251 12249647.334350586 0 0 0 0 -272983496.58156443 79653182.324035645 0 79653182.324035645 42496860.29057312 0 0 0 0 78269499.274774015 -20469599.565795898 0 -20469599.565795898 37227243.82459259 0 0 0 0 75408386.880338103 -35037110.500151634 0 -35037110.500151634 306427497.94558716 0 0 0 0 -30642982.142163157 54041027.807723999 0 54041027.807723999 168020780.75968933 0 0 0 0 70948923.82440947 72751577.165205359 0 72751577.165205359 94374571.237091064 0 0 0 0 -33863121.021314979 84438512.1900177 0 84438512.1900177 191430669.92378998 0 0 0 0 -14795682.799630046 127721454.32968903 0 127721454.32968903 174608170.92830658 0 0 0 0 23388430.491560489 72482608.243831635 0 72482608.243831635 254516959.36610413 0 0 0 0 -37497746.400549173 82500968.093696594 0 82500968.093696594 206831275.03865051 0 0 0 0 -26699456.313527629 89185621.075275421 0 89185621.075275421 90302707.127532959 0 0 0 0 -173010849.87132639 59648847.986831665 0 59648847.986831665 117526534.22723389 0 0 0 0 -115643990.14434242 52275168.275856018 0 52275168.275856018 52120173.045036316 0 0 0 0 -125122755.23419964 -57044090.256551743 0 -57044090.256551743 -43392133.971832275 0 0 0 0 3493353.7799432771 -7158580.2909810748 0 -7158580.2909810748 12537327.034045041 0 0 0 0 416261598.77285767 -1172330051.1309204 0 -1172330051.1309204 -182207878.17700195 0 0 0 0 -158159253.45346579 -44533526.3125 0 -44533526.3125 96839249.80241394 0 0 0 0 -84860678.930121899 20797591.136863708 0 20797591.136863708 83763387.444442749 0 0 0 0 -83190544.420214593 123352320.13944244 0 123352320.13944244 170546472.18159485 0 0 0 0 -31701064.282043099 139398924.00829315 0 139398924.00829315 212360059.10591125 0 0 0 0 -70683144.424135506 105289043.01740265 0 105289043.01740265 313964966.49841309 0 0 0 0 3472393.6094677448 19136081.326385498 0 19136081.326385498 34797124.561561584 0 0 0 0 -35136750.629863203 113159535.46911621 0 113159535.46911621 314796845.85972595 0 0 0 0 -49247736.986239828 155821768.7609663 0 155821768.7609663 374452520.26795959 0 0 0 0 -33839083.464594185 105735431.77542877 0 105735431.77542877 254560061.70043945 0 0 0 0 -51428607.734055638 100624755.43968201 0 100624755.43968201 332735223.96076202 0 0 0 0 -47610372.451629609 143629627.83179474 0 143629627.83179474 252116396.1415863 0 0 0 0 42182405.289757371 -20621054.049842834 0 -20621054.049842834 306987050.96270752 0 0 0 0 4090659.6133702993 28936645.226325989 0 28936645.226325989 244264244.53733826 0 0 0 0 -5503133.4707792103 58786296.562168121 0 58786296.562168121 331400519.18043518 0 0 0 0 -63823257.127215147 31911857.664146423 0 31911857.664146423 341907067.41677856 0 0 0 0 -10994036.829606712 -17960421.307754517 0 -17960421.307754517 307362618.10365295 0 0 0 0 13561926.893269449 -81109949.054077148 0 -81109949.054077148 304562984.84541321 0 0 0 0 -4817905.4341695011 -40046005.507995605 0 -40046005.507995605 383766414.06680298 0 0 0 0 16751659.771877412 -64311632.161146164 0 -64311632.161146164 354129735.37020874 0 0 0 0 35401116.068525895 -87871596.193993568 0 -87871596.193993568 240843410.25552368 0 0 0 0 36144135.556543797 -91826268.503517151 0 -91826268.503517151 239959006.25813293 0 0 0 0 -8162151.1515701711 -129510302.35899353 0 -129510302.35899353 284322507.03098297 0 0 0 0 43633844.267548621 -60613239.132110596 0 -60613239.132110596 294711380.60461807 0 0 0 0 40586916.300988853 -43608472.346847534 0 -43608472.346847534 233993891.52662659 0 0 0 0 82049071.620096162 -71260948.529724121 0 -71260948.529724121 185516511.76002502 0 0 0 0 94526280.673168302 -43329130.170013428 0 -43329130.170013428 233213366.60562325 0 0 0 0 26664751.011949971 -39894347.463470459 0 -39894347.463470459 169448349.56173706 0 0 0 0 61789078.580413222 -74729453.775295258 0 -74729453.775295258 184766653.32225037 0 0 0 0 79189586.065027177 -50221264.402931213 0 -50221264.402931213 199206781.98687744 0 0 0 0 101546636.91222823 -67802192.007049561 0 -67802192.007049561 207703714.59954834 0 0 0 0 168005071.18069232 -27737878.523574829 0 -27737878.523574829 188839003.13059998 0 0 0 0 127274890.32418066 4968477.0981140137 0 4968477.0981140137 180663854.79728699 0 0 0 0 76762617.1855551 -14727278.673194885 0 -14727278.673194885 187303895.70729065 0 0 0 0 93737860.336763084 16755109.533203125 0 16755109.533203125 245555712.76885223 0 0 0 0 35895459.906163126 77858822.997699738 0 77858822.997699738 183171551.57546997 0 0 0 0 147012773.83219814 35014658.827651978 0 35014658.827651978 171752776.83828545 0 0 0 0 70851676.436119705 55760853.441289216 0 55760853.441289216 193076498.46644592 0 0 0 0 170675115.82490078 -2366979.7067260742 0 -2366979.7067260742 267265746.43612671 0 0 0 0 180126551.18861318 23593279.832244873 0 23593279.832244873 151298775.54418945 0 0 0 0 364829720.95200151 -135157194.61174297 0 -135157194.61174297 279547457.38739014 0 0 0 0 167099264.33104539 -84095083.940444946 0 -84095083.940444946 270279764.92515564 0 0 0 0 250109422.77625322 -8117476.0066223145 0 -8117476.0066223145 176607294.34371185 0 0 0 0 334906425.34591651 57747499.087356567 0 57747499.087356567 286869487.52886963 0 0 0 0 85124903.796622038 -145113831.35218048 0 -145113831.35218048 209074113.95452118 0 0 0 0 99512790.393411994 -64259807.430740356 0 -64259807.430740356 614516488.44950867 0 0 0 0 12042611.907732487 -185910314.81082153 0 -185910314.81082153 426240169.50273132 0 0 0 0 63214529.023197293 -100980428.46746826 0 -100980428.46746826 147419225.73814392 0 0 0 0 137931758.79364586 -302612273.61271667 0 -302612273.61271667 410357025.83431244 0 0 0 0 238537740.73800063 -145403938.67936325 0 -145403938.67936325 54736756.491699219 0 0 0 0 270832.9757251452 -544098.94748742878 0 -544098.94748742878 355480.19250351936 0 0 0 0 -1728994.8302739859 45151442.657474518 0 45151442.657474518 25359763.037002563 0 0 0 0 4013976.6347292191 -955347.27524998784 0 -955347.27524998784 412299.71587903053 0 0 0 0 126769726.67181551 -129487788.17137527 0 -129487788.17137527 85436333.64050293 0 0 0 0 -101976665.47073174 -317352260.65969849 0 -317352260.65969849 -402883029.39024353 0 0 0 0 -151189799.03197911 -483246727.33153772 0 -483246727.33153772 57211582.194030762 0 0 0 0 -459794.58406752825 -672035.33062515408 0 -672035.33062515408 984751.73344995826 0 0 0 0 -348027037.87639534 175168382.44598389 0 175168382.44598389 -84411274.320259094 0 0 0 0 -2310689.1356490105 -2621435.3872127533 0 -2621435.3872127533 200886428.43945312 0 0 0 0 -350820.72019470448 -535255.06829832494 0 -535255.06829832494 743769.30797258392 0 0 0 0 4788555.8486253181 -3572313.9478889182 0 -3572313.9478889182 1652196.0383537784 0 0 0 0 2741599.4847610891 7145219.5018386841 0 7145219.5018386841 130289788.24977112 0 0 0 0 896627.67304793186 -1666190.8174651638 0 -1666190.8174651638 532395.966837354 0 0 0 0 -24176253.176320553 14779075.537704468 0 14779075.537704468 -15573969.028308868 0 0 0 0 57961431.731109679 204085781.10735321 0 204085781.10735321 532539695.33418274 0 0 0 0 39898190.09229815 85932111.340133667 0 85932111.340133667 154452917.28755951 0 0 0 0 -121527584.8573536 4052223.5510635376 0 4052223.5510635376 201566752.49858093 0 0 0 0 -18608965.629023194 110074315.15842438 0 110074315.15842438 300400012.49816895 0 0 0 0 -95754520.769722447 62123827.782487869 0 62123827.782487869 285808919.50744629 0 0 0 0 -87312802.236106753 -11893532.836936951 0 -11893532.836936951 368812498.98066711 0 0 0 0 -3811779.3366657943 3887887.8077392578 0 3887887.8077392578 309385033.96777344 0 0 0 0 86913871.212943673 -149317246.56749725 0 -149317246.56749725 550977658.72434902 0 0 0 0 41389365.072739571 -82916883.695594788 0 -82916883.695594788 319197309.16880798 0 0 0 0 150338494.36152542 -50479673.463546753 0 -50479673.463546753 207019809.44814539 0 0 0 0 -30900287.953595728 4058782.3323249817 0 4058782.3323249817 224186288.80975342 0 0 0 0 -138146822.95630953 91338284.175460815 0 91338284.175460815 267330512.03623581 0 0 0 0 -27829478.290546149 7605272.6232299805 0 7605272.6232299805 221457980.40987015 0 0 0 0 -3696563.5196627825 117750591.27943611 0 117750591.27943611 127002761.7454071 0 0 0 0 -32061277.909971207 28370756.982452393 0 28370756.982452393 108328178.21572113 0 0 0 0 -249773437.67803228 196609859.43629456 0 196609859.43629456 265949227.9458847 0 0 0 0 -64886692.330931887 158738149.75542068 0 158738149.75542068 272421806.24964905 0 0 0 0 -277838865.21852994 54443004.088920593 0 54443004.088920593 330864783.2602005 0 0 0 0 -94336278.429580986 53609373.54258728 0 53609373.54258728 150990063.52973557 0 0 0 0 -43654279.824819811 156299765.58581543 0 156299765.58581543 263818484.55285645 0 0 0 0 -69182554.245717227 226143734.64707947 0 226143734.64707947 173288907.94306946 0 0 0 0 119771298.67352256 13505668.80116272 0 13505668.80116272 272700372.63603973 0 0 0 0 -52328858.241624445 148160370.34462738 0 148160370.34462738 349860806.11314392 0 0 0 0 -53469179.700773418 -34547480.521194458 0 -34547480.521194458 402552488.63703918 0 0 0 0 -81611787.987911433 73494075.296760559 0 73494075.296760559 210838738.61807251 0 0 0 0 -366014109.70760828 96179965.186782837 0 96179965.186782837 257723368.25201416 0 0 0 0 -387154160.21344787 194252916.42440033 0 194252916.42440033 138603831.91403198 0 0 0 0 -162342756.1530776 -2726820.5703430176 0 -2726820.5703430176 161742692.22314453 0 0 0 0 123263198.57035057 -12509921.110378265 0 -12509921.110378265 540190810.02537537 0 0 0 0 1112429.0352412132 -35191820.796691895 0 -35191820.796691895 646417354.30595398 0 0 0 0 84116904.762757212 20045317.320320129 0 20045317.320320129 519202148.37812805 0 0 0 0 110359935.85595348 192164214.82438231 0 192164214.82438231 590551832.2822876 0 0 0 0 109943547.89782263 179811662.93460846 0 179811662.93460846 242627419.97497559 0 0 0 0 -28912393.8987053 -6424629018.194313 0 -6424629018.194313 -6541785879.3974609 0 0 0 0 -7778257.7410056917 3698370.014668148 0 3698370.014668148 6480527.8050854653 0 0 0 0 349697288.30990994 369966914.9697876 0 369966914.9697876 337999067.5315094 0 0 0 0 38749534.877581075 -6340650056.5838547 0 -6340650056.5838547 -6615618574.6377487 0 0 0 0 106323787.64689076 205023372.200634 0 205023372.200634 177341505.35647583 0 0 0 0 101174883.36997081 139914934.04476929 0 139914934.04476929 138151915.00315094 0 0 0 0 -14204555.696550105 14310883.932789411 0 14310883.932789411 704881.28351031989 0 0 0 0 -8442348286.46486 2136328436.3180771 0 2136328436.3180771 22750261413.753143 0 0 0 0 -9447258384.5271435 -4975999861.7671509 0 -4975999861.7671509 3126631037.2772064 0 0 0 0 -13953756.256682673 13974775.765380954 0 13974775.765380954 -61010066.227780312 0 0 0 0 7952102528.2825813 10602656770.573677 0 10602656770.573677 -1269506248.9915771 0 0 0 0 1227793413.6107254 5362950682.199791 0 5362950682.199791 1691236651.5813131 0 0 0 0 44360832.288359404 -1549876346.8909264 0 -1549876346.8909264 -5110494001.2212486 0 0 0 0 4275829.6387209892 -8675811.7855425645 0 -8675811.7855425645 48050474.198623165 0 0 0 0 24917837.790686436 -13993022.287715912 0 -13993022.287715912 4368978.0181884766 0 0 0 0 3237257947.0977669 4859644234.2956314 0 4859644234.2956314 -8217355400.4320068 0 0 0 0 -370689230.58769226 319165815.64523315 0 319165815.64523315 -102908988.15927124 0 0 0 0 -21779941.082625628 -1014486.7467269897 0 -1014486.7467269897 30451230.136016846 0 0 0 0 2564252.2798542669 -1623901.1912759556 0 -1623901.1912759556 1109114.341730997 0 0 0 0 -11551884.13648669 -8036613.8540267944 0 -8036613.8540267944 5409983.0567035675 0 0 0 0 7401567.9316803394 -30056931.507426575 0 -30056931.507426575 37212116.682135142 0 0 0 0 11151888.780201906 -31684771.907254007 0 -31684771.907254007 11128046.855985709 0 0 0 0 37532724.629754782 15994418.360610962 0 15994418.360610962 -40443181.917160034 0 0 0 0 36848056.518325627 -106680706.70962524 0 -106680706.70962524 119896996.16946411 0 0 0 0 67501576.435275555 -27678662.120193481 0 -27678662.120193481 21319889.326751709 0 0 0 0 -6438569.7966929674 -40576040.142669678 0 -40576040.142669678 26842231.291931152 0 0 0 0 34081010.308095999 -20472716.501622535 0 -20472716.501622535 -919121.07730307197 0 0 0 0 50953722.157156259 -14819526.224151611 0 -14819526.224151611 -31273035.910919189 0 0 0 0 -53565181.857086182 -199559065.52383518 0 -199559065.52383518 -4415614.7394485474 0 0 0 0 -2079672786.0445557 1857307164.4005852 0 1857307164.4005852 -1570154230.2010498 0 0 0 0 -8698943.3948969413 26445917.869077325 0 26445917.869077325 -33157760.712837689 0 0 0 0 -53375020.896037601 1021499.5436859131 0 1021499.5436859131 73234654.853088379 0 0 0 0 27091515.4861736 55555437.284942627 0 55555437.284942627 63644643.514587402 0 0 0 0 2259929.5148472786 11233721.737258911 0 11233721.737258911 -10604381.542831421 0 0 0 0 -220566.68997993268 435178.7315530479 0 435178.7315530479 -2335755.479362024 0 0 0 0 -56692403.260981329 47309237.795288086 0 47309237.795288086 171971763.31280518 0 0 0 0 26654787.334879309 -61635750.532821655 0 -61635750.532821655 27632549.502990723 0 0 0 0 -28842556.730266914 -116586152.63415527 0 -116586152.63415527 152979745.08953857 0 0 0 0 16388449.232107013 -91340021.589431763 0 -91340021.589431763 164516061.11384583 0 0 0 0 11292968.148777798 -130917237.90561676 0 -130917237.90561676 179097039.63454056 0 0 0 0 -38626534.044101655 -26025576.324188232 0 -26025576.324188232 57691748.692420959 0 0 0 0 1497861.0673095968 -1370459.6938626952 0 -1370459.6938626952 -1882378.9799182266 0 0 0 0 36758109.311143279 -46619153.492858887 0 -46619153.492858887 37298963.988433838 0 0 0 0 -42195698.655708894 -29876230.486589432 0 -29876230.486589432 100671559.75650024 0 0 0 0 16126785.274307907 -110821514.68432617 0 -110821514.68432617 160882141.9725647 0 0 0 0 26935577.506507516 -60294355.663208008 0 -60294355.663208008 47275137.315322876 0 0 0 0 -10940163.999115169 -80123606.237579346 0 -80123606.237579346 138909233.20227051 0 0 0 0 390922.93610423803 -136186071.12727356 0 -136186071.12727356 251198492.21323872 0 0 0 0 46049922.816826165 -107718575.02330017 0 -107718575.02330017 137133489.47298145 0 0 0 0 11877591.427990854 -84000826.215713501 0 -84000826.215713501 153907836.92825317 0 0 0 0 33541367.770457685 -129707766.02644348 0 -129707766.02644348 155004542.1428299 0 0 0 0 -14390207.896777272 -153753186.5212326 0 -153753186.5212326 370423422.00714111 0 0 0 0 -28386480.386998877 -100192675.09575653 0 -100192675.09575653 255127198.17417908 0 0 0 0 -19388855.841719002 -102037049.77812958 0 -102037049.77812958 371561557.39282227 0 0 0 0 -45053814.718986899 -79058690.752288818 0 -79058690.752288818 456544625.34024334 0 0 0 0 -51739669.189220637 -113989878.38497162 0 -113989878.38497162 374120718.17990112 0 0 0 0 -19210392.394734651 -153908344.57518005 0 -153908344.57518005 370429588.96420288 0 0 0 0 -55054050.062294506 -123537478.21749496 0 -123537478.21749496 478832414.9430542 0 0 0 0 -13751366.368999898 -200032539.00331116 0 -200032539.00331116 520431153.17731476 0 0 0 0 44852791.737351686 -193614144.50774384 0 -193614144.50774384 400199562.73129272 0 0 0 0 51004110.237001479 -226271483.89099121 0 -226271483.89099121 399231334.33043671 0 0 0 0 421029022.08031934 -325532181.99602509 0 -325532181.99602509 251616161.82868958 0 0 0 0 766050.73011830018 -469727.42739599012 0 -469727.42739599012 513347.61702401936 0 0 0 0 87684475.575681627 -329597997.72859192 0 -329597997.72859192 696570094.2951088 0 0 0 0 -149879139.62684762 -40737997.465293884 0 -40737997.465293884 325794685.12194824 0 0 0 0 226688958.80227429 -89957936.725509644 0 -89957936.725509644 -6399116.8777770996 0 0 0 0 -107085.51190591017 -18217234.385915946 0 -18217234.385915946 -142154953.32928467 0 0 0 0 51367166.98565346 37755839.65852356 0 37755839.65852356 17698143.04675293 0 0 0 0 108595945.14115107 -95751291.503494263 0 -95751291.503494263 73425996.250335693 0 0 0 0 80443351.223810375 -179038981.06665039 0 -179038981.06665039 196897197.75820923 0 0 0 0 37547449.85815829 -142497469.71718597 0 -142497469.71718597 237919886.13171387 0 0 0 0 214588436.92226714 -259362845.77839661 0 -259362845.77839661 211439887.51605225 0 0 0 0 85828502.99960199 -94990258.849901199 0 -94990258.849901199 86999213.512542725 0 0 0 0 14174011.739914075 -10134238.698188782 0 -10134238.698188782 3984904.2729644775 0 0 0 0 1761491.8604822606 -38668911.303436279 0 -38668911.303436279 82734953.548068404 0 0 0 0 -51971.22659010232 -13691576.249061584 0 -13691576.249061584 104211156.84570312 0 0 0 0 -3691591.5629150011 -26283876.081268311 0 -26283876.081268311 82515892.950561762 0 0 0 0 -4350883.8422467262 -24459284.320167542 0 -24459284.320167542 168727486.5202713 0 0 0 0 -6030247.6267789006 34724562.004863739 0 34724562.004863739 123414877.69163513 0 0 0 0 46936143.912720151 -72613778.414810181 0 -72613778.414810181 90730234.057731628 0 0 0 0 44047488.738433413 27879718.030261993 0 27879718.030261993 9990023.1549987793 0 0 0 0 -17049.48795735505 158233.11256715469 0 158233.11256715469 223016.53476192057 0 0 0 0 393926.91595844924 1952466.8321456909 0 1952466.8321456909 298317.47462463379 0 0 0 0 422184.47076055408 -2592676.5077362061 0 -2592676.5077362061 13345706.879900932 0 0 0 0 -107675.63414049553 490562.47173757479 0 490562.47173757479 573790.59770730138 0 0 0 0 5742907.5565392077 -4875260.6761398315 0 -4875260.6761398315 -893198.86354064941 0 0 0 0 -3386177.5659618676 22719931.943925858 0 22719931.943925858 6074464.6350097656 0 0 0 0 2472943.5603498425 753715.99610204995 0 753715.99610204995 5295176.5836178958 0 0 0 0 3435212.2230141461 5277574.5562667847 0 5277574.5562667847 -10558397.319892883 0 0 0 0 -8653385.0737050176 3839821.0322723389 0 3839821.0322723389 12728613.832061768 0 0 0 0 4562401.6877570301 1672381.7252197266 0 1672381.7252197266 -1586478.5304946899 0 0 0 0 -4874065.3578683771 -951825.27690124512 0 -951825.27690124512 -3719858.4633026123 0 0 0 0 -14306335.959772002 -3215250.1251392365 0 -3215250.1251392365 18186564.751663208 0 0 0 0 48568.989732538794 -14486953.874061584 0 -14486953.874061584 25878310.323944092 0 0 0 0 -117874.33127231937 -27830789.453536987 0 -27830789.453536987 8674536.5479278564 0 0 0 0 -15100639.139768975 -23249587.102584839 0 -23249587.102584839 20907518.235084534 0 0 0 0 -55650931.613022715 -46731567.614972115 0 -46731567.614972115 39926680.848144531 0 0 0 0 -42981105.167381182 24105879.92111969 0 24105879.92111969 -13624328.938598633 0 0 0 0 -202400378.71627152 4654577.0675048828 0 4654577.0675048828 59642525.499465942 0 0 0 0 -161049.66107623308 1216743.4511987157 0 1216743.4511987157 630438.17263843119 0 0 0 0 -25317216.110994525 4342302.9094924927 0 4342302.9094924927 7524665.7550354004 0 0 0 0 73561229.528843224 205681962.06768608 0 205681962.06768608 561614845.0459137 0 0 0 0 522179654.82275963 -655389594.14643097 0 -655389594.14643097 640448066.80368042 0 0 0 0 799328107.97957969 -1061908009.5942688 0 -1061908009.5942688 1235616921.6941223 0 0 0 0 -323551.26030912634 53622.486274365336 0 53622.486274365336 1871889.2244220972 0 0 0 0 -303691267.27250862 -158927750.67190552 0 -158927750.67190552 2586509788.5889282 0 0 0 0 -256617301.10602897 -751329738.66824341 0 -751329738.66824341 1330255195.5138092 0 0 0 0 -267145.24437877274 -292295558.5459137 0 -292295558.5459137 389769066.00439453 0 0 0 0 -98328915.433447435 69334194.960800171 0 69334194.960800171 -30351978.637359619 0 0 0 0 -844951.8200746295 -224309.44307430089 0 -224309.44307430089 691910.82489772886 0 0 0 0 625554498.132864 -842132582.64828491 0 -842132582.64828491 774134793.02047729 0 0 0 0 3073348.9463293552 -240048617.34963989 0 -240048617.34963989 1140674819.3958549 0 0 0 0 127589011.89671874 -504228605.69891357 0 -504228605.69891357 1173284576.4022675 0 0 0 0 516083.21466006938 -179099.54060350358 0 -179099.54060350358 1279444.5533923768 0 0 0 0 369099115.62532735 -389549167.3151474 0 -389549167.3151474 837881638.8170166 0 0 0 0 275996405.11554849 -227398349.86250687 0 -227398349.86250687 952324422.84649658 0 0 0 0 97446671.704192817 -272276092.50631714 0 -272276092.50631714 943420852.34030151 0 0 0 0 132945553.0455308 -228528039.30657959 0 -228528039.30657959 814327307.66411972 0 0 0 0 298063403.79478979 -404705323.50401306 0 -404705323.50401306 842080192.45565796 0 0 0 0 205305870.80287987 -130712447.63771057 0 -130712447.63771057 491302820.28884888 0 0 0 0 233934673.1787042 -244942342.97137451 0 -244942342.97137451 567850300.93713379 0 0 0 0 81686057.456644326 -118786836.37443542 0 -118786836.37443542 602175708.09599304 0 0 0 0 207940.91433431846 -127890859.60926332 0 -127890859.60926332 914233876.14129639 0 0 0 0 108837409.7927098 -126580377.51604462 0 -126580377.51604462 740647340.63412476 0 0 0 0 139618409.97184113 -153260463.40365601 0 -153260463.40365601 688668024.38572693 0 0 0 0 215563579.63184494 -305148401.12936401 0 -305148401.12936401 780127721.7961731 0 0 0 0 -279357680.37270284 9462965.3923950195 0 9462965.3923950195 4561439.8706054688 0 0 0 0 -333075305.52944493 14846606.85647583 0 14846606.85647583 23415758.907562256 0 0 0 0 -303393049.13406181 88437133.456199646 0 88437133.456199646 202700834.92626953 0 0 0 0 -143234608.16146803 -87917763.634613037 0 -87917763.634613037 70239021.136993408 0 0 0 0 -115210318.05562596 -181135867.72289658 0 -181135867.72289658 314009272.66769409 0 0 0 0 131508982.53226943 -115693288.93725586 0 -115693288.93725586 323419648.37475586 0 0 0 0 -75643998.615880251 -100721872.83204651 0 -100721872.83204651 461512377.97598267 0 0 0 0 -68267872.736816883 -472625300.07067871 0 -472625300.07067871 664751460.60559082 0 0 0 0 76143221.599185705 -267323862.73068237 0 -267323862.73068237 382015586.79638672 0 0 0 0 122041385.07474636 -340452365.17086792 0 -340452365.17086792 721429052.94270325 0 0 0 0 28638946.737063497 -275689360.2454834 0 -275689360.2454834 769702363.85749817 0 0 0 0 -71689887.485603631 -329188191.60630798 0 -329188191.60630798 896596384.46258545 0 0 0 0 79693828.525322199 -505573630.25357056 0 -505573630.25357056 885255789.66177082 0 0 0 0 -278244.07975722756 -60015.453941144049 0 -60015.453941144049 226041.58839244395 0 0 0 0 -389705245.03326124 -601259367.91010284 0 -601259367.91010284 120055521.8825531 0 0 0 0 -258835670.46145195 -293339646.57342529 0 -293339646.57342529 837603889.37023926 0 0 0 0 -184656407.91157949 -343332107.7269268 0 -343332107.7269268 891457519.49110413 0 0 0 0 75034971.138127804 -254150411.90748596 0 -254150411.90748596 839345332.99204254 0 0 0 0 -190166152.59580517 -330276238.87876892 0 -330276238.87876892 1165339843.2372131 0 0 0 0 -79283355.882933378 -493702916.87384033 0 -493702916.87384033 1073037050.2289276 0 0 0 0 -9087313.7901588082 -457133442.25660706 0 -457133442.25660706 1088801365.281456 0 0 0 0 185489214.70684296 -350125069.97940826 0 -350125069.97940826 1176864648.180542 0 0 0 0 245507.01066799948 232767.30391851813 0 232767.30391851813 867468.24885381013 0 0 0 0 69974276.823488355 -406085923.51103973 0 -406085923.51103973 872723789.19650269 0 0 0 0 71337897.800575614 -501401645.32139587 0 -501401645.32139587 1198287963.3232479 0 0 0 0 234833005.64018357 -300956873.27459717 0 -300956873.27459717 567016413.31136703 0 0 0 0 -497628.10071396665 549307.05238490552 0 549307.05238490552 4576392.4471167624 0 0 0 0 -928006.69404081255 2853567.6801338196 0 2853567.6801338196 -1072599.6000671387 0 0 0 0 -56754991.415955663 -398389323.40727234 0 -398389323.40727234 875811884.45493889 0 0 0 0 -66890043.145933628 -312328050.92653656 0 -312328050.92653656 586817805.50935364 0 0 0 0 -224240021.53462502 -398498525.08742905 0 -398498525.08742905 1060355980.2509766 0 0 0 0 -217544869.65742481 -349815738.5924015 0 -349815738.5924015 931989529.16189575 0 0 0 0 -52332398.627927661 -443870990.52261353 0 -443870990.52261353 831192571.73451996 0 0 0 0 -245307174.70286798 -256742516.2074852 0 -256742516.2074852 1175102544.6735229 0 0 0 0 -331427072.88383961 -296962697.63483429 0 -296962697.63483429 1171462171.3375549 0 0 0 0 -258404228.39714432 -202038238.60842896 0 -202038238.60842896 950098189.00149536 0 0 0 0 1092109216.6149559 1000258956.0995941 0 1000258956.0995941 1001619626.0911331 0 0 0 0 -273600570.79255962 -607337209.62103271 0 -607337209.62103271 2677782362.6376266 0 0 0 0 867975355.90102553 -1306143300.8684952 0 -1306143300.8684952 1141155114.0008545 0 0 0 0 191773821.13296986 -417135478.92736816 0 -417135478.92736816 492951941.87319946 0 0 0 0 247724557.05436301 -527194389.88685989 0 -527194389.88685989 595039432.95983887 0 0 0 0 544056123.17823505 -345652602.78034973 0 -345652602.78034973 255567986.12371826 0 0 0 0 -185452699.63953686 -519464907.52571869 0 -519464907.52571869 1265367857.5143394 0 0 0 0 -205751098.23614645 -424584462.27658844 0 -424584462.27658844 1022777784.6105347 0 0 0 0 -17198976.164751053 22395842.616523743 0 22395842.616523743 155740844.62887573 0 0 0 0 -118004045.30985069 -86235768.664909363 0 -86235768.664909363 978243834.40970993 0 0 0 0 -17018010.186938286 -94923312.406936646 0 -94923312.406936646 50765327.385124207 0 0 0 0 43046697.527915955 -267638026.32743835 0 -267638026.32743835 634154408.6467514 0 0 0 0 168743181.33760381 12484606.790342331 0 12484606.790342331 112202180.9307251 0 0 0 0 -21620114.305074453 77502266.191823959 0 77502266.191823959 -67811211.671264648 0 0 0 0 112360018.12934184 70382240.146379471 0 70382240.146379471 -101441712.60583496 0 0 0 0 -7018683.7129249955 -2635787.2405225523 0 -2635787.2405225523 7009243.4272112995 0 0 0 0 -133743846.74193573 -33571875.918640137 0 -33571875.918640137 5942295.089302063 0 0 0 0 -417438933.57615089 -65524251.294952393 0 -65524251.294952393 -1126225.0816040039 0 0 0 0 -75108901.621713519 -63081198.610616684 0 -63081198.610616684 -12045359.171127319 0 0 0 0 -2453946.8899034606 660809.51957808807 0 660809.51957808807 1572584.807370089 0 0 0 0 29656393.507611096 -124655002.34996986 0 -124655002.34996986 24114840.774658203 0 0 0 0 -430978511.67732978 -29603016.345016479 0 -29603016.345016479 137306309.73674011 0 0 0 0 -311779302.9040184 -137456880.51265717 0 -137456880.51265717 146816729.52409363 0 0 0 0 -387100885.3638587 -389312305.00080109 0 -389312305.00080109 623514096.99453735 0 0 0 0 -430824880.54020405 -234109602.84825897 0 -234109602.84825897 74971246.822052002 0 0 0 0 -118344270.00089169 -154304298.27490234 0 -154304298.27490234 -9780400.553024292 0 0 0 0 -61554112.701539278 132141463.47109699 0 132141463.47109699 43076404.778457642 0 0 0 0 -657640409.54951668 260068451.03261447 0 260068451.03261447 1264209005.766449 0 0 0 0 -6507378.9144557156 -3092970.7430014312 0 -3092970.7430014312 7543533.0434867591 0 0 0 0 -649634143.73185539 579988240.22612762 0 579988240.22612762 125353957.32844138 0 0 0 0 67213400.284470081 -252850431.30714417 0 -252850431.30714417 723139543.70285034 0 0 0 0 1289373.3163275393 -6852613.8640431017 0 -6852613.8640431017 6870540.7537744641 0 0 0 0 -223088684.24092484 -76837411.055587769 0 -76837411.055587769 36303843.444049835 0 0 0 0 104716517.35927105 153735586.45330048 0 153735586.45330048 26831770.478759766 0 0 0 0 834005678.31287992 -488748361.74954343 0 -488748361.74954343 -81240506.713806152 0 0 0 0 -219986759.8449173 -1122653053.9672775 0 -1122653053.9672775 2421908038.7684059 0 0 0 0 755798.67522696941 -2373362.2561356165 0 -2373362.2561356165 2465379.5217096061 0 0 0 0 -154964146.05804068 607926402.24291229 0 607926402.24291229 3179556986.4447021 0 0 0 0 -182905147.8879509 -249886041.49028778 0 -249886041.49028778 1767890203.7027283 0 0 0 0 -215378887.06363374 203091342.4880209 0 203091342.4880209 1243540914.3355103 0 0 0 0 -25758818.798868179 -62147530.912776947 0 -62147530.912776947 -62250760.922668457 0 0 0 0 -131372758.89200878 -40894619.322231293 0 -40894619.322231293 71318778.430915833 0 0 0 0 -40276078.329041004 19447066.151288986 0 19447066.151288986 93090366.140975952 0 0 0 0 -78493844.095455647 -49972697.913156509 0 -49972697.913156509 59881838.684188843 0 0 0 0 -6233239.9377954938 3029059.1531025171 0 3029059.1531025171 5328801.8981099576 0 0 0 0 -9968119.4596079588 13770369.392906189 0 13770369.392906189 15564957.77167511 0 0 0 0 7549056.9796329495 -3713372.5751011372 0 -3713372.5751011372 2515064.8608867992 0 0 0 0 -1496477.5473823547 14931638.899383545 0 14931638.899383545 28159077.408252716 0 0 0 0 99341204.825761318 -716033784.80843353 0 -716033784.80843353 869783050.92955017 0 0 0 0 10278200.040302128 -4841326.0243104398 0 -4841326.0243104398 4177272.0031515025 0 0 0 0 434412903.2958374 -180353877.66894531 0 -180353877.66894531 -233694793.32001495 0 0 0 0 19759388.151605129 -36647624.244945526 0 -36647624.244945526 11897450.110443115 0 0 0 0 -5490036.9359537493 1202782.5976969525 0 1202782.5976969525 4568833.9093856141 0 0 0 0 -233773.82626601565 -685939.51122817397 0 -685939.51122817397 1607692.495108692 0 0 0 0 -93597949.527273655 180729543.81687927 0 180729543.81687927 478818565.58746719 0 0 0 0 3110523.9534093142 6882655.5821685791 0 6882655.5821685791 -34139373.07926178 0 0 0 0 -224770910.57701874 264033212.60459137 0 264033212.60459137 1159046433.1752784 0 0 0 0 -12653475.496426105 5641076.9975967407 0 5641076.9975967407 36381876.181976318 0 0 0 0 -8629939.1614287496 10238922.685928345 0 10238922.685928345 3260368.267791748 0 0 0 0 41890.041931033134 10111568.572067261 0 10111568.572067261 3120903.7319831848 0 0 0 0 474232.99146437645 17410570.80770874 0 17410570.80770874 -11094792.166488647 0 0 0 0 -2443823.385727644 -2711005.3321838379 0 -2711005.3321838379 -412110.15752410889 0 0 0 0 -7943864.8628532887 11752879.912986755 0 11752879.912986755 27911170.42048645 0 0 0 0 2203603.6408183575 1325918.2468109131 0 1325918.2468109131 29331263.490987778 0 0 0 0 -9775032.5482921004 13340461.839942932 0 13340461.839942932 48725867.341674805 0 0 0 0 -9799392.815195322 13645112.614143372 0 13645112.614143372 38713638.923692703 0 0 0 0 -16686526.105956733 9630801.380531311 0 9630801.380531311 86516965.569961548 0 0 0 0 -3069338.0199469328 -43893095.37436676 0 -43893095.37436676 116247903.82559204 0 0 0 0 9905197.6102397442 -12709696.439804077 0 -12709696.439804077 51791833.940925598 0 0 0 0 -7697569.5797854662 -119585.688621521 0 -119585.688621521 41305858.662185669 0 0 0 0 -13080669.670064688 -5343385.8306732178 0 -5343385.8306732178 64753524.612640381 0 0 0 0 -11939485.174957275 -1062495.6011886597 0 -1062495.6011886597 48302066.6355896 0 0 0 0 -11494703.048462212 -2515298.3513126373 0 -2515298.3513126373 40561738.208480835 0 0 0 0 -10080238.431438833 1317475.45794487 0 1317475.45794487 37680967.161514282 0 0 0 0 -1752285.911703825 4069090.4091949463 0 4069090.4091949463 18587847.17339325 0 0 0 0 -5261058.3577993261 4317642.0404995009 0 4317642.0404995009 5134085.9634863883 0 0 0 0 68288329.342119217 129705261.42768097 0 129705261.42768097 -89284032.643680573 0 0 0 0 -88834627.275913239 62715225.826324463 0 62715225.826324463 22602269.125953674 0 0 0 0 50410661.058700562 -33031154.923339844 0 -33031154.923339844 -12539267.480712891 0 0 0 0 -28498717.98610878 -95928464.476600647 0 -95928464.476600647 4285411.9841766357 0 0 0 0 -5818915.5518171117 3870259.9796190336 0 3870259.9796190336 5346481.9953027628 0 0 0 0 -9590248.661488533 -2881216.5130157471 0 -2881216.5130157471 41065260.307792664 0 0 0 0 -5483490.7058341503 -12412497.038360596 0 -12412497.038360596 54649567.750061035 0 0 0 0 -5268192.3698067665 -10830067.88734436 0 -10830067.88734436 51766617.469120026 0 0 0 0 -3401347.2958190441 -11276518.673675537 0 -11276518.673675537 53655117.825408936 0 0 0 0 -5903029.7778459787 -12554610.629692078 0 -12554610.629692078 58573885.389221191 0 0 0 0 6789453.1463289261 -13079572.515792847 0 -13079572.515792847 53738493.690368652 0 0 0 0 21039319.648555756 -24837168.210144043 0 -24837168.210144043 60118435.383789062 0 0 0 0 1468462.4496054649 -10430591.197906494 0 -10430591.197906494 54807864.6043396 0 0 0 0 4956729.8335056305 -13016254.848724365 0 -13016254.848724365 54486647.564971924 0 0 0 0 1919431.796215415 -16112808.130859375 0 -16112808.130859375 59194394.401489258 0 0 0 0 56192246.31224823 -24113019.931213379 0 -24113019.931213379 -180261844.38323975 0 0 0 0 10355668.732200146 -20669194.610183716 0 -20669194.610183716 60011627.305847168 0 0 0 0 2399428.5749006271 -15901566.480651855 0 -15901566.480651855 62763437.116897583 0 0 0 0 -4508185.3448767867 2956788.5934201777 0 2956788.5934201777 9208936.7160930559 0 0 0 0 1152617.8131327629 -31882214.969085693 0 -31882214.969085693 86273449.565612793 0 0 0 0 -5202468.9657812119 -24989545.959564209 0 -24989545.959564209 91816280.156829834 0 0 0 0 -308019.0475398812 949299.55113330483 0 949299.55113330483 -2231714.1384489015 0 0 0 0 41867771.917381287 83011117.755065918 0 83011117.755065918 -160482966.17572021 0 0 0 0 18096386.208467484 -21175617.556091309 0 -21175617.556091309 56600582.03678894 0 0 0 0 4928657.660033226 -14568909.553710938 0 -14568909.553710938 58794032.138061523 0 0 0 0 10818164.435083389 -28115661.049285889 0 -28115661.049285889 66818723.269897461 0 0 0 0 12410511.056213379 -28387628.130310059 0 -28387628.130310059 64536676.399841309 0 0 0 0 4562871.3560647964 -22249018.256988525 0 -22249018.256988525 67776044.018157959 0 0 0 0 5454238.6235361099 -29284311.804626465 0 -29284311.804626465 72143772.89453125 0 0 0 0 6149167.9885492325 -25595586.389968872 0 -25595586.389968872 70680846.85736084 0 0 0 0 -901496.59844398499 -20257762.80279541 0 -20257762.80279541 80472026.643306732 0 0 0 0 2498134.3899841309 -18391068.889648438 0 -18391068.889648438 66141136.965515137 0 0 0 0 1261135.374414444 -26890934.381591797 0 -26890934.381591797 79985411.850036621 0 0 0 0 -2001104.2670907974 -16208433.550430298 0 -16208433.550430298 75203630.167053223 0 0 0 0 -286891.43590927124 -24221387.622131348 0 -24221387.622131348 75646041.192260742 0 0 0 0 7314853.9698629379 -32410055.757553101 0 -32410055.757553101 76559853.718994141 0 0 0 0 68071561.794494629 40828409.43157959 0 40828409.43157959 -139507399.00296593 0 0 0 0 52309090.081817627 69879248.240722656 0 69879248.240722656 -99854413.704421997 0 0 0 0 34196917.745933533 19914830.195800781 0 19914830.195800781 -23115896.38104248 0 0 0 0 43594472.122901917 11863430.133972168 0 11863430.133972168 -65042873.49597168 0 0 0 0 45571949.829391479 14678472.818725586 0 14678472.818725586 -111337249.71546936 0 0 0 0 47116209.744644165 -37131039.57043457 0 -37131039.57043457 -140789940.66757393 0 0 0 0 33581077.986251831 -30973542.584716797 0 -30973542.584716797 -101821883.23034668 0 0 0 0 -7616121.4047431946 -90169565.206726074 0 -90169565.206726074 -150819675.990448 0 0 0 0 -46194947.87702179 -103689692.50891113 0 -103689692.50891113 -121520158.29223633 0 0 0 0 22738837.971871614 -30536365.545921326 0 -30536365.545921326 62592174.913818359 0 0 0 0 15433060.363170624 -35544529.739013672 0 -35544529.739013672 69673331.025268555 0 0 0 0 -13329563.771178246 34373439.565338135 0 34373439.565338135 -58952009.657226562 0 0 0 0 -133492927.31673431 -61040519.999710083 0 -61040519.999710083 -52672095.348022461 0 0 0 0 -16049011.875380158 7771841.7233695984 0 7771841.7233695984 50815260.51574707 0 0 0 0 -19093399.721383095 -3899528.2516174316 0 -3899528.2516174316 57628504.834075928 0 0 0 0 -160268087.5198822 98220585.006774902 0 98220585.006774902 -35796686.872314453 0 0 0 0 -203598652.1317749 22536804.728607178 0 22536804.728607178 -11522415.429443359 0 0 0 0 -7864912.9491052628 -18218308.953460693 0 -18218308.953460693 95722594.484466553 0 0 0 0 -7278586.3713684082 -6200224.4830322266 0 -6200224.4830322266 98640244.947845459 0 0 0 0 -4005298.7083230019 -16490520.114761353 0 -16490520.114761353 85704387.34375 0 0 0 0 -83338138.024871826 125326581.57385254 0 125326581.57385254 -62480103.998657227 0 0 0 0 27659852.101352006 47929693.422535896 0 47929693.422535896 -18657884.547546387 0 0 0 0 27844708.356582642 68909838.446685791 0 68909838.446685791 -78503954.892578125 0 0 0 0 -54152174.77557373 84148421.988555908 0 84148421.988555908 10784346.881591797 0 0 0 0 23073146.086082458 75044804.02722168 0 75044804.02722168 -60018036.432739258 0 0 0 0 -38795368.382019043 123755122.57141113 0 123755122.57141113 -69699981.881538391 0 0 0 0 -54290479.391798019 66458894.189430237 0 66458894.189430237 -26878256.118164062 0 0 0 0 -65571061.373306274 22305205.793426514 0 22305205.793426514 -11836617.572509766 0 0 0 0 -101498487.48114014 62490003.975341797 0 62490003.975341797 2623522.4651489258 0 0 0 0 -17834498.351707458 40484627.393493652 0 40484627.393493652 3044238.6115293503 0 0 0 0 -63612752.548131943 23556860.561813354 0 23556860.561813354 76695791.28604126 0 0 0 0 -5304644.8179550171 9981305.4677124023 0 9981305.4677124023 15019635.340093613 0 0 0 0 -14361664.773365021 -33874998.139251709 0 -33874998.139251709 -49704288.207092285 0 0 0 0 -106941279.91711426 -356035.42309570312 0 -356035.42309570312 15854774.608905792 0 0 0 0 -2703338.1704902649 44806929.904022217 0 44806929.904022217 171756682.73654175 0 0 0 0 -41742139.159168243 -15743649.175384521 0 -15743649.175384521 283934253.86218262 0 0 0 0 3961196.5601425171 -2431933.4041442871 0 -2431933.4041442871 82745497.490913391 0 0 0 0 -38522789.415765762 44854590.987091064 0 44854590.987091064 120545902.99066162 0 0 0 0 -9077063.6038589478 -5939978.221862793 0 -5939978.221862793 149582274.53808594 0 0 0 0 -32607425.031614304 271777.49354553223 0 271777.49354553223 256301427.95779419 0 0 0 0 -2204171.3226737976 66237698.299163818 0 66237698.299163818 900696.06851196289 0 0 0 0 10005825.07660675 24278846.945922852 0 24278846.945922852 49322706.604644775 0 0 0 0 4506352.5403747559 8257508.3920288086 0 8257508.3920288086 86185807.779968262 0 0 0 0 12120935.949901581 23351786.272254944 0 23351786.272254944 -16929292.495422363 0 0 0 0 -1324238.591044426 -4308583.7683105469 0 -4308583.7683105469 104528862.95916748 0 0 0 0 5501367.309211731 -18147998.641571045 0 -18147998.641571045 81062112.276988983 0 0 0 0 -49117452.584989548 -61677180.071960449 0 -61677180.071960449 369666155.55786133 0 0 0 0 -35398761.924964905 -71887262.904022217 0 -71887262.904022217 273598936.68354797 0 0 0 0 -22641352.729549408 -13040538.917320251 0 -13040538.917320251 284316090.81576538 0 0 0 0 -70994355.12374115 -40681465.539588928 0 -40681465.539588928 474802897.2069397 0 0 0 0 -126934851.12268257 -48044880.131645203 0 -48044880.131645203 30840230.90838623 0 0 0 0 -22035160.993309021 -32226434.814575195 0 -32226434.814575195 26276193.590332031 0 0 0 0 -48467430.668479919 -66676719.020721436 0 -66676719.020721436 77531269.21383667 0 0 0 0 -71443484.748947144 -2703391.3388977051 0 -2703391.3388977051 64421820.794250488 0 0 0 0 -89595089.74477005 -102789591.35006714 0 -102789591.35006714 -52329793.710693359 0 0 0 0 -69361217.704811096 -67692594.356964111 0 -67692594.356964111 8538104.6589355469 0 0 0 0 -16283429.212135315 -54668566.992431641 0 -54668566.992431641 -41340267.62097168 0 0 0 0 -4142170.560344696 -70928650.960418701 0 -70928650.960418701 -75365896.085144043 0 0 0 0 19747665.96451664 -51214366.108184814 0 -51214366.108184814 -43506920.586975098 0 0 0 0 9966972.2812957764 -28209596.264099121 0 -28209596.264099121 -10217487.227844238 0 0 0 0 17403512.574203491 -38887964.252716064 0 -38887964.252716064 57496580.941436768 0 0 0 0 23319517.468460083 -16385525.419494629 0 -16385525.419494629 -4338664.2722473145 0 0 0 0 -15568064.384849548 -52256896.607269287 0 -52256896.607269287 84291291.434875488 0 0 0 0 8060917.4023361206 -56399585.860809326 0 -56399585.860809326 81872000.043701172 0 0 0 0 -3454136.8588237762 -70824073.756118774 0 -70824073.756118774 -1373794.5305175781 0 0 0 0 -31701379.032894135 -89290741.419372559 0 -89290741.419372559 198302781.85211182 0 0 0 0 -9813308.7722930908 -77056549.92791748 0 -77056549.92791748 212714071.03102112 0 0 0 0 -20518010.878715515 -78952469.561126709 0 -78952469.561126709 212386474.67404175 0 0 0 0 -38527107.082817078 -111606587.52293396 0 -111606587.52293396 342653992.57745361 0 0 0 0 2183297.6038227081 -91662731.122383118 0 -91662731.122383118 195709750.67230225 0 0 0 0 5596481.8520698547 -166380841.56845093 0 -166380841.56845093 298717048.07022095 0 0 0 0 33389004.721740723 -127646350.80343628 0 -127646350.80343628 179898210.37042236 0 0 0 0 16682815.645652771 -81378920.749481201 0 -81378920.749481201 64427991.27696228 0 0 0 0 -6580685.806098938 -23045204.194793701 0 -23045204.194793701 58480346.974662781 0 0 0 0 87810998.6954422 -227523304.64085388 0 -227523304.64085388 336227122.20797729 0 0 0 0 -8068624.9646081924 -95841167.291936874 0 -95841167.291936874 263698603.47329712 0 0 0 0 -50214109.353759766 -141330752.37983704 0 -141330752.37983704 422735607.00375366 0 0 0 0 -27962908.407459259 -132055399.09091187 0 -132055399.09091187 339411859.16013718 0 0 0 0 -19622353.563171387 -220885353.47679138 0 -220885353.47679138 446691853.85545349 0 0 0 0 -95423836.113817215 -224519681.21746826 0 -224519681.21746826 673130024.01361084 0 0 0 0 -124612091.7974968 -249073865.86416626 0 -249073865.86416626 663894051.83452606 0 0 0 0 -27858900.80035305 -231152613.75996399 0 -231152613.75996399 535995005.52258301 0 0 0 0 24128012.842224121 -337165649.17196655 0 -337165649.17196655 544199328.5406456 0 0 0 0 -98954692.917523384 -86169739.8230896 0 -86169739.8230896 618684735.19781494 0 0 0 0 -74946403.153616905 -68231235.296447754 0 -68231235.296447754 460863813.59008789 0 0 0 0 -88909415.439559937 -137048000.11338806 0 -137048000.11338806 485152395.93966675 0 0 0 0 -109902565.88868523 -145181195.69915771 0 -145181195.69915771 635524576.97241211 0 0 0 0 -58321258.971579552 -162670709.16833496 0 -162670709.16833496 454960974.23449707 0 0 0 0 -166937508.61903763 -129787295.21983337 0 -129787295.21983337 654960793.69322205 0 0 0 0 -158702951.20846939 -259528078.0789032 0 -259528078.0789032 862484999.66038513 0 0 0 0 -182361692.68898964 -110555535.01202393 0 -110555535.01202393 934530865.5897522 0 0 0 0 -229358946.17351532 -257678071.43066406 0 -257678071.43066406 951909221.34236145 0 0 0 0 -222410788.7023356 -243780935.45862579 0 -243780935.45862579 968073493.24105835 0 0 0 0 -227157909.41206551 -283405814.6975708 0 -283405814.6975708 931366787.74977112 0 0 0 0 -222651856.03168941 -239755116.91883183 0 -239755116.91883183 900972949.5604248 0 0 0 0 -233835212.14825058 -264867305.58609009 0 -264867305.58609009 969935167.06469727 0 0 0 0 -61670533.933727264 -386437212.69139099 0 -386437212.69139099 853819631.09561157 0 0 0 0 -63915736.620467186 -378572267.59993935 0 -378572267.59993935 863011160.61083984 0 0 0 0 -110812427.71418762 -315737175.12792206 0 -315737175.12792206 839876811.46490479 0 0 0 0 -216408420.50690079 -194415297.17254639 0 -194415297.17254639 1021054167.5192719 0 0 0 0 -220413029.65514278 -315628369.06043243 0 -315628369.06043243 1084508366.5872192 0 0 0 0 -22590726.560951233 -560910026.90898132 0 -560910026.90898132 1058919688.75354 0 0 0 0 20042290.854990005 -764653645.99279785 0 -764653645.99279785 2031466010.1500854 0 0 0 0 215624667.9872303 -167926168.53501129 0 -167926168.53501129 362500583.17614746 0 0 0 0 750673509.20310974 -800847861.7572937 0 -800847861.7572937 467512108.11288452 0 0 0 0 89121256.822766304 -464828897.82955933 0 -464828897.82955933 793963962.87893677 0 0 0 0 90920833.761453509 38631514.988289833 0 38631514.988289833 155904660.05563354 0 0 0 0 324540969.59158134 -335254742.62844086 0 -335254742.62844086 379141056.60110474 0 0 0 0 70323776.649458647 -144716585.24533558 0 -144716585.24533558 225660362.75546265 0 0 0 0 55362005.522254944 -111753572.0090332 0 -111753572.0090332 320378589.36638641 0 0 0 0 21863883.228000641 89886953.964744568 0 89886953.964744568 11600238.176902771 0 0 0 0 299718080.44475365 -205416883.57902527 0 -205416883.57902527 136748826.44381809 0 0 0 0 32838494.994958878 51517475.306472778 0 51517475.306472778 32468192.272750854 0 0 0 0 416262321.86751366 -254943312.84361267 0 -254943312.84361267 -284667152.26509857 0 0 0 0 2485565.1918791356 -1615929.8017718568 0 -1615929.8017718568 1063995.8233408965 0 0 0 0 -363164981.85240555 -507569515.39955139 0 -507569515.39955139 3207583115.0867882 0 0 0 0 -173524990.9986532 46899979.791160107 0 46899979.791160107 2131540317.0791321 0 0 0 0 124071294.82717514 -147224817.07081604 0 -147224817.07081604 1512222715.9133186 0 0 0 0 165821862.93357372 -812249840.32743835 0 -812249840.32743835 1203316672.1501617 0 0 0 0 -1811281.314617157 2962735.5157852173 0 2962735.5157852173 1050590282.0223999 0 0 0 0 59898981.132619858 283028546.2440033 0 283028546.2440033 1938696125.4898729 0 0 0 0 1215922102.2412415 -883911996.74529266 0 -883911996.74529266 1647846934.1235809 0 0 0 0 533087.20030080341 -827188.84183663875 0 -827188.84183663875 340562.7190901041 0 0 0 0 89331790.695928574 270774171.46533203 0 270774171.46533203 535889411.99198914 0 0 0 0 -73435921.030166626 75555535.108055115 0 75555535.108055115 1090553918.5327301 0 0 0 0 169610979.00751495 98559813.574798584 0 98559813.574798584 142997751.0617981 0 0 0 0 85543409.184370458 218627257.37641096 0 218627257.37641096 -35186689.878509521 0 0 0 0 12207762.332033157 -85134564.56867981 0 -85134564.56867981 48932974.8853302 0 0 0 0 107169819.79148197 8267254.8945388794 0 8267254.8945388794 54060240.579833984 0 0 0 0 150229686.52741432 -62417898.223068237 0 -62417898.223068237 151931867.35577393 0 0 0 0 -99769962.460271835 16901910.142707825 0 16901910.142707825 9766738.0991363525 0 0 0 0 86375279.644794583 58950178.88028717 0 58950178.88028717 392254223.78631592 0 0 0 0 178661.04159557121 -2840876.5647381023 0 -2840876.5647381023 1743335.4121365473 0 0 0 0 -39961858.000097275 -68853165.753120422 0 -68853165.753120422 18488159.912079811 0 0 0 0 -464104.66884518415 -2437330.2325352766 0 -2437330.2325352766 5547340.4624032676 0 0 0 0 2157295576.6670742 -1459737263.5431824 0 -1459737263.5431824 1463904528.3217773 0 0 0 0 -40133254.605966568 5514326.2056045532 0 5514326.2056045532 47983650.500961304 0 0 0 0 115431801.56011963 -60617913.978141785 0 -60617913.978141785 40664943.245101929 0 0 0 0 313336.10653039347 -1269740.2796093673 0 -1269740.2796093673 2392905.8566191941 0 0 0 0 151986905.8224411 38126965.195320129 0 38126965.195320129 -40816946.566268921 0 0 0 0 -555450429.07736874 1958878057.1680183 0 1958878057.1680183 -268049640.59283447 0 0 0 0 954336.27274054289 -1990691.4115514364 0 -1990691.4115514364 4154040.6588327959 0 0 0 0 651138626.20338345 -407966659.75148773 0 -407966659.75148773 -459625491.22937012 0 0 0 0 654407987.45480537 -872914417.07764435 0 -872914417.07764435 228001853.2064209 0 0 0 0 601601223.83151817 -741400710.30807495 0 -741400710.30807495 -38590193.067520142 0 0 0 0 51057368.100114822 -906378904.35935974 0 -906378904.35935974 1148635080.4300995 0 0 0 0 -400931327.20208931 -184500670.55079651 0 -184500670.55079651 282645748.68056488 0 0 0 0 92993382.326234818 -114919544.4029541 0 -114919544.4029541 -38136526.659332275 0 0 0 0 93460459.572268069 -62446673.472416639 0 -62446673.472416639 -110310399.77322388 0 0 0 0 519829734.52613163 -300799387.95809937 0 -300799387.95809937 41902777.476486206 0 0 0 0 431243461.89069366 46987732.753646851 0 46987732.753646851 -40536540.062072754 0 0 0 0 337234958.61233187 -94749211.704668045 0 -94749211.704668045 -47985636.403930664 0 0 0 0 235329444.04007149 -185548100.02905273 0 -185548100.02905273 -90361144.709472656 0 0 0 0 310702239.28713989 -18164289.10508728 0 -18164289.10508728 -48626340.852874756 0 0 0 0 203334654.07715034 1291288.2976989746 0 1291288.2976989746 -38184447.992935181 0 0 0 0 256016060.41295338 -75077971.052696228 0 -75077971.052696228 -35319263.154785156 0 0 0 0 146976146.08778572 -128326396.1678772 0 -128326396.1678772 56483305.26133728 0 0 0 0 41190853.440607071 -169250268.84933472 0 -169250268.84933472 49115059.069381714 0 0 0 0 138285941.26469612 -108273927.79608154 0 -108273927.79608154 87396396.160476685 0 0 0 0 -4130805.7995920181 -272282733.5910759 0 -272282733.5910759 -167806387.80224609 0 0 0 0 -177868296.0438652 -224041660.04589462 0 -224041660.04589462 497301455.49589539 0 0 0 0 -418378.29149055481 -229581902.59076691 0 -229581902.59076691 160184475.70169067 0 0 0 0 162699383.6194725 1742664.2015380859 0 1742664.2015380859 181910726.84854126 0 0 0 0 59307889.150775909 -48513179.041259766 0 -48513179.041259766 447987221.00605774 0 0 0 0 98094501.614173889 83695284.374023438 0 83695284.374023438 577696715.06258392 0 0 0 0 94177410.365257263 -64278534.95615387 0 -64278534.95615387 258272311.82220459 0 0 0 0 -34911986.58259964 18443067.323654175 0 18443067.323654175 597670513.16442108 0 0 0 0 -87553607.111779213 7302964.5263290405 0 7302964.5263290405 898633856.38969421 0 0 0 0 -81701584.784721375 -194755763.39204407 0 -194755763.39204407 552318426.44877625 0 0 0 0 -220603047.82690048 -234419495.29573059 0 -234419495.29573059 969983440.26574707 0 0 0 0 -213765094.10479927 -140803523.66036987 0 -140803523.66036987 1607151986.1151733 0 0 0 0 -76231814.05282402 -318813179.57409668 0 -318813179.57409668 728295014.06630707 0 0 0 0 -96814591.714171052 -109732215.44350719 0 -109732215.44350719 547247738.53091431 0 0 0 0 -227406370.04141903 -218034337.653265 0 -218034337.653265 967249373.56872559 0 0 0 0 -78269924.784222603 -315126885.8600235 0 -315126885.8600235 730462811.58843994 0 0 0 0 270612392.35564613 -221172496.99662781 0 -221172496.99662781 246438874.58319092 0 0 0 0 330045253.09313011 -451875102.91351318 0 -451875102.91351318 456462585.11683655 0 0 0 0 51546009.12795639 -111911584.31332397 0 -111911584.31332397 288953109.600811 0 0 0 0 -664924907.33439445 -278646734.24257469 0 -278646734.24257469 -57300914.639587402 0 0 0 0 2120246.4305535946 723283.70621448755 0 723283.70621448755 2233842.3433161452 0 0 0 0 91686454.677728176 -97894534.070331573 0 -97894534.070331573 181514781.99058533 0 0 0 0 -196141279.80753756 -92724854.55758667 0 -92724854.55758667 -26850717.791748047 0 0 0 0 -277.3314627353102 805103.85144109279 0 805103.85144109279 1945011.4898118973 0 0 0 0 1852534.3450321187 4907111.8251993079 0 4907111.8251993079 8087058.2412213087 0 0 0 0 4370747.2266840935 5478449.2616043091 0 5478449.2616043091 7257495.1231689453 0 0 0 0 1296938.337223053 14454117.899993896 0 14454117.899993896 19741049.079711914 0 0 0 0 -727339.54882615898 1728200.0042736232 0 1728200.0042736232 2467426.6229920089 0 0 0 0 -396116656.83477795 -305024324.13004279 0 -305024324.13004279 -55426476.736968994 0 0 0 0 4819104.4678984731 5953863.7367081642 0 5953863.7367081642 7377147.6474304199 0 0 0 0 6611647.6568167396 5748982.8907686472 0 5748982.8907686472 3871941.4382062182 0 0 0 0 4902956.6245937347 4134650.074005127 0 4134650.074005127 7386971.8918838501 0 0 0 0 29590465.433279037 -224650088.1891861 0 -224650088.1891861 -197912844.68941498 0 0 0 0 4179780.8483560085 5200710.2099723816 0 5200710.2099723816 8916095.9961853027 0 0 0 0 7029087.1831896035 3923248.24508439 0 3923248.24508439 3236917.1419864986 0 0 0 0 137180204.71110249 -29594486.848419189 0 -29594486.848419189 -400894954.25070953 0 0 0 0 9583937.8874855042 -143208629.67584991 0 -143208629.67584991 -502056495.1730957 0 0 0 0 825639268.42558861 -259944820.6164856 0 -259944820.6164856 -486474546.95539856 0 0 0 0 302227428.11871147 179517611.26538849 0 179517611.26538849 -14726803.997390747 0 0 0 0 -24464954.501194954 -700122666.71322632 0 -700122666.71322632 -69070538.243545532 0 0 0 0 1279055482.9415493 -635199929.69430542 0 -635199929.69430542 -97481924.976035118 0 0 0 0 1679439374.5431013 790338577.30169106 0 790338577.30169106 218857592.07362366 0 0 0 0 271284373.57657242 -1418792923.4848251 0 -1418792923.4848251 2814738836.3170776 0 0 0 0 1648030758.4948273 -865577606.65383339 0 -865577606.65383339 64441579.798751831 0 0 0 0 549119.49489801936 -3066774.080919534 0 -3066774.080919534 5233718.4722958431 0 0 0 0 1382313178.7679086 -1712945223.3944321 0 -1712945223.3944321 1021452307.5733643 0 0 0 0 555481595.25206757 35104708.41192627 0 35104708.41192627 -464476284.60836029 0 0 0 0 613514487.4587059 -862182411.27997589 0 -862182411.27997589 355597931.02500916 0 0 0 0 957001788.37641144 -775512317.70462799 0 -775512317.70462799 101735098.94017029 0 0 0 0 259936526.82199955 873667862.72378159 0 873667862.72378159 2001658275.1756897 0 0 0 0 528109957.71868896 356979476.21987152 0 356979476.21987152 123389261.54547119 0 0 0 0 300725.35357879801 -126363.80439319089 0 -126363.80439319089 1845637.6590289846 0 0 0 0 -1773536861.4894371 302506733.50571442 0 302506733.50571442 2901392478.2020569 0 0 0 0 -339738363.18879318 4342331.9946594238 0 4342331.9946594238 2404614306.3299255 0 0 0 0 832276873.53827953 -1203651811.857954 0 -1203651811.857954 1530265906.9788513 0 0 0 0 -247515596.88986206 -287997452.74188232 0 -287997452.74188232 1353645496.9078598 0 0 0 0 124376486.08765554 -648331318.38161469 0 -648331318.38161469 1011416949.1983948 0 0 0 0 -153342103.69085503 -37447615.379699707 0 -37447615.379699707 1044367393.376709 0 0 0 0 -163220823.82808113 -23149734.778289795 0 -23149734.778289795 1060719929.6715851 0 0 0 0 -4408914.5019359589 215435613.95917511 0 215435613.95917511 582580091.77114868 0 0 0 0 -132227980.72350311 -25265854.969398499 0 -25265854.969398499 672574454.70201111 0 0 0 0 116409805.73976135 702977777.52597046 0 702977777.52597046 1596718568.5647278 0 0 0 0 -135246574.04091787 -128570956.78502274 0 -128570956.78502274 1364533164.2190552 0 0 0 0 8919478.0823326111 361968209.23274231 0 361968209.23274231 1115395498.6125107 0 0 0 0 12608769.336722374 188776829.66811371 0 188776829.66811371 466339276.76153564 0 0 0 0 170912184.93153191 245417919.18769073 0 245417919.18769073 415178360.91012573 0 0 0 0 26481878.794603348 215236395.65570831 0 215236395.65570831 451960271.34820557 0 0 0 0 133042807.47395325 256110239.0410614 0 256110239.0410614 -26070799.844116211 0 0 0 0 110156265.80629969 175026960.82118034 0 175026960.82118034 262149599.70974731 0 0 0 0 145354234.76904106 70905931.832351685 0 70905931.832351685 31097370.287475586 0 0 0 0 74163251.13841629 44988293.571762085 0 44988293.571762085 77205195.111465454 0 0 0 0 88002338.23589325 39695474.225418091 0 39695474.225418091 40835640.151000977 0 0 0 0 92939723.367599487 -39437816.838607788 0 -39437816.838607788 -44418122.74887085 0 0 0 0 122752934.65327978 -109391486.99112129 0 -109391486.99112129 -220431875.36999512 0 0 0 0 -146254424.57414246 -169298715.80512238 0 -169298715.80512238 -41272486.650665283 0 0 0 0 -44372023.156955719 58100356.799575806 0 58100356.799575806 515174989.76782227 0 0 0 0 23421755.652371407 30158360.856430054 0 30158360.856430054 298097612.50036621 0 0 0 0 4319459.5665626526 78125846.188400269 0 78125846.188400269 423087659.66479492 0 0 0 0 -19092181.576927185 97533934.21925354 0 97533934.21925354 556055634.11307526 0 0 0 0 87230014.572436333 50245447.074199677 0 50245447.074199677 90994811.109069824 0 0 0 0 71444863.198574066 3547120.5177764893 0 3547120.5177764893 108345197.64038086 0 0 0 0 6153798.9313774109 47297966.951858521 0 47297966.951858521 294232500.54058456 0 0 0 0 22009680.939317703 -13456759.348339081 0 -13456759.348339081 114015445.60296631 0 0 0 0 -4813545.0173718203 2549068.1210127249 0 2549068.1210127249 13008441.547901362 0 0 0 0 63293842.974990845 -15830970.014099121 0 -15830970.014099121 -135597625.77519226 0 0 0 0 -7790809.9044513702 6280540.7064819336 0 6280540.7064819336 33557447.703308105 0 0 0 0 49737547.68680191 20268594.917236328 0 20268594.917236328 -131434761.03668594 0 0 0 0 44951390.191238403 -35414125.498123169 0 -35414125.498123169 -70066191.218994141 0 0 0 0 1217180.5978889465 -5896851.6023864746 0 -5896851.6023864746 -550562.04309082031 0 0 0 0 -9592530.3868136406 -34068710.406042099 0 -34068710.406042099 15127330.879455566 0 0 0 0 15467720.551391602 24001856.023681641 0 24001856.023681641 96262152.003952026 0 0 0 0 67337688.484043121 -6548297.2521514893 0 -6548297.2521514893 -6422841.7600708008 0 0 0 0 68417948.48563385 -1859350.8389282227 0 -1859350.8389282227 -84420036.005950928 0 0 0 0 49148113.694957733 -7611633.8476867676 0 -7611633.8476867676 -6477710.4247436523 0 0 0 0 64376989.294433594 -12731405.777282715 0 -12731405.777282715 -72697014.43548584 0 0 0 0 71141386.336785316 -16459715.712932587 0 -16459715.712932587 -58311151.716186523 0 0 0 0 55129796.256027222 3856289.2249145508 0 3856289.2249145508 -63308631.802947998 0 0 0 0 77210355.331924438 3927913.0908813477 0 3927913.0908813477 -66071057.889419556 0 0 0 0 46388740.476921082 -10254862.13458252 0 -10254862.13458252 71877014.711715698 0 0 0 0 71141934.339904785 12451232.187744141 0 12451232.187744141 -19100550.79498291 0 0 0 0 64005410.959850311 -28999638.10254097 0 -28999638.10254097 -15329404.11529541 0 0 0 0 53152118.09664917 -580596.17672729492 0 -580596.17672729492 -81984167.910705566 0 0 0 0 40499976.461174011 -17348530.261169434 0 -17348530.261169434 -52751296.399780273 0 0 0 0 65193857.721229553 1127831.7004089355 0 1127831.7004089355 -80804782.649780273 0 0 0 0 46772809.139122009 2450396.5788879395 0 2450396.5788879395 -79995172.042602539 0 0 0 0 64943742.351428986 18795253.153991699 0 18795253.153991699 -104712530.27764893 0 0 0 0 78512221.487579346 -4023534.2713928223 0 -4023534.2713928223 -102572897.30621338 0 0 0 0 4364050.3082389832 -57434907.017028809 0 -57434907.017028809 -120795186.98675537 0 0 0 0 -50395133.253139496 -37384445.751724243 0 -37384445.751724243 -4283749.3852386475 0 0 0 0 -75245766.184184551 -42559552.200481415 0 -42559552.200481415 25255739.738464355 0 0 0 0 -10972072.134339333 -62655017.84526825 0 -62655017.84526825 -17325733.558227539 0 0 0 0 -67742405.334842682 -81896808.241638184 0 -81896808.241638184 -13572681.671081543 0 0 0 0 27941039.068943024 -84197439.078567505 0 -84197439.078567505 -30919569.136077881 0 0 0 0 14596000.668998718 -43792209.125732422 0 -43792209.125732422 -9632818.3648376465 0 0 0 0 42260819.552082062 -3103487.3257751465 0 -3103487.3257751465 -43947740.238220215 0 0 0 0 38651799.858448029 -55655447.494598389 0 -55655447.494598389 -35531311.294281006 0 0 0 0 -15613219.883530617 -36590036.708362579 0 -36590036.708362579 -36355722.348205566 0 0 0 0 -10780081.330947876 -33079991.164581299 0 -33079991.164581299 -34268826.04800415 0 0 0 0 -28623018.220230103 31531334.166656494 0 31531334.166656494 -77171598.584259033 0 0 0 0 -33068541.310195923 -21518907.279846191 0 -21518907.279846191 -39910159.766113281 0 0 0 0 5393513.444442749 2155627.3272705078 0 2155627.3272705078 -61902343.722473145 0 0 0 0 16149449.865337372 -8538866.3771362305 0 -8538866.3771362305 -56796587.197387695 0 0 0 0 16718303.293960571 18843351.385284424 0 18843351.385284424 -88614506.209732056 0 0 0 0 -28294858.269554138 3853081.7493896484 0 3853081.7493896484 -55764753.338703156 0 0 0 0 -28087982.311668396 -33119075.458076477 0 -33119075.458076477 -40870496.244873047 0 0 0 0 -67696531.509925842 5687626.5769348145 0 5687626.5769348145 -48914999.524078369 0 0 0 0 -65052846.021789551 -24835515.659088135 0 -24835515.659088135 -30407188.398452759 0 0 0 0 -20118263.25784111 -16050945.283370972 0 -16050945.283370972 -41191917.146606445 0 0 0 0 -50426004.011375427 -38229261.528869629 0 -38229261.528869629 -26992684.500793457 0 0 0 0 -43346893.323209763 -44812590.92376709 0 -44812590.92376709 -22560736.241943359 0 0 0 0 -4910259.6143982634 214452.06062917039 0 214452.06062917039 10886852.128621198 0 0 0 0 -1271834153.5074997 76905387.888908386 0 76905387.888908386 7335872.6949005127 0 0 0 0 -5516172.107696305 -3144099.1082004234 0 -3144099.1082004234 15480577.353542723 0 0 0 0 -819546451.66622162 196353708.5040741 0 196353708.5040741 -159462367.13261414 0 0 0 0 368095773.26210022 -408169701.89781952 0 -408169701.89781952 234758453.55911255 0 0 0 0 -1295504691.3091819 446715706.99544573 0 446715706.99544573 3024582.6587219238 0 0 0 0 199360008.52839661 -435119617.37702179 0 -435119617.37702179 387017963.78829956 0 0 0 0 -2995573.5799164888 -3002390.8120784704 0 -3002390.8120784704 2599771.4409498572 0 0 0 0 236156628.71055222 -435160177.42272949 0 -435160177.42272949 378301712.82290649 0 0 0 0 403539290.80060959 -354357879.51365662 0 -354357879.51365662 -53341414.32220459 0 0 0 0 -633348060.81607723 158012483.77874947 0 158012483.77874947 236898623.62017822 0 0 0 0 34472066.992660522 -351179086.30705261 0 -351179086.30705261 354821093.93415833 0 0 0 0 -833443.00708236173 -7021410.0198749322 0 -7021410.0198749322 14745810.67925404 0 0 0 0 -770917287.826437 -296689197.92048645 0 -296689197.92048645 281668444.3770752 0 0 0 0 -122803442.86367798 -121026704.60339355 0 -121026704.60339355 -79180877.856719971 0 0 0 0 -99167401.730106354 -266946327.37080383 0 -266946327.37080383 189125506.85378838 0 0 0 0 -268579233.04794693 -31896237.851501465 0 -31896237.851501465 24907168.119037628 0 0 0 0 -1647893.2736704308 -2415579.0342357568 0 -2415579.0342357568 1822334.0288579687 0 0 0 0 -13327090.346332073 -1043119.86901474 0 -1043119.86901474 21643889.557525635 0 0 0 0 -7654253.1684184074 -3638686.8820419312 0 -3638686.8820419312 17385531.126235962 0 0 0 0 -9583327.5885419846 -3267312.3524093628 0 -3267312.3524093628 13129556.855255127 0 0 0 0 -9337730.5272052288 -1420745.7289390564 0 -1420745.7289390564 25421223.171813965 0 0 0 0 -6361246.8469371796 -11071480.293930054 0 -11071480.293930054 34794604.729370117 0 0 0 0 -9407687.0571899414 -4374392.2631454468 0 -4374392.2631454468 20596949.446655273 0 0 0 0 -6633117.1510057449 -641963.04020690918 0 -641963.04020690918 25451301.953353882 0 0 0 0 -1194072337.6709592 140659393.46549821 0 140659393.46549821 -495920706.10798645 0 0 0 0 -7171111.7082951795 -3696260.6789463591 0 -3696260.6789463591 21694358.375913456 0 0 0 0 -1124137585.5488644 352380063.92697573 0 352380063.92697573 91470498.947937012 0 0 0 0 -1025916374.8298912 -117631219.60552216 0 -117631219.60552216 27447090.540662766 0 0 0 0 -5344368.8411270734 -4694245.6633941121 0 -4694245.6633941121 4805427.7101390511 0 0 0 0 -1162024658.7502093 1302183406.606461 0 1302183406.606461 -588519556.20413208 0 0 0 0 -410920.28715054877 -929565.61333771423 0 -929565.61333771423 3025063.4547357671 0 0 0 0 221147295.87077713 -218283225.27272797 0 -218283225.27272797 2296728.9538116455 0 0 0 0 -860168314.00627136 592854730.38136292 0 592854730.38136292 -190195894.86949158 0 0 0 0 -5993749.7028083801 -500236.22616577148 0 -500236.22616577148 6814837.6246643066 0 0 0 0 -564609.8012342453 2724198.9375915527 0 2724198.9375915527 576235.60334014893 0 0 0 0 -4084538.7281633806 -3492140.8839811906 0 -3492140.8839811906 16561055.741316078 0 0 0 0 156300.78765106201 6752913.3954772949 0 6752913.3954772949 9730804.1504516602 0 0 0 0 -17594668.92459774 -6326837.9642295837 0 -6326837.9642295837 -4636586.2524490356 0 0 0 0 -5865385.4990046471 -4795845.9166932739 0 -4795845.9166932739 20593939.618067503 0 0 0 0 -5407325.0013524825 -7278408.4777354822 0 -7278408.4777354822 21864982.999012858 0 0 0 0 -54590104.088050842 -37629099.792266846 0 -37629099.792266846 -15397083.307434082 0 0 0 0 -7920625.2327489853 -5430406.587600708 0 -5430406.587600708 32782791.68792057 0 0 0 0 -10438684.864934444 -7635250.267288208 0 -7635250.267288208 36532159.56539917 0 0 0 0 -6712932.1687035561 -2894126.2599029541 0 -2894126.2599029541 37294622.4609375 0 0 0 0 -10340277.223103762 -7135625.5611991882 0 -7135625.5611991882 38929434.135955811 0 0 0 0 -1960878.5562992096 -5161375.3007354736 0 -5161375.3007354736 29222884.640922546 0 0 0 0 -334861.21920526773 -1340168.7823989186 0 -1340168.7823989186 -886769.91973138601 0 0 0 0 79033.468823552132 7423469.2068939209 0 7423469.2068939209 24564806.066360474 0 0 0 0 -10175960.576159 -50294374.039169312 0 -50294374.039169312 9889853.591217041 0 0 0 0 36279605.073382378 27762809.226455688 0 27762809.226455688 7463524.305437088 0 0 0 0 22423749.252672195 -29574813.23979187 0 -29574813.23979187 37360525.185661316 0 0 0 0 -6070513.8963756561 -3969251.1063995361 0 -3969251.1063995361 43167753.150054932 0 0 0 0 3732508.0314416885 -9730591.7333068848 0 -9730591.7333068848 17090432.474517822 0 0 0 0 496140.64295768738 -4850391.9318771362 0 -4850391.9318771362 3243184.9625091553 0 0 0 0 -5983370.1855669022 -4066284.2201919556 0 -4066284.2201919556 15497432.800186157 0 0 0 0 -34487939.615157127 915392.69549942017 0 915392.69549942017 16880364.918640137 0 0 0 0 -3983274.3309868574 -14711294.586978912 0 -14711294.586978912 25698751.833023071 0 0 0 0 -1973263.8162867303 -10611719.783693265 0 -10611719.783693265 15577279.768000767 0 0 0 0 -2865665.9886870258 -5681468.3342210725 0 -5681468.3342210725 13325474.526018843 0 0 0 0 114662724.82133245 -86803345.678779602 0 -86803345.678779602 -122562879.12911606 0 0 0 0 -7167922.840026021 165104524.08805847 0 165104524.08805847 90971929.611213684 0 0 0 0 -40856179.554769993 -65875319.021671295 0 -65875319.021671295 -182273931.09999466 0 0 0 0 -143724585.97355008 247517207.93300629 0 247517207.93300629 46786628.367004395 0 0 0 0 -5206560.341383934 -7372379.532875061 0 -7372379.532875061 17528825.664596558 0 0 0 0 -2063019.6984782596 -4809032.2416385747 0 -4809032.2416385747 10800516.559701197 0 0 0 0 -2395542.7046823502 -10379550.877532959 0 -10379550.877532959 20621991.128875732 0 0 0 0 -1343755615.3607016 509816090.7920208 0 509816090.7920208 119224440.98332214 0 0 0 0 -6627515.5290623512 320315.72637461498 0 320315.72637461498 22773968.290884584 0 0 0 0 -4552304.1378116608 -6562989.5308227539 0 -6562989.5308227539 18202449.197067261 0 0 0 0 928823395.11281013 -908591021.50547791 0 -908591021.50547791 -90143493.425231934 0 0 0 0 -476400987.66702235 595558868.46347618 0 595558868.46347618 1310556852.5112152 0 0 0 0 120876730.07881713 -452754929.89558411 0 -452754929.89558411 353628987.33000183 0 0 0 0 -4619399.355458796 -8562706.8292893078 0 -8562706.8292893078 18595866.065350339 0 0 0 0 -688348555.40696001 202022931.96794128 0 202022931.96794128 251667672.20941162 0 0 0 0 -480699993.17456794 108453064.55236816 0 108453064.55236816 149460495.12170792 0 0 0 0 -482812.66389318823 -1062956.7825865783 0 -1062956.7825865783 2729222.7437051684 0 0 0 0 -805043338.77239823 502369911.45144653 0 502369911.45144653 148366223.75112915 0 0 0 0 -457706430.23953831 391965974.75107193 0 391965974.75107193 111094069.45170593 0 0 0 0 -130524905.74240899 83565363.62436676 0 83565363.62436676 58295788.833097458 0 0 0 0 -297010159.69751644 390485067.14256287 0 390485067.14256287 -313477306.40893555 0 0 0 0 124171181.03651351 -12948128.176143646 0 -12948128.176143646 156677462.80600739 0 0 0 0 -141884877.84811193 121555565.13980228 0 121555565.13980228 202753670.68157959 0 0 0 0 -147237770.6916362 187473607.96845627 0 187473607.96845627 473737121.88780212 0 0 0 0 -139285565.74473023 -309617805.72582054 0 -309617805.72582054 1302685338.3927307 0 0 0 0 19647169.19863838 -268128406.19047928 0 -268128406.19047928 446508918.44198608 0 0 0 0 -714829120.34010291 -124408276.86409569 0 -124408276.86409569 745448219.91500092 0 0 0 0 -324274882.0376718 -365005976.41099548 0 -365005976.41099548 86830432.278125763 0 0 0 0 -315698426.11725265 -148489159.54073715 0 -148489159.54073715 919118996.40657043 0 0 0 0 185265922.90970251 -903633382.54515457 0 -903633382.54515457 933581938.77824306 0 0 0 0 50078077.587411582 -203894742.41173363 0 -203894742.41173363 251149854.64456177 0 0 0 0 -350764389.81737113 -757902377.18475342 0 -757902377.18475342 2556593886.5296631 0 0 0 0 -234063829.29902595 -401775259.92622757 0 -401775259.92622757 1258531585.2792511 0 0 0 0 -804016202.34920263 -884528440.89199066 0 -884528440.89199066 4095513704.5812268 0 0 0 0 -427030913.26711559 -1286490667.2583447 0 -1286490667.2583447 2456608235.5028152 0 0 0 0 -236423127.98922145 -1851827606.9968901 0 -1851827606.9968901 4088317217.9025726 0 0 0 0 -597467857.73218894 -91131150.096897125 0 -91131150.096897125 4094665452.347168 0 0 0 0 -687377955.36777687 -521236692.43258667 0 -521236692.43258667 2804773634.134407 0 0 0 0 -381108423.02135801 -324145407.06726074 0 -324145407.06726074 2877635838.2222824 0 0 0 0 273251785.37518072 217334276.56035328 0 217334276.56035328 391060628.13264465 0 0 0 0 152591726.14120853 528281427.87092209 0 528281427.87092209 1393765192.5467072 0 0 0 0 144172606.168789 -148031614.46263027 0 -148031614.46263027 545204363.70707703 0 0 0 0 120727772.72914815 188554961.46766281 0 188554961.46766281 631492437.63931274 0 0 0 0 128719879.15556514 158511402.24463654 0 158511402.24463654 139392036.89139175 0 0 0 0 -152583139.53697622 92593280.79539299 0 92593280.79539299 -69963364.980293274 0 0 0 0 -128359167.63928172 -153601517.88548279 0 -153601517.88548279 473658333.17127991 0 0 0 0 1389564.5746623056 -8674430.0864098109 0 -8674430.0864098109 7231148.7085750178 0 0 0 0 96747943.937768936 330318457.76017761 0 330318457.76017761 116037988.87176514 0 0 0 0 262912.44010324206 -2445624.0262437146 0 -2445624.0262437146 4054144.2784917057 0 0 0 0 608892829.07460678 -981046769.20910072 0 -981046769.20910072 699989349.51306152 0 0 0 0 216840945.89457339 1263302426.8288155 0 1263302426.8288155 3271905453.993988 0 0 0 0 1066365587.9019061 -38310378.806503296 0 -38310378.806503296 4094291509.1570435 0 0 0 0 181526759.47634745 -729228291.87523651 0 -729228291.87523651 4012182915.6561642 0 0 0 0 -361430433.92700094 17685632.409981728 0 17685632.409981728 4094339161.4131851 0 0 0 0 -93600357.499510586 777910856.31748581 0 777910856.31748581 3973906864.2801208 0 0 0 0 -60525302.509456187 -609233071.66472244 0 -609233071.66472244 1777570767.605896 0 0 0 0 -194504208.6048618 -612974480.13801575 0 -612974480.13801575 4278968582.2430763 0 0 0 0 -793881868.36239362 258827834.50720215 0 258827834.50720215 3970371873.6312943 0 0 0 0 -170701606.48313859 -366146068.44021332 0 -366146068.44021332 1142302340.7619781 0 0 0 0 -180062716.94566 16145067.257587433 0 16145067.257587433 1163420753.9531212 0 0 0 0 469424445.00562549 -245040018.21516418 0 -245040018.21516418 -265125156.59129333 0 0 0 0 -8966019.8056360185 -12245807.236766815 0 -12245807.236766815 40259516.461456299 0 0 0 0 55650.04007530876 -58745.035147719085 0 -58745.035147719085 -59939.367275178432 0 0 0 0 -27747976.831078034 20623076.031093597 0 20623076.031093597 18322975.693954468 0 0 0 0 -26710972.81354022 -9734577.163192749 0 -9734577.163192749 29102238.746505737 0 0 0 0 -392108.68084001541 -9684089.5342636108 0 -9684089.5342636108 25178471.446510315 0 0 0 0 -9683082.6826207638 -9660375.4256725311 0 -9660375.4256725311 30952338.483840942 0 0 0 0 -692196.53714836272 -8809195.8511443734 0 -8809195.8511443734 8769062.3652614113 0 0 0 0 -3825001.9694754137 -8878542.7694195881 0 -8878542.7694195881 13772779.460860981 0 0 0 0 -466023.89834928513 -10784775.857757568 0 -10784775.857757568 29908071.84853363 0 0 0 0 -400702.24142742157 -9207025.6350326538 0 -9207025.6350326538 26043299.8855896 0 0 0 0 -1439490.7033151388 -5915398.3355922699 0 -5915398.3355922699 35090683.772003174 0 0 0 0 1554464.559620142 -12744198.802921295 0 -12744198.802921295 32872213.408294678 0 0 0 0 7697134.3663210869 -7835866.5411682129 0 -7835866.5411682129 34186289.89119339 0 0 0 0 4198756.3091552258 -7565385.7356338501 0 -7565385.7356338501 34574888.648681641 0 0 0 0 3280970.2039182186 -9018925.2892227173 0 -9018925.2892227173 25816529.484214783 0 0 0 0 3446000.0591812134 -13758596.44178009 0 -13758596.44178009 22806648.868995667 0 0 0 0 4010587.0213751793 -12727842.37928772 0 -12727842.37928772 37707492.117492676 0 0 0 0 -502112.7254447937 -3136939.6973876953 0 -3136939.6973876953 44904496.481430054 0 0 0 0 2500642.4935065508 -8770206.7195053101 0 -8770206.7195053101 47190972.75869751 0 0 0 0 8721635.562595129 -2259933.5635604858 0 -2259933.5635604858 48868244.800292969 0 0 0 0 1987517.8701605797 -9923447.423538208 0 -9923447.423538208 65445336.868453979 0 0 0 0 557377.61593437195 1824935.4619750977 0 1824935.4619750977 77252327.545700073 0 0 0 0 -970447.52750396729 5486686.7122497559 0 5486686.7122497559 92548993.710708618 0 0 0 0 -5839331.2174911499 -6893700.6288909912 0 -6893700.6288909912 52158439.055480957 0 0 0 0 3535135.8307478428 -10020718.344932556 0 -10020718.344932556 56384623.918395996 0 0 0 0 13188845.248727798 8023161.4159240723 0 8023161.4159240723 61478242.262695312 0 0 0 0 1505028.5861091614 -8587490.9829711914 0 -8587490.9829711914 50314267.824127197 0 0 0 0 -3238579.6180334091 2625574.4157409668 0 2625574.4157409668 44318406.128570557 0 0 0 0 838515.12588071823 -7174250.4368667603 0 -7174250.4368667603 49622289.669067383 0 0 0 0 2028113.9269587994 -7385756.4898834229 0 -7385756.4898834229 46894918.214233398 0 0 0 0 4891535.460059166 -12788632.239562988 0 -12788632.239562988 49745342.755950928 0 0 0 0 1194684.5485630035 -7669111.3756484985 0 -7669111.3756484985 65421171.859130859 0 0 0 0 4063350.8391418457 -6563211.4981994629 0 -6563211.4981994629 57086258.012878418 0 0 0 0 54527.062408447266 -13719311.797454834 0 -13719311.797454834 75664941.229675293 0 0 0 0 2556747.4471626282 -14505651.643707275 0 -14505651.643707275 60107524.937011719 0 0 0 0 4318835.9858155251 -13135936.586883545 0 -13135936.586883545 56390615.087219238 0 0 0 0 2054112.7447490692 -14787196.360534668 0 -14787196.360534668 55273295.839141846 0 0 0 0 953228.78217506409 -16241761.286224365 0 -16241761.286224365 67570921.781173706 0 0 0 0 -4519474.9165830612 -7090652.7051239014 0 -7090652.7051239014 36843859.715026855 0 0 0 0 -2175182.8903956413 -10845340.711547852 0 -10845340.711547852 56924233.7293396 0 0 0 0 -239023.32253921032 -8760568.8988265991 0 -8760568.8988265991 47081505.945892334 0 0 0 0 -7541816.8875908852 -6106627.9608001709 0 -6106627.9608001709 48248052.664505005 0 0 0 0 -1864217.3207979202 -12993576.48928833 0 -12993576.48928833 43563817.426712036 0 0 0 0 -7519218.9434084892 -11274269.615707397 0 -11274269.615707397 55242279.006454468 0 0 0 0 -15155342.023744583 -8938951.488571167 0 -8938951.488571167 48908093.101127625 0 0 0 0 -10971212.821132004 -1426442.0305423737 0 -1426442.0305423737 27298591.230361938 0 0 0 0 -7767526.2117071152 -5571096.0283203125 0 -5571096.0283203125 50436844.289432526 0 0 0 0 -9900724.8960597515 7536759.7852210999 0 7536759.7852210999 17488332.918869019 0 0 0 0 -26253503.780834556 -2328353.9516944885 0 -2328353.9516944885 37853572.330856323 0 0 0 0 -795457.36975193024 -7393508.0888977051 0 -7393508.0888977051 27790261.820800781 0 0 0 0 62893.374833921669 -94135.955666877329 0 -94135.955666877329 -71968.939488962293 0 0 0 0 -1894706.3240348697 -24359116.383956909 0 -24359116.383956909 55847350.375938416 0 0 0 0 -8945308.9755144119 -9338653.3078155518 0 -9338653.3078155518 47969214.034455538 0 0 0 0 -8385963.8297345638 -7587802.9551792145 0 -7587802.9551792145 53448006.713638306 0 0 0 0 46206.72364979767 -56610.472735904157 0 -56610.472735904157 -45580.181611329317 0 0 0 0 -24324445.914178431 12283297.489196777 0 12283297.489196777 32066430.955123901 0 0 0 0 -19792855.830374181 -21324507.930541992 0 -21324507.930541992 50669806.139068604 0 0 0 0 -395535.83851605654 -28213733.578720093 0 -28213733.578720093 45591369.752410889 0 0 0 0 -7064805.1082462072 -13070423.664253235 0 -13070423.664253235 40381487.392074585 0 0 0 0 1621171.8796294928 -18598207.538986206 0 -18598207.538986206 37753532.229812622 0 0 0 0 -5422002.1342718899 -21695546.806528047 0 -21695546.806528047 36585520.700286865 0 0 0 0 -5428035.6870558858 -19473533.581138611 0 -19473533.581138611 33966095.705291748 0 0 0 0 3782521.2418704629 -21114640.21647644 0 -21114640.21647644 21501626.108520508 0 0 0 0 -1617665.7487735748 -19544875.367546082 0 -19544875.367546082 21336896.228347778 0 0 0 0 -711207.32527649403 -14877562.142814636 0 -14877562.142814636 8631169.0272216797 0 0 0 0 -634295.55670166016 -11811987.437705994 0 -11811987.437705994 28585629.525100708 0 0 0 0 -3747593.9572038651 -21843413.489105225 0 -21843413.489105225 19955602.695861816 0 0 0 0 5290313.2909132242 -17405648.485580444 0 -17405648.485580444 6879786.8787536621 0 0 0 0 -8937888.6236621141 -8548437.8371429443 0 -8548437.8371429443 21417364.051475525 0 0 0 0 -3851408.5840112567 -21885130.472045898 0 -21885130.472045898 31016604.972915649 0 0 0 0 5283201.3789436817 -16058698.11289978 0 -16058698.11289978 15061024.742137909 0 0 0 0 3669770.2324810028 -13247306.10836792 0 -13247306.10836792 15832645.763462067 0 0 0 0 9503437.496062994 -45737249.353034973 0 -45737249.353034973 58275608.703804016 0 0 0 0 16464669.214157581 -15972492.127479553 0 -15972492.127479553 32548091.2395401 0 0 0 0 9028080.715051651 -22773059.796203613 0 -22773059.796203613 7931632.8624343872 0 0 0 0 371651.46613079717 -9697982.0792176202 0 -9697982.0792176202 7926047.2864510566 0 0 0 0 111376908.42662144 -43729943.625778198 0 -43729943.625778198 -47325085.435865402 0 0 0 0 282206850.45233929 7052645.1704063416 0 7052645.1704063416 -89602824.54183197 0 0 0 0 -433205.79871488502 -9903189.4552470073 0 -9903189.4552470073 9767289.2211496867 0 0 0 0 2319409.1607534289 -3921573.1088790894 0 -3921573.1088790894 -11936768.117980957 0 0 0 0 -342603753.83826625 6889987.80859375 0 6889987.80859375 1141853227.8360443 0 0 0 0 -169880465.79506445 304656849.4233017 0 304656849.4233017 1135033826.2684002 0 0 0 0 -503666334.17686307 441741616.11924362 0 441741616.11924362 2399987291.5559616 0 0 0 0 -727770287.06073833 427042973.53727341 0 427042973.53727341 2430378205.1568146 0 0 0 0 -273525545.19574308 1067486969.0470505 0 1067486969.0470505 1990114350.922554 0 0 0 0 -254339363.72102794 484404672.8996315 0 484404672.8996315 1802343387.3649902 0 0 0 0 -797837450.12083912 875451529.53914261 0 875451529.53914261 4095847762.1012039 0 0 0 0 2648082494.5373755 1325159522.5494041 0 1325159522.5494041 178998831.18772888 0 0 0 0 2061681.1343295379 -265357.60465153307 0 -265357.60465153307 5125542.490885064 0 0 0 0 -172154552.83997971 1269940925.9650421 0 1269940925.9650421 2369183009.2228699 0 0 0 0 733234850.6332922 2847497530.4859924 0 2847497530.4859924 4087363292.0911789 0 0 0 0 246623217.65532207 -78635436.271568298 0 -78635436.271568298 104009232.09463501 0 0 0 0 121107276.80031252 362901125.24533081 0 362901125.24533081 569711449.17916012 0 0 0 0 1743430110.5697863 1036963476.8029785 0 1036963476.8029785 468346074.16769409 0 0 0 0 -1576946.0925341402 -8438590.3683271334 0 -8438590.3683271334 9635190.3579350412 0 0 0 0 104718185.43731761 -19158687.049812317 0 -19158687.049812317 64620888.713722229 0 0 0 0 -4578301.9509979486 -10967619.119766235 0 -10967619.119766235 31324134.312866211 0 0 0 0 310105431.6374135 566689936.78915405 0 566689936.78915405 619184288.24227142 0 0 0 0 9788594.400626421 -20250393.78125 0 -20250393.78125 -21350026.414779663 0 0 0 0 -6023708.2844296172 -18847220.524372101 0 -18847220.524372101 6792836.0407104492 0 0 0 0 1070549.0995594682 -48287.885983541608 0 -48287.885983541608 -2509279.20549272 0 0 0 0 3890720.9249515533 -22260341.878753662 0 -22260341.878753662 -24555717.098121643 0 0 0 0 -180325.76748236697 -279589.33876900375 0 -279589.33876900375 1968038.8487164564 0 0 0 0 -6867552.9055742025 -24984224.841033936 0 -24984224.841033936 -3203834.3240356445 0 0 0 0 -4607025.2330593541 -7202003.2750091553 0 -7202003.2750091553 -8506562.4495849609 0 0 0 0 -6836661.4842085838 -17051436.587646484 0 -17051436.587646484 8711421.735206604 0 0 0 0 3425370.930758357 -16220844.291946411 0 -16220844.291946411 -6250688.3253173828 0 0 0 0 159326.45081806183 -12984704.3045578 0 -12984704.3045578 2927700.0928649902 0 0 0 0 4410373.8055170178 -16064808.297119141 0 -16064808.297119141 5126349.6516723633 0 0 0 0 8066511.9773086309 -10085136.788009644 0 -10085136.788009644 2232561.2897720337 0 0 0 0 3387225.2025183439 -11574067.689666748 0 -11574067.689666748 1670310.1925354004 0 0 0 0 3994385.4258964062 -11948218.043785095 0 -11948218.043785095 1552314.7391052246 0 0 0 0 764260.10718917847 -16480850.676147461 0 -16480850.676147461 1503216.0739135742 0 0 0 0 -3352674.4050466418 -16741938.300628662 0 -16741938.300628662 8812843.2204589844 0 0 0 0 7088234.8563826084 -7146129.4130859375 0 -7146129.4130859375 -279514.06727600098 0 0 0 0 12033515.95656985 -9249340.3943481445 0 -9249340.3943481445 551295.7416229248 0 0 0 0 -467472.04778719699 -3019190.9795737192 0 -3019190.9795737192 4131781.7200867236 0 0 0 0 2221225.7916484475 -8243860.474647522 0 -8243860.474647522 -293163.47022247314 0 0 0 0 1260767.8149154279 -9453443.7552261353 0 -9453443.7552261353 12779678.632080078 0 0 0 0 1262226.6285295933 791182.62239837646 0 791182.62239837646 19698972.040435791 0 0 0 0 -965387.27071927697 -2982132.1022336259 0 -2982132.1022336259 3876427.9470850527 0 0 0 0 -3096035.3965484994 -6347495.7630369812 0 -6347495.7630369812 11642191.5854076 0 0 0 0 2490713.628452599 -11196320.355194092 0 -11196320.355194092 -4447478.0115853548 0 0 0 0 -23354395.041151643 -295295177.13173389 0 -295295177.13173389 -471680.39266967773 0 0 0 0 2141051.6239148974 -11321642.689933777 0 -11321642.689933777 -2764511.5557250977 0 0 0 0 1165257.4955676794 -8538354.154006958 0 -8538354.154006958 -4465932.9619750977 0 0 0 0 -4049190.1225636415 -4868669.5067033768 0 -4868669.5067033768 6955282.2095947266 0 0 0 0 1289546.3876366615 -9889994.1271057129 0 -9889994.1271057129 1545104.4450321198 0 0 0 0 -307714834.7704792 224774040.78224945 0 224774040.78224945 283725614.52440262 0 0 0 0 64779021.757047288 493363763.25849152 0 493363763.25849152 746736514.94958496 0 0 0 0 35022.897774577264 579282.51124648005 0 579282.51124648005 12924096.996692792 0 0 0 0 -28275598.1675619 26042545.230724335 0 26042545.230724335 -30721347.070419312 0 0 0 0 -1643440.8414192442 -1326026.1957092285 0 -1326026.1957092285 3714186.221534729 0 0 0 0 -2022654.3242524702 -2584841.6795407571 0 -2584841.6795407571 12000514.40739952 0 0 0 0 -14553664.914970875 -2434969.2423553467 0 -2434969.2423553467 10453384.892211914 0 0 0 0 -79604288.146150649 -31957663.379608154 0 -31957663.379608154 -926694717.48046875 0 0 0 0 -211097.10883613495 -28109.060644034296 0 -28109.060644034296 285329.46758776903 0 0 0 0 -230478.42081351232 -895321.37862189114 0 -895321.37862189114 4685969.6483017653 0 0 0 0 -30172061.3106803 -437652290.17321777 0 -437652290.17321777 -202391085.75537109 0 0 0 0 627488709.1916275 588373915.06176758 0 588373915.06176758 484642929.55845642 0 0 0 0 290820761.73708463 -236837482.6043396 0 -236837482.6043396 -241188606.78145981 0 0 0 0 -273479221.59436238 -176897459.66590118 0 -176897459.66590118 -10515569.049438477 0 0 0 0 363182787.47142476 565952237.360466 0 565952237.360466 644365264.20496368 0 0 0 0 -279612.52036731085 -1866653.4161772169 0 -1866653.4161772169 3642264.9467584491 0 0 0 0 -594004945.61669457 370867331.84091187 0 370867331.84091187 4080987801.3283005 0 0 0 0 388217600.18554115 -1410120135.1883698 0 -1410120135.1883698 1913651018.6823883 0 0 0 0 168469389.39558536 821040931.4444809 0 821040931.4444809 956620558.75119019 0 0 0 0 331062823.87271202 -1280355748.6785889 0 -1280355748.6785889 4087696723.4149513 0 0 0 0 454891.41965075687 23619939.349834442 0 23619939.349834442 363766008.07165527 0 0 0 0 -43157743.893220842 -833999123.42008972 0 -833999123.42008972 3818067313.3919678 0 0 0 0 -130618172.25583702 -144023240.02013397 0 -144023240.02013397 -104692253.21537781 0 0 0 0 190276.74186570256 -492354.40311998129 0 -492354.40311998129 1387075.7244650945 0 0 0 0 658800526.48407066 -1114651810.5639954 0 -1114651810.5639954 1878455819.4059296 0 0 0 0 -624450193.37461948 620734004.8968811 0 620734004.8968811 4394485477.3681698 0 0 0 0 -112441.01449738926 -992279.87820900232 0 -992279.87820900232 3516228.3088397533 0 0 0 0 -1130446.0300215841 -2042042.6088961381 0 -2042042.6088961381 5266080.3089424521 0 0 0 0 -109025926.10143541 -75614745.543502808 0 -75614745.543502808 87266915.71472168 0 0 0 0 -89375514.55569911 25885602.338653564 0 25885602.338653564 42922610.234085083 0 0 0 0 -89381531.682813883 -91521409.519851685 0 -91521409.519851685 -48103941.326446533 0 0 0 0 -110341025.94607949 47128735.149673462 0 47128735.149673462 133048694.08747482 0 0 0 0 55306933.590934284 -14117132.22241497 0 -14117132.22241497 -55088402.06463623 0 0 0 0 49022284.713312976 86607529.438545704 0 86607529.438545704 -45764236.241241455 0 0 0 0 229761.61745882814 -1428240.8233351707 0 -1428240.8233351707 3502604.390222013 0 0 0 0 -177910.24161425189 -1161245.260340469 0 -1161245.260340469 795958.35411298275 0 0 0 0 19107209.905722875 -33227172.673130035 0 -33227172.673130035 -32689113.768768311 0 0 0 0 4320870.8045610916 -231319.51650238037 0 -231319.51650238037 6788200.659942627 0 0 0 0 156018.98864289187 3693051.7739944458 0 3693051.7739944458 25672927.098403931 0 0 0 0 433268.89225342131 -1225888.8747040629 0 -1225888.8747040629 2757915.534175083 0 0 0 0 -19089784.382652588 -38478437.398735046 0 -38478437.398735046 -17462879.639884949 0 0 0 0 -37321.374680671106 -3091097.892755047 0 -3091097.892755047 33223207.518447876 0 0 0 0 -5767600.1554937623 9113490.8673019409 0 9113490.8673019409 954759.73184967041 0 0 0 0 -4673350.55753332 -23053891.380302429 0 -23053891.380302429 26503400.58392334 0 0 0 0 20313169.808265671 -23989397.327774048 0 -23989397.327774048 -982113.11273193359 0 0 0 0 6517333.1094182879 -2149993.5615921021 0 -2149993.5615921021 546302.68721008301 0 0 0 0 16324306.727222035 32002141.311904907 0 32002141.311904907 67333160.702026367 0 0 0 0 201338.99235306378 -601430.19825881347 0 -601430.19825881347 556321.95684076846 0 0 0 0 18486706.447717965 -6050495.9597930908 0 -6050495.9597930908 -5658731.8176116943 0 0 0 0 7225320.5689893365 -10953261.651123047 0 -10953261.651123047 5102231.3689575195 0 0 0 0 13524053.237019837 -11796567.398178101 0 -11796567.398178101 4569703.9229164124 0 0 0 0 11412192.421188518 -14707489.600357056 0 -14707489.600357056 13016602.161834717 0 0 0 0 4193843.244289577 -12168220.964370728 0 -12168220.964370728 7077469.5134353638 0 0 0 0 6850101.9841278791 -18312361.820884705 0 -18312361.820884705 17205125.410644531 0 0 0 0 2017123.7665262222 -22188212.694602966 0 -22188212.694602966 30663549.015991211 0 0 0 0 8425003.9622919261 -18461866.990028381 0 -18461866.990028381 17090971.157958984 0 0 0 0 14344293.291690171 -27617772.86541748 0 -27617772.86541748 28905199.183898926 0 0 0 0 7121125.745552659 -23062540.594512939 0 -23062540.594512939 30608015.239190102 0 0 0 0 13513707.976276875 -13962512.741546631 0 -13962512.741546631 23674078.642333984 0 0 0 0 23582327.026677907 -16757700.11100769 0 -16757700.11100769 11763621.566883087 0 0 0 0 32955490.039554015 -23480884.297531128 0 -23480884.297531128 27009784.174053192 0 0 0 0 14835321.730430536 -19627507.107643127 0 -19627507.107643127 54158242.045928955 0 0 0 0 30758220.69081068 -31035256.171424866 0 -31035256.171424866 38836395.509162903 0 0 0 0 -4014707.7367527187 -38801981.738220215 0 -38801981.738220215 68327928.043624878 0 0 0 0 5332027.2617503405 -22124907.947563171 0 -22124907.947563171 35734334.977035522 0 0 0 0 5535183.6511098742 -55880078.527236938 0 -55880078.527236938 125006361.56434429 0 0 0 0 -36642319.378372937 -8027773.6475791931 0 -8027773.6475791931 73603478.937332153 0 0 0 0 78204538.679180115 -24931613.54870224 0 -24931613.54870224 50148953.308486938 0 0 0 0 33087875.621157952 26460894.679138184 0 26460894.679138184 121042861.46277618 0 0 0 0 598470.0338634029 7270933.7881774902 0 7270933.7881774902 82458574.526611328 0 0 0 0 33065.686215745431 -14025967.215608507 0 -14025967.215608507 44433743.455688477 0 0 0 0 10665445.080660999 -2742643.4461288452 0 -2742643.4461288452 50531339.465789795 0 0 0 0 9133391.4379847012 -12319817.528259277 0 -12319817.528259277 58931658.195861816 0 0 0 0 -48299929.43245995 -188400460.03596434 0 -188400460.03596434 -225585231.24198341 0 0 0 0 12272665.268724427 -24291389.416568141 0 -24291389.416568141 34071394.546130538 0 0 0 0 -156757590.53134346 -245085499.63023424 0 -245085499.63023424 -155343833.71426105 0 0 0 0 59829095.376771927 652668828.10857344 0 652668828.10857344 516454106.69484806 0 0 0 0 -180026035.0401783 -77979220.605988503 0 -77979220.605988503 -27090849.34018898 0 0 0 0 -1164275936.5258217 -67120481.453124762 0 -67120481.453124762 220732177.59557772 0 0 0 0 -250840630.17975569 -297385622.83835852 0 -297385622.83835852 -408948042.12619877 0 0 0 0 -375441856.12161636 -310917594.92904282 0 -310917594.92904282 -75917160.442726135 0 0 0 0 -274052017.5217514 -76930987.940765381 0 -76930987.940765381 46754172.071464539 0 0 0 0 4315868.7607037555 -6775133.1521096509 0 -6775133.1521096509 -3523457.2368181823 0 0 0 0 -437623169.46350479 -219405042.63108063 0 -219405042.63108063 164408002.96444511 0 0 0 0 -271913824.18511963 -67529113.116004944 0 -67529113.116004944 49743750.728626251 0 0 0 0 -290763898.98384857 -35283442.763916016 0 -35283442.763916016 343145535.94535828 0 0 0 0 -186978483.0881052 -71450790.56169939 0 -71450790.56169939 509095021.14250946 0 0 0 0 -195617229.97713089 -130620881.53591919 0 -130620881.53591919 156284761.04489136 0 0 0 0 -81191692.42048645 -376351464.17195129 0 -376351464.17195129 -266463137.63924599 0 0 0 0 -131391175.31523609 -165948475.50154495 0 -165948475.50154495 -175289295.12754822 0 0 0 0 -156205662.14815426 -158213357.90777206 0 -158213357.90777206 164035744.9675293 0 0 0 0 -120777080.32843971 -388914326.12878418 0 -388914326.12878418 41007329.053726196 0 0 0 0 -383586309.36461639 -103740520.53940201 0 -103740520.53940201 180076228.19395828 0 0 0 0 -116115358.90246931 -78703212.417093098 0 -78703212.417093098 847075542.46316528 0 0 0 0 14041533.38013602 -18341852.58344695 0 -18341852.58344695 21492001.041900344 0 0 0 0 -34257762.664240599 400529245.67697471 0 400529245.67697471 698529843.55084324 0 0 0 0 -422479188.10757446 -548246204.43363571 0 -548246204.43363571 -113824776.35807037 0 0 0 0 348994833.9092958 811581454.21602249 0 811581454.21602249 1281023526.7403436 0 0 0 0 334396269.23223305 20511582.415014267 0 20511582.415014267 755430940.38398027 0 0 0 0 483970766.80703926 657099859.54498911 0 657099859.54498911 1102200078.4589024 0 0 0 0 188060068.53609562 1107030673.9402466 0 1107030673.9402466 1424968092.5807843 0 0 0 0 -88309329.688878059 752229523.15129328 0 752229523.15129328 1704893259.5161276 0 0 0 0 91139526.976423264 1422387092.3911495 0 1422387092.3911495 1407459355.4920387 0 0 0 0 -3464803.6161886603 -69019.006838273723 0 -69019.006838273723 2329325.8809736893 0 0 0 0 -61734604.803710938 204605168.12791634 0 204605168.12791634 932814317.22492814 0 0 0 0 -180746525.61419106 341060923.25003815 0 341060923.25003815 1650422306.9327936 0 0 0 0 -374879805.89054203 294278549.15935743 0 294278549.15935743 800343502.95569611 0 0 0 0 -174125643.9895153 573709464.701478 0 573709464.701478 1349915231.4182463 0 0 0 0 115640327.92534447 373516136.7843194 0 373516136.7843194 757261252.06199551 0 0 0 0 449582800.20172596 403510627.09246063 0 403510627.09246063 675561047.14919567 0 0 0 0 342910318.12680149 565553808.31550884 0 565553808.31550884 2416074783.1585493 0 0 0 0 160836310.70351696 139464726.03293657 0 139464726.03293657 1310575456.6270485 0 0 0 0 429018695.50558853 743932449.34165764 0 743932449.34165764 2681540842.3920174 0 0 0 0 352787639.67395306 1431856732.7663212 0 1431856732.7663212 356815512.63689804 0 0 0 0 194006498.87776566 1984450917.1155319 0 1984450917.1155319 983201325.98025513 0 0 0 0 -147294331.31907272 1399377821.2031822 0 1399377821.2031822 825569080.6813345 0 0 0 0 248499139.86122239 1496986040.7724638 0 1496986040.7724638 216094235.91213226 0 0 0 0 68835177.103256226 983763639.59981918 0 983763639.59981918 -64803597.741865158 0 0 0 0 -772793310.58110142 706064351.226336 0 706064351.226336 -241361242.55512238 0 0 0 0 -335453795.84311581 -192532014.25260091 0 -192532014.25260091 3650192990.0862288 0 0 0 0 1939260.6615482308 38369.134827431291 0 38369.134827431291 923924.70260981005 0 0 0 0 80603146.556562424 204968627.49725795 0 204968627.49725795 1682657341.5956712 0 0 0 0 204424887.01308393 173719546.19378662 0 173719546.19378662 1301540488.7303662 0 0 0 0 110837604.57616806 -45324910.610598385 0 -45324910.610598385 1177606821.3630021 0 0 0 0 -1853774.6738220458 -12663.096001701662 0 -12663.096001701662 1310927.3818504193 0 0 0 0 115760732.76890039 771798360.69915438 0 771798360.69915438 1154823254.1376553 0 0 0 0 52657539.138860703 -94748601.383898377 0 -94748601.383898377 1573493239.3112607 0 0 0 0 29912098.767297268 -26295766.54491391 0 -26295766.54491391 1506282101.7835288 0 0 0 0 61650198.093160629 -102748714.89679182 0 -102748714.89679182 1391068698.3817875 0 0 0 0 -70919175.454742432 -54494468.532282948 0 -54494468.532282948 1963106595.3239615 0 0 0 0 5160157.6652565803 3362920.421461178 0 3362920.421461178 3808734.2431701506 0 0 0 0 51025138.784739494 97035793.262082338 0 97035793.262082338 1242435439.5773292 0 0 0 0 86789927.497091293 -24429431.627591014 0 -24429431.627591014 1332318245.0967793 0 0 0 0 21209913.799075603 86514781.037543625 0 86514781.037543625 1477217164.0912199 0 0 0 0 75650204.963465691 -38413294.588845178 0 -38413294.588845178 1347874349.7902617 0 0 0 0 92784356.19999218 -57565244.358107485 0 -57565244.358107485 1193585830.789938 0 0 0 0 131324930.76559734 -5011068.0765723586 0 -5011068.0765723586 774741535.97952545 0 0 0 0 160263116.83712864 126153715.21819454 0 126153715.21819454 824754062.32932663 0 0 0 0 -186425652.60885811 -209234875.02736884 0 -209234875.02736884 765998827.24574161 0 0 0 0 164814242.25729752 653431865.77520025 0 653431865.77520025 583076527.28488731 0 0 0 0 450346567.4261713 423516814.0403735 0 423516814.0403735 706951222.54873598 0 0 0 0 340031894.11308956 8785989.2864596248 0 8785989.2864596248 854284037.48227453 0 0 0 0 -363813908.21958065 -371012560.05134583 0 -371012560.05134583 954952280.06865001 0 0 0 0 -360059970.96255112 -810511985.48594213 0 -810511985.48594213 395299079.76293087 0 0 0 0 749149830.59621286 307631449.04901242 0 307631449.04901242 -101793562.19894934 0 0 0 0 2143275.9652827908 -908420.28255820135 0 -908420.28255820135 1134404.1811799237 0 0 0 0 421637061.64156336 67708828.13761282 0 67708828.13761282 -77731665.316742897 0 0 0 0 157607594.57454109 -218320122.2636776 0 -218320122.2636776 -176793143.97013903 0 0 0 0 -160858306.11598015 -191583576.95508099 0 -191583576.95508099 -6036429.2698440552 0 0 0 0 47533340.087784052 257781181.51356965 0 257781181.51356965 268151309.71969444 0 0 0 0 6604442.1672855197 -2322846.0143890786 0 -2322846.0143890786 3288563.7846343098 0 0 0 0 -327300250.30935478 -297053498.65111125 0 -297053498.65111125 176148393.01474112 0 0 0 0 80758244.95011425 -35998074.099123582 0 -35998074.099123582 -130388059.71769644 0 0 0 0 13141897.593407674 -2435491.8881134051 0 -2435491.8881134051 4809081.9421218839 0 0 0 0 -68403400.717632294 -456200108.73098004 0 -456200108.73098004 -107654536.07470611 0 0 0 0 95720249.622660279 -43665329.561577767 0 -43665329.561577767 -5445865.3999710083 0 0 0 0 50545433.529125214 -61290869.418008804 0 -61290869.418008804 5893263.4000396729 0 0 0 0 98260543.214157149 -5930011.3962737024 0 -5930011.3962737024 14861571.872005463 0 0 0 0 -192955065.81596565 -272523441.38295901 0 -272523441.38295901 -325263799.32025909 0 0 0 0 2915561.221151561 -452867.60991834756 0 -452867.60991834756 -1492662.8062605709 0 0 0 0 -193000794.88896084 -57348974.837321758 0 -57348974.837321758 53607420.799945831 0 0 0 0 -48493461.578403473 -187617533.01126957 0 -187617533.01126957 -5990417.3760321289 0 0 0 0 102923672.61563969 -43128943.364492416 0 -43128943.364492416 -8027494.0156650543 0 0 0 0 134655335.15919352 -90208270.057868481 0 -90208270.057868481 -48075482.12156105 0 0 0 0 84578211.724001884 -123497955.9389782 0 -123497955.9389782 -60248020.086372375 0 0 0 0 73646796.626723766 -103637006.37197924 0 -103637006.37197924 67565359.435302734 0 0 0 0 124488696.47839165 -220367160.59388351 0 -220367160.59388351 77995728.103730679 0 0 0 0 8827059.8423461914 -101647532.37504005 0 -101647532.37504005 -27508104.839525223 0 0 0 0 -20873376.986639977 -27208497.13238287 0 -27208497.13238287 -45166398.599796295 0 0 0 0 -76457623.528240204 -39657721.831437111 0 -39657721.831437111 53128497.608522415 0 0 0 0 -142618798.47648621 110327860.76723671 0 110327860.76723671 -87128882.794792175 0 0 0 0 175234638.8765831 -59418136.244913816 0 -59418136.244913816 -493813927.50186157 0 0 0 0 400061247.84115601 -835437547.27494431 0 -835437547.27494431 -56804448.379619598 0 0 0 0 287406439.57651138 486356692.32733727 0 486356692.32733727 -1219770101.923275 0 0 0 0 -545377.62602425367 -1802940.4726015227 0 -1802940.4726015227 3020666.4821763076 0 0 0 0 -106015578.828125 -39241139.178922892 0 -39241139.178922892 80468980.32182312 0 0 0 0 -12248643.0288119 998562.86342389137 0 998562.86342389137 19655835.745356176 0 0 0 0 -157161878.03415489 274352691.72279453 0 274352691.72279453 -225920754.91568375 0 0 0 0 -1391815.6785087585 -8276824.6678886414 0 -8276824.6678886414 4920587.6435098648 0 0 0 0 -29265857.597148895 -5586886.8198738098 0 -5586886.8198738098 54664873.239807129 0 0 0 0 -4921314.783890848 -14812649.368128998 0 -14812649.368128998 31577270.848630771 0 0 0 0 3284335.6579036713 -14315045.231744766 0 -14315045.231744766 -2743551.942691803 0 0 0 0 -5452590.1702631097 -11791648.422184488 0 -11791648.422184488 22594318.954854429 0 0 0 0 -65965508.653793335 12955589.512825012 0 12955589.512825012 65582057.001731873 0 0 0 0 -18809452.274789888 1948293.6698463149 0 1948293.6698463149 24091456.941427477 0 0 0 0 -96004483.773536682 41842010.971969604 0 41842010.971969604 47871514.670425415 0 0 0 0 -81346412.999401093 24826607.72700882 0 24826607.72700882 58796785.874328613 0 0 0 0 -106119322.34394836 -15020230.001434326 0 -15020230.001434326 53776527.26022625 0 0 0 0 -143462066.6823349 16525309.589439392 0 16525309.589439392 57771781.711565018 0 0 0 0 -56355083.624499321 -125277321.48393607 0 -125277321.48393607 4442087.7288866043 0 0 0 0 -132224706.19664764 -6637314.6363372803 0 -6637314.6363372803 63100453.448951721 0 0 0 0 -2198300.9485426582 -8638053.3230617158 0 -8638053.3230617158 8529717.2691021319 0 0 0 0 2137776.0436880919 -24939105.360576876 0 -24939105.360576876 47073017.258208156 0 0 0 0 -173280092.2716291 -109010064.01013958 0 -109010064.01013958 33095543.028506279 0 0 0 0 -126544408.5339241 490613.07260894775 0 490613.07260894775 60273027.267700195 0 0 0 0 -117496644.731287 59962763.31149292 0 59962763.31149292 82416834.487167358 0 0 0 0 -212864604.90920639 19209427.025630951 0 19209427.025630951 105218509.06713867 0 0 0 0 -188268258.09350586 -53252763.351699829 0 -53252763.351699829 25235309.39389801 0 0 0 0 -283873236.46551514 -74310707.11231041 0 -74310707.11231041 98119497.972961426 0 0 0 0 10705427.080275768 -30245300.830581822 0 -30245300.830581822 40875234.741058022 0 0 0 0 -124269840.59797001 35053656.376398087 0 35053656.376398087 160440662.24530506 0 0 0 0 -10068430.479622856 2496318.2088957238 0 2496318.2088957238 9897549.216635894 0 0 0 0 -310708718.22971344 -932811699.92385817 0 -932811699.92385817 -13955991.409874201 0 0 0 0 -177996497.02146149 133820915.99290848 0 133820915.99290848 194819734.36167908 0 0 0 0 -192914838.37010002 181806583.04555511 0 181806583.04555511 657498308.012146 0 0 0 0 -179453338.8243103 126138836.46330643 0 126138836.46330643 229649600.07165527 0 0 0 0 -199221300.87296295 34014060.484054565 0 34014060.484054565 120589069.73521805 0 0 0 0 -221999451.86489487 81314780.913845062 0 81314780.913845062 182526883.86473846 0 0 0 0 -306071121.34087181 -30834717.131877899 0 -30834717.131877899 173521640.53308105 0 0 0 0 -140366882.47068024 111820976.3094635 0 111820976.3094635 99678942.671707153 0 0 0 0 -74924857.517974854 131964479.00621033 0 131964479.00621033 105070845.87252808 0 0 0 0 -117056885.64784908 182352922.84934235 0 182352922.84934235 220055600.24024963 0 0 0 0 21254181.526863098 226503935.48893738 0 226503935.48893738 88690260.593154907 0 0 0 0 8938247.1965303421 103359886.13264465 0 103359886.13264465 10239764.364700317 0 0 0 0 -52403814.255313873 135359361.64395905 0 135359361.64395905 -4207116.8507003784 0 0 0 0 -66817712.915100098 71968336.609069824 0 71968336.609069824 -2302925.8498535156 0 0 0 0 -50794920.248588562 74604199.997879028 0 74604199.997879028 56951457.606165171 0 0 0 0 -125529502.57408142 74271324.50687027 0 74271324.50687027 56963381.699707031 0 0 0 0 -59461343.015369415 89883479.580093384 0 89883479.580093384 33306368.455062866 0 0 0 0 -12604092.308378952 6762874.5722521953 0 6762874.5722521953 13619951.704256665 0 0 0 0 -74512837.363132477 -11574834.579078674 0 -11574834.579078674 71571626.491241455 0 0 0 0 -17885049.234664917 27476498.191352844 0 27476498.191352844 50324816.516624451 0 0 0 0 -17934249.143650379 72483858.600732118 0 72483858.600732118 21141710.690429688 0 0 0 0 -7387384.6415915973 148437.62044156715 0 148437.62044156715 9192331.3497752249 0 0 0 0 -8307513.0677697174 7021492.1999517679 0 7021492.1999517679 9823549.2092025392 0 0 0 0 -3552118.1886615753 37487414.792060852 0 37487414.792060852 35229636.631454468 0 0 0 0 14961821.162599564 48510643.253353119 0 48510643.253353119 -15050881.794555664 0 0 0 0 -3600514.7149581909 56131260.929428101 0 56131260.929428101 -11233188.108364105 0 0 0 0 23535757.971802711 52652139.947246552 0 52652139.947246552 -54178929.737167358 0 0 0 0 23024014.257448196 20832270.382160187 0 20832270.382160187 -25851901.414451599 0 0 0 0 -620841.88978088181 4131910.6728276983 0 4131910.6728276983 -2383906.0997339636 0 0 0 0 -192725734.48493385 8216108.7926979065 0 8216108.7926979065 -8415448.0737609863 0 0 0 0 -313042107.98112488 10766211.37612915 0 10766211.37612915 34396227.485541344 0 0 0 0 -135888.98922823556 440408.33316592872 0 440408.33316592872 613472.543996803 0 0 0 0 306025.02353510959 516737.47224533744 0 516737.47224533744 -1395765.1052199602 0 0 0 0 101019292.158535 -10246455.124412537 0 -10246455.124412537 -628664959.36865234 0 0 0 0 24427545.427947998 70422267.680538177 0 70422267.680538177 -48720992.765426636 0 0 0 0 119188555.33184814 101216769.33148956 0 101216769.33148956 -66812218.706726074 0 0 0 0 105630002.61038208 56460930.189086914 0 56460930.189086914 -82564793.781471252 0 0 0 0 -563728567.72856903 243793029.77671051 0 243793029.77671051 -111446970.20146179 0 0 0 0 -183817883.74065399 3031816.5266113281 0 3031816.5266113281 -70326872.48374939 0 0 0 0 -161511011.37757874 -126558512.22671509 0 -126558512.22671509 -134917582.03757191 0 0 0 0 109103697.88233185 -136379840.06230927 0 -136379840.06230927 -100614352.99510193 0 0 0 0 58864136.655180931 -7580098.8761997223 0 -7580098.8761997223 -99046455.582550049 0 0 0 0 382642771.72877884 -180868616.93060303 0 -180868616.93060303 -74229256.049163818 0 0 0 0 300162697.0142889 -34157884.044998169 0 -34157884.044998169 -179888309.07570648 0 0 0 0 514195878.26227379 -258657738.77201843 0 -258657738.77201843 -78448278.14352417 0 0 0 0 453070230.88185692 -163924179.42800522 0 -163924179.42800522 -224590571.79319763 0 0 0 0 681234707.90081978 -387577141.67220306 0 -387577141.67220306 -85532688.054611206 0 0 0 0 538843514.18515682 -245585013.70369339 0 -245585013.70369339 -225067955.2068634 0 0 0 0 125900968.02232718 -16195836.711150169 0 -16195836.711150169 -167639275.06002808 0 0 0 0 611233692.37010193 -70136679.439002991 0 -70136679.439002991 -377882193.9451828 0 0 0 0 776878742.87352371 -349367820.03922272 0 -349367820.03922272 -108713816.63021088 0 0 0 0 781468808.35905695 -163403479.42843246 0 -163403479.42843246 92280953.687057495 0 0 0 0 1198274162.188076 -541638646.17980957 0 -541638646.17980957 225674889.86853027 0 0 0 0 436000895.36314011 -287240698.70937347 0 -287240698.70937347 121300882.9164238 0 0 0 0 417208278.63866806 -306248746.90731049 0 -306248746.90731049 130191887.21841431 0 0 0 0 586128800.06820679 -572979314.53496552 0 -572979314.53496552 659140870.52940369 0 0 0 0 166477130.10865021 -265011132.53214264 0 -265011132.53214264 529070322.21582031 0 0 0 0 149046427.86775112 149108012.99090958 0 149108012.99090958 398252868.56640625 0 0 0 0 183807115.85825109 166180410.48553848 0 166180410.48553848 1330541346.0692749 0 0 0 0 196669652.07228994 90138159.537805557 0 90138159.537805557 463062577.26342773 0 0 0 0 -160584957.04179192 -397657636.05458069 0 -397657636.05458069 1230802125.0869484 0 0 0 0 905849437.83767509 -613032419.71539307 0 -613032419.71539307 884660449.93022156 0 0 0 0 733458228.81842804 -839792844.81838989 0 -839792844.81838989 862658710.86113739 0 0 0 0 1262642580.0505695 190060484.71961403 0 190060484.71961403 488466517.66860962 0 0 0 0 46625161.602798462 -186436308.19822693 0 -186436308.19822693 1791466851.0234604 0 0 0 0 1001429817.4962997 -943024646.64818573 0 -943024646.64818573 1148626972.6101532 0 0 0 0 47975213.767185211 -223789052.90148163 0 -223789052.90148163 1074033488.2922592 0 0 0 0 32289526.991840363 -14880324.616767883 0 -14880324.616767883 387403035.19506836 0 0 0 0 135856271.39825821 207721293.82457733 0 207721293.82457733 574229252.37103271 0 0 0 0 -68004824.89522934 406500788.58789825 0 406500788.58789825 155007974.13575745 0 0 0 0 -64769662.634516925 239029843.73441148 0 239029843.73441148 686365205.84628296 0 0 0 0 21816923.279655933 226523725.47788715 0 226523725.47788715 -178917563.55744934 0 0 0 0 -260611477.55735016 781478300.13057709 0 781478300.13057709 -72115864.568916321 0 0 0 0 539673582.10369301 290701326.58470535 0 290701326.58470535 -710206320.78242493 0 0 0 0 -68072911.524589539 -425131047.08824158 0 -425131047.08824158 213000590.88851929 0 0 0 0 -130617032.4607296 396156336.12190056 0 396156336.12190056 -438143528.1481781 0 0 0 0 -30917637.525350571 12977126.250968933 0 12977126.250968933 17742556.196578979 0 0 0 0 2097637.7186151426 8275337.9446565192 0 8275337.9446565192 12740593.133499458 0 0 0 0 1376751.2099673748 6882686.2285766602 0 6882686.2285766602 5829556.2023773193 0 0 0 0 -13486661.643827438 2512467.2123260498 0 2512467.2123260498 4741991.664855957 0 0 0 0 -2058855.7175404718 4664259.5811787248 0 4664259.5811787248 6321986.6333305631 0 0 0 0 572047.6991072176 2538370.1951684244 0 2538370.1951684244 2011105.8615067452 0 0 0 0 -2806640.9834519187 -3000647.8541765604 0 -3000647.8541765604 1681263.8100304306 0 0 0 0 5644506.840681076 -14568656.617912292 0 -14568656.617912292 14288594.679573059 0 0 0 0 -29915187.711874008 -7916588.3885650635 0 -7916588.3885650635 35641572.28477478 0 0 0 0 -47916422.338182926 -45734133.50784111 0 -45734133.50784111 -34211211.699356079 0 0 0 0 45904611.305111885 -116566712.31536102 0 -116566712.31536102 9758233.969543457 0 0 0 0 153636407.61636162 98314771.484622955 0 98314771.484622955 64539359.511672974 0 0 0 0 -1403900.5864429474 -1448853.8302307129 0 -1448853.8302307129 438326.4313659668 0 0 0 0 -1180042.1518587796 -459569.16636981256 0 -459569.16636981256 1163964.470078595 0 0 0 0 567216138.93867517 -155671428.56388283 0 -155671428.56388283 -166254569.25793457 0 0 0 0 201703946.32187462 -66662671.956031799 0 -66662671.956031799 -167299781.98262918 0 0 0 0 320561660.6465168 -177961565.0498085 0 -177961565.0498085 -31968105.830871582 0 0 0 0 478401566.75379372 -273375575.38096237 0 -273375575.38096237 -32006599.509643555 0 0 0 0 91479824.959165573 -211181612.91061401 0 -211181612.91061401 176011605.55879211 0 0 0 0 65465132.071483612 -64025601.969543457 0 -64025601.969543457 132813773.26842117 0 0 0 0 57892442.13533783 53708464.811683655 0 53708464.811683655 306235720.97529602 0 0 0 0 35149673.01067543 135411952.66890717 0 135411952.66890717 29635300.423171997 0 0 0 0 -108607787.44706631 -158387945.39903259 0 -158387945.39903259 200574856.33653259 0 0 0 0 -898638.84944252344 -960984.17406094261 0 -960984.17406094261 561163.2483176887 0 0 0 0 -12266470.102803707 -118640052.3524437 0 -118640052.3524437 83178189.357803345 0 0 0 0 -11641142.012426376 -22511821.427558899 0 -22511821.427558899 -10471989.954864502 0 0 0 0 -293567844.97445869 33379307.863811493 0 33379307.863811493 175610212.52415466 0 0 0 0 1105250.7004065993 6593682.8479598202 0 6593682.8479598202 13107842.237806119 0 0 0 0 -63696127.427274346 38908713.332497597 0 38908713.332497597 12517571.781799316 0 0 0 0 -716973787.06388569 964874355.74477386 0 964874355.74477386 123588135.61426163 0 0 0 0 -55442327.281072617 33223566.077850342 0 33223566.077850342 -156075830.00084686 0 0 0 0 336150536.87410545 94325658.097423553 0 94325658.097423553 -549159578.01863098 0 0 0 0 676892602.87979889 -1029118726.7368546 0 -1029118726.7368546 500717479.12495232 0 0 0 0 114376700.10877275 -1075414599.3958149 0 -1075414599.3958149 1048151753.8260498 0 0 0 0 122154615.20590401 -887266822.70931244 0 -887266822.70931244 985474059.75793839 0 0 0 0 -29487890.854536057 424714367.31060791 0 424714367.31060791 2729619925.7278137 0 0 0 0 -35036115.597174644 532385683.8151598 0 532385683.8151598 1002125828.9131775 0 0 0 0 -268337370.99886703 -821518617.74840546 0 -821518617.74840546 1582544069.4331207 0 0 0 0 -370150285.27110922 -371483266.52634048 0 -371483266.52634048 607133351.55245972 0 0 0 0 -750759367.48294353 -370604473.62375641 0 -370604473.62375641 866789299.88600159 0 0 0 0 -209983556.35064793 -775855285.29437256 0 -775855285.29437256 949326093.38871765 0 0 0 0 27269042.682906866 -810116781.7706871 0 -810116781.7706871 727716872.04745483 0 0 0 0 -179350506.24404377 -253284429.8260057 0 -253284429.8260057 221764622.06430054 0 0 0 0 233086928.98449719 -665287733.12957382 0 -665287733.12957382 562760249.32496643 0 0 0 0 178161785.39286768 -613554633.35437775 0 -613554633.35437775 1195548813.3173981 0 0 0 0 -946046845.20317936 193553246.16683388 0 193553246.16683388 562347531.42814636 0 0 0 0 -143841075.89180565 169430825.95991516 0 169430825.95991516 187410791.81894684 0 0 0 0 -143106665.04761887 186147332.57672882 0 186147332.57672882 -44452120.738834381 0 0 0 0 -393003.81715513719 3912172.4535871819 0 3912172.4535871819 10954397.108437516 0 0 0 0 328474538.11519432 198923892.116745 0 198923892.116745 -159592191.38197327 0 0 0 0 -17697184.054838181 97699059.065876007 0 97699059.065876007 53065598.762237549 0 0 0 0 206416696.37654686 293795911.65927124 0 293795911.65927124 203044474.96364975 0 0 0 0 727043386.81575203 121734175.1721344 0 121734175.1721344 -228772497.62340164 0 0 0 0 -791685.66882513324 964693.34399167635 0 964693.34399167635 4771544.1914296001 0 0 0 0 68749095.031057358 1170030970.6230526 0 1170030970.6230526 1208563600.7572479 0 0 0 0 729715492.94563079 89115021.53452301 0 89115021.53452301 1201565543.8857727 0 0 0 0 1708014569.0891151 164575709.8877449 0 164575709.8877449 461852575.26502991 0 0 0 0 1894860110.0036514 -735729769.10932732 0 -735729769.10932732 -741102065.50514221 0 0 0 0 652637596.90385151 -1128771460.9559364 0 -1128771460.9559364 1966731.2529144287 0 0 0 0 927675269.65444374 -668055824.25118637 0 -668055824.25118637 263708383.86453247 0 0 0 0 944115474.18416882 -397149838.62850952 0 -397149838.62850952 67101129.59538269 0 0 0 0 589928054.90224743 -252468836.45989227 0 -252468836.45989227 704355765.52281189 0 0 0 0 291510002.99452162 -513435119.54885864 0 -513435119.54885864 476770533.19299316 0 0 0 0 186921304.07490659 -398994366.96707153 0 -398994366.96707153 763870674.64011383 0 0 0 0 70822714.515439987 -814608539.32822418 0 -814608539.32822418 727187962.90454483 0 0 0 0 240199064.10996914 -443427742.58742142 0 -443427742.58742142 749659639.18185425 0 0 0 0 -29701204.566440582 -664146219.30163193 0 -664146219.30163193 887255549.01006317 0 0 0 0 146280747.83921909 -506532008.87194443 0 -506532008.87194443 708078291.70248413 0 0 0 0 148697828.66835189 -504720287.17190647 0 -504720287.17190647 471824582.76637268 0 0 0 0 134449986.44841957 -514329161.36413574 0 -514329161.36413574 465367294.65303802 0 0 0 0 61710291.187057495 -342542068.6136322 0 -342542068.6136322 336844127.15470886 0 0 0 0 202989729.7986145 -455763954.05498505 0 -455763954.05498505 413851603.46061707 0 0 0 0 222024679.40752411 -478674376.10353851 0 -478674376.10353851 395628194.27999878 0 0 0 0 217153135.56117725 -461197473.29337692 0 -461197473.29337692 359457507.76278687 0 0 0 0 141737718.00232506 -560022114.14875793 0 -560022114.14875793 604825479.22108459 0 0 0 0 248137544.62194633 -736479096.24594498 0 -736479096.24594498 559687029.35447693 0 0 0 0 279577525.47377968 -750700004.34938812 0 -750700004.34938812 440018669.7060585 0 0 0 0 561236020.41369629 -626588326.45576096 0 -626588326.45576096 297342239.12831116 0 0 0 0 1015378603.1770267 118769744.30310249 0 118769744.30310249 49725115.406219482 0 0 0 0 609529776.44910049 -61670714.236949921 0 -61670714.236949921 46192905.083699346 0 0 0 0 677621407.03181076 -134753498.92854118 0 -134753498.92854118 -131179069.87670898 0 0 0 0 346363663.89060593 -324580980.32505035 0 -324580980.32505035 122713213.51991701 0 0 0 0 195800913.0641346 -107595792.28675461 0 -107595792.28675461 -92897227.031677246 0 0 0 0 299254660.04771805 -95384513.855186462 0 -95384513.855186462 143552773.99563789 0 0 0 0 226377051.2721138 -340992367.76894379 0 -340992367.76894379 249782167.73464203 0 0 0 0 575979517.51878166 -207776694.56735229 0 -207776694.56735229 433491020.29998779 0 0 0 0 1816658783.9515066 -418561423.00337029 0 -418561423.00337029 167982073.64800262 0 0 0 0 721003980.69325638 -497580925.84742355 0 -497580925.84742355 455944367.52766418 0 0 0 0 907213.83930472017 -3557892.4688617205 0 -3557892.4688617205 2839379.7079235613 0 0 0 0 -164295872.27376461 48059976.125278473 0 48059976.125278473 44335004.168479919 0 0 0 0 464215.67856389936 -969671.22469144315 0 -969671.22469144315 1019639.769186601 0 0 0 0 419475999.9410038 491096836.97481918 0 491096836.97481918 524242351.71578979 0 0 0 0 426803575.11279202 479305215.01060867 0 479305215.01060867 73626427.389984131 0 0 0 0 428058248.73130035 401792130.80759048 0 401792130.80759048 -77588072.879470825 0 0 0 0 280341703.38929939 454251148.91082764 0 454251148.91082764 524504921.20528984 0 0 0 0 229118304.86982155 299237372.44301987 0 299237372.44301987 66654104.946411133 0 0 0 0 374056905.03368568 414507038.79515553 0 414507038.79515553 69538019.357818604 0 0 0 0 14767956.82425642 124201980.10740852 0 124201980.10740852 -72736335.941635132 0 0 0 0 -653111328.9770813 26087562.731433868 0 26087562.731433868 269997637.47797585 0 0 0 0 1104234.875776052 -2477382.7541370373 0 -2477382.7541370373 2564317.7911017686 0 0 0 0 -90695672.878808975 -80737653.636947632 0 -80737653.636947632 -54060938.67924118 0 0 0 0 -387558150.32817554 14462674.40366745 0 14462674.40366745 82584320.082275391 0 0 0 0 -239493367.20450783 180339121.14273071 0 180339121.14273071 56916856.110412598 0 0 0 0 1530310.9889720608 -7308427.1746279262 0 -7308427.1746279262 9182144.332192786 0 0 0 0 248737438.64148426 177540182.58815765 0 177540182.58815765 113705676.61896515 0 0 0 0 1136694.0504779555 -2226636.1211005729 0 -2226636.1211005729 1116344.1290132776 0 0 0 0 78806595.516145706 -101628170.36437798 0 -101628170.36437798 -155043655.62902069 0 0 0 0 89535592.095420837 -310074442.66693115 0 -310074442.66693115 -143854969.0306263 0 0 0 0 522194431.27728081 -36635278.985139847 0 -36635278.985139847 -88901554.332695007 0 0 0 0 303048363.21639442 -221397259.34206009 0 -221397259.34206009 -93943462.718241692 0 0 0 0 653245801.63672042 -92652765.250798225 0 -92652765.250798225 -141899155.30134583 0 0 0 0 321646339.94446945 -326626217.53961563 0 -326626217.53961563 -230428558.92536736 0 0 0 0 -38914364.86491394 -70480262.49844265 0 -70480262.49844265 -359282911.57987213 0 0 0 0 372213356.47129631 -335999984.88508606 0 -335999984.88508606 -306882389.97179604 0 0 0 0 9779208.4365006052 -10643570.928672403 0 -10643570.928672403 11914012.233748233 0 0 0 0 288896874.24898553 1051388354.3014088 0 1051388354.3014088 510244942.37716293 0 0 0 0 335388540.14529872 483058114.91712856 0 483058114.91712856 847675643.14583015 0 0 0 0 1038258226.6682763 670997327.02117729 0 670997327.02117729 710498202.27144432 0 0 0 0 454089646.65536523 717729160.34453011 0 717729160.34453011 1065256922.6236496 0 0 0 0 3731825.516002113 -3220249.203484349 0 -3220249.203484349 3451295.5025397539 0 0 0 0 1045471652.7894326 953270853.95436394 0 953270853.95436394 1597934798.0488548 0 0 0 0 1324726547.5649643 978291881.04471207 0 978291881.04471207 -1124076342.6393528 0 0 0 0 370389479.20030481 -363763586.8885392 0 -363763586.8885392 -267077014.42867279 0 0 0 0 113645472.71066618 -449914733.85988045 0 -449914733.85988045 -279791421.90098 0 0 0 0 1483159.0868936316 -8574367.5468457118 0 -8574367.5468457118 15526111.652198844 0 0 0 0 -54552673.853303432 -410997102.28239441 0 -410997102.28239441 -143020125.70954514 0 0 0 0 -498336110.17158699 -183229004.64351273 0 -183229004.64351273 362190708.76713181 0 0 0 0 -273963325.3689599 83018364.828432083 0 83018364.828432083 594228014.81538391 0 0 0 0 1029999999.205277 -723420691.66243362 0 -723420691.66243362 -8811544.0469436646 0 0 0 0 -1578924795.0587866 -381049538.39043713 0 -381049538.39043713 3704780993.3906021 0 0 0 0 342144640.03593922 -484512389.75245476 0 -484512389.75245476 104360357.98200989 0 0 0 0 1678794674.4359245 -1094504657.2162743 0 -1094504657.2162743 -235503523.02270889 0 0 0 0 1224311.6656978587 -6654120.7777409945 0 -6654120.7777409945 16979006.430056389 0 0 0 0 1456979492.2825108 23293445.036968231 0 23293445.036968231 -238954951.71611023 0 0 0 0 1465906631.8536854 -920153104.60468626 0 -920153104.60468626 91396636.429336548 0 0 0 0 3141973286.1211977 -874163738.18394852 0 -874163738.18394852 237829967.17025375 0 0 0 0 1268191373.2257934 -639694706.96989822 0 -639694706.96989822 497435085.28339386 0 0 0 0 796286.30084818893 -2208792.0242609521 0 -2208792.0242609521 7712655.5092817619 0 0 0 0 1499591311.4084306 1643324561.611496 0 1643324561.611496 -108136573.2906189 0 0 0 0 1145946512.0595002 1790533006.1139765 0 1790533006.1139765 1380082049.1492424 0 0 0 0 1164568097.0179422 489763503.89337349 0 489763503.89337349 1571603731.2357063 0 0 0 0 1044050451.1846533 423084829.03485107 0 423084829.03485107 822499983.01904869 0 0 0 0 1219131651.6162987 542615419.58618546 0 542615419.58618546 867523714.44898033 0 0 0 0 813595791.4947716 194529887.52553368 0 194529887.52553368 746159137.30625153 0 0 0 0 590912446.06183481 576107025.27932549 0 576107025.27932549 760257055.71779156 0 0 0 0 976562273.8934691 294691924.26725769 0 294691924.26725769 897481975.5906105 0 0 0 0 975188277.10705423 275313377.85065317 0 275313377.85065317 756120891.03231812 0 0 0 0 1862810706.4949026 244895752.52748489 0 244895752.52748489 -1081453427.1185913 0 0 0 0 1005898125.1227951 -278961811.32883072 0 -278961811.32883072 1928542739.8533392 0 0 0 0 1818097735.6398087 184462902.32341576 0 184462902.32341576 662503450.44090271 0 0 0 0 -312709190.93306732 -279983192.53716278 0 -279983192.53716278 91596576.886901855 0 0 0 0 -444769062.2385025 18044618.672332764 0 18044618.672332764 195797560.28911591 0 0 0 0 -68455882.92131424 40524248.245552063 0 40524248.245552063 -9066851.71824646 0 0 0 0 32573247.436376572 -341386392.99833679 0 -341386392.99833679 343104142.77651978 0 0 0 0 3375820.4327030182 -359471016.27890015 0 -359471016.27890015 405365307.44646835 0 0 0 0 44813899.376823425 -249608571.23780823 0 -249608571.23780823 144780116.6960907 0 0 0 0 -219858954.36257839 -204845702.96852875 0 -204845702.96852875 267884821.96951294 0 0 0 0 -76066570.394878864 -347966686.98590851 0 -347966686.98590851 269648196.93139648 0 0 0 0 104040492.45148659 -331871934.59293365 0 -331871934.59293365 256387976.81382751 0 0 0 0 151328177.70240843 -545915723.71563816 0 -545915723.71563816 385760541.48854065 0 0 0 0 175785325.49603599 -380860351.02007294 0 -380860351.02007294 282425615.75223541 0 0 0 0 -125553522.25878334 -512777109.2290802 0 -512777109.2290802 293598992.79096222 0 0 0 0 -203770092.12804985 -175946085.37820435 0 -175946085.37820435 190883702.56858635 0 0 0 0 148085900.13435388 -439342077.99766541 0 -439342077.99766541 108215230.74126816 0 0 0 0 510984267.73705435 -697492387.59253693 0 -697492387.59253693 87589844.442325592 0 0 0 0 128735399.20256972 -463467927.03232193 0 -463467927.03232193 245089383.78498316 0 0 0 0 439478735.06056011 -646939011.9123764 0 -646939011.9123764 266742944.79454899 0 0 0 0 458885147.45347637 -402137449.30327606 0 -402137449.30327606 422299935.52695084 0 0 0 0 602374710.10460854 -681988021.44117641 0 -681988021.44117641 414960974.94773865 0 0 0 0 562290828.14858723 -489934356.50267029 0 -489934356.50267029 429698367.78353119 0 0 0 0 1078089079.3819141 -428306656.02998352 0 -428306656.02998352 152793881.39683533 0 0 0 0 1193400513.1539457 -545239737.53935051 0 -545239737.53935051 -176768374.12033081 0 0 0 0 961698700.62976956 -1020599209.2332211 0 -1020599209.2332211 253898133.41612244 0 0 0 0 1143272770.0862656 -611499037.03899002 0 -611499037.03899002 -183470427.6776495 0 0 0 0 1215971178.4473758 -890727417.70398331 0 -890727417.70398331 167539044.65556145 0 0 0 0 150102687.36567527 -764103673.46530354 0 -764103673.46530354 1042338132.8011093 0 0 0 0 119941518.03790268 -390197880.31740189 0 -390197880.31740189 28386136.694511414 0 0 0 0 -143266310.36890364 -845135344.56563759 0 -845135344.56563759 457815960.66950226 0 0 0 0 458598438.21513176 -539893559.3152256 0 -539893559.3152256 8646730.8156204224 0 0 0 0 -424466861.54832363 -192185698.63450241 0 -192185698.63450241 1059341.1318016052 0 0 0 0 -475154058.19350719 -442655205.63242722 0 -442655205.63242722 272814244.30598831 0 0 0 0 -932158589.33350873 344609810.2779808 0 344609810.2779808 -467418821.11534119 0 0 0 0 -866520906.06402922 -448839013.94037056 0 -448839013.94037056 115326156.01261139 0 0 0 0 -986877353.71635151 70974079.716915131 0 70974079.716915131 -368390905.41893005 0 0 0 0 -5165456.0866366662 -3572323.9531611875 0 -3572323.9531611875 5194821.1558348201 0 0 0 0 -1299136307.620533 155611759.2093153 0 155611759.2093153 187087417.08748627 0 0 0 0 -1105402028.3651319 548781853.27133942 0 548781853.27133942 -181203655.63156128 0 0 0 0 -444021765.9616462 97324262.482644439 0 97324262.482644439 -150178830.63327026 0 0 0 0 286549944.79498684 -15903429.562381744 0 -15903429.562381744 358749630.71451759 0 0 0 0 -862284.13377412129 -2344978.9038367374 0 -2344978.9038367374 6115389.5805144012 0 0 0 0 -1024383.8387858839 -830722.85808073357 0 -830722.85808073357 10937525.739468813 0 0 0 0 820349143.79973447 -448155030.03073692 0 -448155030.03073692 174727954.09326172 0 0 0 0 -1372241241.0229154 912484456.7660675 0 912484456.7660675 412243064.4471817 0 0 0 0 -2697409.1929423036 -3809187.6215147395 0 -3809187.6215147395 15295163.618640848 0 0 0 0 -3288834.9388449471 -1042983.9568514191 0 -1042983.9568514191 4111503.4682169221 0 0 0 0 -2582646300.1280956 685482118.61855507 0 685482118.61855507 583065957.7390213 0 0 0 0 -957627188.45558119 -52695756.515539169 0 -52695756.515539169 -909051649.86946106 0 0 0 0 -1676465196.844902 -555064351.54881668 0 -555064351.54881668 262312580.37063599 0 0 0 0 -1802799167.6281724 1150716211.896286 0 1150716211.896286 1283317983.5248489 0 0 0 0 223009473.91875082 892201325.03983688 0 892201325.03983688 -1033107333.9478073 0 0 0 0 183038369.04793376 1338612061.2890739 0 1338612061.2890739 1749746674.2229996 0 0 0 0 -192475471.72191092 231992121.44632339 0 231992121.44632339 167973306.96078491 0 0 0 0 -965210133.67459905 -498966200.36642981 0 -498966200.36642981 706842147.54737854 0 0 0 0 -151661201.71356577 -989179.96340465546 0 -989179.96340465546 1452205889.0138931 0 0 0 0 739461453.27002048 -144842959.12022781 0 -144842959.12022781 746710265.65398788 0 0 0 0 872594120.48201382 965129748.32216263 0 965129748.32216263 467477366.39200592 0 0 0 0 751281595.91966081 1139025260.2977581 0 1139025260.2977581 2953827397.6898155 0 0 0 0 455919576.58553255 1761295563.5966878 0 1761295563.5966878 2897359371.394165 0 0 0 0 428346225.77435154 1977610356.9441586 0 1977610356.9441586 1266913066.5417633 0 0 0 0 392834120.69613838 2172682683.8867016 0 2172682683.8867016 2719289339.9076157 0 0 0 0 115614326.88933767 1868360250.9542484 0 1868360250.9542484 3149218215.837471 0 0 0 0 118553519.85874739 2996702569.4973068 0 2996702569.4973068 4085008257.9789925 0 0 0 0 -295442985.02511311 2350080786.0018578 0 2350080786.0018578 2813813786.9362183 0 0 0 0 -156976693.86036277 2458599562.4911594 0 2458599562.4911594 1028716540.2429657 0 0 0 0 -538568.65601254976 767511.08375146706 0 767511.08375146706 1180746.1681984439 0 0 0 0 -741088074.3244853 -173129881.64173889 0 -173129881.64173889 -1561596566.0583649 0 0 0 0 691283838.48322797 -1107541323.4815331 0 -1107541323.4815331 4062091003.3339844 0 0 0 0 415689285.6546666 2889109146.0550804 0 2889109146.0550804 3398065479.311409 0 0 0 0 111475.66298524625 -286687.50036957394 0 -286687.50036957394 4608734.2635379806 0 0 0 0 -660828.79290047998 -3396351.8881889647 0 -3396351.8881889647 4448823.0257150233 0 0 0 0 1871669447.283082 -2346013615.15588 0 -2346013615.15588 1960748460.8264542 0 0 0 0 27089633.471447796 472146693.38117981 0 472146693.38117981 361254926.81498718 0 0 0 0 742816225.39964271 -899617930.90603638 0 -899617930.90603638 152119472.88708496 0 0 0 0 1459093001.1353099 -418381045.93143272 0 -418381045.93143272 2981916874.2377357 0 0 0 0 70506793.490354449 -287969482.32095146 0 -287969482.32095146 2904559738.7695827 0 0 0 0 678409193.96166635 428301827.09790885 0 428301827.09790885 2018153302.1535912 0 0 0 0 513637713.89466161 55568990.311401367 0 55568990.311401367 1751521967.3034706 0 0 0 0 603786314.63476777 -12847872.811109781 0 -12847872.811109781 3381344903.9782143 0 0 0 0 626588424.25055408 1551419246.1433525 0 1551419246.1433525 2578671042.888916 0 0 0 0 2202387245.2173705 -1642358460.5438099 0 -1642358460.5438099 1572761276.8273888 0 0 0 0 874939929.29307699 -782655251.770998 0 -782655251.770998 3115033405.4518356 0 0 0 0 2014211261.0950835 1384302977.6054516 0 1384302977.6054516 2078267242.775135 0 0 0 0 2527645193.4354763 393279115.55204821 0 393279115.55204821 2739705166.4523697 0 0 0 0 972953667.35375893 1266065172.0351934 0 1266065172.0351934 4095875413.552681 0 0 0 0 894634508.12726474 830231005.64386559 0 830231005.64386559 2697970005.5237961 0 0 0 0 802361360.21484268 469826413.29626846 0 469826413.29626846 4093612241.1270103 0 0 0 0 473503345.28009063 129488081.10848045 0 129488081.10848045 3328857006.8037186 0 0 0 0 -30689958.580826677 -4244588.1763381958 0 -4244588.1763381958 4094851745.3659019 0 0 0 0 419947038.55659747 -73911694.474504471 0 -73911694.474504471 3351270475.7367821 0 0 0 0 -190485396.57975718 -377973283.01485062 0 -377973283.01485062 3221163752.6686859 0 0 0 0 -492225355.34074837 -554912877.21593094 0 -554912877.21593094 4094019998.6273479 0 0 0 0 -53009709.349022821 -687423352.48829174 0 -687423352.48829174 2604440075.7488785 0 0 0 0 209706754.11797997 -195266752.37849045 0 -195266752.37849045 3280895435.3997841 0 0 0 0 -979886266.68283713 -1319836596.338325 0 -1319836596.338325 4095433039.3618851 0 0 0 0 -699630380.42385101 -1042975925.7331061 0 -1042975925.7331061 3072721016.867878 0 0 0 0 -730421998.56009388 -589693763.87198067 0 -589693763.87198067 3124545659.1033664 0 0 0 0 -367291872.72602212 -994993560.97494698 0 -994993560.97494698 1434447176.4357834 0 0 0 0 -668059.66181542445 170107.34659047425 0 170107.34659047425 2688448.0278767385 0 0 0 0 -1193754043.216089 1683674058.3962231 0 1683674058.3962231 641111547.39796448 0 0 0 0 -815696912.60314345 584974532.0345788 0 584974532.0345788 3376234924.3305798 0 0 0 0 482066751.367872 1338710343.4029427 0 1338710343.4029427 2086731453.9222374 0 0 0 0 698396762.60500431 382210417.66703224 0 382210417.66703224 10750805.670413971 0 0 0 0 -131456407.54096842 258649572.18669701 0 258649572.18669701 2418937274.2123432 0 0 0 0 679167143.24828434 -1562135316.1832123 0 -1562135316.1832123 2651464860.1993027 0 0 0 0 14437228.906371403 161749996.11154175 0 161749996.11154175 2828246426.5385189 0 0 0 0 -1113822.9034628505 -334016.3056762265 0 -334016.3056762265 3751387.8246454038 0 0 0 0 -727857147.66085756 -894349330.57500839 0 -894349330.57500839 1043600029.249054 0 0 0 0 -566673494.22119391 -1102078568.3745451 0 -1102078568.3745451 -490648450.71901703 0 0 0 0 480888618.53850543 -131682051.42784929 0 -131682051.42784929 691114367.66379166 0 0 0 0 -574066428.76850343 -397362743.06322479 0 -397362743.06322479 2375868705.2300339 0 0 0 0 231178895.49404025 109747641.99523926 0 109747641.99523926 904561436.35682297 0 0 0 0 659741886.21096337 458155958.84661484 0 458155958.84661484 461145729.40921021 0 0 0 0 185913187.36050582 493593094.47408295 0 493593094.47408295 711386203.08135223 0 0 0 0 560587331.36690354 489362832.62391281 0 489362832.62391281 560369135.84350204 0 0 0 0 10831771.441812038 626280109.59040833 0 626280109.59040833 537319332.0580616 0 0 0 0 1193971.8608899117 330828843.01245308 0 330828843.01245308 24813792.56414032 0 0 0 0 193143816.89516088 402291853.77946568 0 402291853.77946568 236784717.71665955 0 0 0 0 -302656532.63968426 110606729.49718475 0 110606729.49718475 222954494.82987213 0 0 0 0 -338688537.17077422 367070490.20791626 0 367070490.20791626 472266384.96745682 0 0 0 0 231263996.50087309 106531277.57088545 0 106531277.57088545 -189732076.98221588 0 0 0 0 -914889020.16691673 -239341489.54404992 0 -239341489.54404992 211359641.20546341 0 0 0 0 -2261816.699749073 -46240.230012172833 0 -46240.230012172833 6622081.7802660186 0 0 0 0 -873446111.42088604 308674548.40701103 0 308674548.40701103 400868398.13822937 0 0 0 0 21012157.761390224 418866122.15795135 0 418866122.15795135 7064204.1977272034 0 0 0 0 45986717.797544956 -323548893.58179188 0 -323548893.58179188 330253176.9118104 0 0 0 0 -549399740.26784134 -56725200.086257935 0 -56725200.086257935 -89685249.511875153 0 0 0 0 -419052677.07439804 208724305.71232414 0 208724305.71232414 -61854594.52291894 0 0 0 0 -574888444.16513252 232496367.49905777 0 232496367.49905777 371853206.56831741 0 0 0 0 -374557383.10393834 146447943.72568798 0 146447943.72568798 -7511367.6696243286 0 0 0 0 443116799.50203085 790212852.85672569 0 790212852.85672569 -180272403.34336853 0 0 0 0 991107.33525359211 690554.46738787834 0 690554.46738787834 283153.66201299243 0 0 0 0 3112423.5915331841 195819498.57850945 0 195819498.57850945 330331315.54081345 0 0 0 0 -654714.55619255779 -1264.8514605222736 0 -1264.8514605222736 1494209.2852627896 0 0 0 0 1281389.8834239668 1810303.6302236244 0 1810303.6302236244 1934220.8870503195 0 0 0 0 -36250492.781607628 -140349248.71253395 0 -140349248.71253395 209705685.23745728 0 0 0 0 11182315.23311615 31005158.338418961 0 31005158.338418961 123339921.85487556 0 0 0 0 -1333712462.8678932 17962280.078521729 0 17962280.078521729 337947794.98381805 0 0 0 0 -280999544.56030321 -441878155.92970419 0 -441878155.92970419 -389028540.80518532 0 0 0 0 10099693.266013145 615401032.59802055 0 615401032.59802055 481327182.97694778 0 0 0 0 -1130286922.5104084 1076544204.9701595 0 1076544204.9701595 3792472.4170475006 0 0 0 0 139801068.82889366 893336176.52882576 0 893336176.52882576 -952561209.08569336 0 0 0 0 172961740.72048628 163347898.90564489 0 163347898.90564489 1534370843.5802574 0 0 0 0 94911013.32101965 -132041853.04793549 0 -132041853.04793549 440816275.33616638 0 0 0 0 673219992.50523329 839498097.00901794 0 839498097.00901794 937773201.99077225 0 0 0 0 323806939.23754692 947740605.53274727 0 947740605.53274727 773011792.86749744 0 0 0 0 447357599.70971584 750311510.98903084 0 750311510.98903084 1086838718.1547241 0 0 0 0 -1918304.4007253717 -371932.7498072153 0 -371932.7498072153 1419137.9311253866 0 0 0 0 575209870.9119215 298658939.39327812 0 298658939.39327812 880255687.39978409 0 0 0 0 469837694.49410224 661661544.29866028 0 661661544.29866028 -8123144.6735534668 0 0 0 0 -6630478.1358475685 1068413201.805851 0 1068413201.805851 765774385.98050117 0 0 0 0 212306566.04542524 887563371.4488678 0 887563371.4488678 853580525.24469948 0 0 0 0 479514132.60393894 755846659.64673281 0 755846659.64673281 686883016.84326172 0 0 0 0 249607771.82656676 746633737.62822151 0 746633737.62822151 798518210.4152317 0 0 0 0 217778414.10938954 631411069.84056997 0 631411069.84056997 381412722.77688217 0 0 0 0 237402998.99719334 1164827904.9552593 0 1164827904.9552593 710241247.76649094 0 0 0 0 150130053.45281339 1032758047.3479052 0 1032758047.3479052 514658940.25880051 0 0 0 0 -121760531.40624413 153366886.82645988 0 153366886.82645988 -100754535.23032761 0 0 0 0 -105956751.6009047 206568052.46251106 0 206568052.46251106 -238452677.85395813 0 0 0 0 -260729320.33562374 264149364.3883152 0 264149364.3883152 -108259814.01572037 0 0 0 0 -100159001.9153223 153447423.95687294 0 153447423.95687294 -112908744.605299 0 0 0 0 -100665187.75561261 105923487.25379562 0 105923487.25379562 -25901814.931760788 0 0 0 0 -114920782.25090551 60682074.328449965 0 60682074.328449965 45483788.689258575 0 0 0 0 -110156039.82389611 103763753.5938195 0 103763753.5938195 -18287433.272697449 0 0 0 0 -36329947.15867874 13129831.583170772 0 13129831.583170772 -20348373.221122742 0 0 0 0 -41016974.413266003 54316170.723688126 0 54316170.723688126 -100549025.50170708 0 0 0 0 -13648846.358845377 7468381.6952535538 0 7468381.6952535538 8868343.7149433643 0 0 0 0 -30471752.857973933 -8547593.7259807587 0 -8547593.7259807587 -16460811.803379059 0 0 0 0 933387.01600356214 -2251363.0666377544 0 -2251363.0666377544 -54254226.992290497 0 0 0 0 -95394919.75421381 55914345.016383171 0 55914345.016383171 -60180908.90111351 0 0 0 0 -10661034.95184892 343667.65113609657 0 343667.65113609657 6631553.4394905306 0 0 0 0 17252583.253177643 60974319.038948059 0 60974319.038948059 14274881.794378281 0 0 0 0 -8720374.1625570059 71035126.063533783 0 71035126.063533783 -169993027.30464077 0 0 0 0 -128929165.00122905 -117568897.09724474 0 -117568897.09724474 -26536568.8478508 0 0 0 0 450901.0770368576 -23676573.036567688 0 -23676573.036567688 -312586103.60944748 0 0 0 0 15285221.901389122 92796049.017913818 0 92796049.017913818 -790599726.20248795 0 0 0 0 -547975382.01616669 1022176321.8176727 0 1022176321.8176727 -1078348079.0638924 0 0 0 0 -1209790499.126812 323147788.01911545 0 323147788.01911545 -178739031.59349203 0 0 0 0 -83263692.650841713 501871460.3767004 0 501871460.3767004 -1456752702.1939049 0 0 0 0 -3734679.8609603951 -86134.379019176587 0 -86134.379019176587 1830862.4382919096 0 0 0 0 -1049758509.7226176 1142911435.4186149 0 1142911435.4186149 -505388168.66925049 0 0 0 0 -676928841.39477777 113026317.30123234 0 113026317.30123234 -1861589.8916931152 0 0 0 0 -912476097.66676617 710021900.40652275 0 710021900.40652275 93022925.514984131 0 0 0 0 -531985434.48806477 256290322.41600227 0 256290322.41600227 98083412.435698614 0 0 0 0 -179299952.09118891 293838999.23049545 0 293838999.23049545 -272210042.64929962 0 0 0 0 -192787432.37569904 275022682.71266556 0 275022682.71266556 -288974420.29226208 0 0 0 0 -330242365.98958969 485250244.29974556 0 485250244.29974556 -480088369.47208405 0 0 0 0 -333998695.38904476 460386166.41804504 0 460386166.41804504 -633532077.30993652 0 0 0 0 -559759581.70952702 320571278.33649635 0 320571278.33649635 -43372317.55398941 0 0 0 0 -324730169.39414501 384123808.94050789 0 384123808.94050789 -248063495.75921917 0 0 0 0 -383463718.99308956 264319861.17014313 0 264319861.17014313 -22801686.031772614 0 0 0 0 -296900823.45342159 332394579.35802364 0 332394579.35802364 -36174250.78562355 0 0 0 0 -393235660.73147535 276535833.37606716 0 276535833.37606716 -32512550.569145203 0 0 0 0 -436960459.70547438 133780591.88352966 0 133780591.88352966 -12676709.156394005 0 0 0 0 -482074699.43421793 237938820.33205795 0 237938820.33205795 -38175471.252223969 0 0 0 0 -1414200.4411647618 -540309.55051003303 0 -540309.55051003303 2551252.3215092625 0 0 0 0 129860540.56247091 -446584967.80821609 0 -446584967.80821609 606750215.14258385 0 0 0 0 -385482950.65721607 247623698.62092495 0 247623698.62092495 -107077257.05862045 0 0 0 0 -470639482.64157295 620049285.13079262 0 620049285.13079262 -101592753.0342184 0 0 0 0 -446766.84502409422 61679.671006596647 0 61679.671006596647 1147783.4477305524 0 0 0 0 -439293183.08785224 456216164.36696148 0 456216164.36696148 502952669.36261177 0 0 0 0 -288542162.32569742 279090593.70662117 0 279090593.70662117 93840347.15332222 0 0 0 0 -348557523.24393678 225477284.0013361 0 225477284.0013361 377659691.91927147 0 0 0 0 -254899750.61382878 329103702.59175491 0 329103702.59175491 88261302.03865242 0 0 0 0 -245316855.05669355 272020390.39703751 0 272020390.39703751 17535505.475512505 0 0 0 0 -177581522.97824585 197961733.10987854 0 197961733.10987854 5789005.3791007996 0 0 0 0 -211855974.39219236 237173923.08822507 0 237173923.08822507 -35282506.168544769 0 0 0 0 -210053582.79291153 271667305.02509689 0 271667305.02509689 -117071888.33970165 0 0 0 0 -188717533.71471322 178665701.45106125 0 178665701.45106125 45991136.536464691 0 0 0 0 -227424283.54053593 223489019.4576683 0 223489019.4576683 144710991.43742561 0 0 0 0 -195128420.44570768 167425048.24312019 0 167425048.24312019 65754134.830558777 0 0 0 0 -312809962.1068418 196664553.79124737 0 196664553.79124737 169820083.48603058 0 0 0 0 -340344000.44284874 190272604.32981265 0 190272604.32981265 175100070.94426346 0 0 0 0 -468747538.25525451 82029262.19923687 0 82029262.19923687 283377572.57524681 0 0 0 0 -373793317.34993088 3296715.4202947617 0 3296715.4202947617 188590507.22732449 0 0 0 0 -405376907.9698987 183044392.03258896 0 183044392.03258896 359815391.76332092 0 0 0 0 -343557862.33501196 -6955036.7840852737 0 -6955036.7840852737 901863002.49033356 0 0 0 0 -353774379.13762975 -90317735.979438782 0 -90317735.979438782 621303646.78660774 0 0 0 0 -235304879.82505465 -237534859.16354561 0 -237534859.16354561 352745702.88085365 0 0 0 0 -247055687.09312254 -333783875.56717873 0 -333783875.56717873 530817847.44374084 0 0 0 0 -219756259.12676954 -273977819.91125202 0 -273977819.91125202 164562173.49836826 0 0 0 0 -602650000.87239909 -382589636.99921417 0 -382589636.99921417 96465386.049152374 0 0 0 0 -571479734.80899656 -55974542.774275303 0 -55974542.774275303 92015039.087379456 0 0 0 0 -416704795.80571198 -165204431.46394491 0 -165204431.46394491 -114188857.7978878 0 0 0 0 -499671306.51882041 -106509156.44081879 0 -106509156.44081879 328659554.53372192 0 0 0 0 -241253391.25335526 20952845.327377558 0 20952845.327377558 1446929580.0496216 0 0 0 0 -127324631.99218655 -384289105.3880434 0 -384289105.3880434 1516406488.501076 0 0 0 0 -205593171.70880032 -113336652.81950283 0 -113336652.81950283 635704469.98115444 0 0 0 0 -244836393.89872491 -302312615.6961146 0 -302312615.6961146 891253169.68036079 0 0 0 0 -171788133.56639624 -683032754.38951206 0 -683032754.38951206 669218298.1786437 0 0 0 0 358299291.64687377 -420380620.14360464 0 -420380620.14360464 943776135.13697052 0 0 0 0 -926800354.55319035 -533438594.96690416 0 -533438594.96690416 2205554884.5694637 0 0 0 0 111684708.38026333 -624820694.22614908 0 -624820694.22614908 1004641896.4794624 0 0 0 0 -2110012.9813281144 -234341.72681573872 0 -234341.72681573872 6180714.057146511 0 0 0 0 54997380.27107209 -451068192.43995452 0 -451068192.43995452 723125879.22747803 0 0 0 0 -2840245.7263313336 -1398780.1006304203 0 -1398780.1006304203 6212091.614424306 0 0 0 0 891130394.53935766 -2561497946.7267542 0 -2561497946.7267542 4090447753.6890345 0 0 0 0 -756629430.39078724 219448463.68930435 0 219448463.68930435 287312920.82458067 0 0 0 0 20855384.359783605 -1300576472.4126673 0 -1300576472.4126673 2275604659.9745088 0 0 0 0 -735885659.89665055 -318253953.9963913 0 -318253953.9963913 111215406.73032379 0 0 0 0 -621973653.19003725 286998138.37777328 0 286998138.37777328 -468503781.68214685 0 0 0 0 -862930006.84006321 28505679.376085281 0 28505679.376085281 -78488675.541732788 0 0 0 0 912039388.47653913 -728597460.5629406 0 -728597460.5629406 -510065221.2742455 0 0 0 0 -840538417.06478453 -619970984.90556526 0 -619970984.90556526 -642963683.22383976 0 0 0 0 -248839.808994869 -286288.02259871922 0 -286288.02259871922 624880.2139053233 0 0 0 0 163780614.92238483 -400449575.47369957 0 -400449575.47369957 3757114.6527786255 0 0 0 0 80595216.168323278 -612027495.03646755 0 -612027495.03646755 151267142.06140423 0 0 0 0 -44986002.392140508 -788762773.76928473 0 -788762773.76928473 719405468.03142166 0 0 0 0 60005315.872257978 -595297386.41242933 0 -595297386.41242933 147411298.85165787 0 0 0 0 929322029.39983416 -1476077757.9403563 0 -1476077757.9403563 197324352.31105107 0 0 0 0 -363883595.71411866 -2364641123.3588486 0 -2364641123.3588486 4074681021.0901985 0 0 0 0 -948095107.24334264 -375025949.76096761 0 -375025949.76096761 1167331425.4305172 0 0 0 0 -656886954.04964709 -1004404235.014308 0 -1004404235.014308 2524616406.9901581 0 0 0 0 1367758928.2929049 -1318430876.9527583 0 -1318430876.9527583 732621008.12180328 0 0 0 0 -1568365.4812464684 2530308.1138190054 0 2530308.1138190054 6529067.6491003446 0 0 0 0 92972426.52828075 1111260259.0490799 0 1111260259.0490799 4087000923.7798395 0 0 0 0 -77317875.392887577 139661643.40518618 0 139661643.40518618 2289062304.7918253 0 0 0 0 -5068560.7085578218 2116775.2782557975 0 2116775.2782557975 8476310.3318649046 0 0 0 0 -18370089.113838196 -13099039.758450508 0 -13099039.758450508 36484258.567982674 0 0 0 0 -16862293.203415871 -473749.07720470428 0 -473749.07720470428 23345524.036086082 0 0 0 0 -18255291.610273242 -1975627.7658927441 0 -1975627.7658927441 59340476.887062073 0 0 0 0 -205638188.37082681 -422302554.36852503 0 -422302554.36852503 4095848764.3940501 0 0 0 0 4942435.6002807617 14815975.246305466 0 14815975.246305466 32944521.775785446 0 0 0 0 -3368860.1870944398 2776271.3974947156 0 2776271.3974947156 5662900.2462369082 0 0 0 0 -27617905.618206918 -568888735.72493458 0 -568888735.72493458 3746795553.5901537 0 0 0 0 195658846.86969286 -911245916.14739418 0 -911245916.14739418 4096122610.9380951 0 0 0 0 -11901395.440685749 -40231229.316587448 0 -40231229.316587448 113153796.8586235 0 0 0 0 -20445481.809707642 -26922377.572011948 0 -26922377.572011948 108167689.937397 0 0 0 0 468649.78048581118 1348526.7721410166 0 1348526.7721410166 -375732.05294109066 0 0 0 0 22338255.377032757 -46716771.342336655 0 -46716771.342336655 106457290.0539217 0 0 0 0 58046869.263153076 -35742452.989494324 0 -35742452.989494324 56434710.673075676 0 0 0 0 18546345.692219257 -42128139.549666405 0 -42128139.549666405 41498669.488851309 0 0 0 0 20715854.340204239 -1862076.8173122406 0 -1862076.8173122406 256126.6277141571 0 0 0 0 2416718.6826209188 -7512081.1179672135 0 -7512081.1179672135 -1533656.8655600958 0 0 0 0 -73927.493684530258 -41090366.912183046 0 -41090366.912183046 51780393.534030914 0 0 0 0 11837623.938464642 -31035351.008784294 0 -31035351.008784294 34352043.026885986 0 0 0 0 262114.26829242706 -17463210.290820599 0 -17463210.290820599 9102185.1208190918 0 0 0 0 2716522.0132965026 -5983521.4638434201 0 -5983521.4638434201 -4370309.4414442293 0 0 0 0 109323.10649108887 -22140072.701638699 0 -22140072.701638699 10798633.618205786 0 0 0 0 1448925.4862058167 -9145734.2222621255 0 -9145734.2222621255 13651604.755214464 0 0 0 0 -398990487.98246276 65846791.857943535 0 65846791.857943535 45962744.375720978 0 0 0 0 -467648929.87090182 -13998028.570189476 0 -13998028.570189476 105377284.49193001 0 0 0 0 633789.7743809917 -8604225.3886269666 0 -8604225.3886269666 15313233.117864156 0 0 0 0 -323924776.47941828 44024718.197090149 0 44024718.197090149 640751351.11956263 0 0 0 0 -466924628.63688779 127744262.81183624 0 127744262.81183624 1148615898.6039124 0 0 0 0 -328687941.1159265 254023897.36224747 0 254023897.36224747 1186618895.629612 0 0 0 0 -995573451.361709 470553056.39234495 0 470553056.39234495 4097150349.4016953 0 0 0 0 -711019253.53013587 -377302606.63328075 0 -377302606.63328075 3065789174.290123 0 0 0 0 -934467009.48445106 463821649.20286751 0 463821649.20286751 2295761867.2935982 0 0 0 0 -354140965.18662155 624449873.62999344 0 624449873.62999344 2312783310.0467453 0 0 0 0 -527963997.26947409 1731471452.1471996 0 1731471452.1471996 4086247207.8358917 0 0 0 0 -23277284.548162758 -28781949.712075233 0 -28781949.712075233 5499051.5867576599 0 0 0 0 900198020.83598506 792234676.31491661 0 792234676.31491661 390198758.16402435 0 0 0 0 236895876.59821147 341276943.95227242 0 341276943.95227242 298142312.84185028 0 0 0 0 24875700.599189281 -136586901.59950638 0 -136586901.59950638 173890305.68521118 0 0 0 0 -56048353.987178564 -168939079.9063406 0 -168939079.9063406 211612826.12807465 0 0 0 0 5257880.8604946136 -28043187.558303833 0 -28043187.558303833 40260067.19638443 0 0 0 0 -1401511.851244112 -2315156.6692228783 0 -2315156.6692228783 2275398.5765585639 0 0 0 0 -205785383.87479433 739181272.61473846 0 739181272.61473846 4091810311.9889259 0 0 0 0 1402223900.2193115 1106880891.160038 0 1106880891.160038 541204325.05355072 0 0 0 0 2130373.3928718776 -135975.7394381864 0 -135975.7394381864 4515145.8736196347 0 0 0 0 -259433167.29434878 -633247849.81731606 0 -633247849.81731606 3682652771.4396811 0 0 0 0 -1249504.1638969844 1251861.9012625311 0 1251861.9012625311 2326465.240200141 0 0 0 0 290837366.8250829 -30815427.436386108 0 -30815427.436386108 58086171.15594101 0 0 0 0 86603486.352206424 -84109139.04753685 0 -84109139.04753685 115448233.58313751 0 0 0 0 114503249.11174247 -600673371.0152359 0 -600673371.0152359 4443316746.5090275 0 0 0 0 2215354.9896097565 2400455.3318266543 0 2400455.3318266543 10585457.383821031 0 0 0 0 -24539453.83115983 449998.3850402832 0 449998.3850402832 28839644.644622803 0 0 0 0 28932160.415723749 -22932612.283356667 0 -22932612.283356667 62176287.235454559 0 0 0 0 2954919.5967185064 -10347774.077584939 0 -10347774.077584939 3134825.134583646 0 0 0 0 -1760353.3706579208 -12407751.885605335 0 -12407751.885605335 34564151.744637489 0 0 0 0 7029045.0247473717 -21528237.965194821 0 -21528237.965194821 34718617.174594879 0 0 0 0 -65224513.40342927 49442570.048949242 0 49442570.048949242 35735250.692592621 0 0 0 0 -83778207.269565105 26099927.518764496 0 26099927.518764496 22436913.347545624 0 0 0 0 -7428664.6367271999 687221.05680801161 0 687221.05680801161 26477673.759114902 0 0 0 0 -79550376.071852207 94123540.701187134 0 94123540.701187134 -95808349.011126995 0 0 0 0 -3393519.1924529807 -2895630.3691583816 0 -2895630.3691583816 7986897.5418567499 0 0 0 0 -164644599.85367703 78493126.90875721 0 78493126.90875721 83074730.472015381 0 0 0 0 -50014181.414194107 -58802722.63561821 0 -58802722.63561821 158430648.14174366 0 0 0 0 522229237.43962955 -554702914.11209488 0 -554702914.11209488 393431881.72773743 0 0 0 0 23767426.968952417 -159590929.55284119 0 -159590929.55284119 559181896.41650009 0 0 0 0 252040140.43191051 -474651872.90690613 0 -474651872.90690613 574198300.42363739 0 0 0 0 -489413815.74837399 329674618.79107285 0 329674618.79107285 -640464992.12786865 0 0 0 0 -1013883.6911335741 -631197.53300849348 0 -631197.53300849348 2372742.3533895938 0 0 0 0 -383005895.93370408 486257790.41737461 0 486257790.41737461 -427126254.74133682 0 0 0 0 -607420.29154479713 -163581.17063434049 0 -163581.17063434049 1350363.3540403768 0 0 0 0 -111114582.81785512 -146750008.67010117 0 -146750008.67010117 -165581461.11934662 0 0 0 0 -469325273.08726072 545937043.99487114 0 545937043.99487114 -615770477.93644714 0 0 0 0 -712248490.89030623 118230221.98794556 0 118230221.98794556 637184087.29831505 0 0 0 0 42397612.28305316 -16918201.29104805 0 -16918201.29104805 99633372.717342377 0 0 0 0 32175352.463754594 -131370294.47020745 0 -131370294.47020745 90773034.692871094 0 0 0 0 1387225.4199448396 -3761287.0631883834 0 -3761287.0631883834 1295703.8462768034 0 0 0 0 9271209.1124327183 -45849162.827375412 0 -45849162.827375412 -36764372.584106445 0 0 0 0 8854906.0607423782 -41716481.465213776 0 -41716481.465213776 37313933.21472168 0 0 0 0 -15120809.765954733 -33005074.239780426 0 -33005074.239780426 40298312.903026581 0 0 0 0 -45958484.781862259 -25297655.733026505 0 -25297655.733026505 68205777.875453949 0 0 0 0 -6746121.7670027688 2943084.7008821173 0 2943084.7008821173 25827457.042775396 0 0 0 0 -61314619.738829613 6680792.7270345688 0 6680792.7270345688 44951278.846447468 0 0 0 0 -69045997.681031942 21413820.533930302 0 21413820.533930302 32048766.194820404 0 0 0 0 896119.64540815353 -16785531.217094421 0 -16785531.217094421 29168884.387012482 0 0 0 0 -126248213.4809742 -294896812.22086 0 -294896812.22086 1010792907.539382 0 0 0 0 -113761748.80753326 -233729258.52283502 0 -233729258.52283502 1263515875.0017624 0 0 0 0 -148086172.30836999 -62501195.303243637 0 -62501195.303243637 879969107.22202301 0 0 0 0 -146695.60361290118 -3821237.5956207365 0 -3821237.5956207365 2808091.6420772355 0 0 0 0 181753332.42611885 -280918237.39042187 0 -280918237.39042187 795598956.2635498 0 0 0 0 -248935302.64185631 -214290299.6062634 0 -214290299.6062634 1417707984.537941 0 0 0 0 66441022.110726655 -189351363.78745651 0 -189351363.78745651 1319350333.4981461 0 0 0 0 -35863501.791680396 -526583720.06682491 0 -526583720.06682491 2044562193.3950119 0 0 0 0 570044182.80353856 -818851258.78421783 0 -818851258.78421783 2127300520.8663177 0 0 0 0 -332383779.15726089 247395722.7974844 0 247395722.7974844 2089988481.2351246 0 0 0 0 -189776425.90986595 -621936547.43754721 0 -621936547.43754721 719814474.2779541 0 0 0 0 149365729.41677463 648619770.24882507 0 648619770.24882507 174925211.09284973 0 0 0 0 313396742.39527893 -4146272.7694282532 0 -4146272.7694282532 107590048.1310463 0 0 0 0 57745421.036654472 -183809592.55265236 0 -183809592.55265236 416489626.39742279 0 0 0 0 -112095350.84117222 55225163.165851593 0 55225163.165851593 483367321.77941418 0 0 0 0 34082148.403830528 -31824385.930948257 0 -31824385.930948257 385866418.52244186 0 0 0 0 56492716.557792187 -22755297.626386642 0 -22755297.626386642 31904865.285881042 0 0 0 0 68013988.633042812 21680168.382471085 0 21680168.382471085 111366287.83136129 0 0 0 0 102066980.58152866 -62761827.997488022 0 -62761827.997488022 58340805.244274139 0 0 0 0 -52042160.010061264 -34785571.080039978 0 -34785571.080039978 146956461.58158112 0 0 0 0 -48246561.081935406 -58952256.523080826 0 -58952256.523080826 192601658.61343765 0 0 0 0 -102809118.99987721 36078149.886182785 0 36078149.886182785 74026342.678215027 0 0 0 0 -104638937.78078628 15117531.578420639 0 15117531.578420639 101306137.36233139 0 0 0 0 -214220689.79601276 119783984.1327939 0 119783984.1327939 133222670.52429962 0 0 0 0 -182478443.62611222 79856782.523612976 0 79856782.523612976 183443237.8569603 0 0 0 0 -29610804.204654694 -37141378.553966522 0 -37141378.553966522 181011832.70680809 0 0 0 0 -198586662.26876545 60755226.829875946 0 60755226.829875946 197265607.30091572 0 0 0 0 -122769254.58667278 -38495132.070547104 0 -38495132.070547104 315333490.84658813 0 0 0 0 -135182093.997859 167531542.66633606 0 167531542.66633606 17315729.960124969 0 0 0 0 -222661586.36629915 20641362.139302254 0 20641362.139302254 -6432918.6055145264 0 0 0 0 -127089040.69403648 120721143.58130646 0 120721143.58130646 230903526.59325981 0 0 0 0 -354990490.38174081 83751229.369185925 0 83751229.369185925 131499323.38707733 0 0 0 0 -218422629.68733644 28032220.669687271 0 28032220.669687271 146580240.76057816 0 0 0 0 -239187699.63417435 147985160.87055206 0 147985160.87055206 166733112.71465969 0 0 0 0 67276791.479851246 -48721455.703720093 0 -48721455.703720093 40736815.466878891 0 0 0 0 187190109.38404655 -148100006.07850122 0 -148100006.07850122 66089621.747634888 0 0 0 0 119982519.69000149 145024509.81454849 0 145024509.81454849 227657005.79935074 0 0 0 0 2088299.04945315 -1982178.3973832447 0 -1982178.3973832447 -1500973.7830744982 0 0 0 0 1269.8712807873962 -389799.95634018024 0 -389799.95634018024 763807.29870797228 0 0 0 0 24640443.254695415 -85499515.34703207 0 -85499515.34703207 109774820.00283623 0 0 0 0 39427581.735339999 -28193306.670455694 0 -28193306.670455694 79404689.723182678 0 0 0 0 -34409426.131323338 -44538113.416176796 0 -44538113.416176796 70014710.334850311 0 0 0 0 -90278547.853149414 70604650.339522362 0 70604650.339522362 48961936.903512001 0 0 0 0 -41461907.370617867 46821930.844396591 0 46821930.844396591 11767138.358305931 0 0 0 0 -30435854.166890144 11501805.507463455 0 11501805.507463455 172253878.97831154 0 0 0 0 -18398524.568192482 10082315.682795525 0 10082315.682795525 44327034.049869537 0 0 0 0 45872942.195269585 88775803.011594772 0 88775803.011594772 41056583.648084641 0 0 0 0 -86419614.680102348 41944930.735255241 0 41944930.735255241 68595661.613698006 0 0 0 0 -625796.39889812469 26933183.172980309 0 26933183.172980309 -33029605.269496918 0 0 0 0 -9616081.9551601652 6872615.5333836414 0 6872615.5333836414 14781745.299857089 0 0 0 0 -731552.10930156708 84791513.005998611 0 84791513.005998611 -72112230.930703163 0 0 0 0 127661558.27137566 -328799131.33573532 0 -328799131.33573532 761906226.12384892 0 0 0 0 -8140717.9475430893 5065913.9441460464 0 5065913.9441460464 25594739.551998153 0 0 0 0 -2205142.1032016627 -4337292.2020655293 0 -4337292.2020655293 6132221.1289309077 0 0 0 0 -21945100.591202736 -1628548.369260788 0 -1628548.369260788 43304079.245241165 0 0 0 0 -176114.46855274029 40137.882746188785 0 40137.882746188785 -39634.851286701858 0 0 0 0 -44824213.906755447 -470185710.3807497 0 -470185710.3807497 1328684446.3773441 0 0 0 0 197541668.25336266 -535000597.01391792 0 -535000597.01391792 795566893.6914196 0 0 0 0 144685375.19598389 -299394722.7050724 0 -299394722.7050724 701116151.26879501 0 0 0 0 -5177046.7597284317 466588.16701602936 0 466588.16701602936 251002499.69506454 0 0 0 0 502305056.93465042 -285996866.74119759 0 -285996866.74119759 241900495.77144432 0 0 0 0 -48684905.931375504 -188589703.92564201 0 -188589703.92564201 572802234.56618404 0 0 0 0 640162441.7918396 -976042643.99031162 0 -976042643.99031162 1075489188.8046608 0 0 0 0 -11838122.890498988 7839637.8831751365 0 7839637.8831751365 10981424.151180234 0 0 0 0 271727165.70670319 -237743025.3944521 0 -237743025.3944521 -99884392.660537243 0 0 0 0 -102977563.11321449 12614233.869531155 0 12614233.869531155 98677037.159245968 0 0 0 0 -125342560.88972473 11572665.235494614 0 11572665.235494614 114545787.27640533 0 0 0 0 27642392.682498693 19013214.94311142 0 19013214.94311142 -93889338.222171783 0 0 0 0 -14547551.639740437 -19282283.919684887 0 -19282283.919684887 -36511804.153488159 0 0 0 0 69917035.73069334 23424883.443416595 0 23424883.443416595 -19839243.11938858 0 0 0 0 -5350891.7887606621 -17244039.462772369 0 -17244039.462772369 39216628.665168762 0 0 0 0 -32548881.894845009 8227003.8410263062 0 8227003.8410263062 -15717786.122327805 0 0 0 0 2332295.0914301872 -39378835.808395386 0 -39378835.808395386 29305223.698005676 0 0 0 0 -33243927.115617514 4086787.065776825 0 4086787.065776825 -19147987.127262115 0 0 0 0 -15739354.756901026 -5480688.9133167267 0 -5480688.9133167267 -21786838.201379776 0 0 0 0 -21208615.359864235 5652773.4237537384 0 5652773.4237537384 -36169094.99729538 0 0 0 0 5979607.5215205047 -3148442.0513879834 0 -3148442.0513879834 5757556.3722964022 0 0 0 0 40533755.976325989 -47431199.942131042 0 -47431199.942131042 13759551.414061546 0 0 0 0 97257866.654350281 -83843104.765013456 0 -83843104.765013456 1496543380.9756203 0 0 0 0 18849066.724531174 -63380326.113228977 0 -63380326.113228977 1573921234.2834165 0 0 0 0 51411147.132508993 -70247258.945500761 0 -70247258.945500761 1499085621.8332598 0 0 0 0 2159292.6141756494 -167585.91915261722 0 -167585.91915261722 1721918.5897434901 0 0 0 0 99080359.574829102 38219280.913097858 0 38219280.913097858 1908692062.6109712 0 0 0 0 -77978698.940841675 -332050873.62053323 0 -332050873.62053323 2769324045.6459169 0 0 0 0 264354130.50583649 -133042313.31424648 0 -133042313.31424648 927332708.88536775 0 0 0 0 270676111.61003333 -453377144.45223373 0 -453377144.45223373 1448900460.2842481 0 0 0 0 246032809.84194648 -151274533.94959253 0 -151274533.94959253 1442632153.4285402 0 0 0 0 164041678.68865871 -7563946.5735032856 0 -7563946.5735032856 937721552.80602074 0 0 0 0 226035314.06475258 -213771424.87619495 0 -213771424.87619495 1396912521.9557397 0 0 0 0 291959582.13183212 -136468009.4296869 0 -136468009.4296869 799570852.64863491 0 0 0 0 131220393.50872831 245813839.0617471 0 245813839.0617471 445848804.52252245 0 0 0 0 253765651.65866184 -119406311.48602229 0 -119406311.48602229 934453059.09539425 0 0 0 0 413787147.73778534 2200685.7863960266 0 2200685.7863960266 285539580.53042126 0 0 0 0 -521710400.19511825 -76970013.741600513 0 -76970013.741600513 541383848.48156738 0 0 0 0 1128904.5320258066 4141827.8528844169 0 4141827.8528844169 5885600.6854940765 0 0 0 0 -71387190.519608289 468169950.21873271 0 468169950.21873271 -192963589.69022441 0 0 0 0 -82285347.327880859 -120381983.000857 0 -120381983.000857 267571531.21552736 0 0 0 0 173631361.27319908 120700229.69634914 0 120700229.69634914 431522423.49261999 0 0 0 0 -121451090.78583717 -208199647.28222585 0 -208199647.28222585 177556735.27473533 0 0 0 0 28347788.799614429 -101185862.96643114 0 -101185862.96643114 939895744.66505527 0 0 0 0 -244392854.0519762 -184595600.64784575 0 -184595600.64784575 914713935.88800335 0 0 0 0 -88980861.393409729 -200847704.92454052 0 -200847704.92454052 1409727271.9954977 0 0 0 0 -56119892.866517067 -199580750.48143864 0 -199580750.48143864 884599202.28829074 0 0 0 0 540430756.61286354 -276757779.74426985 0 -276757779.74426985 853822251.09882915 0 0 0 0 542136003.87851715 -819235193.24608421 0 -819235193.24608421 1826692563.5415969 0 0 0 0 679775022.1672349 -168959733.85618293 0 -168959733.85618293 1332320617.3129463 0 0 0 0 -114825954.75014424 -370053834.65910614 0 -370053834.65910614 1269017974.3531132 0 0 0 0 -164308764.12145996 -331558843.32628775 0 -331558843.32628775 1901566690.7122073 0 0 0 0 -243798745.95314503 -306844561.34615755 0 -306844561.34615755 1360825029.3854961 0 0 0 0 -208284980.81451893 -186141493.16622353 0 -186141493.16622353 984864669.73323345 0 0 0 0 -123437931.25186539 -365284149.60329819 0 -365284149.60329819 1196446620.9678798 0 0 0 0 -13147440.12319161 -302288609.82961321 0 -302288609.82961321 968214834.6669693 0 0 0 0 1331702.7876018165 2784068.2272146894 0 2784068.2272146894 4277591.3420072906 0 0 0 0 -63238558.216061391 -312635324.44013035 0 -312635324.44013035 969775074.54952526 0 0 0 0 -9373374.0403909683 1801870.9097275734 0 1801870.9097275734 324601666.66115344 0 0 0 0 -54561020.365739465 -364781244.03153139 0 -364781244.03153139 818588620.42518139 0 0 0 0 601113485.58651781 -1112307744.9993913 0 -1112307744.9993913 -127774721.13723183 0 0 0 0 232850809.56494766 -1021669455.8631573 0 -1021669455.8631573 2000312194.5760388 0 0 0 0 -46874.361384847085 666691.68049063068 0 666691.68049063068 1800917.4883946618 0 0 0 0 355381870.58719975 -704027088.15840816 0 -704027088.15840816 1402597054.8267603 0 0 0 0 466905698.80070496 -243877841.12337017 0 -243877841.12337017 -394891029.89468956 0 0 0 0 519216230.96869349 -11308918.928924561 0 -11308918.928924561 -233738265.5729866 0 0 0 0 -338912.71849960275 767088.57880546304 0 767088.57880546304 7441183.6935931314 0 0 0 0 -766952735.11697435 86094063.164580345 0 86094063.164580345 223755237.4764061 0 0 0 0 -191431564.98563004 317115865.29291916 0 317115865.29291916 48351744.087736845 0 0 0 0 -173298251.01724243 -219664625.72396755 0 -219664625.72396755 -97829674.791147232 0 0 0 0 -62920564.324097157 -46962056.527893066 0 -46962056.527893066 -155636833.34371662 0 0 0 0 -59368122.145802364 -119992955.5196659 0 -119992955.5196659 1103740190.51017 0 0 0 0 -704587414.88315415 40601243.556233406 0 40601243.556233406 376895836.1382637 0 0 0 0 -237109.64893305398 960708.08263654646 0 960708.08263654646 5694057.0143877082 0 0 0 0 848298262.21286583 1388841997.1878901 0 1388841997.1878901 -141827219.4328022 0 0 0 0 2197359.3554633176 4732699.1911625126 0 4732699.1911625126 6170491.2467656443 0 0 0 0 -288316817.38708878 255215272.49412346 0 255215272.49412346 374984452.70137894 0 0 0 0 340860517.50784826 -743542686.49267864 0 -743542686.49267864 -37795531.029270649 0 0 0 0 637668027.30566788 739039608.61250877 0 739039608.61250877 608272869.74238586 0 0 0 0 331913.60119230289 1040149.9646525639 0 1040149.9646525639 3856202.6078927675 0 0 0 0 1165281621.8708379 395474862.76812792 0 395474862.76812792 76536409.344825745 0 0 0 0 -673421182.90991497 -548806811.88637829 0 -548806811.88637829 961826233.42220187 0 0 0 0 132169616.04549991 -577475077.6702311 0 -577475077.6702311 502813504.63357258 0 0 0 0 -362233819.15853673 -45621535.199576616 0 -45621535.199576616 75422170.537926197 0 0 0 0 485842268.81359255 537527783.62713325 0 537527783.62713325 117024792.93566513 0 0 0 0 559037764.09027958 108164093.35904312 0 108164093.35904312 -17632102.128660202 0 0 0 0 136356992.06623268 52524923.331352234 0 52524923.331352234 9480437.8882331848 0 0 0 0 48217907.657547951 109318070.49415588 0 109318070.49415588 134649590.21766663 0 0 0 0 -562879497.5544337 82090672.697894812 0 82090672.697894812 328671306.21600246 0 0 0 0 1284062.6546673714 4210048.2427403647 0 4210048.2427403647 10296044.451573808 0 0 0 0 88142227.534695148 28763311.290318966 0 28763311.290318966 23004501.87940979 0 0 0 0 12440532.395332336 78067259.672569275 0 78067259.672569275 -11498267.588905334 0 0 0 0 -1177309.4462077515 -174625.86571419332 0 -174625.86571419332 1591720.9338453934 0 0 0 0 -325112864.53327644 134124735.37844086 0 134124735.37844086 -216642735.72886837 0 0 0 0 119838961.44103622 239411278.17114735 0 239411278.17114735 -96805919.847953796 0 0 0 0 158932166.26939726 522419061.11245728 0 522419061.11245728 84011223.539031029 0 0 0 0 128221957.70242214 422308596.18909645 0 422308596.18909645 411423846.88449478 0 0 0 0 -9013898.2156386375 53388833.034111023 0 53388833.034111023 950062183.71066856 0 0 0 0 136839800.93240738 209691994.07169151 0 209691994.07169151 368427476.90141964 0 0 0 0 183555035.53673601 453794031.06787682 0 453794031.06787682 166738902.8876152 0 0 0 0 3948.3147096655957 704634.60150488117 0 704634.60150488117 2196202.6930628531 0 0 0 0 32500079.991840124 582686764.56173515 0 582686764.56173515 447657476.12854767 0 0 0 0 178452444.41882104 -282336755.97580862 0 -282336755.97580862 457586575.71191406 0 0 0 0 -105715800.36878127 557904027.19104385 0 557904027.19104385 1092879718.0775223 0 0 0 0 575643110.17054367 -278165388.36144543 0 -278165388.36144543 50493894.942768097 0 0 0 0 45631206.90337801 178992073.48088074 0 178992073.48088074 -165463478.94329262 0 0 0 0 -4649911.3598873019 39898829.423393369 0 39898829.423393369 186549131.14609146 0 0 0 0 57127904.690054893 -55579836.624635696 0 -55579836.624635696 239466211.93534088 0 0 0 0 -122813268.04375696 61419671.015701294 0 61419671.015701294 -38111318.306576729 0 0 0 0 140354121.49673748 -125658985.76011086 0 -125658985.76011086 66385625.278785706 0 0 0 0 1835127.8839969635 -633359.05667495728 0 -633359.05667495728 -9253223.4826622009 0 0 0 0 98452558.604016304 -21748005.155807495 0 -21748005.155807495 -58212466.286266327 0 0 0 0 231281109.0754441 -26637428.24776268 0 -26637428.24776268 -102799875.7758255 0 0 0 0 62840071.20216009 100627022.25223637 0 100627022.25223637 147957363.91199207 0 0 0 0 1228173.6389693418 1606676.7349833925 0 1606676.7349833925 -2128977.251944216 0 0 0 0 -224242826.58011329 206397325.459795 0 206397325.459795 -21017218.258569717 0 0 0 0 6644215.3630571365 16545967.338756561 0 16545967.338756561 -12049534.983360291 0 0 0 0 3233675.1286816038 5524351.7803209443 0 5524351.7803209443 -473371.53205409274 0 0 0 0 15132930.703398705 -35488594.928994179 0 -35488594.928994179 55449981.995243073 0 0 0 0 27818211.593065262 -35751800.404722214 0 -35751800.404722214 20497536.012390137 0 0 0 0 16130153.039548397 -48596820.280248642 0 -48596820.280248642 127112625.09566116 0 0 0 0 72437876.455698013 -81099727.023853302 0 -81099727.023853302 58154761.682390213 0 0 0 0 12584153.880945913 51727272.657272801 0 51727272.657272801 112797264.17841339 0 0 0 0 64160556.377930164 -55417620.387958527 0 -55417620.387958527 60289670.396373749 0 0 0 0 1026179.0123418081 863298.04851050768 0 863298.04851050768 -949902.81978788599 0 0 0 0 72517851.50699091 -77045093.652416229 0 -77045093.652416229 23809784.399101257 0 0 0 0 43176291.902929306 -17683991.701381683 0 -17683991.701381683 33878341.229210854 0 0 0 0 65788084.502249718 -37119960.626633406 0 -37119960.626633406 3559498.5170135498 0 0 0 0 -2411463.1197624207 2160856.9660778046 0 2160856.9660778046 1186629.4568519592 0 0 0 0 479687.79713505507 42047985.733205259 0 42047985.733205259 -21575240.536151886 0 0 0 0 -356863914.82651091 563189506.84710598 0 563189506.84710598 -182550784.25713482 0 0 0 0 3634810.4201780027 6670490.3266259842 0 6670490.3266259842 12253930.952480437 0 0 0 0 -454362180.2310133 274414242.98827171 0 274414242.98827171 -12659769.780506134 0 0 0 0 -32770481.368674278 262021563.63234282 0 262021563.63234282 -108604353.70860958 0 0 0 0 127334734.06125641 176688950.52166188 0 176688950.52166188 -475573552.13766384 0 0 0 0 572116871.95440102 221465767.25732434 0 221465767.25732434 -188179116.4466126 0 0 0 0 53826083.482917786 229297804.85531551 0 229297804.85531551 -184181473.76499093 0 0 0 0 -77445872.958717346 359988411.57788551 0 359988411.57788551 440921367.48858166 0 0 0 0 -24194851.384580612 158161242.95937109 0 158161242.95937109 -333563599.0196346 0 0 0 0 8929130.4361330494 10050198.142833734 0 10050198.142833734 11720152.587438863 0 0 0 0 1639829.4907798767 425862156.61123848 0 425862156.61123848 -470126769.97655469 0 0 0 0 115617774.89057159 55998314.820121288 0 55998314.820121288 -262281381.85822535 0 0 0 0 104373206.9451828 -53831443.802857399 0 -53831443.802857399 -373803793.34770536 0 0 0 0 382199016.09514236 149479765.74108553 0 149479765.74108553 -364777423.66177768 0 0 0 0 66178750.920835495 41938583.788631916 0 41938583.788631916 -277396606.9010098 0 0 0 0 -33487724.426776886 -371524866.01401734 0 -371524866.01401734 -395245810.21443021 0 0 0 0 -94754099.076889038 -307710398.02426124 0 -307710398.02426124 23263635.650892705 0 0 0 0 66829574.089635849 -43557546.429086685 0 -43557546.429086685 -361784288.8751483 0 0 0 0 329303077.9032383 -24356873.614024639 0 -24356873.614024639 -429971017.75263309 0 0 0 0 58783617.446916163 -295775139.69952935 0 -295775139.69952935 -536649893.4545846 0 0 0 0 -43097564.415550232 -87820751.588435397 0 -87820751.588435397 -294424627.94660926 0 0 0 0 16294082.038653374 -195173621.09796444 0 -195173621.09796444 -102871880.0348345 0 0 0 0 423366814.21165466 -326060821.44627321 0 -326060821.44627321 -68678139.290911496 0 0 0 0 290022040.88613701 49350001.57875371 0 49350001.57875371 181631146.81182528 0 0 0 0 211707226.03296757 -9865041.1937684417 0 -9865041.1937684417 -198581346.05023253 0 0 0 0 504537601.39412498 124657960.70817226 0 124657960.70817226 -188922737.6137338 0 0 0 0 1225041148.0308075 300495027.65345848 0 300495027.65345848 188097739.22472519 0 0 0 0 190252102.0045805 -256403967.75595474 0 -256403967.75595474 815913201.15398872 0 0 0 0 24657959.95455265 6621072.2876833081 0 6621072.2876833081 461101861.30505359 0 0 0 0 440883425.32088947 416340703.57596779 0 416340703.57596779 501547977.54293644 0 0 0 0 484677462.88117123 342784511.37604499 0 342784511.37604499 -296365137.05463642 0 0 0 0 168849438.32779264 -672890538.11454964 0 -672890538.11454964 1430733497.7065396 0 0 0 0 80717.322200553026 1527487.6360564667 0 1527487.6360564667 2542499.2202848881 0 0 0 0 39433805.701620147 -115238456.19149917 0 -115238456.19149917 536477467.38874054 0 0 0 0 -358052254.68132329 -197821544.41367078 0 -197821544.41367078 705806852.94463396 0 0 0 0 -135389280.37865734 281318125.24715531 0 281318125.24715531 387799520.842924 0 0 0 0 -346666661.29581404 221021860.18635595 0 221021860.18635595 397751469.18699026 0 0 0 0 77037912.741253853 -15454287.236619979 0 -15454287.236619979 425911170.33677554 0 0 0 0 82091576.939825058 445242602.65006554 0 445242602.65006554 1392208982.0056908 0 0 0 0 -62310348.903895378 -39212728.442801476 0 -39212728.442801476 146281315.34093761 0 0 0 0 3624900.0087718964 39183165.396169662 0 39183165.396169662 -16058987.649272919 0 0 0 0 37952712.86220932 -120610471.5468781 0 -120610471.5468781 31488312.086605072 0 0 0 0 -12052108.132602721 -8606140.1304502487 0 -8606140.1304502487 45390512.790613174 0 0 0 0 -6618408.2879182203 -4531167.385479915 0 -4531167.385479915 3798697.9885134939 0 0 0 0 -9184921.1810617447 -6680455.19972229 0 -6680455.19972229 33272024.448661804 0 0 0 0 -2613661.0764465332 -4145676.7268733978 0 -4145676.7268733978 31762166.913711548 0 0 0 0 59638768.584663391 -156719872.47119904 0 -156719872.47119904 121544405.92033386 0 0 0 0 -58547070.721992493 -919704.31019496918 0 -919704.31019496918 118186053.95143223 0 0 0 0 -10721294.899337275 -6103020.2419827627 0 -6103020.2419827627 11751167.932613064 0 0 0 0 1424515.3669080352 3482251.5155511769 0 3482251.5155511769 15990946.550285297 0 0 0 0 -110333322.72520161 -127276850.79164124 0 -127276850.79164124 142941064.61250782 0 0 0 0 115562956.57429051 -59668484.833958626 0 -59668484.833958626 -13010909.960197449 0 0 0 0 -17053497.506463051 74018417.20759964 0 74018417.20759964 -23902349.86590004 0 0 0 0 151160333.30694115 -173676044.59502745 0 -173676044.59502745 132988245.18252945 0 0 0 0 4509253.3115699971 3930719.8623297545 0 3930719.8623297545 8050717.3532481603 0 0 0 0 41854903.934894562 -44666352.389238834 0 -44666352.389238834 141424412.28519058 0 0 0 0 102570646.69407558 -64934935.270097733 0 -64934935.270097733 139463196.98723221 0 0 0 0 -118619175.17263031 44973058.097961426 0 44973058.097961426 90202280.255249023 0 0 0 0 39691504.037589073 -49256602.677886009 0 -49256602.677886009 137625204.20223999 0 0 0 0 -53585120.916212559 21420060.26266861 0 21420060.26266861 141310770.89920044 0 0 0 0 -20836379.506315231 -12429489.872276306 0 -12429489.872276306 194971482.30059052 0 0 0 0 329082.95886421204 -53252827.081098557 0 -53252827.081098557 218962467.64587402 0 0 0 0 159138827.87799025 -206793874.01360893 0 -206793874.01360893 258532981.7297287 0 0 0 0 14995423.858055115 -107507389.81167603 0 -107507389.81167603 241812208.5057621 0 0 0 0 4288773.9176194305 3314450.4850992556 0 3314450.4850992556 4558303.2235784791 0 0 0 0 -176190196.19232368 98882491.159454346 0 98882491.159454346 -8381035.6142721176 0 0 0 0 -122711437.51045179 -18985280.807142735 0 -18985280.807142735 88268157.486568451 0 0 0 0 -136613352.5108757 210596516.89816475 0 210596516.89816475 -68620895.535356522 0 0 0 0 -109849082.75774956 97458554.923616409 0 97458554.923616409 77118540.488935471 0 0 0 0 147972855.26154423 262214530.50875664 0 262214530.50875664 182267349.52533722 0 0 0 0 149744252.92281598 271997279.36330414 0 271997279.36330414 83229663.348953247 0 0 0 0 -451406063.28885078 -290941960.38030434 0 -290941960.38030434 188627648.25425339 0 0 0 0 -317767017.15803719 375875376.83704376 0 375875376.83704376 1375498308.9497776 0 0 0 0 -190471923.85713577 -30571052.027795792 0 -30571052.027795792 390797901.54885101 0 0 0 0 -191716488.63215351 -86650209.997220993 0 -86650209.997220993 26845044.554576874 0 0 0 0 -122231977.73852921 108586805.18333817 0 108586805.18333817 12713144.198577881 0 0 0 0 3864205.8979803147 3455599.1561337728 0 3455599.1561337728 1244032.4073765241 0 0 0 0 548306434.34563851 230209494.88736153 0 230209494.88736153 -79054878.947528839 0 0 0 0 231654289.25620079 -63829535.719963074 0 -63829535.719963074 -101642218.83035231 0 0 0 0 794719327.28901708 700716863.32049179 0 700716863.32049179 359392007.66222 0 0 0 0 -571556.3137666207 -769773.96079679392 0 -769773.96079679392 279356.98506062757 0 0 0 0 -337229932.35978824 -700684210.78289795 0 -700684210.78289795 656415547.25161743 0 0 0 0 1390498552.4342613 573173644.88555908 0 573173644.88555908 1208028397.6970978 0 0 0 0 769613075.79453933 110532570.31726265 0 110532570.31726265 -70575497.913178444 0 0 0 0 1876083.8113652044 1095924.533418105 0 1095924.533418105 -41090.137872578576 0 0 0 0 -77134974.231299162 414555901.26090622 0 414555901.26090622 236024188.30006409 0 0 0 0 186892257.88826972 228188259.85696793 0 228188259.85696793 -19332329.403215408 0 0 0 0 -61671340.23359561 332760551.79576206 0 332760551.79576206 452259318.29942322 0 0 0 0 -35107408.362317443 -130544577.0556469 0 -130544577.0556469 352781275.39167833 0 0 0 0 -70080193.99479723 -7516201.3381166458 0 -7516201.3381166458 84636789.065898895 0 0 0 0 -28455639.844365776 198032708.02309513 0 198032708.02309513 -56811409.758560181 0 0 0 0 -33608364.27400142 -101234199.56012154 0 -101234199.56012154 96694854.468585968 0 0 0 0 -74902845.275657058 -59561833.503520966 0 -59561833.503520966 55872397.396331787 0 0 0 0 30349558.895736009 -102152219.11923504 0 -102152219.11923504 22736686.161491394 0 0 0 0 106044822.60675323 -118694533.69376945 0 -118694533.69376945 89851392.70016861 0 0 0 0 -2730921.8343318701 -27120328.960388184 0 -27120328.960388184 23164717.74041748 0 0 0 0 -77982966.576533556 -191397590.62285042 0 -191397590.62285042 36283679.728942871 0 0 0 0 -3008221.9043672113 -2530790.774594279 0 -2530790.774594279 1122903.4093639199 0 0 0 0 -12795608.166814566 5167405.9359512329 0 5167405.9359512329 18511301.966646194 0 0 0 0 -59547976.728624701 -46561998.73740387 0 -46561998.73740387 23158216.887854576 0 0 0 0 -80812544.03374368 -44420037.165312767 0 -44420037.165312767 74993614.738510132 0 0 0 0 -55877277.262061357 -4401853.6875667572 0 -4401853.6875667572 23868810.894245148 0 0 0 0 -16211873.695093393 -67456130.002941132 0 -67456130.002941132 75171562.089950562 0 0 0 0 -140554.14767515345 25222.155260564759 0 25222.155260564759 126824.41042262129 0 0 0 0 34013405.941622972 -15734792.915578842 0 -15734792.915578842 22017155.667736053 0 0 0 0 13188266.728079557 -23768198.082292557 0 -23768198.082292557 23055588.100265503 0 0 0 0 -264361.64366138529 69983.730147499591 0 69983.730147499591 269118.18903075345 0 0 0 0 -14633791.936120808 -52018669.603715897 0 -52018669.603715897 18439750.258037567 0 0 0 0 6078248.5070434809 -17870280.115871429 0 -17870280.115871429 26704159.549695492 0 0 0 0 19377990.532788634 -36061369.766457558 0 -36061369.766457558 10298867.919778824 0 0 0 0 42806736.452119052 1020670.8507514 0 1020670.8507514 37557523.791854858 0 0 0 0 -81894383.522370964 -52918926.93489027 0 -52918926.93489027 28538482.35395813 0 0 0 0 5525952.8265811205 -71463273.002126694 0 -71463273.002126694 -7620215.3730621338 0 0 0 0 2040241.3668631315 -72260544.317745209 0 -72260544.317745209 42304563.8503685 0 0 0 0 3234428.3557493687 -41417489.437732697 0 -41417489.437732697 24690724.207674026 0 0 0 0 5040659.2582086325 -46078107.826953888 0 -46078107.826953888 1396463.6201915741 0 0 0 0 -10189648.823953897 -73922800.012516975 0 -73922800.012516975 -48409227.098049164 0 0 0 0 -515371008.26695931 -398973546.35583425 0 -398973546.35583425 -193799340.38129044 0 0 0 0 -54014016.197110057 -836235.22319793701 0 -836235.22319793701 -5432565.0346393585 0 0 0 0 30946799.566048265 -49890292.671020508 0 -49890292.671020508 10867808.927999496 0 0 0 0 112501077.26220179 369518512.55402136 0 369518512.55402136 492249272.02358055 0 0 0 0 2075505.6377005868 -180867.61980830412 0 -180867.61980830412 480639.05041891173 0 0 0 0 95427772.000384808 -149156816.19478035 0 -149156816.19478035 -43180349.069085121 0 0 0 0 -166972603.1516555 480109295.90002275 0 480109295.90002275 1368854687.1555061 0 0 0 0 -5014608.8498537242 1091549144.3648586 0 1091549144.3648586 965771976.79776764 0 0 0 0 1088893634.3999829 144015527.24527359 0 144015527.24527359 -1504451572.5491562 0 0 0 0 12098739.542489111 -201444.76033973694 0 -201444.76033973694 80505223.168384552 0 0 0 0 6410822.7955195904 -9389021.5927562714 0 -9389021.5927562714 77336018.185762405 0 0 0 0 75701463.900739074 24093083.496522903 0 24093083.496522903 43955555.358072281 0 0 0 0 3876619.1734527517 862431.91920798551 0 862431.91920798551 1903666.1019610148 0 0 0 0 7873993.7151896954 12070968.457586288 0 12070968.457586288 136752414.03006554 0 0 0 0 750556690.92409039 -445246035.89133835 0 -445246035.89133835 -416398627.11967087 0 0 0 0 -81170611.278334856 37328836.730445862 0 37328836.730445862 228583021.36635256 0 0 0 0 1717894.1686458958 1842381.2422045115 0 1842381.2422045115 4603875.6554938657 0 0 0 0 -2549860.6208772659 -3354653.8094863892 0 -3354653.8094863892 106560398.24398232 0 0 0 0 5430490.2178405225 -7453180.0858225822 0 -7453180.0858225822 87014261.991973877 0 0 0 0 938280.81714987755 -19816448.522861481 0 -19816448.522861481 86797764.729975343 0 0 0 0 13220816.655849874 -10966605.390901089 0 -10966605.390901089 49321950.354406357 0 0 0 0 6345120.4171156883 -5018935.7535457611 0 -5018935.7535457611 47777259.923252583 0 0 0 0 -245530.83393189358 101691.45715537388 0 101691.45715537388 297977.06464622542 0 0 0 0 -8042790.7980310917 -3903492.5655853748 0 -3903492.5655853748 26555954.925907135 0 0 0 0 -3903655.1570843458 -7515813.8724021912 0 -7515813.8724021912 27702422.216362 0 0 0 0 21163085.638695598 -15033370.496809006 0 -15033370.496809006 16962037.866352081 0 0 0 0 7182489.1425769329 -23276780.651594162 0 -23276780.651594162 45520556.898053467 0 0 0 0 -5901585.854954958 -2572901.4523582458 0 -2572901.4523582458 30083391.100070953 0 0 0 0 -11875329.663740396 -7194146.3491292 0 -7194146.3491292 36107027.000490189 0 0 0 0 -9196624.5893906355 -5663485.3326559067 0 -5663485.3326559067 30019758.072673798 0 0 0 0 -8566800.540309608 -6339941.6403138638 0 -6339941.6403138638 29563428.179092407 0 0 0 0 -11129327.0560956 14812226.969591141 0 14812226.969591141 3475574.5352325439 0 0 0 0 -127531.13719685189 59343.78921858687 0 59343.78921858687 161339.8085739091 0 0 0 0 -12787948.398157358 9878027.4994735718 0 9878027.4994735718 47821187.020317078 0 0 0 0 -12925339.459612131 -803978.0347700119 0 -803978.0347700119 69508061.810535431 0 0 0 0 -2749044.3437716961 -1741081.5268478394 0 -1741081.5268478394 68939315.747169495 0 0 0 0 -5190799.05719769 1647102.4896936417 0 1647102.4896936417 83690709.65958786 0 0 0 0 -1906750.9220395088 -5245981.7872333527 0 -5245981.7872333527 96518300.083240509 0 0 0 0 709487.47793702781 -20300405.836472631 0 -20300405.836472631 109055246.05475616 0 0 0 0 4924504.8454509974 -6974371.8589396477 0 -6974371.8589396477 92338219.04693222 0 0 0 0 229293852.28421783 -35494326.544692993 0 -35494326.544692993 257552034.92068863 0 0 0 0 -2374491.279537498 1723979.2889515646 0 1723979.2889515646 10008194.203415589 0 0 0 0 -2352372.8044018745 -9953273.1943702698 0 -9953273.1943702698 98746196.734004974 0 0 0 0 -3633942.6857820749 -7085662.4852797985 0 -7085662.4852797985 75977438.755935669 0 0 0 0 -2002211.3197927475 -14764544.318840027 0 -14764544.318840027 88828839.385725021 0 0 0 0 -6061112.9533219337 -14297756.55040884 0 -14297756.55040884 99266314.382530212 0 0 0 0 285742834.61837578 -311009600.35674095 0 -311009600.35674095 174959337.5402832 0 0 0 0 -1112527.3871217729 -3280054.3414240815 0 -3280054.3414240815 6738175.7293452378 0 0 0 0 9128145.386680603 -31599417.68927002 0 -31599417.68927002 110232010.80768967 0 0 0 0 41732930.500366211 -64638409.027420044 0 -64638409.027420044 95097564.327056885 0 0 0 0 148652824.46749216 -429143371.42820406 0 -429143371.42820406 360597641.1882019 0 0 0 0 161721519.68885827 -357231797.80046368 0 -357231797.80046368 275322489.88018799 0 0 0 0 281058086.43584251 -296021754.33489227 0 -296021754.33489227 257532695.16651869 0 0 0 0 75085026.500968575 -193383838.23763037 0 -193383838.23763037 271407738.43470764 0 0 0 0 125562994.58482099 -76762709.397197127 0 -76762709.397197127 423273903.08559418 0 0 0 0 -967706.6800618046 -1168350.9894279633 0 -1168350.9894279633 2691810.1952276193 0 0 0 0 123873996.9802556 -144789005.30776024 0 -144789005.30776024 234790853.13578153 0 0 0 0 -90070144.194283009 68948850.948230743 0 68948850.948230743 345135172.18519211 0 0 0 0 -158859887.45048714 -71520792.923711777 0 -71520792.923711777 537376817.11626434 0 0 0 0 -273773857.42261112 -22884212.2598629 0 -22884212.2598629 955389148.16428375 0 0 0 0 -102795563.87777138 -92794694.663227081 0 -92794694.663227081 529621626.81563282 0 0 0 0 -52894409.549057245 -169456154.33032227 0 -169456154.33032227 525182410.6536026 0 0 0 0 -281596172.45605993 191557544.47061157 0 191557544.47061157 459819975.60639954 0 0 0 0 -339401907.42563677 -852533324.00569153 0 -852533324.00569153 1582622492.5037079 0 0 0 0 -231894666.99744666 -583839383.34762573 0 -583839383.34762573 803027721.4335022 0 0 0 0 -323228103.87664247 -720376164.61774349 0 -720376164.61774349 835628379.27576447 0 0 0 0 -227974131.15252668 -489690452.57878876 0 -489690452.57878876 935306547.12235236 0 0 0 0 -49653285.203107834 -456383590.52024078 0 -456383590.52024078 678078826.42023468 0 0 0 0 -7786153.6231007576 -353747734.70146561 0 -353747734.70146561 411346450.13981819 0 0 0 0 -73740284.251033783 -569520283.19978142 0 -569520283.19978142 515012531.91150665 0 0 0 0 133663918.10944414 -655738264.96159363 0 -655738264.96159363 200954093.79264069 0 0 0 0 100924597.51472807 -691744547.23440552 0 -691744547.23440552 513622257.26387876 0 0 0 0 361885677.17523384 -633730445.27635574 0 -633730445.27635574 196922625.23235321 0 0 0 0 -43651799.569946289 -1072790637.0428429 0 -1072790637.0428429 304116056.01519775 0 0 0 0 -34470955.450774193 -877785139.59678268 0 -877785139.59678268 266398385.62725067 0 0 0 0 -67025303.08798933 -894469620.70515823 0 -894469620.70515823 851904897.66575813 0 0 0 0 93850973.245495558 -894803075.80767441 0 -894803075.80767441 253635411.87620163 0 0 0 0 95315803.213855743 -901042724.76247406 0 -901042724.76247406 67402089.300415039 0 0 0 0 -82100798.55052948 -1046586571.5315742 0 -1046586571.5315742 123584206.3850174 0 0 0 0 -63132646.771212578 -951070843.18692398 0 -951070843.18692398 308898176.0797348 0 0 0 0 138244172.27432203 -872171826.45073318 0 -872171826.45073318 -83097466.034976959 0 0 0 0 82609354.508925438 -983727345.28990173 0 -983727345.28990173 -120384600.02802277 0 0 0 0 -237733418.86433029 -691149339.47261429 0 -691149339.47261429 -37405423.667660713 0 0 0 0 285046857.42373949 -681415131.44459915 0 -681415131.44459915 49599716.33669281 0 0 0 0 343218274.54470205 -677837963.01011276 0 -677837963.01011276 142206802.87151337 0 0 0 0 417587492.47454977 -677825535.42871475 0 -677825535.42871475 32009074.620132446 0 0 0 0 286511128.28820932 -823672749.96575928 0 -823672749.96575928 -11088659.664993286 0 0 0 0 583134412.99158716 -609896851.23796844 0 -609896851.23796844 30048075.579644442 0 0 0 0 438650007.34425735 -631721090.18227768 0 -631721090.18227768 96393461.381645203 0 0 0 0 545543841.13005543 -438016738.20350266 0 -438016738.20350266 23739171.486179352 0 0 0 0 468501233.44450569 -450896407.58330154 0 -450896407.58330154 82717204.235557556 0 0 0 0 770917186.89574051 -414928461.83320999 0 -414928461.83320999 15548916.146621704 0 0 0 0 484694876.66296768 -197664100.79893875 0 -197664100.79893875 6495839.4356994629 0 0 0 0 628282258.58640289 -274840441.00042343 0 -274840441.00042343 25674134.020805359 0 0 0 0 387001556.06820297 -262199630.95862198 0 -262199630.95862198 78296859.647535324 0 0 0 0 397406724.52528191 -319450710.42539024 0 -319450710.42539024 165087723.66583252 0 0 0 0 252367845.08023834 -446658126.83152771 0 -446658126.83152771 240105503.84879112 0 0 0 0 256000799.88182163 -524619049.75816345 0 -524619049.75816345 334175939.07651329 0 0 0 0 370072088.71998978 -423970114.31768703 0 -423970114.31768703 124703933.83997345 0 0 0 0 1509313866.6528523 15876183.851705551 0 15876183.851705551 938813950.19931221 0 0 0 0 -19788338.118524075 -1154415209.0749321 0 -1154415209.0749321 2526421577.1473846 0 0 0 0 -512251428.49307001 345722022.01995993 0 345722022.01995993 2772874158.0104637 0 0 0 0 505573330.85521638 -865332881.73195219 0 -865332881.73195219 2370487832.1891632 0 0 0 0 -505934700.25133198 545339967.65777636 0 545339967.65777636 1458482937.179245 0 0 0 0 -79565.005446992727 517276.08005806361 0 517276.08005806361 3941979.5839313567 0 0 0 0 -535106455.77706027 -199902464.76746559 0 -199902464.76746559 1286394070.5211296 0 0 0 0 -388693533.38517094 -831910054.00958061 0 -831910054.00958061 1131299750.1615181 0 0 0 0 -649979757.77295232 -100076810.58018208 0 -100076810.58018208 2180160526.9094505 0 0 0 0 -300733676.31797624 -73248698.938591003 0 -73248698.938591003 1175813192.4459195 0 0 0 0 -363702107.81321502 -524398511.79023743 0 -524398511.79023743 1423559564.2476387 0 0 0 0 -810950941.95827007 -156787845.22173882 0 -156787845.22173882 2242961266.4897423 0 0 0 0 166963557.20779991 1133192940.4571571 0 1133192940.4571571 1721177620.044755 0 0 0 0 -652886.79909997655 -1304044.7762664845 0 -1304044.7762664845 4301460.4533516206 0 0 0 0 -827283018.90771508 -183740050.83298588 0 -183740050.83298588 2895123830.2482033 0 0 0 0 2024919994.6870317 -1312049583.5309162 0 -1312049583.5309162 542705580.67127991 0 0 0 0 -420901389.80306363 -932503701.70004082 0 -932503701.70004082 2298615045.2170448 0 0 0 0 1652540079.3156404 790245287.23868465 0 790245287.23868465 835082128.17300415 0 0 0 0 -581413958.7371397 -219153331.64607811 0 -219153331.64607811 3281933199.4382858 0 0 0 0 -333405470.77046871 -287527159.69079208 0 -287527159.69079208 1200530018.8434753 0 0 0 0 -459371416.01488256 429438476.33982468 0 429438476.33982468 1832823529.0397263 0 0 0 0 240576620.28137016 -1724410585.271965 0 -1724410585.271965 2440510785.2937088 0 0 0 0 -133842090.4855423 -963883093.07745361 0 -963883093.07745361 900023448.04399109 0 0 0 0 -167125814.47533131 -1046541743.9716835 0 -1046541743.9716835 898017674.26584029 0 0 0 0 279130219.79862356 -1017481516.9978065 0 -1017481516.9978065 255940933.33227539 0 0 0 0 -129217950.82762194 -265978044.91822052 0 -265978044.91822052 188123933.39176178 0 0 0 0 -965497629.97993755 115730564.71844864 0 115730564.71844864 139550828.00874329 0 0 0 0 -615422529.24710369 -1055181977.8180008 0 -1055181977.8180008 -65746630.095741272 0 0 0 0 -517281692.47755766 -871412530.84903336 0 -871412530.84903336 249501633.65371704 0 0 0 0 -92845526.521420479 -804264514.38650513 0 -804264514.38650513 -318897372.16445923 0 0 0 0 -1402566389.8756318 -582606498.21684837 0 -582606498.21684837 79005237.385780334 0 0 0 0 -453622687.79318237 -742012454.13445282 0 -742012454.13445282 -6388607.526473999 0 0 0 0 -235274192.60148811 -607013941.80105972 0 -607013941.80105972 -469915605.72249603 0 0 0 0 -473962599.59466147 -483547498.67789507 0 -483547498.67789507 -951024686.14883423 0 0 0 0 -1347558322.920732 -581431483.37255478 0 -581431483.37255478 -232890498.85252953 0 0 0 0 -140351111.51182735 23811719.440196991 0 23811719.440196991 38178251.014253616 0 0 0 0 -421348.97870624287 -7257505.6089512846 0 -7257505.6089512846 5880790.7172035798 0 0 0 0 -264248.81241231505 -860596.41502053104 0 -860596.41502053104 673823.66174277849 0 0 0 0 -261505.7888970226 12405569.337343037 0 12405569.337343037 79732110.842334747 0 0 0 0 -89625195.404716492 -265418384.33945465 0 -265418384.33945465 157771999.5174408 0 0 0 0 -2352274.7600120008 -3939805.0489857695 0 -3939805.0489857695 11636952.885833267 0 0 0 0 -2798916.5500733145 -6069080.2242285255 0 -6069080.2242285255 2958559.4101172099 0 0 0 0 -23930491.406792402 -275420424.27555275 0 -275420424.27555275 322250829.99205875 0 0 0 0 -46616569.423866749 84269927.74011898 0 84269927.74011898 46138409.197185516 0 0 0 0 -8945054.689710021 81314645.628780365 0 81314645.628780365 -99241512.002765656 0 0 0 0 72657927.080163479 -86035062.577394485 0 -86035062.577394485 33633385.506690979 0 0 0 0 183682518.78566813 -2610029.4975652695 0 -2610029.4975652695 91966847.731819153 0 0 0 0 62239091.538251534 82755557.289176345 0 82755557.289176345 -142652640.36233902 0 0 0 0 578247291.58436275 149384519.46188259 0 149384519.46188259 -498036024.01374817 0 0 0 0 840484.62306088011 -4787233.549537871 0 -4787233.549537871 1066926.5115298806 0 0 0 0 332941784.7197752 -231421416.83538818 0 -231421416.83538818 333640618.66716003 0 0 0 0 230074410.57136822 -260966359.77838898 0 -260966359.77838898 370551227.04382324 0 0 0 0 254143655.67073202 -198688011.73069382 0 -198688011.73069382 193416172.03691864 0 0 0 0 514656330.84157562 -254887062.43769455 0 -254887062.43769455 272414562.62833405 0 0 0 0 363598132.81301928 -335982657.23766327 0 -335982657.23766327 284087561.27977753 0 0 0 0 253302551.55831996 -186736562.28439701 0 -186736562.28439701 295729392.62930298 0 0 0 0 165286488.77599931 -212168784.18461227 0 -212168784.18461227 333453159.45704651 0 0 0 0 138843319.55476618 -42346007.901909828 0 -42346007.901909828 120573262.83975983 0 0 0 0 -51478652.898777306 81643643.983122826 0 81643643.983122826 52820664.149829865 0 0 0 0 101754283.20908421 -88835451.618627697 0 -88835451.618627697 12683106.267303467 0 0 0 0 49386424.653692722 -76047902.490268707 0 -76047902.490268707 127479050.15901756 0 0 0 0 98947699.789715648 -192686108.29626846 0 -192686108.29626846 278908666.44610214 0 0 0 0 -7075480.6554629803 -197905214.60320282 0 -197905214.60320282 220941940.70032692 0 0 0 0 -2456637388.3124175 -754804353.49477005 0 -754804353.49477005 530523783.20171356 0 0 0 0 -954772.18069077912 -4206771.7198239565 0 -4206771.7198239565 7166614.6280986257 0 0 0 0 -1032631602.117394 -759456393.52137756 0 -759456393.52137756 24463878.00705719 0 0 0 0 -506996397.9105494 -709611921.27868652 0 -709611921.27868652 -136412021.25949478 0 0 0 0 -1248816959.0629218 -57110695.711454391 0 -57110695.711454391 211136799.2817955 0 0 0 0 -972849729.54561818 -22166500.281154394 0 -22166500.281154394 -226058865.25131989 0 0 0 0 -1012906642.2109904 368836082.92264891 0 368836082.92264891 1878068799.1917419 0 0 0 0 -1977050262.8781819 663907134.32939911 0 663907134.32939911 4087100170.6449585 0 0 0 0 916958563.65842772 -1782168608.5435801 0 -1782168608.5435801 3995734792.8100891 0 0 0 0 -1461589017.9637485 1565948154.3357239 0 1565948154.3357239 1985583388.3613777 0 0 0 0 -1036347.0876824635 -1809337.6974896188 0 -1809337.6974896188 3502348.2596906237 0 0 0 0 187830691.14378953 -142154603.84958076 0 -142154603.84958076 183971366.66479492 0 0 0 0 307354653.57035768 -327702028.70689201 0 -327702028.70689201 250259163.92954636 0 0 0 0 -1774209.1693279617 -1182249.004962692 0 -1182249.004962692 4256225.1280617975 0 0 0 0 158383378.59168503 -1560150323.5881901 0 -1560150323.5881901 4087445593.7352614 0 0 0 0 303578149.66084003 -220626790.43549633 0 -220626790.43549633 220637471.0222702 0 0 0 0 -190225049.61095792 -547920857.89955521 0 -547920857.89955521 1148870151.6534462 0 0 0 0 -1288156.863278955 -446319.53275530599 0 -446319.53275530599 3502812.1291534975 0 0 0 0 297585301.0580976 -344694186.61770248 0 -344694186.61770248 308611978.83123302 0 0 0 0 -398123161.99910486 569121509.05630004 0 569121509.05630004 1199410625.3677406 0 0 0 0 -444363683.34580445 258402906.56761026 0 258402906.56761026 863185229.02656174 0 0 0 0 625035647.22422314 -664822751.18532562 0 -664822751.18532562 484665492.74797821 0 0 0 0 1425358154.6986272 -959050484.03060532 0 -959050484.03060532 510777494.16103172 0 0 0 0 990114641.73325586 -496928569.43157387 0 -496928569.43157387 405345184.12307739 0 0 0 0 1036463884.9153233 -349620183.84051895 0 -349620183.84051895 90266482.48273468 0 0 0 0 863488727.66689777 -223289226.70085335 0 -223289226.70085335 -22900395.195709229 0 0 0 0 732513780.22914314 -425629906.43980694 0 -425629906.43980694 72428511.278877258 0 0 0 0 969330317.64828646 -702063455.34567928 0 -702063455.34567928 203850306.42925262 0 0 0 0 710592108.74867439 -532737395.65819168 0 -532737395.65819168 93077077.430496216 0 0 0 0 617897128.04525065 -635821745.90235138 0 -635821745.90235138 34515365.71749115 0 0 0 0 609322731.37169552 -548537495.92763138 0 -548537495.92763138 223604756.30162811 0 0 0 0 378886767.97934699 -777512281.52854729 0 -777512281.52854729 59824618.507263184 0 0 0 0 640932318.71819603 -742414808.52599144 0 -742414808.52599144 20639123.371009827 0 0 0 0 -423588727.18230724 -515636156.86615372 0 -515636156.86615372 161645724.53269386 0 0 0 0 -355587438.1336621 -708987502.94884682 0 -708987502.94884682 575911072.07298279 0 0 0 0 331562781.94520295 -947248017.20659447 0 -947248017.20659447 352721507.32971573 0 0 0 0 -166051455.90997005 -352603009.04991913 0 -352603009.04991913 779303074.46347427 0 0 0 0 215970823.6887404 -1063234103.1472855 0 -1063234103.1472855 1991489725.4221191 0 0 0 0 -1349873162.8241816 258635274.04375839 0 258635274.04375839 1975626604.3680305 0 0 0 0 -1068507742.8177401 -514912671.72559071 0 -514912671.72559071 4096753170.4781609 0 0 0 0 130234801.66325051 -964900505.55294609 0 -964900505.55294609 1999610945.7621536 0 0 0 0 485344075.02518284 -1870095737.6914892 0 -1870095737.6914892 4086187467.2344666 0 0 0 0 1110198870.137032 -385841785.98994732 0 -385841785.98994732 493320008.26781464 0 0 0 0 4084894481.4562945 -1995440143.6514511 0 -1995440143.6514511 997824123.48536301 0 0 0 0 555026916.43876004 2302066032.9516373 0 2302066032.9516373 4086539162.5320511 0 0 0 0 1847765619.2380152 2270983690.968132 0 2270983690.968132 2258642378.4496918 0 0 0 0 3860982.4460764909 -1529723.9465168663 0 -1529723.9465168663 6827688.7491616607 0 0 0 0 845326091.29703879 1675152726.6838531 0 1675152726.6838531 2349140374.899765 0 0 0 0 -135946204.67753819 1259327150.6837883 0 1259327150.6837883 3158908030.204071 0 0 0 0 -137028525.84233797 1234884959.2808704 0 1234884959.2808704 2992563221.3730621 0 0 0 0 -161885013.5772261 531149059.77706146 0 531149059.77706146 2288384150.0158463 0 0 0 0 397764284.43891549 1152725731.0701523 0 1152725731.0701523 2007292565.2304077 0 0 0 0 281862342.37613106 738493541.75123978 0 738493541.75123978 945216667.09075928 0 0 0 0 385661560.56174791 545591613.04238129 0 545591613.04238129 1093737518.733757 0 0 0 0 88759094.242855042 1014095241.7404881 0 1014095241.7404881 1693387869.2663574 0 0 0 0 536885.43267701811 306260.12892485573 0 306260.12892485573 -352006.71977709234 0 0 0 0 1525741245.7373638 -273205215.95532036 0 -273205215.95532036 -501440161.33880615 0 0 0 0 1466022599.6019564 1405309584.862957 0 1405309584.862957 1388084075.9588623 0 0 0 0 1226879043.5475402 910762791.94940948 0 910762791.94940948 368225738.73522949 0 0 0 0 692001500.33382511 -39825549.160041809 0 -39825549.160041809 -564800716.28694916 0 0 0 0 -256765900.94680691 -270576776.67204666 0 -270576776.67204666 141835558.66887665 0 0 0 0 1297681731.8062286 -225643194.31116104 0 -225643194.31116104 36579083.166893005 0 0 0 0 3264164.2615109263 -4288442.4204589855 0 -4288442.4204589855 19124697.698414125 0 0 0 0 2521380.3142224187 -5253563.4383651074 0 -5253563.4383651074 -3504819.7704593763 0 0 0 0 212749510.16319752 162615131.87140656 0 162615131.87140656 374063438.97155762 0 0 0 0 -189002301.99299675 190002446.36027145 0 190002446.36027145 1136119215.6793213 0 0 0 0 212897805.60590351 -7814742.7840957642 0 -7814742.7840957642 16654189.105430603 0 0 0 0 111314044.90773255 62264977.715044022 0 62264977.715044022 -31689908.07648468 0 0 0 0 -940271.3677034576 -3927460.1140286531 0 -3927460.1140286531 4757849.5797583535 0 0 0 0 -17180903.310762167 7811137.7932052612 0 7811137.7932052612 29155975.213745117 0 0 0 0 8989900.1893129349 -15194993.210578918 0 -15194993.210578918 -68076464.820804596 0 0 0 0 2902065.7649790579 -8830043.5797487125 0 -8830043.5797487125 10739523.570559137 0 0 0 0 559987533.1568203 -15311273.799289703 0 -15311273.799289703 18007997.290129662 0 0 0 0 314778939.23165035 -118773204.15061522 0 -118773204.15061522 107721254.42971039 0 0 0 0 3863302.7334414315 -6183394.0031964993 0 -6183394.0031964993 9037484.6539055407 0 0 0 0 47335697.33440271 23039754.766372681 0 23039754.766372681 18021630.117218018 0 0 0 0 64945128.37196371 -27959459.897472382 0 -27959459.897472382 22193281.65271759 0 0 0 0 -17003003.474071145 -4809656.7877159119 0 -4809656.7877159119 47325752.721435547 0 0 0 0 4833662.0963802338 -30011429.807815552 0 -30011429.807815552 75529874.833190918 0 0 0 0 -31090101.161008358 592504558.85113907 0 592504558.85113907 1317327953.002243 0 0 0 0 141671340.8381713 -152623928.37958527 0 -152623928.37958527 132760748.61779404 0 0 0 0 172116.27559367314 -356362.08403746039 0 -356362.08403746039 826011.25632069632 0 0 0 0 91815695.029128969 -2026109.5682563782 0 -2026109.5682563782 -13505822.539924622 0 0 0 0 47887813.399237521 323748087.85661507 0 323748087.85661507 2348401471.9227142 0 0 0 0 -31081794.826075792 130833254.40217972 0 130833254.40217972 1883148356.4846954 0 0 0 0 -212216144.73539841 749823967.2342453 0 749823967.2342453 2446168714.6651115 0 0 0 0 -566725250.21215916 202006338.51855087 0 202006338.51855087 2747581532.3354111 0 0 0 0 -662547507.05044103 770161253.47733307 0 770161253.47733307 4098294425.6008258 0 0 0 0 -482665864.10876161 -387089527.06028748 0 -387089527.06028748 4084763754.4680557 0 0 0 0 -296992658.94723606 -951803692.14187241 0 -951803692.14187241 1596487517.6009521 0 0 0 0 -690064.0280755423 -1093372.5927238353 0 -1093372.5927238353 4154194.1016968191 0 0 0 0 134931461.73534781 -716254532.53525162 0 -716254532.53525162 -7821814.4365386963 0 0 0 0 357443866.35428613 1344601939.7219391 0 1344601939.7219391 4094120703.9653401 0 0 0 0 -219445662.026622 276627650.98825836 0 276627650.98825836 749356248.25341034 0 0 0 0 -307662087.2325387 -147257421.58940125 0 -147257421.58940125 1332710342.3355865 0 0 0 0 -361019420.54305732 127908286.37324142 0 127908286.37324142 1586308774.9985657 0 0 0 0 -333932034.38166773 188209971.91418457 0 188209971.91418457 1943904760.2399559 0 0 0 0 119417333.37453014 434147745.31050491 0 434147745.31050491 1663827646.874897 0 0 0 0 -776231142.87633681 -660992996.85433578 0 -660992996.85433578 346559018.09358215 0 0 0 0 -250479077.87663078 304421108.44583321 0 304421108.44583321 2315221312.4651337 0 0 0 0 -299307718.80957735 208638004.75784874 0 208638004.75784874 1666990498.6206436 0 0 0 0 -1238687272.7456629 5527214.7762908936 0 5527214.7762908936 4093735443.8756866 0 0 0 0 -5491.8087401974481 -1762862.5465419777 0 -1762862.5465419777 3887687.06557592 0 0 0 0 -229311777.29577971 -65425710.048437119 0 -65425710.048437119 1620718893.1635437 0 0 0 0 28790831.857310772 -92713193.268714905 0 -92713193.268714905 1473605278.7305374 0 0 0 0 301923.97024988075 -765635.58595413342 0 -765635.58595413342 1544277.2671539225 0 0 0 0 -500577776.89806217 -17263909.461036682 0 -17263909.461036682 4600892998.7210693 0 0 0 0 -98292339.71638301 -2210880448.3418579 0 -2210880448.3418579 -243097279.48550415 0 0 0 0 140960155.72859299 513882631.89983368 0 513882631.89983368 2528179486.7302017 0 0 0 0 31810494.939714432 113721643.40364838 0 113721643.40364838 451020383.53907013 0 0 0 0 145724427.71838111 -1150410264.6639791 0 -1150410264.6639791 1328264565.251709 0 0 0 0 -175169370.81160033 155790567.91186523 0 155790567.91186523 1309337927.533329 0 0 0 0 -2083536.64108634 -893726.07197570801 0 -893726.07197570801 6939168.1734352112 0 0 0 0 1477171.9051651144 -1564756.5955461785 0 -1564756.5955461785 2948033.6481918283 0 0 0 0 202104106.05869609 -323979626.0974474 0 -323979626.0974474 607233531.27400208 0 0 0 0 -162370119.02959794 179177151.88574982 0 179177151.88574982 89247431.636734009 0 0 0 0 295105034.53269762 -72749971.626556396 0 -72749971.626556396 -101571734.54721069 0 0 0 0 713527.8176937832 -354669.98026726395 0 -354669.98026726395 693290.75065317005 0 0 0 0 418965583.63777459 172464926.84075928 0 172464926.84075928 -1346328.2799072266 0 0 0 0 -208033.79521616723 -532267.45949298516 0 -532267.45949298516 2623339.8701510057 0 0 0 0 -173647668.16710711 133694040.16625977 0 133694040.16625977 1620993097.8350296 0 0 0 0 746249.42838299996 -1148150.6332733333 0 -1148150.6332733333 2091649.2197784856 0 0 0 0 -121081235.0048885 88079199.49968338 0 88079199.49968338 1563030073.4255943 0 0 0 0 -2963038.81218189 -672034.52576828003 0 -672034.52576828003 8975576.7761383057 0 0 0 0 -2392050.5602991581 624428.73793792725 0 624428.73793792725 11769197.260787964 0 0 0 0 -2624259.7131281495 -13531252.752586365 0 -13531252.752586365 -605957.35037994385 0 0 0 0 -9273636.1713071279 -9678600.2764968872 0 -9678600.2764968872 19266767.179077148 0 0 0 0 4924885.1928063929 12951504.474998474 0 12951504.474998474 27914855.884788513 0 0 0 0 1369125.6627919599 10536645.477516174 0 10536645.477516174 37850823.4585495 0 0 0 0 17387236.025434583 3084708.5619812012 0 3084708.5619812012 15085215.355636597 0 0 0 0 7872236.5128613412 4010951.7386703491 0 4010951.7386703491 11112351.126541138 0 0 0 0 13431769.493834794 9528198.956325531 0 9528198.956325531 14714626.250259399 0 0 0 0 7276087.4545191526 8143021.3115539551 0 8143021.3115539551 7916009.4966888428 0 0 0 0 -1790885.8607508838 427214.43494987488 0 427214.43494987488 11555536.776031494 0 0 0 0 -637678.31461429596 4335843.5852203369 0 4335843.5852203369 3838802.0345916748 0 0 0 0 -1986055.7939275503 1835171.0369567871 0 1835171.0369567871 10497486.9623909 0 0 0 0 441542.92610639334 8230290.5220947266 0 8230290.5220947266 16940929.602973938 0 0 0 0 -36069497.769343376 52876313.039352417 0 52876313.039352417 23293306.239089966 0 0 0 0 -595520.68667313829 11569271.796503305 0 11569271.796503305 7986292.4207305908 0 0 0 0 2788293.8219169327 4212008.2057036348 0 4212008.2057036348 2696195.1773659065 0 0 0 0 -810229.26942563057 8053626.1709189415 0 8053626.1709189415 -2150258.5937805176 0 0 0 0 -59533.516720946616 55363.591741032898 0 55363.591741032898 678830.71451419964 0 0 0 0 -5151687.5220745802 12482654.251373291 0 12482654.251373291 10342944.212036133 0 0 0 0 1943946.5744018555 3540874.993270874 0 3540874.993270874 7375337.2322235107 0 0 0 0 8108742.5401210785 5792028.5221710205 0 5792028.5221710205 2370077.6195983887 0 0 0 0 13887044.308787227 4623628.0581130981 0 4623628.0581130981 5179486.3478393555 0 0 0 0 8109202.8585085794 5461569.5221443176 0 5461569.5221443176 6804079.9750976562 0 0 0 0 7919486.308530122 8466673.1262817383 0 8466673.1262817383 9137546.0932617188 0 0 0 0 -1631418.9061561525 9581976.1956253052 0 9581976.1956253052 10635313.194641113 0 0 0 0 68521605.021191597 18644110.494907379 0 18644110.494907379 -118188097.73794556 0 0 0 0 -397176500.18808281 91924549.683792114 0 91924549.683792114 57260974.755004883 0 0 0 0 -177090654.97191834 -131052227.57255173 0 -131052227.57255173 -193475343.56802368 0 0 0 0 1394295.7814679923 2291970.4026848562 0 2291970.4026848562 3268109.3454171568 0 0 0 0 -2268936.8522104025 671009.85330200195 0 671009.85330200195 7889954.6887550354 0 0 0 0 39941737.054681003 -92923065.303764343 0 -92923065.303764343 -104137062.91891479 0 0 0 0 10204490.298333645 136262076.60368347 0 136262076.60368347 -32097856.147350311 0 0 0 0 -28018741.696526349 99436298.141098976 0 99436298.141098976 134508895.08770752 0 0 0 0 -58481885.248176575 -24702135.908294678 0 -24702135.908294678 131722322.08077574 0 0 0 0 5643602.1540770531 97553179.968292236 0 97553179.968292236 -300632272.69244385 0 0 0 0 24943490.030198574 -113335898.58122253 0 -113335898.58122253 250835822.23031616 0 0 0 0 608251.19860432483 -147940.19468069077 0 -147940.19468069077 579948.49607882649 0 0 0 0 4394813.5629675388 16926119.106445312 0 16926119.106445312 5102982.2232322693 0 0 0 0 -1294737.3352332115 100704605.96837616 0 100704605.96837616 148368211.81021881 0 0 0 0 21243301.607458204 38250265.261553764 0 38250265.261553764 -60047803.51991272 0 0 0 0 -25299.942006797995 88547.592938967049 0 88547.592938967049 -883929.89289227501 0 0 0 0 -1940734.8161048889 90713.24479675293 0 90713.24479675293 13619113.801620483 0 0 0 0 -1848326.5679752082 10926829.58278304 0 10926829.58278304 4726261.7043244615 0 0 0 0 -1507493.6663600602 1201915.2111035399 0 1201915.2111035399 8406778.8296055794 0 0 0 0 119922150.93944168 -56204164.876501083 0 -56204164.876501083 -94476105.506729126 0 0 0 0 6953792.2471253872 30028634.290863037 0 30028634.290863037 6555953.5746688843 0 0 0 0 -1697481.8286775474 12373828.803129852 0 12373828.803129852 1431727.7154312581 0 0 0 0 17691200.562381655 25665031.403945923 0 25665031.403945923 -6613118.4736251831 0 0 0 0 -7963191.4087723494 36580546.880702972 0 36580546.880702972 68308933.796463013 0 0 0 0 4238456.7431650758 6031703.4464416504 0 6031703.4464416504 9576366.2464237213 0 0 0 0 -134779.12900573015 903341.55265426636 0 903341.55265426636 9487473.800491333 0 0 0 0 1554342.7640999891 3361879.1764702313 0 3361879.1764702313 7277210.8901384175 0 0 0 0 5630154.4306039363 6026693.7204818726 0 6026693.7204818726 9261053.5666351318 0 0 0 0 8756682.5390724242 6558395.9150009155 0 6558395.9150009155 5693264.3489685059 0 0 0 0 1455982.3110847473 -554036.55097961426 0 -554036.55097961426 7613663.3169174194 0 0 0 0 -1756469.9263548322 2241565.200931143 0 2241565.200931143 7424853.5975056142 0 0 0 0 -48175460.536646843 -57089121.446380615 0 -57089121.446380615 -38788720.274909973 0 0 0 0 -16554413.280306697 21530665.116756439 0 21530665.116756439 65129954.821228027 0 0 0 0 -7581559.8754386902 24741283.215553284 0 24741283.215553284 32396791.493968964 0 0 0 0 -3210143.9355988302 9679098.2982286401 0 9679098.2982286401 15217640.131881645 0 0 0 0 -2798552.3691935539 5543202.4521942139 0 5543202.4521942139 17465462.699764252 0 0 0 0 2285011.7964770067 -295303.4351297766 0 -295303.4351297766 19139773.866215222 0 0 0 0 -2944641.2491194345 10386644.166201301 0 10386644.166201301 20451424.355353676 0 0 0 0 5609564.5354995728 -13126.894973754883 0 -13126.894973754883 13213167.116363525 0 0 0 0 12027901.435007811 131419.07480621338 0 131419.07480621338 9516885.7046890259 0 0 0 0 5168169.8811417073 2667774.3944044113 0 2667774.3944044113 10307340.18548584 0 0 0 0 9110581.7493175417 2582244.9007949829 0 2582244.9007949829 7499664.2231903076 0 0 0 0 9750607.5387496948 -5478752.7545623779 0 -5478752.7545623779 11645130.104072571 0 0 0 0 8426080.1772957444 -2314394.1103057861 0 -2314394.1103057861 8736845.8238830566 0 0 0 0 1654491.1883665731 -2136261.4023805894 0 -2136261.4023805894 19185887.731447905 0 0 0 0 5811992.8685894161 -3292332.971419096 0 -3292332.971419096 15181531.691650391 0 0 0 0 -9312733.4860190153 -45726.476348876953 0 -45726.476348876953 35201549.40246582 0 0 0 0 2314669.4540035725 90219.293701171875 0 90219.293701171875 15912311.959381104 0 0 0 0 -3750411.6890890598 -4689840.243270874 0 -4689840.243270874 29578174.858825684 0 0 0 0 4355193.7653803825 -5078740.6516113281 0 -5078740.6516113281 36604569.776611328 0 0 0 0 -8602284.4983615875 -228117.75453186035 0 -228117.75453186035 12512952.104681015 0 0 0 0 -4270952.6293370724 9196754.9976348877 0 9196754.9976348877 15136873.031131744 0 0 0 0 -106332150.89839172 4559709.9516792297 0 4559709.9516792297 77005744.505004883 0 0 0 0 -4315016.7359966636 2333558.3317361716 0 2333558.3317361716 26582793.917986471 0 0 0 0 62096.390069782035 -477171.34966070205 0 -477171.34966070205 1163722.9161145603 0 0 0 0 -119735.40035696275 12048446.612587258 0 12048446.612587258 12984976.890644506 0 0 0 0 -26532350.256253242 18088154.012544632 0 18088154.012544632 35103520.191825867 0 0 0 0 1014302.6333929459 -12280241.838921592 0 -12280241.838921592 30181482.320423357 0 0 0 0 -5066152.2358016968 12065255.266075134 0 12065255.266075134 34919180.699798584 0 0 0 0 -12046427.728515625 24855911.739868164 0 24855911.739868164 38127536.933227539 0 0 0 0 -7592154.7664675266 3577422.1619638745 0 3577422.1619638745 21164835.394830428 0 0 0 0 -1381186.3317904677 467996.09866945865 0 467996.09866945865 1789089.9236667268 0 0 0 0 -41745121.783325195 -10576547.637935638 0 -10576547.637935638 52440247.036277771 0 0 0 0 -9629454.3641433716 2384637.2095336914 0 2384637.2095336914 101851420.83637524 0 0 0 0 -6854296.5773266768 1028532.5342355017 0 1028532.5342355017 21893381.901172981 0 0 0 0 6989471.6117935181 -10370043.026630402 0 -10370043.026630402 91157396.820987701 0 0 0 0 -30168913.659988403 19234660.177581787 0 19234660.177581787 87918430.75113678 0 0 0 0 -4765700.4903335571 21590782.43920517 0 21590782.43920517 83695860.229690552 0 0 0 0 2247003.4487838745 3707074.0857391357 0 3707074.0857391357 74961603.210037231 0 0 0 0 -18632308.229125977 23892133.961265564 0 23892133.961265564 56312666.081851959 0 0 0 0 31579843.307876587 -2674865.0974349976 0 -2674865.0974349976 48594357.312904358 0 0 0 0 17648253.296813965 6924820.7151947021 0 6924820.7151947021 42487317.440093994 0 0 0 0 6323375.3491458893 -8130044.9648399353 0 -8130044.9648399353 61227906.313354492 0 0 0 0 9531626.9022064209 -16361466.563484192 0 -16361466.563484192 79394234.935241699 0 0 0 0 -137109.6323890686 1660059.403842926 0 1660059.403842926 76168711.593292236 0 0 0 0 -28813835.159881592 -23884613.783866882 0 -23884613.783866882 75210219.878143311 0 0 0 0 1890074.095865583 -4465478.6846762318 0 -4465478.6846762318 -739953.10310514271 0 0 0 0 8297785.9906071424 -18543688.26675272 0 -18543688.26675272 77355196.347106934 0 0 0 0 9191734.6763000488 -29256687.79624176 0 -29256687.79624176 91967932.993804932 0 0 0 0 9052270.8815746307 -33315724.747894287 0 -33315724.747894287 55302683.070510864 0 0 0 0 17387754.707206726 -15837808.218696594 0 -15837808.218696594 65655744.959060669 0 0 0 0 49031868.047088623 -74920780.824256897 0 -74920780.824256897 98221449.26625061 0 0 0 0 -13092232.245691299 -43461624.266489029 0 -43461624.266489029 98809649.710021973 0 0 0 0 4716182.762878418 -28999182.952156067 0 -28999182.952156067 68576918.396835327 0 0 0 0 -421476.13602256775 -26976519.421808243 0 -26976519.421808243 69107691.216705322 0 0 0 0 1537562.2114105225 -34902742.366279602 0 -34902742.366279602 91202708.174062729 0 0 0 0 34120945.739607811 -34648757.394933701 0 -34648757.394933701 50654857.502548218 0 0 0 0 -73825198.553940058 -6361055.6239213943 0 -6361055.6239213943 2556432.8126220703 0 0 0 0 -75341068.210344315 -23973617.484336853 0 -23973617.484336853 6859241.3016967773 0 0 0 0 -13719718.104576111 -147975848.05273056 0 -147975848.05273056 26131551.162804604 0 0 0 0 709885.21993605862 -3430478.2850391171 0 -3430478.2850391171 9608491.991532594 0 0 0 0 72829.968198264949 -1331465.6311559472 0 -1331465.6311559472 16965123.565186337 0 0 0 0 5380413.2748740911 -5125188.6965293884 0 -5125188.6965293884 12102360.375854492 0 0 0 0 -38993628.541175842 86029401.53761673 0 86029401.53761673 25821226.689941406 0 0 0 0 213139333.00220871 92454254.225093842 0 92454254.225093842 -68828780.648071289 0 0 0 0 -57036735.733397484 -19773883.237754822 0 -19773883.237754822 6622480.3100891113 0 0 0 0 -1802450.5561090363 -677760.40592355467 0 -677760.40592355467 14299000.772825461 0 0 0 0 2107561.4906481504 -5280986.8835105896 0 -5280986.8835105896 12651447.760620117 0 0 0 0 -5856452.4822553992 -10295512.236709595 0 -10295512.236709595 18913223.057228088 0 0 0 0 12232424.57529068 -26939240.974235535 0 -26939240.974235535 30824214.182418823 0 0 0 0 -1101572.7531180801 -6524523.7930868752 0 -6524523.7930868752 12436965.552193232 0 0 0 0 18325491.571205139 -10994755.023822784 0 -10994755.023822784 17730314.598731995 0 0 0 0 19894843.271980286 -30981384.638282776 0 -30981384.638282776 21465249.701025009 0 0 0 0 -14066601.880947113 1965368.3896217346 0 1965368.3896217346 26161565.146789551 0 0 0 0 11713982.402973175 -31803069.270172119 0 -31803069.270172119 37211269.271209717 0 0 0 0 26750518.084659576 -29730780.189498901 0 -29730780.189498901 -32253554.143257141 0 0 0 0 6603603.7808099752 -11931049.20275767 0 -11931049.20275767 8587613.8255351484 0 0 0 0 -1193116.2831692221 1361421.2233116361 0 1361421.2233116361 999272.19222607464 0 0 0 0 364221670.97914112 -109779859.44919205 0 -109779859.44919205 48099316.928359985 0 0 0 0 -10655766.059646606 -7166573.1648254395 0 -7166573.1648254395 -207639.09509277344 0 0 0 0 -56899277.09928894 -10465442.580692291 0 -10465442.580692291 2436698.4990844727 0 0 0 0 -1665073.0259615127 -17333245.986543532 0 -17333245.986543532 22100593.490793787 0 0 0 0 512709638.70254707 -149057730.94038391 0 -149057730.94038391 34642973.214826584 0 0 0 0 2294296.2391283512 -11183791.677139282 0 -11183791.677139282 17058896.217758179 0 0 0 0 2814618.2050065249 -9482199.0613775253 0 -9482199.0613775253 17675927.643188477 0 0 0 0 25679316.583045363 -27694879.280815125 0 -27694879.280815125 31518083.549003601 0 0 0 0 25769253.612550687 -6888685.7436665446 0 -6888685.7436665446 11121038.981948853 0 0 0 0 27427520.433094114 2267875.4229927063 0 2267875.4229927063 6486094.6847991943 0 0 0 0 22610532.985735476 -7592783.2664031982 0 -7592783.2664031982 11147828.69859314 0 0 0 0 12835261.315590441 2701976.2014770508 0 2701976.2014770508 7244031.1419029236 0 0 0 0 16764236.347494422 1750587.4091625214 0 1750587.4091625214 5925565.7088012695 0 0 0 0 15711646.182234675 -4430625.310092926 0 -4430625.310092926 9066315.9851531982 0 0 0 0 13829539.537875533 -12740460.953048706 0 -12740460.953048706 15290577.525028229 0 0 0 0 18954973.842490375 -4478981.7811355591 0 -4478981.7811355591 8495879.4533920288 0 0 0 0 24501797.51498349 358821877.38384247 0 358821877.38384247 1955751280.3571167 0 0 0 0 1347687.5122070564 159706819.17169771 0 159706819.17169771 753676881.02915955 0 0 0 0 268926830.18437165 63758174.798019409 0 63758174.798019409 131342948.84577942 0 0 0 0 -142475.45046435125 -31228.463294994086 0 -31228.463294994086 949348.73399433494 0 0 0 0 -431880237.53784233 1335649441.9413147 0 1335649441.9413147 4082646928.3117905 0 0 0 0 293383376.13381255 843131412.32272339 0 843131412.32272339 1774025431.5531654 0 0 0 0 941400081.43830037 2154574839.886879 0 2154574839.886879 1315545995.4470673 0 0 0 0 2310853.2357956427 1192144.4992651381 0 1192144.4992651381 4208972.1741496325 0 0 0 0 1177166843.8656049 1490075886.4563169 0 1490075886.4563169 -102480825.5843811 0 0 0 0 153693997.03061491 -86177032.837516785 0 -86177032.837516785 -223481325.97210693 0 0 0 0 184665940.99331826 -251645694.83383179 0 -251645694.83383179 86802459.91343689 0 0 0 0 -203393.03569674562 -68982.175463400781 0 -68982.175463400781 607692.1928435117 0 0 0 0 96236626.72016874 -190173669.8980484 0 -190173669.8980484 772691032.85167694 0 0 0 0 34506641.317238092 102311.65223693848 0 102311.65223693848 123529490.68885422 0 0 0 0 288941138.57721186 152799362.15312958 0 152799362.15312958 168349436.948349 0 0 0 0 -383935704.5043726 -37049078.186828613 0 -37049078.186828613 213371457.57334137 0 0 0 0 -62210778.689683437 -37056739.689933777 0 -37056739.689933777 212608109.48615456 0 0 0 0 -252855015.32499194 -68265439.258209229 0 -68265439.258209229 -64979649.254638672 0 0 0 0 -850326.38459584478 650023.32102373242 0 650023.32102373242 16173706.125029624 0 0 0 0 -475827866.15773106 155565857.43425751 0 155565857.43425751 149122376.63781738 0 0 0 0 31347319.838234015 -16717799.206245422 0 -16717799.206245422 -25540157.602241516 0 0 0 0 -44430161.096417576 27144976.197921753 0 27144976.197921753 34808622.089874268 0 0 0 0 -756346124.15463591 -13715543.984886169 0 -13715543.984886169 393000678.7150116 0 0 0 0 -840141316.76461792 533624162.0287323 0 533624162.0287323 -45066297.42794919 0 0 0 0 2746089.93255314 2988499.3018036634 0 2988499.3018036634 9543794.7510400414 0 0 0 0 -114723179.15828548 -1080964066.4275894 0 -1080964066.4275894 4088850600.2272034 0 0 0 0 -448727803.65939802 478801806.51167297 0 478801806.51167297 4089345047.3976288 0 0 0 0 -250088548.97049275 -277983843.99982452 0 -277983843.99982452 1100133492.0101013 0 0 0 0 257222234.04745665 516015300.09326935 0 516015300.09326935 605220399.90930176 0 0 0 0 192011769.79709783 -306486099.30751276 0 -306486099.30751276 -74987710.954376221 0 0 0 0 302321102.61882162 -170068814.74185181 0 -170068814.74185181 -289859790.3065834 0 0 0 0 2811877396.9217534 -2213794300.5157046 0 -2213794300.5157046 887334591.89212036 0 0 0 0 647154044.93044221 1138668565.0699043 0 1138668565.0699043 1351410254.6133728 0 0 0 0 1029300.1956535393 -2533445.8707720833 0 -2533445.8707720833 5066515.4700934067 0 0 0 0 182430376.68315715 -2596578466.1075439 0 -2596578466.1075439 4088178649.3582678 0 0 0 0 -745705206.1560415 -940476823.6494236 0 -940476823.6494236 2198997545.8800659 0 0 0 0 -547891409.04183269 -2329172267.4278564 0 -2329172267.4278564 1011987880.4783478 0 0 0 0 752821291.95776796 -2868005336.2796631 0 -2868005336.2796631 1235009437.3749466 0 0 0 0 1655295039.3620014 -1265389469.8334808 0 -1265389469.8334808 156429397.78173828 0 0 0 0 638055291.96113491 -1025354229.6254501 0 -1025354229.6254501 1770517485.4179382 0 0 0 0 1056240142.7957821 -908536077.61074066 0 -908536077.61074066 1395826727.9586792 0 0 0 0 1431439463.4509654 -1406214097.9009094 0 -1406214097.9009094 1678063007.4482117 0 0 0 0 246626329.2093116 -194283506.69630384 0 -194283506.69630384 2206724508.712265 0 0 0 0 -224322.9364919941 -106649.48493296653 0 -106649.48493296653 1327899.0669873878 0 0 0 0 -5574748.2621839046 51327518.562515259 0 51327518.562515259 20227031.644444466 0 0 0 0 519325036.67039275 -330371811.96444702 0 -330371811.96444702 45921471.65965271 0 0 0 0 181545124.61855602 540521490.578022 0 540521490.578022 868875618.67874146 0 0 0 0 -130671666.78251112 -136001866.01599884 0 -136001866.01599884 -109260008.41618347 0 0 0 0 128567.96552991736 -2498446.2305057179 0 -2498446.2305057179 12487654.432659715 0 0 0 0 -842411414.81778526 37252158.669200897 0 37252158.669200897 1052791541.769928 0 0 0 0 -1590714.0638467222 -904843.91676665097 0 -904843.91676665097 2743145.1072214544 0 0 0 0 -68156718.450202346 -75493344.685447693 0 -75493344.685447693 -173102366.49632263 0 0 0 0 -8933565.7492370307 -9356223.8896102905 0 -9356223.8896102905 16651377.845584869 0 0 0 0 -952323.61210929626 4541877.9270595331 0 4541877.9270595331 14150629.072888747 0 0 0 0 -19846220.803088844 -23702490.771263123 0 -23702490.771263123 18159187.619750977 0 0 0 0 -2558200.3062703316 -2757871.5664582513 0 -2757871.5664582513 7596991.7536734045 0 0 0 0 -381118359.7354418 -212624489.66060829 0 -212624489.66060829 13175343.517089844 0 0 0 0 -306827254.15404165 517283139.46530914 0 517283139.46530914 -403945825.78885841 0 0 0 0 130423747.5392822 -457429259.64649963 0 -457429259.64649963 -668970928.52871704 0 0 0 0 -48910877.123049974 42496601.992088318 0 42496601.992088318 52546197.381492615 0 0 0 0 13422224.700511456 -57686417.607925415 0 -57686417.607925415 83037012.9190979 0 0 0 0 449110534.52492762 806660824.66261292 0 806660824.66261292 -339177791.26376343 0 0 0 0 448874.73667930963 -800770.47466932982 0 -800770.47466932982 2941284.0134942308 0 0 0 0 14430225.281845225 6161568.6361960769 0 6161568.6361960769 1862629.5417480469 0 0 0 0 -2947009.3102589999 -2965825.818595022 0 -2965825.818595022 5581899.3464526609 0 0 0 0 -1914019.1070491292 2885284.4147993042 0 2885284.4147993042 25275503.804562218 0 0 0 0 -25169699.702097476 -36007927.167024374 0 -36007927.167024374 57550166.690338135 0 0 0 0 -57272112.517730653 -11407174.500419617 0 -11407174.500419617 104747596.59542847 0 0 0 0 21061950.365494274 -26964406.997831583 0 -26964406.997831583 59363210.671981812 0 0 0 0 13678359.087398052 79665385.586245537 0 79665385.586245537 26135694.994338989 0 0 0 0 -24648593.452695906 17519464.107749939 0 17519464.107749939 26957373.6769104 0 0 0 0 -26031940.521464467 25641778.688034058 0 25641778.688034058 105577418.50693512 0 0 0 0 -3321203.8866444826 23136767.581497192 0 23136767.581497192 250855.65032958984 0 0 0 0 -7519435.0674187541 12964731.630289078 0 12964731.630289078 20108547.829414368 0 0 0 0 -591042.14469725126 10303184.976831391 0 10303184.976831391 -1407421.1747818999 0 0 0 0 30849985.835404396 35319928.53477478 0 35319928.53477478 -51493427.447639465 0 0 0 0 33253.048442271305 490668.43428501487 0 490668.43428501487 976683.16360851377 0 0 0 0 -33309209.43880105 135992575.1259346 0 135992575.1259346 -338753766.43939209 0 0 0 0 167682.11340940319 1376890.4488423967 0 1376890.4488423967 141829.18377646804 0 0 0 0 -31986701.490619481 21246086.016384125 0 21246086.016384125 31822713.43473053 0 0 0 0 -4057955.7110990812 1604331.6971755717 0 1604331.6971755717 24350703.177733913 0 0 0 0 -209975862.44619465 -20404413.122741699 0 -20404413.122741699 26451286.894393921 0 0 0 0 -330553294.58392221 41364587.954005718 0 41364587.954005718 68348411.154785156 0 0 0 0 -127147464.15796661 29003482.174819946 0 29003482.174819946 110314698.10379028 0 0 0 0 -126117836.91331577 24479080.401489258 0 24479080.401489258 -165081183.66748047 0 0 0 0 -545850888.98671341 -38802960.3152771 0 -38802960.3152771 42396089.999176025 0 0 0 0 45404862.92671299 -79654671.239982605 0 -79654671.239982605 38442361.973621368 0 0 0 0 -159385520.98140717 44913118.380470276 0 44913118.380470276 72473125.540847778 0 0 0 0 -131699478.04204357 -55161518.972549438 0 -55161518.972549438 -43778900.882217407 0 0 0 0 -249502220.58004314 8443284.2356290817 0 8443284.2356290817 1323731.9030761719 0 0 0 0 -230459789.79081678 28601765.30594635 0 28601765.30594635 22588129.76996994 0 0 0 0 -256751824.43919992 6429070.1803207397 0 6429070.1803207397 6966564.5809860229 0 0 0 0 -258164.77031895216 -298205.66496223584 0 -298205.66496223584 550285.60132097453 0 0 0 0 -283832740.68500304 -100142434.01295185 0 -100142434.01295185 -52735617.796630859 0 0 0 0 -23066200.841770381 64513127.903722763 0 64513127.903722763 55599104.40586853 0 0 0 0 -53807135.469103336 -140977533.00457764 0 -140977533.00457764 -28962129.718990326 0 0 0 0 -198060.23342006584 -602315.41311396658 0 -602315.41311396658 923783.64452882856 0 0 0 0 -41949621.774194717 -78597277.479347229 0 -78597277.479347229 -46114568.577514648 0 0 0 0 -69196691.859114885 -1633585.8621673584 0 -1633585.8621673584 -15356791.168823242 0 0 0 0 -14674720.725171566 -43974448.966743469 0 -43974448.966743469 -6886682.4986915588 0 0 0 0 -54320814.659897327 -41950881.576438904 0 -41950881.576438904 158154154.97010803 0 0 0 0 -36504170.507803679 -107573231.04763412 0 -107573231.04763412 243064534.95930481 0 0 0 0 96335700.631474018 -160840674.91546631 0 -160840674.91546631 158189197.83020777 0 0 0 0 8395684.1274549961 -178216558.12981796 0 -178216558.12981796 300965908.30072021 0 0 0 0 -2428988.5660483837 -4774390.4948120117 0 -4774390.4948120117 1542914.8475189209 0 0 0 0 -61210.726342105016 -332199.36035976186 0 -332199.36035976186 498380.31113779545 0 0 0 0 -47200698.55562795 -96731474.048886299 0 -96731474.048886299 345013786.36091614 0 0 0 0 102231413.78912663 -244459414.97856903 0 -244459414.97856903 279941294.01775169 0 0 0 0 170293237.74560297 -207911050.67484283 0 -207911050.67484283 44160828.557113647 0 0 0 0 -225837.42178694555 -232524868.43560767 0 -232524868.43560767 331695084.11804199 0 0 0 0 623673.67233597091 -232448981.91404724 0 -232448981.91404724 331680370.92624283 0 0 0 0 108322760.45836613 177102606.44297791 0 177102606.44297791 229597264.96246338 0 0 0 0 100377383.71069506 -233093989.19441986 0 -233093989.19441986 54998135.161613464 0 0 0 0 -88654971.169804811 36517267.360842705 0 36517267.360842705 179742579.80667114 0 0 0 0 120651265.18268263 228184572.33247757 0 228184572.33247757 216069714.17416382 0 0 0 0 -71992.735663273255 162942.39264342189 0 162942.39264342189 799598.32263964415 0 0 0 0 -3974013.295584511 -11373958.886123657 0 -11373958.886123657 49568298.107933044 0 0 0 0 -3740752.0790666351 -12958691.766666412 0 -12958691.766666412 58518029.12663269 0 0 0 0 -6445.8803720782253 -9418512.6920089722 0 -9418512.6920089722 45807562.437271118 0 0 0 0 14950.411697584652 -8255415.4146359302 0 -8255415.4146359302 34326594.262939453 0 0 0 0 -119182.97718387705 -427844.15494161844 0 -427844.15494161844 272359.01627762616 0 0 0 0 2137319.2363364324 -14161645.132072449 0 -14161645.132072449 41161295.497253418 0 0 0 0 2141985.4032873577 -13710852.999420494 0 -13710852.999420494 37729081.50112915 0 0 0 0 -845575.55802705407 -515729.56701993942 0 -515729.56701993942 487847.37898562849 0 0 0 0 99885616.262039661 -288536957.4451828 0 -288536957.4451828 360482268.93677521 0 0 0 0 132848245.56417298 -111168730.51927757 0 -111168730.51927757 234367729.04122925 0 0 0 0 3733519.1123468177 -18336719.55872786 0 -18336719.55872786 19235051.263427734 0 0 0 0 3744594.8309027702 -18863991.461837769 0 -18863991.461837769 44271318.849441528 0 0 0 0 -4756017.7294360474 -18614483.225013733 0 -18614483.225013733 44380305.489732742 0 0 0 0 -6934208.6863361709 -24744767.024162292 0 -24744767.024162292 65052243.449020386 0 0 0 0 -12171191.499344528 -15214381.478973389 0 -15214381.478973389 63448240.08805275 0 0 0 0 -25358621.169607267 -26966122.041572571 0 -26966122.041572571 82927075.145458221 0 0 0 0 37982535.648599103 -44654739.890270233 0 -44654739.890270233 -77897575.23248291 0 0 0 0 -1503990.6676452863 228629.73571439832 0 228629.73571439832 1890773.8595897891 0 0 0 0 -5039694.1426164657 -38631299.224491119 0 -38631299.224491119 36691384.827987671 0 0 0 0 -6194416.0829756483 -47322011.091300964 0 -47322011.091300964 79626679.735874176 0 0 0 0 8265472.4541034698 -300845568.4858551 0 -300845568.4858551 549141366.22021484 0 0 0 0 -1436895.926966181 -304804.53048162907 0 -304804.53048162907 1016161.6766501516 0 0 0 0 -192681956.74504614 -184365091.46086121 0 -184365091.46086121 237098401.86146545 0 0 0 0 -56401821.66464138 -141460276.71722412 0 -141460276.71722412 38845262.06741333 0 0 0 0 -414123807.61732066 -173629774.36247826 0 -173629774.36247826 48513476.480865479 0 0 0 0 -485266132.39239025 334203010.4642334 0 334203010.4642334 -170554610.16763306 0 0 0 0 -227741867.09318304 139160039.93028259 0 139160039.93028259 99730305.438659668 0 0 0 0 -177846722.037848 -6749595.3514938354 0 -6749595.3514938354 474665583.82904053 0 0 0 0 127104886.11711633 -118735068.53894806 0 -118735068.53894806 240405658.96617126 0 0 0 0 -14402629.323278427 -229204768.40601349 0 -229204768.40601349 586200263.80873871 0 0 0 0 58858907.913110256 -44249064.102310181 0 -44249064.102310181 292110833.64001083 0 0 0 0 -59393070.594513118 55699609.291614532 0 55699609.291614532 270557178.78173828 0 0 0 0 -225061805.54052544 121257060.39572144 0 121257060.39572144 136204109.79989624 0 0 0 0 4554438.9440934658 -48435600.020050049 0 -48435600.020050049 236515800.03387451 0 0 0 0 -201817589.71320629 65087893.989685059 0 65087893.989685059 128626258.57559204 0 0 0 0 34730672.76137355 -3493967.6160621643 0 -3493967.6160621643 -151710848.47991943 0 0 0 0 -203004968.76362896 74216898.397888184 0 74216898.397888184 58500773.815979004 0 0 0 0 -12942767.523544282 20405825.251495361 0 20405825.251495361 71964531.736923218 0 0 0 0 7404176.2546711415 68590653.045856476 0 68590653.045856476 68751930.398757935 0 0 0 0 -14987461.284945309 30502414.893474579 0 30502414.893474579 275737081.20289612 0 0 0 0 885572.62552496791 -6184870.7162780762 0 -6184870.7162780762 228281071.99554443 0 0 0 0 -1110238.8489350984 763782.61799248308 0 763782.61799248308 3240648.2083646655 0 0 0 0 8354481.8590063453 -106459748.72036743 0 -106459748.72036743 372631900.49913025 0 0 0 0 42539373.819443382 -122276535.69860458 0 -122276535.69860458 122820611.40702057 0 0 0 0 158143463.64707986 65440893.119457245 0 65440893.119457245 -117822523.3134613 0 0 0 0 -92317003.581373096 3128118.8901367188 0 3128118.8901367188 350239641.02687073 0 0 0 0 70970530.185875356 -246915181.42630768 0 -246915181.42630768 347550166.67770386 0 0 0 0 -36913469.955385305 -52350544.52419281 0 -52350544.52419281 258323385.99158478 0 0 0 0 16825491.156846441 115077645.20488358 0 115077645.20488358 186718826.42845154 0 0 0 0 42968627.253936984 62260275.179039001 0 62260275.179039001 74989124.156829834 0 0 0 0 13229408.857058167 -4364018.7292327881 0 -4364018.7292327881 9240825.5875740051 0 0 0 0 88497367.990856349 70027243.390350342 0 70027243.390350342 19182496.572860718 0 0 0 0 -299282.38473176357 -138150.99630950764 0 -138150.99630950764 1390063.111394614 0 0 0 0 -25012305.22328423 486383.5131072998 0 486383.5131072998 25441051.132781982 0 0 0 0 4427587.0925990045 -1306138.13621521 0 -1306138.13621521 15457091.059768677 0 0 0 0 -17014236.419905484 -1522804.7018432617 0 -1522804.7018432617 21475911.56628418 0 0 0 0 -401830.54824838042 -4650453.8931884766 0 -4650453.8931884766 11181379.991867065 0 0 0 0 -19472430.263813227 1932623.2880325317 0 1932623.2880325317 11671637.010726929 0 0 0 0 11059400.62957371 13022292.589385986 0 13022292.589385986 22183330.79989624 0 0 0 0 -11934578.026948541 736396.66288757324 0 736396.66288757324 16070211.031341553 0 0 0 0 12427419.32593888 1284389.7815704346 0 1284389.7815704346 8715056.7681274414 0 0 0 0 -2799754.7759817373 5113709.0569705963 0 5113709.0569705963 21087770.361694336 0 0 0 0 18807734.453999683 25212242.980085373 0 25212242.980085373 37691297.456939697 0 0 0 0 24283186.848783046 3152916.6887207031 0 3152916.6887207031 16590328.88067627 0 0 0 0 53737306.909800395 18685031.812660217 0 18685031.812660217 10917419.734100342 0 0 0 0 3959967.6151007935 7681178.7096381187 0 7681178.7096381187 26993867.903869629 0 0 0 0 17170093.710836776 25649290.601043701 0 25649290.601043701 37585576.936576843 0 0 0 0 9952295.2863365915 19274408.384941101 0 19274408.384941101 46986235.715621948 0 0 0 0 17217842.557193242 36363416.581726074 0 36363416.581726074 54286279.167106628 0 0 0 0 16444827.769995913 12096600.060447693 0 12096600.060447693 21720078.997894287 0 0 0 0 13078753.119294047 3689345.9128570557 0 3689345.9128570557 15408021.663238525 0 0 0 0 6606732.4666748047 8430347.9346313477 0 8430347.9346313477 34948479.755531311 0 0 0 0 7909100.0130324103 13764221.688606262 0 13764221.688606262 34364482.686061859 0 0 0 0 2119396.5725421011 17531104.737056732 0 17531104.737056732 53758664.868637085 0 0 0 0 -5136992.8794087069 21142051.726415634 0 21142051.726415634 76724506.113922119 0 0 0 0 -15330527.022865374 3867560.7434844971 0 3867560.7434844971 99847227.972755432 0 0 0 0 -3415448.6951053217 30122455.609336853 0 30122455.609336853 111965205.80115509 0 0 0 0 -5049827.5661538616 20516461.400650024 0 20516461.400650024 79981595.89239502 0 0 0 0 -19633570.60994127 -20199925.318183899 0 -20199925.318183899 90746884.589675903 0 0 0 0 -10180130.782416716 -9541032.1635513306 0 -9541032.1635513306 72492681.254753113 0 0 0 0 -16171955.089214005 -1861306.0680236816 0 -1861306.0680236816 63910716.532073975 0 0 0 0 -6098348.5031492747 8223775.9724121094 0 8223775.9724121094 60186149.159118652 0 0 0 0 -7194236.7073003929 9032885.4416809082 0 9032885.4416809082 66841879.715965271 0 0 0 0 -144804.95767065696 7973272.9701538086 0 7973272.9701538086 39494525.605880737 0 0 0 0 -964481.00998383015 10765322.276802063 0 10765322.276802063 45845069.572669983 0 0 0 0 -6446758.0455779945 3772652.0386199951 0 3772652.0386199951 53330282.457122803 0 0 0 0 -6378482.0474587111 2936101.521396637 0 2936101.521396637 50643023.378875732 0 0 0 0 -2941381.6344452491 1627192.0050964355 0 1627192.0050964355 44807519.090911865 0 0 0 0 -1241933.3424164848 5715332.180847168 0 5715332.180847168 41753843.18699646 0 0 0 0 -1483.3229368726595 1013357.1617660522 0 1013357.1617660522 39782863.160400391 0 0 0 0 -3578313.0644411044 2995256.9301223755 0 2995256.9301223755 47439510.595825195 0 0 0 0 -6945.912714095256 -1167806.5872650146 0 -1167806.5872650146 49019166.179403305 0 0 0 0 -5625076.0871194527 -775064.21954345703 0 -775064.21954345703 57945721.599517822 0 0 0 0 -6112983.4432031745 -6092046.2957839966 0 -6092046.2957839966 55968776.003044128 0 0 0 0 -10015885.590554656 -8790948.1784858704 0 -8790948.1784858704 56045950.465332031 0 0 0 0 -3820.3813437368303 -6963714.6303256759 0 -6963714.6303256759 53583106.84211731 0 0 0 0 -16700608.861954212 70019850.676643372 0 70019850.676643372 209237766.21381354 0 0 0 0 -147184266.57089376 27177161.106372833 0 27177161.106372833 318765908.81004333 0 0 0 0 -756420.37525800383 -2590050.8158814232 0 -2590050.8158814232 29794749.370188817 0 0 0 0 -2241940.9745736602 1214193.1636146158 0 1214193.1636146158 6859290.671928525 0 0 0 0 325535459.11672461 479489877.70780182 0 479489877.70780182 -115869592.03707886 0 0 0 0 -243518190.45151162 162032781.44828796 0 162032781.44828796 -36343278.347167969 0 0 0 0 -39536937.240638852 11018846.682380676 0 11018846.682380676 59226394.072875977 0 0 0 0 530225185.66472471 -222690646.61109924 0 -222690646.61109924 -88477275.360290527 0 0 0 0 -782659228.39541054 32202564.945983887 0 32202564.945983887 208264895.14738655 0 0 0 0 106882485.73137903 -74556250.817626953 0 -74556250.817626953 171396922.46746826 0 0 0 0 -24140930.097831607 405357677.57962799 0 405357677.57962799 810278974.21548462 0 0 0 0 443078796.49360681 576259386.08542633 0 576259386.08542633 411755906.09625244 0 0 0 0 -243765375.18088284 39789998.876874447 0 39789998.876874447 220767160.63354492 0 0 0 0 -9511268.9076869488 -137596543.33354187 0 -137596543.33354187 50401975.480056763 0 0 0 0 -190399538.86954117 21283745.25353241 0 21283745.25353241 177582970.50737 0 0 0 0 -24143004.260505676 -14297770.757909775 0 -14297770.757909775 68886018.939712524 0 0 0 0 -210912064.62678862 -4874017.4099655151 0 -4874017.4099655151 148197863.22756958 0 0 0 0 -7615019.713052012 2187759.2101987125 0 2187759.2101987125 51326950.686048605 0 0 0 0 -7935682.9558885526 -6628586.2666802555 0 -6628586.2666802555 23907454.456943505 0 0 0 0 -21711060.207297325 -8119485.8272151947 0 -8119485.8272151947 83331830.137229919 0 0 0 0 -14081934.132440567 1473809.7869148254 0 1473809.7869148254 69892366.742462158 0 0 0 0 -2994441.3183383942 -23985804.310190201 0 -23985804.310190201 113161280.21844482 0 0 0 0 -2368372.4840374701 -6235383.6391621549 0 -6235383.6391621549 18720301.067649446 0 0 0 0 -20359107.637664795 -31902650.155738831 0 -31902650.155738831 148774797.00063705 0 0 0 0 -9075692.9782743454 713412.47431945801 0 713412.47431945801 30991509.802909851 0 0 0 0 -7643533.5905838013 1051354.6210273728 0 1051354.6210273728 25882813.39558325 0 0 0 0 -6802079.8819525242 1974095.3356304169 0 1974095.3356304169 46741314.957493067 0 0 0 0 -7818410.0333105922 1414197.2391312122 0 1414197.2391312122 46816825.354125977 0 0 0 0 -5055319.361656189 -7544240.988067627 0 -7544240.988067627 23640376.114974976 0 0 0 0 -8623649.1156826857 -637621.51340201218 0 -637621.51340201218 39550238.424781784 0 0 0 0 -8197250.4594609737 1348502.9301185608 0 1348502.9301185608 19509028.59522438 0 0 0 0 -10565381.902560472 1540678.4655432701 0 1540678.4655432701 65951303.233448029 0 0 0 0 -5213303.8197331429 2576879.4982681274 0 2576879.4982681274 66005245.934555054 0 0 0 0 -9066203.3271836396 2310389.0058726259 0 2310389.0058726259 35559288.37737371 0 0 0 0 -11404902.95081538 -1272670.0607030392 0 -1272670.0607030392 66342887.235965729 0 0 0 0 -7460657.302564621 -1082005.2428035736 0 -1082005.2428035736 66334953.368192434 0 0 0 0 -9421328.0884799957 -7534103.9757003784 0 -7534103.9757003784 79159312.317653656 0 0 0 0 -11472314.676047802 -4996529.155248642 0 -4996529.155248642 78968053.777957916 0 0 0 0 -11237238.413923457 -347716.61242550611 0 -347716.61242550611 71783027.870765686 0 0 0 0 -6936689.345433712 -9944269.9717178345 0 -9944269.9717178345 73809180.913589478 0 0 0 0 -31779966.392404079 995660.57992553711 0 995660.57992553711 5294183.038482666 0 0 0 0 -34748041.509807587 -3440899.8482971191 0 -3440899.8482971191 2520169.7182312012 0 0 0 0 -10390568.492207473 15223860.59995563 0 15223860.59995563 29127366.726075679 0 0 0 0 -7936775.219086647 301073.50512123108 0 301073.50512123108 64628880.045467377 0 0 0 0 -5679289.5979876518 -7419559.0269966125 0 -7419559.0269966125 64336244.80229187 0 0 0 0 967138.20380768355 4146487.6854173928 0 4146487.6854173928 5674970.0740135834 0 0 0 0 -10671491.163433075 3673338.1804046631 0 3673338.1804046631 9255943.7710876465 0 0 0 0 -6220722.8372163307 -1504118.5145263933 0 -1504118.5145263933 33598878.520493105 0 0 0 0 -963001.04168582824 6214034.0803608587 0 6214034.0803608587 8376418.7870744094 0 0 0 0 -10475765.667719364 6837482.7188796997 0 6837482.7188796997 15319675.782302856 0 0 0 0 -9835666.5988960266 -2380276.9333953857 0 -2380276.9333953857 53166166.90098381 0 0 0 0 -9093160.8709710836 6348463.1872177124 0 6348463.1872177124 15491686.228637695 0 0 0 0 -9719194.6533007622 4395757.0264282227 0 4395757.0264282227 23027900.408477783 0 0 0 0 297111.11322402954 6374220.7703323364 0 6374220.7703323364 9868754.4574737549 0 0 0 0 -8389394.9973230213 9698635.0810420513 0 9698635.0810420513 10918891.932006836 0 0 0 0 -6071205.1863544676 6771705.9970488027 0 6771705.9970488027 30081088.644150555 0 0 0 0 -8587524.1828129292 4889133.2183761597 0 4889133.2183761597 11732275.484191895 0 0 0 0 -4431893.6908945711 15224108.495192388 0 15224108.495192388 22704791.127641737 0 0 0 0 -5964195.1196710588 8936030.896521071 0 8936030.896521071 9698784.7552567422 0 0 0 0 -3606054.492028384 9656250.7959481757 0 9656250.7959481757 7169409.9003748968 0 0 0 0 -49031267.339601517 -6845380.7294464111 0 -6845380.7294464111 -40703954.192260742 0 0 0 0 -31873978.598098755 1283554.0954589844 0 1283554.0954589844 6103651.7150878906 0 0 0 0 -4277626.69448251 3264459.6253465936 0 3264459.6253465936 24300509.642394766 0 0 0 0 -20488392.24155125 3372205.3204193115 0 3372205.3204193115 13294383.381896973 0 0 0 0 7453292.3679361343 9258484.2167663574 0 9258484.2167663574 40401651.197937012 0 0 0 0 -627380.54991140962 -5187629.649279967 0 -5187629.649279967 34545123.730607629 0 0 0 0 -8405348.1099483203 -10443203.731497068 0 -10443203.731497068 51392178.136945844 0 0 0 0 -10466076.759423256 9699487.9095916748 0 9699487.9095916748 54906672.396728516 0 0 0 0 -25598778.780900955 -5758548.2173919678 0 -5758548.2173919678 53313554.791488647 0 0 0 0 -34517645.609996796 -6515769.4799804688 0 -6515769.4799804688 56343210.157592773 0 0 0 0 -20302135.988677502 12475140.92234993 0 12475140.92234993 57700129.957977295 0 0 0 0 -12665026.187747478 17926543.906913757 0 17926543.906913757 45984488.687820435 0 0 0 0 -17546267.657248497 8048582.7563858032 0 8048582.7563858032 56516747.276519775 0 0 0 0 -12159051.922785163 15259745.708449364 0 15259745.708449364 55350194.414245605 0 0 0 0 -13072485.890353203 14164019.733947754 0 14164019.733947754 54602620.567985535 0 0 0 0 -15587018.120007515 8304311.2960205078 0 8304311.2960205078 87024830.175720215 0 0 0 0 -8854006.5342986584 17153237.686408997 0 17153237.686408997 63118363.586471558 0 0 0 0 -24561642.886674643 -22418127.708087921 0 -22418127.708087921 142295404.37171936 0 0 0 0 -705924.53681898117 -18963022.841369629 0 -18963022.841369629 84016418.140852928 0 0 0 0 -6994978.6558418274 -5658808.0638122559 0 -5658808.0638122559 55965991.276870728 0 0 0 0 -8483840.4197961092 805498.84283447266 0 805498.84283447266 71655543.806610107 0 0 0 0 2724335.9898456335 14323539.689163208 0 14323539.689163208 76783158.788600922 0 0 0 0 -17836401.597964227 21158762.28017807 0 21158762.28017807 122564006.07725525 0 0 0 0 -31656972.367330313 -9367368.3284759521 0 -9367368.3284759521 118290562.31558418 0 0 0 0 -34020242.969652653 5195913.9693984985 0 5195913.9693984985 216403995.75785828 0 0 0 0 2245624.8904768825 44218628.977905273 0 44218628.977905273 122641279.76409149 0 0 0 0 16315216.740904748 -27690971.701499939 0 -27690971.701499939 191982933.06155396 0 0 0 0 40330079.421847343 88736627.179946899 0 88736627.179946899 -164636760.93370056 0 0 0 0 -685577.0649932574 748166.47322255373 0 748166.47322255373 5597636.2960135899 0 0 0 0 -82186400.377542406 -42758297.609436035 0 -42758297.609436035 245758519.61943054 0 0 0 0 -92650545.42081663 103846729.9681114 0 103846729.9681114 90430895.278717041 0 0 0 0 50443707.895517349 -52751293.145881653 0 -52751293.145881653 78856117.976837158 0 0 0 0 12360594.713248253 7226163.1817626953 0 7226163.1817626953 9695219.4958953857 0 0 0 0 -15579420.90144062 -91101474.141662598 0 -91101474.141662598 160589026.53747559 0 0 0 0 -11750700.75702095 -90872502.021133423 0 -90872502.021133423 62058543.898635864 0 0 0 0 6819715.9741377831 -178759780.07758331 0 -178759780.07758331 138796381.05989075 0 0 0 0 -114085945.79315186 -127486634.64213181 0 -127486634.64213181 157720943.6229248 0 0 0 0 114972886.23247862 -140245695.80549622 0 -140245695.80549622 81104552.025131226 0 0 0 0 392543.51522907685 541421.23296824843 0 541421.23296824843 5416550.2704082727 0 0 0 0 -604651026.88244534 -189752710.83596802 0 -189752710.83596802 1124079100.1676331 0 0 0 0 105483184.2154026 -51444578.025886536 0 -51444578.025886536 29756042.169242859 0 0 0 0 -733129567.62435389 -916928831.41689301 0 -916928831.41689301 795920138.11791992 0 0 0 0 -105522647.2798996 -620671760.53109741 0 -620671760.53109741 -142033342.26760864 0 0 0 0 -56781156.917562485 88919551.657028198 0 88919551.657028198 142819840.66152954 0 0 0 0 -3149128.8567287624 -113895018.35023165 0 -113895018.35023165 176471065.69950867 0 0 0 0 419679854.83897781 737921249.12626648 0 737921249.12626648 316983455.47212219 0 0 0 0 -2865847.6881417669 206980.13445098698 0 206980.13445098698 5972963.101174904 0 0 0 0 -689136.46943436563 -312709.23969499022 0 -312709.23969499022 10484872.096933253 0 0 0 0 76599784.57270813 253775384.71337891 0 253775384.71337891 -156424460.89326477 0 0 0 0 -36940142.47336483 609011564.5559082 0 609011564.5559082 396495841.14512634 0 0 0 0 101264068.09595108 -158684357.02719116 0 -158684357.02719116 160895808.58763885 0 0 0 0 110902018.22865009 -218357967.83943558 0 -218357967.83943558 498909401.90429688 0 0 0 0 9300818.9732589722 -112852993.76885986 0 -112852993.76885986 140301923.74404907 0 0 0 0 -8300176.9601449966 -60637274.076049805 0 -60637274.076049805 51325031.976837158 0 0 0 0 -80096014.907764435 -32124993.810028076 0 -32124993.810028076 70551925.866760254 0 0 0 0 -130267137.31347275 -43459763.554504395 0 -43459763.554504395 70471765.419921875 0 0 0 0 -59937477.525272369 -82167369.629852295 0 -82167369.629852295 48395367.876037598 0 0 0 0 -80366406.503364563 -81898117.20980835 0 -81898117.20980835 49159271.905883789 0 0 0 0 -77996253.395446777 -33976976.687042236 0 -33976976.687042236 71526934.674362183 0 0 0 0 -36674738.926594257 -159709481.56097412 0 -159709481.56097412 238028211.40652466 0 0 0 0 -51110416.812787056 -132060115.29130554 0 -132060115.29130554 266296756.69047546 0 0 0 0 175174251.89555597 -188858500.3139267 0 -188858500.3139267 -372562091.62728882 0 0 0 0 -254681022.53662586 -176804105.76052856 0 -176804105.76052856 1088954075.3255463 0 0 0 0 -33803371.518578053 -171383855.23054504 0 -171383855.23054504 285479427.89003563 0 0 0 0 -113724666.29982328 -205533578.76074219 0 -205533578.76074219 290652889.43031311 0 0 0 0 -52949076.112868309 44760976.305740356 0 44760976.305740356 -96342678.786209106 0 0 0 0 -81628808.921232224 -1213303979.6020203 0 -1213303979.6020203 300189149.1451416 0 0 0 0 -162747133.14220619 956943660.04129028 0 956943660.04129028 1927381842.7866211 0 0 0 0 113919071.46569061 278788427.76524353 0 278788427.76524353 592997461.65496826 0 0 0 0 243512019.54632246 -126754740.93292236 0 -126754740.93292236 66782562.849029541 0 0 0 0 179146146.46155834 -41398156.947357178 0 -41398156.947357178 -2374782.564453125 0 0 0 0 1596842.3842907192 -2000825.2495875768 0 -2000825.2495875768 208702.11053867638 0 0 0 0 122832206.50439024 52253149.593719482 0 52253149.593719482 65156153.438110352 0 0 0 0 -591632.98171398311 -416297.78804202378 0 -416297.78804202378 843346.56301152706 0 0 0 0 -7756763.1160556078 -86708824.470161438 0 -86708824.470161438 221924090.8293457 0 0 0 0 -2232707.3883647919 -15862697.511764526 0 -15862697.511764526 94518114.535981178 0 0 0 0 -87856545.042879134 55075932.067077637 0 55075932.067077637 358411950.67785645 0 0 0 0 -78862028.672757566 -129480127.82950974 0 -129480127.82950974 280899969.88275146 0 0 0 0 -81666222.846030235 -123218840.72512817 0 -123218840.72512817 474350368.3996582 0 0 0 0 -85793886.671309948 75185828.642944336 0 75185828.642944336 484111728.69591618 0 0 0 0 -13943792.504171371 -3781512.3063812256 0 -3781512.3063812256 96257972.211975098 0 0 0 0 -1737129.8337330529 -780660.96176785231 0 -780660.96176785231 4981301.7098307312 0 0 0 0 -27966175.868342258 12381247.957262039 0 12381247.957262039 14193342.301757812 0 0 0 0 -4798856.8020458221 -848307.48544311523 0 -848307.48544311523 7520106.1502685547 0 0 0 0 -16934982.814053152 -1564356.998667717 0 -1564356.998667717 5420313.7852783203 0 0 0 0 -853783.70865249436 -859812.24642643332 0 -859812.24642643332 7263444.5166265219 0 0 0 0 -1575540.6455515828 -4104742.6152470373 0 -4104742.6152470373 5493512.8311854377 0 0 0 0 -1732664.4969527721 -9197576.3923568726 0 -9197576.3923568726 9396115.3316726685 0 0 0 0 41073166.265500069 -19825741.369407654 0 -19825741.369407654 2117992.8544044495 0 0 0 0 -1702755.9538531299 -1913776.0552538037 0 -1913776.0552538037 2878442.8615288213 0 0 0 0 -23575786.686797857 2147872.5050735474 0 2147872.5050735474 23355600.676818848 0 0 0 0 -2768377.745100975 -4963294.4259414673 0 -4963294.4259414673 -10028223.906234741 0 0 0 0 -23825835.653236717 -9269304.0181121826 0 -9269304.0181121826 12638264.662857056 0 0 0 0 -3332091.9383517206 -12162504.566355705 0 -12162504.566355705 -29170316.514160156 0 0 0 0 -1473022.364426068 -998473.84783959389 0 -998473.84783959389 8491300.1772245541 0 0 0 0 -36232678.920091391 -64292672.317764282 0 -64292672.317764282 68421016.987701416 0 0 0 0 -24010900.854033947 -29703058.137531281 0 -29703058.137531281 59735291.335296631 0 0 0 0 53938092.208032608 -47594505.024726868 0 -47594505.024726868 29404745.964874268 0 0 0 0 480771.19573809742 -1367817.2670245245 0 -1367817.2670245245 10941706.618688837 0 0 0 0 16033474.396617889 -40505833.246623993 0 -40505833.246623993 28232642.830228806 0 0 0 0 17118754.756564617 -13195122.674713135 0 -13195122.674713135 -3628134.2310562134 0 0 0 0 4366643.1461601257 -12475578.608730316 0 -12475578.608730316 24733587.1902771 0 0 0 0 124672.77430655388 -10118525.23305746 0 -10118525.23305746 41197117.955241971 0 0 0 0 -59935738.048732758 -28395747.263242722 0 -28395747.263242722 63026024.893291473 0 0 0 0 -33522534.305589676 -31583587.223106384 0 -31583587.223106384 47905205.286635399 0 0 0 0 -28196723.118106842 -13319936.054707527 0 -13319936.054707527 44694677.598896027 0 0 0 0 -26186440.780233383 -20887892.189661026 0 -20887892.189661026 67104655.47215271 0 0 0 0 -15338191.377851963 -30072488.268164158 0 -30072488.268164158 37421101.717697144 0 0 0 0 -28494727.668723106 -34615980.972244263 0 -34615980.972244263 48988767.489028931 0 0 0 0 -17608084.599582195 -35025723.536075592 0 -35025723.536075592 46630185.808837891 0 0 0 0 -35848218.82251358 -15461518.22769165 0 -15461518.22769165 44045362.882516861 0 0 0 0 -22092885.506835938 -3341686.9264411926 0 -3341686.9264411926 53731404.529998779 0 0 0 0 -1954654.1881658481 -15225617.200793047 0 -15225617.200793047 46135053.574075356 0 0 0 0 -7562855.2994478792 -2207561.1266803816 0 -2207561.1266803816 20190802.772300765 0 0 0 0 -40911076.050004005 1635015.1556625366 0 1635015.1556625366 56350939.129638672 0 0 0 0 -74102622.371370316 82138.721862792969 0 82138.721862792969 57187859.312973022 0 0 0 0 -678992.79153442383 -36008959.251464844 0 -36008959.251464844 138594402.11315918 0 0 0 0 -15831425.916019917 -22826598.732890129 0 -22826598.732890129 54679032.278335571 0 0 0 0 -7744131.7043781281 -41868686.460632324 0 -41868686.460632324 58467300.158737183 0 0 0 0 -3327799.1690593436 13321279.905746631 0 13321279.905746631 27081797.353315674 0 0 0 0 -8783791.4411907196 11950755.826301575 0 11950755.826301575 63395041.356975555 0 0 0 0 -2995203.5206604004 2753673.3463439941 0 2753673.3463439941 11863265.822311401 0 0 0 0 -2611536.8966637468 -12303195.801682886 0 -12303195.801682886 12036508.577814016 0 0 0 0 672769.24075847038 -655205.16111608036 0 -655205.16111608036 25607561.778030112 0 0 0 0 -8232082.6247295858 2650664.9122033864 0 2650664.9122033864 54182184.624451339 0 0 0 0 -19415828.988380432 12485917.49370575 0 12485917.49370575 67807363.531677246 0 0 0 0 -152942339.40572947 -68319030.119997025 0 -68319030.119997025 23800350.805389404 0 0 0 0 -14652879.832304955 7915585.390586853 0 7915585.390586853 50960631.229263306 0 0 0 0 75782616.869028807 -79355359.273773193 0 -79355359.273773193 -362594810.06257629 0 0 0 0 -23551270.74516505 31852248.151165009 0 31852248.151165009 152745928.9246521 0 0 0 0 -5708032.0588344475 -793899.18434162438 0 -793899.18434162438 23881591.57950417 0 0 0 0 29871280.037591934 74919302.835754395 0 74919302.835754395 280421181.82995605 0 0 0 0 -26232719.859773636 -24403754.782115936 0 -24403754.782115936 124662773.61055565 0 0 0 0 4883988.3829026222 -11463615.001922607 0 -11463615.001922607 120222074.5681076 0 0 0 0 -47809082.589093685 24102641.492453575 0 24102641.492453575 91759805.827575684 0 0 0 0 -15164316.064838886 5289454.2201290131 0 5289454.2201290131 82228821.74597168 0 0 0 0 -8891071.002984941 22245286.483491093 0 22245286.483491093 62858539.571533203 0 0 0 0 -15618749.055192947 22974230.947463989 0 22974230.947463989 68284943.472034454 0 0 0 0 -17700437.86706543 27556344.995613098 0 27556344.995613098 62394286.386863708 0 0 0 0 -13995260.516788483 22927032.606178284 0 22927032.606178284 62878889.215978622 0 0 0 0 -1878935.516646361 -226284.43273734488 0 -226284.43273734488 22339227.119532142 0 0 0 0 -13712492.304124832 24409782.525554657 0 24409782.525554657 63432003.265541077 0 0 0 0 -672951.75113020372 -327902.08992181905 0 -327902.08992181905 8747990.0248458087 0 0 0 0 -47582386.07665062 66844270.321784973 0 66844270.321784973 9378515.8384361267 0 0 0 0 -141370150.00061131 38222280.48141861 0 38222280.48141861 100169710.29897881 0 0 0 0 -65761278.081338882 -110127762.45161438 0 -110127762.45161438 -10748686.799619675 0 0 0 0 -160583308.01031685 -70496210.583309174 0 -70496210.583309174 116272403.35398102 0 0 0 0 -114807082.80656052 -35621637.012371063 0 -35621637.012371063 140853824.53921127 0 0 0 0 -27272183.679133415 -38905049.123321533 0 -38905049.123321533 64360880.892402649 0 0 0 0 -8944396.5509033203 -50617699.921958923 0 -50617699.921958923 47621806.359191895 0 0 0 0 -8589786.5894489288 -34758116.605529785 0 -34758116.605529785 45220857.642936707 0 0 0 0 -57870850.337453842 -67122971.570484161 0 -67122971.570484161 44898100.175004959 0 0 0 0 -23913165.329786301 -17690555.981128693 0 -17690555.981128693 69867532.471263885 0 0 0 0 -69348196.322852135 -4902049.5288143158 0 -4902049.5288143158 110217655.20326996 0 0 0 0 -84753971.5010252 7739365.2327976227 0 7739365.2327976227 173336833.24526596 0 0 0 0 -68691974.275733948 -1179644.3398780823 0 -1179644.3398780823 123595531.90756321 0 0 0 0 -68423154.373401642 52002033.160533905 0 52002033.160533905 154732858.59799957 0 0 0 0 -53152391.459310532 44764573.401916027 0 44764573.401916027 116694604.87899017 0 0 0 0 -48382320.652903557 29098628.713809967 0 29098628.713809967 127315597.69596481 0 0 0 0 -27097172.513092041 25271141.539505005 0 25271141.539505005 122341516.24594688 0 0 0 0 -33292271.514537334 3767941.8696265221 0 3767941.8696265221 124268917.82701874 0 0 0 0 -33337336.581912994 11217391.438621521 0 11217391.438621521 115192174.62010956 0 0 0 0 -33916994.640124559 14434912.206120014 0 14434912.206120014 95801799.107292175 0 0 0 0 -9667015.152589798 8836039.8987503052 0 8836039.8987503052 97036241.812871933 0 0 0 0 -46949132.126991272 63259463.94720459 0 63259463.94720459 97208229.71326828 0 0 0 0 -14211803.141260147 26984362.285888672 0 26984362.285888672 65951538.460105896 0 0 0 0 -17175363.7889328 16362502.063987732 0 16362502.063987732 244666529.95204926 0 0 0 0 -579635.49768085685 -561379.870798558 0 -561379.870798558 3144102.9810459837 0 0 0 0 -4718171.5329227448 69257642.066040039 0 69257642.066040039 7770162.7214431763 0 0 0 0 -30027277.374872208 74169466.958564758 0 74169466.958564758 335190114.07248688 0 0 0 0 224360489.20544434 60433722.390014648 0 60433722.390014648 328092931.83876801 0 0 0 0 55724703.214445114 26374796.977649689 0 26374796.977649689 114743339.88674927 0 0 0 0 -48709.242991143838 6071670.9130082428 0 6071670.9130082428 5984275.6620385014 0 0 0 0 -1763680.8888688888 -1089051.0435036477 0 -1089051.0435036477 10749027.53677151 0 0 0 0 -5562663.6538581848 -4345995.4377479553 0 -4345995.4377479553 155190243.555439 0 0 0 0 -1850762.3263244629 19959777.752677917 0 19959777.752677917 133400787.52883148 0 0 0 0 -12437753.839389801 40387584.799312592 0 40387584.799312592 100770569.87219238 0 0 0 0 -907438.92479820829 4907930.4927095175 0 4907930.4927095175 12115508.011840114 0 0 0 0 476133.60342025757 3091586.1445083618 0 3091586.1445083618 18364081.311309814 0 0 0 0 6995223.0169811249 13581776.815681458 0 13581776.815681458 89211158.116649628 0 0 0 0 -732281.28294563293 2706959.2163314819 0 2706959.2163314819 17154333.570747375 0 0 0 0 164784.0788898468 3893666.5732269287 0 3893666.5732269287 17844557.738327026 0 0 0 0 -599828.81642627716 3063686.0311775208 0 3063686.0311775208 17426463.320892334 0 0 0 0 -1398931.4020938873 2814252.0231323242 0 2814252.0231323242 18150101.488937378 0 0 0 0 -24860594.357620239 24678996.7003479 0 24678996.7003479 14183460.695404053 0 0 0 0 -10781070.969573975 9064139.8904953003 0 9064139.8904953003 13511789.502563477 0 0 0 0 -28368589.363311768 22875050.964233398 0 22875050.964233398 16815310.089889526 0 0 0 0 -28414516.355524302 21711116.266713142 0 21711116.266713142 8608336.9810180664 0 0 0 0 -22598699.696152687 36520899.223026276 0 36520899.223026276 -4490885.2619628906 0 0 0 0 -28967267.330949783 22678443.624164581 0 22678443.624164581 13209189.718353271 0 0 0 0 -35845615.662658691 34024209.661819458 0 34024209.661819458 -2121373.1873779297 0 0 0 0 -38336642.198379517 15607991.197814941 0 15607991.197814941 15461500.896850586 0 0 0 0 -35651746.41178894 16415174.615905762 0 16415174.615905762 6818697.6742858887 0 0 0 0 -45409299.986129761 14020367.125839233 0 14020367.125839233 16452092.114379883 0 0 0 0 -1182086.5842015352 9859998.6716002971 0 9859998.6716002971 23434184.657963291 0 0 0 0 -20813251.284273148 -7603024.45495224 0 -7603024.45495224 23660923.61630249 0 0 0 0 -30442909.520677567 -5907620.6271209717 0 -5907620.6271209717 31275717.808441162 0 0 0 0 -46134293.081130981 5051180.2240600586 0 5051180.2240600586 42082826.33215332 0 0 0 0 4006458.5165208895 2769445.6489980882 0 2769445.6489980882 -6387100.4424956478 0 0 0 0 -8171703.8677710295 33355929.714210272 0 33355929.714210272 109130729.69987488 0 0 0 0 -53287152.622505188 25774566.257598877 0 25774566.257598877 -46925634.837738037 0 0 0 0 -11910200.700092958 13566911.077338055 0 13566911.077338055 25608829.710996021 0 0 0 0 -8482187.349155426 24502467.090202332 0 24502467.090202332 100252308.21694946 0 0 0 0 29339374.155075073 54663178.277442932 0 54663178.277442932 91050594.086647034 0 0 0 0 4081409.9167838097 45257704.394794464 0 45257704.394794464 110976124.06474304 0 0 0 0 1941305.7117843628 32220013.352249146 0 32220013.352249146 88991786.37612915 0 0 0 0 -21453965.840145111 85275153.667411804 0 85275153.667411804 61476912.842468262 0 0 0 0 40682242.207595825 44278907.562797546 0 44278907.562797546 -30017506.306900024 0 0 0 0 -15346163.202507019 -25647885.146194458 0 -25647885.146194458 40100128.141670227 0 0 0 0 17831180.725137711 -2110494.9813117981 0 -2110494.9813117981 56797517.737129211 0 0 0 0 -36711606.7029953 -16546504.975265503 0 -16546504.975265503 66139748.838150024 0 0 0 0 20597887.390777588 -12064897.013008118 0 -12064897.013008118 92387760.595638275 0 0 0 0 17266533.788669586 35370667.07585144 0 35370667.07585144 65479129.246948242 0 0 0 0 15308620.73963356 29784972.613121033 0 29784972.613121033 88536279.292007446 0 0 0 0 -11095685.070446014 2586203.8938903809 0 2586203.8938903809 80385040.954849243 0 0 0 0 -2919165.0724387988 -801483.11711827107 0 -801483.11711827107 22904505.085701644 0 0 0 0 -28002182.240875244 57266.550506591797 0 57266.550506591797 84649439.740169525 0 0 0 0 -36379815.845257401 -5117035.9087446332 0 -5117035.9087446332 81645609.152313232 0 0 0 0 -7311030.0001522405 6335417.0206498075 0 6335417.0206498075 28265485.015267707 0 0 0 0 -26838428.028375626 19397367.155906677 0 19397367.155906677 11140393.356445312 0 0 0 0 -28707227.243515015 19312755.893234253 0 19312755.893234253 13130451.970153809 0 0 0 0 -30170369.015022278 12237986.453308105 0 12237986.453308105 -3137396.6429443359 0 0 0 0 -11193976.784607386 6285508.8471900932 0 6285508.8471900932 34317202.292094007 0 0 0 0 -7747880.4180679321 2870916.3585205078 0 2870916.3585205078 6492243.5297431946 0 0 0 0 383146.75906035723 -3662401.2789108809 0 -3662401.2789108809 36774050.62466155 0 0 0 0 6631944.8679552078 5015477.8950157166 0 5015477.8950157166 82174667.386608124 0 0 0 0 -3919143.8984887302 374916.78872318007 0 374916.78872318007 21691185.648093633 0 0 0 0 -37317386.781135559 11997284.763515472 0 11997284.763515472 81278823.748954773 0 0 0 0 -369713.75646283804 3558587.0051242206 0 3558587.0051242206 5529996.8732470572 0 0 0 0 -5108417.2496995199 3346091.5726247523 0 3346091.5726247523 29460123.913402267 0 0 0 0 -718177.00176591054 533074.70541407727 0 533074.70541407727 6057285.6958029196 0 0 0 0 17562689.276508331 17598361.423187256 0 17598361.423187256 73820195.236183167 0 0 0 0 -23467257.266043186 -18650167.108997822 0 -18650167.108997822 60584565.419502258 0 0 0 0 -11494844.44862175 -3581156.5422782898 0 -3581156.5422782898 101157536.86103678 0 0 0 0 -27353939.249223709 60397832.156051636 0 60397832.156051636 162086082.40747452 0 0 0 0 -17852887.629633904 -22272233.713970661 0 -22272233.713970661 44853723.533996582 0 0 0 0 13992799.928575039 39281713.635216713 0 39281713.635216713 68538863.045230865 0 0 0 0 -7447350.323595047 13064330.252075195 0 13064330.252075195 79244505.913356781 0 0 0 0 -11670983.432908297 -24943587.082180023 0 -24943587.082180023 29919544.341964722 0 0 0 0 -13170.969125935459 -400147.66526217386 0 -400147.66526217386 335493.81400019675 0 0 0 0 -39402336.415063381 13198906.188613892 0 13198906.188613892 32762139.128189087 0 0 0 0 21028059.550869226 8824534.4835205078 0 8824534.4835205078 -19278491.976699829 0 0 0 0 26715370.611813068 -13676686.256774902 0 -13676686.256774902 6108615.2668457031 0 0 0 0 -42072556.284089565 -2180498.0619506836 0 -2180498.0619506836 78606666.21395874 0 0 0 0 34047996.634897232 44218330.8072052 0 44218330.8072052 94651541.837623596 0 0 0 0 -9135063.6034479141 8885219.4708251953 0 8885219.4708251953 102065324.70762634 0 0 0 0 -48408184.859924465 53942966.74616909 0 53942966.74616909 73015018.931915283 0 0 0 0 19414624.389067888 3708578.7790222168 0 3708578.7790222168 47615386.123199463 0 0 0 0 -2662623.7377601988 -2228857.5095370971 0 -2228857.5095370971 24800553.073718548 0 0 0 0 -9080263.5168967247 24350149.707336426 0 24350149.707336426 88250973.741424561 0 0 0 0 1125228.4220752716 3864766.1297302246 0 3864766.1297302246 49946156.70123291 0 0 0 0 -3624836.3825095603 -1329456.0521233566 0 -1329456.0521233566 25680572.291962087 0 0 0 0 -20753255.666283607 16667365.03868866 0 16667365.03868866 -8018891.5698852539 0 0 0 0 -4712633.1060862541 -8005776.2854156494 0 -8005776.2854156494 24760604.734634399 0 0 0 0 -3663384.421857357 18638012.804145813 0 18638012.804145813 -172182.29019165039 0 0 0 0 2514355.1257190704 6520613.9882049561 0 6520613.9882049561 4485730.2910766602 0 0 0 0 1849639.2670698166 -5150493.856338501 0 -5150493.856338501 -10718435.680610657 0 0 0 0 23232685.016557693 14610206.726699829 0 14610206.726699829 -7049027.8521881104 0 0 0 0 69741979.274045944 -18844173.233642578 0 -18844173.233642578 69388846.272605896 0 0 0 0 8359789.2471356392 -4740988.6706390381 0 -4740988.6706390381 66677926.036254883 0 0 0 0 5717943.8614912033 7111063.4021606445 0 7111063.4021606445 70957092.024459839 0 0 0 0 -1326821.2469167709 -16153228.096916199 0 -16153228.096916199 59891605.559875488 0 0 0 0 25222089.730350971 -6275305.4716262817 0 -6275305.4716262817 26933610.523345947 0 0 0 0 3092947.7074091434 -9052986.0502586365 0 -9052986.0502586365 26814317.692260742 0 0 0 0 4487191.9572114944 -16083128.527084351 0 -16083128.527084351 35239648.45401001 0 0 0 0 -10880244.466434479 -3366851.1644897461 0 -3366851.1644897461 50501743.331588745 0 0 0 0 -8955437.4285245538 -23437120.194137573 0 -23437120.194137573 32716169.391601562 0 0 0 0 -19488929.683297932 -22333787.68550396 0 -22333787.68550396 41995281.63293457 0 0 0 0 -18386656.021262169 -5186838.3474578857 0 -5186838.3474578857 30278012.591842651 0 0 0 0 1742812.7522130013 9306501.0054550171 0 9306501.0054550171 65848627.821899414 0 0 0 0 -3497767.8278656006 -9109677.285446167 0 -9109677.285446167 54947799.762023926 0 0 0 0 536064.15992593765 20663805.142372131 0 20663805.142372131 94246926.877746582 0 0 0 0 13916685.697684288 16862855.325881958 0 16862855.325881958 57580488.411958694 0 0 0 0 -554296.59321997361 2736564.9942252263 0 2736564.9942252263 9628082.4353699833 0 0 0 0 26468878.092912555 32742696.305931091 0 32742696.305931091 67660896.409133911 0 0 0 0 20767075.094955444 39858499.309432983 0 39858499.309432983 79422591.278068542 0 0 0 0 2738853.8725204468 5970245.7800292969 0 5970245.7800292969 73229889.165924072 0 0 0 0 51931754.500288963 72450868.141021729 0 72450868.141021729 83158481.426345825 0 0 0 0 2674167.7813507318 4228150.9483366013 0 4228150.9483366013 153643411.18505859 0 0 0 0 -335192.99824714661 22196135.317733765 0 22196135.317733765 4028702.9858283997 0 0 0 0 7169520.613574028 18920351.435440063 0 18920351.435440063 -20486337.641021729 0 0 0 0 8925493.9226980209 10448483.315757751 0 10448483.315757751 -721953.86483764648 0 0 0 0 36555596.920912743 49767066.846694946 0 49767066.846694946 57082160.093414307 0 0 0 0 10982659.050731659 5642005.0126304626 0 5642005.0126304626 -33064827.028198242 0 0 0 0 -377995.7462074731 1422402.3310589567 0 1422402.3310589567 4654497.0323570631 0 0 0 0 13377434.557047844 52724819.850151062 0 52724819.850151062 106795403.34074402 0 0 0 0 -4069957.3396514561 2470992.6988914236 0 2470992.6988914236 27132657.361054357 0 0 0 0 -1474050.8301792145 12310417.476325989 0 12310417.476325989 10258369.792755127 0 0 0 0 1995549.7235374451 21345467.566940308 0 21345467.566940308 93953593.905913353 0 0 0 0 -1539862.6733058305 16450471.4572792 0 16450471.4572792 8562201.4089762792 0 0 0 0 -1660779.6253681183 11115252.432548523 0 11115252.432548523 17955686.107831001 0 0 0 0 -434219.51770325005 6980547.8340761438 0 6980547.8340761438 17622721.37294976 0 0 0 0 -143049.68023109436 3836539.3132400513 0 3836539.3132400513 7699715.7905883789 0 0 0 0 -174805.79737363826 1996802.5026896372 0 1996802.5026896372 3704895.746204189 0 0 0 0 -20510197.761423588 21137801.335113525 0 21137801.335113525 107899629.13944626 0 0 0 0 -10746047.087246895 -11181140.541748047 0 -11181140.541748047 185067296.60197449 0 0 0 0 -2466877.7378990911 -352968.76413374022 0 -352968.76413374022 3395835.7177483067 0 0 0 0 1193469.5955929756 23345638.410766602 0 23345638.410766602 -3540872.7425842285 0 0 0 0 1958533.1518372414 9346171.0665316619 0 9346171.0665316619 7774043.0125266761 0 0 0 0 -498666.75296352804 9107829.2911520004 0 9107829.2911520004 9994957.3688812256 0 0 0 0 -1866132.6811332703 10190179.097801208 0 10190179.097801208 9373527.272064209 0 0 0 0 1705620.907430823 15800201.004349217 0 15800201.004349217 5365001.8985752538 0 0 0 0 -7214951.3240394592 25460258.762863159 0 25460258.762863159 2790261.0241470337 0 0 0 0 -48401372.686177731 50295824.920082092 0 50295824.920082092 -10810640.785491943 0 0 0 0 18297348.337395906 22526564.917938232 0 22526564.917938232 -75318290.404418945 0 0 0 0 266411.98672530835 4725269.585356608 0 4725269.585356608 1945587.5121046752 0 0 0 0 -32298682.830370903 29706685.085891724 0 29706685.085891724 11372442.538258553 0 0 0 0 -12059632.659599781 63523243.895301819 0 63523243.895301819 -61012233.069869995 0 0 0 0 15373073.147185802 26732587.964958191 0 26732587.964958191 -21333774.014300346 0 0 0 0 10941278.28711915 38312846.203155518 0 38312846.203155518 -38223708.564208984 0 0 0 0 29589522.88101244 25887370.375890732 0 25887370.375890732 -52208549.242584229 0 0 0 0 26311797.779545784 9699651.5889434814 0 9699651.5889434814 -87221955.848320007 0 0 0 0 -31985730.555190086 73269244.512928009 0 73269244.512928009 -57692085.049423218 0 0 0 0 9995138.4925041199 57602039.469085693 0 57602039.469085693 -100660516.24472046 0 0 0 0 15253776.709049702 17571785.238620758 0 17571785.238620758 -29945439.833114624 0 0 0 0 6676159.2895116806 11930671.33556366 0 11930671.33556366 -33420181.569877625 0 0 0 0 -301913.67733240128 236046.15870285034 0 236046.15870285034 -39116865.949310303 0 0 0 0 16302504.848898411 20126414.816596985 0 20126414.816596985 -42777263.597915649 0 0 0 0 26922546.180419922 13809042.117645264 0 13809042.117645264 -46994045.185096741 0 0 0 0 37507170.798131466 -326866.3335647583 0 -326866.3335647583 -32977339.685043335 0 0 0 0 23488213.856231213 6313066.9064540863 0 6313066.9064540863 -32558393.808990479 0 0 0 0 12659356.493226051 9935449.9205627441 0 9935449.9205627441 -24921338.680099487 0 0 0 0 12205945.050654054 3428127.8507375717 0 3428127.8507375717 -11997584.611053467 0 0 0 0 3566728.3638601303 -3944878.2577209473 0 -3944878.2577209473 12590946.343307495 0 0 0 0 23854292.307640553 -6431104.4209594727 0 -6431104.4209594727 -12768894.497962952 0 0 0 0 1878844.1239972115 -1321087.0035095215 0 -1321087.0035095215 8887998.2437591553 0 0 0 0 6238218.7241248488 -5298922.3718397617 0 -5298922.3718397617 5673273.0073242188 0 0 0 0 6164589.771323055 -7404598.2774295807 0 -7404598.2774295807 10839163.464660645 0 0 0 0 37674536.009939671 -20088431.328666687 0 -20088431.328666687 -956328.53106689453 0 0 0 0 23111288.197266102 -130052.8772277832 0 -130052.8772277832 -25644839.855102539 0 0 0 0 2285715.2718391418 1266507.2403259277 0 1266507.2403259277 21814174.907897949 0 0 0 0 42420702.908952713 -20367584.693275452 0 -20367584.693275452 -963795.63458251953 0 0 0 0 5868902.9888877869 -16204563.419044495 0 -16204563.419044495 36017134.854187012 0 0 0 0 16127546.569182396 -25880667.052093506 0 -25880667.052093506 66866040.708236694 0 0 0 0 -567441.58974981308 -3931204.853553772 0 -3931204.853553772 13404010.438262939 0 0 0 0 992204.22748374939 -2696409.3569793701 0 -2696409.3569793701 14377181.832366943 0 0 0 0 12513801.707378864 45123669.381271362 0 45123669.381271362 -45391989.753128052 0 0 0 0 20908724.697766304 40688058.250015259 0 40688058.250015259 -24294489.234710693 0 0 0 0 45886995.263073444 56040704.952194214 0 56040704.952194214 -43267704.109954834 0 0 0 0 72499509.254729271 3007684.4310913086 0 3007684.4310913086 -49218151.316141129 0 0 0 0 17895067.083252907 26765543.023162842 0 26765543.023162842 -14059198.9190979 0 0 0 0 73890495.830036163 -390399.99533081055 0 -390399.99533081055 -7409353.9238090515 0 0 0 0 105001447.92137945 41164053.140645981 0 41164053.140645981 39234330.968933105 0 0 0 0 91677836.216499805 -59630101.248703003 0 -59630101.248703003 30305829.954803467 0 0 0 0 140526438.10054588 -66352978.623504639 0 -66352978.623504639 68684385.486488342 0 0 0 0 59292243.971036375 56191430.628948212 0 56191430.628948212 -19164224.658172607 0 0 0 0 78624219.942712307 910701.21794128418 0 910701.21794128418 -5938449.1697235107 0 0 0 0 29303733.706570625 24560815.939605713 0 24560815.939605713 25524933.413101196 0 0 0 0 10228888.024056911 25825139.25289917 0 25825139.25289917 -10530772.522766113 0 0 0 0 7520799.3160047531 58347118.993881226 0 58347118.993881226 -63388017.920837402 0 0 0 0 32836182.735512018 46332220.740133286 0 46332220.740133286 -40314385.24395752 0 0 0 0 -5919453.9240698814 61362062.721496582 0 61362062.721496582 -20898811.604812622 0 0 0 0 25427294.156344712 59901398.769165039 0 59901398.769165039 -46865947.708251953 0 0 0 0 -30944386.549125195 81924623.320899963 0 81924623.320899963 -38290905.382171631 0 0 0 0 -3321889.4500719309 60122179.095478058 0 60122179.095478058 -59533148.588165283 0 0 0 0 -2788089.8151230812 72799282.084220886 0 72799282.084220886 -56436503.759994507 0 0 0 0 -1721027.4506936073 77982835.11932373 0 77982835.11932373 -41664667.60786438 0 0 0 0 -40429756.41276741 65343927.838577271 0 65343927.838577271 -59993955.017444611 0 0 0 0 -90490396.625061989 68382159.827285767 0 68382159.827285767 -41409998.278381348 0 0 0 0 -30342144.877670288 81661497.589698792 0 81661497.589698792 -56962404.269897461 0 0 0 0 -30465051.908751965 49459542.928741455 0 49459542.928741455 -43058844.683616638 0 0 0 0 -66378655.605755806 93059895.303215027 0 93059895.303215027 -68429589.53515625 0 0 0 0 -105686767.60384232 100200536.14771271 0 100200536.14771271 -52592926.911758423 0 0 0 0 61710487.607064247 18929143.859291077 0 18929143.859291077 -52958621.558166504 0 0 0 0 -84380304.527676582 64176123.683578491 0 64176123.683578491 -83125830.651275635 0 0 0 0 -56341752.013985395 46236646.08625412 0 46236646.08625412 14926389.977539062 0 0 0 0 -104833753.11803818 -47155004.080307007 0 -47155004.080307007 -44185117.59185791 0 0 0 0 4539744.4220610335 3018793.6965496317 0 3018793.6965496317 595467.36479339004 0 0 0 0 -66362448.738119125 63204995.509872437 0 63204995.509872437 32702732.112991333 0 0 0 0 -58524216.78398037 34579053.965705872 0 34579053.965705872 -130128869.74517822 0 0 0 0 1350094.3975807931 10115139.247394197 0 10115139.247394197 19127935.38151161 0 0 0 0 -108583093.98197937 140595000.14746094 0 140595000.14746094 -89727630.792953491 0 0 0 0 -12207136.672590256 12981582.843177795 0 12981582.843177795 18621356.153671265 0 0 0 0 -24432093.725391388 134097573.13635254 0 134097573.13635254 -134560307.23752213 0 0 0 0 -40802021.726902008 121398240.0160675 0 121398240.0160675 -98086339.479660034 0 0 0 0 -1825727.5231313705 31376851.792648315 0 31376851.792648315 -83644205.206283569 0 0 0 0 -106398580.76755524 47707402.578170776 0 47707402.578170776 -82742724.335710526 0 0 0 0 4944031.297691918 2443712.7964825258 0 2443712.7964825258 -4284922.2298307866 0 0 0 0 7042443.7052965229 5262175.4758091271 0 5262175.4758091271 1562981.4879375473 0 0 0 0 -73026983.511497498 65833529.747581482 0 65833529.747581482 -46393490.309967041 0 0 0 0 -11098217.39563942 38236920.496856689 0 38236920.496856689 -96907150.08807373 0 0 0 0 -157678354.13380051 -18408897.605178833 0 -18408897.605178833 -84277895.49029541 0 0 0 0 -183940401.78231812 26765062.214538574 0 26765062.214538574 -49707404.83114624 0 0 0 0 100314057.82516098 11217484.437469482 0 11217484.437469482 -183629783.63594055 0 0 0 0 30849845.321180344 190678131.73934174 0 190678131.73934174 46995956.047973633 0 0 0 0 -63808546.383232117 113047622.38070679 0 113047622.38070679 110945005.57049561 0 0 0 0 -2779962.8431911469 8874611.1954040527 0 8874611.1954040527 14502378.174697876 0 0 0 0 3072454.0581150055 5952481.2230300903 0 5952481.2230300903 15960497.766792297 0 0 0 0 -8286981.7982158661 7179026.962310791 0 7179026.962310791 19420421.234573364 0 0 0 0 -2418310.9168262482 2292133.9036331177 0 2292133.9036331177 19878712.122356415 0 0 0 0 -5537657.6337432861 3328085.1918792725 0 3328085.1918792725 19986333.494949341 0 0 0 0 -2381217.8260536194 4782842.9792633057 0 4782842.9792633057 19359728.286098957 0 0 0 0 -2345031.149471283 4893530.6566734314 0 4893530.6566734314 17810154.904998779 0 0 0 0 1071122.0402851105 4475009.0220108032 0 4475009.0220108032 17842592.987669945 0 0 0 0 -1598062.682862401 3537091.811871767 0 3537091.811871767 18192535.845321655 0 0 0 0 -1636015.1559048891 2794521.7380745411 0 2794521.7380745411 18171656.341430664 0 0 0 0 1285456.5268611908 2416067.883605957 0 2416067.883605957 18030663.860397339 0 0 0 0 1693709.8263593232 8722900.0396841168 0 8722900.0396841168 13207956.245321438 0 0 0 0 3496919.4399414062 2348653.7544250488 0 2348653.7544250488 16896531.371627808 0 0 0 0 -29778993.618301392 43302038.889144897 0 43302038.889144897 28050880.390380859 0 0 0 0 -14841272.662010193 148461313.50671387 0 148461313.50671387 19804111.477050781 0 0 0 0 5356317.8939719116 4052023.019065734 0 4052023.019065734 -8544592.3843824342 0 0 0 0 -53756728.442680359 85769762.151367188 0 85769762.151367188 97936723.061523438 0 0 0 0 -25960231.836638451 35049628.964073181 0 35049628.964073181 -58768135.522155762 0 0 0 0 -92228864.014015198 58353777.131988525 0 58353777.131988525 -63016820.330627441 0 0 0 0 -19057113.157741547 24676840.540779114 0 24676840.540779114 -119891863.74438477 0 0 0 0 -60823534.637962341 114589348.40875244 0 114589348.40875244 12554617.043609619 0 0 0 0 -40691488.625663757 59451483.452636719 0 59451483.452636719 -2220192.4013671875 0 0 0 0 -51621343.845184326 92814481.191833496 0 92814481.191833496 6969404.0184707642 0 0 0 0 -49554521.414295197 79401966.251083374 0 79401966.251083374 37847772.455078125 0 0 0 0 -40809229.739067078 87451589.876846313 0 87451589.876846313 -28538328.640014648 0 0 0 0 -30393388.228424072 74697960.861572266 0 74697960.861572266 -36915408.793701172 0 0 0 0 -40823481.17547369 63212318.45580864 0 63212318.45580864 -49339603.042602539 0 0 0 0 -8785459.6422576904 94137130.448120117 0 94137130.448120117 -41381525.358123779 0 0 0 0 -51642775.096755981 22356515.304626465 0 22356515.304626465 41550131.87083149 0 0 0 0 23189845.220703125 25376726.837783813 0 25376726.837783813 -168457076.50927734 0 0 0 0 37557180.829998016 57003582.955764771 0 57003582.955764771 -171238904.25497437 0 0 0 0 67413299.131324768 112293794.13653564 0 112293794.13653564 -138114533.24316406 0 0 0 0 -1962364.4585090857 -879649.98990105465 0 -879649.98990105465 4458808.9867803529 0 0 0 0 1865008.592590332 60681564.070922852 0 60681564.070922852 -74733221.41255188 0 0 0 0 -21609000.495056152 74592506.123077393 0 74592506.123077393 -71168745.20703125 0 0 0 0 -43377607.508991241 33150732.280227661 0 33150732.280227661 -5917944.2816314697 0 0 0 0 -64380067.51360321 42902073.892578125 0 42902073.892578125 14819064.423553467 0 0 0 0 -38470041.341529846 23083295.285430908 0 23083295.285430908 -9022461.7941894531 0 0 0 0 12674464.949927926 16399667.140113831 0 16399667.140113831 -55724805.724365234 0 0 0 0 -35047148.564037323 43385558.710906982 0 43385558.710906982 -69509439.046600342 0 0 0 0 9614529.1131895706 10972580.132935662 0 10972580.132935662 3838281.940849185 0 0 0 0 -137113578.91628265 -11583775.889877319 0 -11583775.889877319 123924884.9821167 0 0 0 0 -71051558.792160034 -40344255.47442627 0 -40344255.47442627 -57140457.232070923 0 0 0 0 -32120495.100097656 37256422.343734741 0 37256422.343734741 -4458731.9632263184 0 0 0 0 -45879659.075424194 38773360.052856445 0 38773360.052856445 42111139.830795288 0 0 0 0 -57434166.071990967 94942563.589736938 0 94942563.589736938 109853316.47947311 0 0 0 0 7362997.6149320602 49737858.933029175 0 49737858.933029175 -47477780.178985596 0 0 0 0 -31940203.075657845 69494796.756275177 0 69494796.756275177 -53707504.003112793 0 0 0 0 83788686.578712463 14142385.849052429 0 14142385.849052429 -36044038.668426514 0 0 0 0 7987464.3966324283 7564990.0405267254 0 7564990.0405267254 2559260.363731578 0 0 0 0 -29681265.61997509 80942442.079063416 0 80942442.079063416 -55479041.895118713 0 0 0 0 5058250.4867969817 2734929.1660289578 0 2734929.1660289578 -3492352.0204741284 0 0 0 0 -65051369.94165802 115761752.5320282 0 115761752.5320282 19669701.003662109 0 0 0 0 -65729446.260414124 121450899.5821228 0 121450899.5821228 76926447.47328186 0 0 0 0 3445.0946180467772 2916182.7908859253 0 2916182.7908859253 4693340.7020797729 0 0 0 0 319432.4272914835 2670799.8658095002 0 2670799.8658095002 4841926.8826293945 0 0 0 0 -2865098.3859834857 5594891.5978393555 0 5594891.5978393555 5185002.436340332 0 0 0 0 339980.42872694042 5186770.1527404785 0 5186770.1527404785 3321367.273727417 0 0 0 0 -2849853.8314429019 9211409.7792053223 0 9211409.7792053223 -1001734.2244720459 0 0 0 0 -2728777.5258877338 6775048.5585031509 0 6775048.5585031509 3625157.2888183594 0 0 0 0 -2603472.8080147551 5928087.6581039429 0 5928087.6581039429 9452931.9622802734 0 0 0 0 -2399.5100985322115 2153573.2727432251 0 2153573.2727432251 26395546.398239136 0 0 0 0 1228842.7448534276 6600249.6523971558 0 6600249.6523971558 7658503.1859741211 0 0 0 0 -2008775.8559282382 7698063.1797924042 0 7698063.1797924042 30997707.796417236 0 0 0 0 -731550.36257651018 3270914.2675285339 0 3270914.2675285339 34668519.207550049 0 0 0 0 693011.61309527466 5359921.3665504456 0 5359921.3665504456 32434694.383834839 0 0 0 0 9749299.5153488033 4898449.4289550781 0 4898449.4289550781 -6836020.0210876465 0 0 0 0 -407504.46961561311 6051027.4259185791 0 6051027.4259185791 33281534.020759583 0 0 0 0 -9839.7460207326585 17576.309368468821 0 17576.309368468821 28828.06052275002 0 0 0 0 -7401405.5295528919 809293.35446166992 0 809293.35446166992 6964513.1070556641 0 0 0 0 -299634.84616555413 5615479.7477874756 0 5615479.7477874756 35595641.218231201 0 0 0 0 -555709.40251384396 6053335.5298519135 0 6053335.5298519135 35846248.211090088 0 0 0 0 -422089.99285702594 5443438.1618041992 0 5443438.1618041992 36227751.663635254 0 0 0 0 -483563.25832803268 6261923.5576171875 0 6261923.5576171875 35434531.104492188 0 0 0 0 -2222399.6290054917 5916417.1717147827 0 5916417.1717147827 33019949.467803955 0 0 0 0 3621772.9439575672 11130115.931091309 0 11130115.931091309 34594613.478286743 0 0 0 0 -38813.071526849657 57542.949039466679 0 57542.949039466679 92209.123349659145 0 0 0 0 -696058.48945885897 -97763.376098632812 0 -97763.376098632812 2879822.9348068237 0 0 0 0 2116236.8274336904 -986016.10960388184 0 -986016.10960388184 2352787.5354309082 0 0 0 0 1957564.3004045682 5722882.28698349 0 5722882.28698349 26741833.107894897 0 0 0 0 1115159.839926254 -139192.86826324463 0 -139192.86826324463 2570331.8632354736 0 0 0 0 -21105.288688015658 -48583.394444279373 0 -48583.394444279373 332875.03701309115 0 0 0 0 -203722.32898195833 -4003596.9058074951 0 -4003596.9058074951 7354386.9732666016 0 0 0 0 -2434420.4042197047 9520228.1168072224 0 9520228.1168072224 -3204104.8795166016 0 0 0 0 -834855.27210388333 3804565.8662719727 0 3804565.8662719727 -2862216.6042041779 0 0 0 0 -3909150.5190515891 3154898.4485321045 0 3154898.4485321045 3377376.3901977539 0 0 0 0 -4329029.8203190118 2168706.3225059509 0 2168706.3225059509 2877859.0495300293 0 0 0 0 -3451070.1642159894 1240695.5278930664 0 1240695.5278930664 1051951.06640625 0 0 0 0 -960685.64879560471 -1774156.7882232666 0 -1774156.7882232666 3763760.632598877 0 0 0 0 -398304.03483736387 39431.723928868771 0 39431.723928868771 1565622.3691223711 0 0 0 0 -2669883.8956397325 3245236.5614013672 0 3245236.5614013672 1502770.581161499 0 0 0 0 -713373.94259437919 -1999924.9448261261 0 -1999924.9448261261 2506221.9716796875 0 0 0 0 -1663608.9652658009 866560.50826528668 0 866560.50826528668 6706035.2024417296 0 0 0 0 -361046.07639308117 -1475620.6831870805 0 -1475620.6831870805 -270455.40654635429 0 0 0 0 -3162259.0151899308 -2156658.9651794434 0 -2156658.9651794434 -1540648.0478820801 0 0 0 0 -4246995.589799678 -7956186.8905277252 0 -7956186.8905277252 -4724123.3911132812 0 0 0 0 -2850724.6784663708 -1013052.4600329101 0 -1013052.4600329101 6016138.0064001232 0 0 0 0 -3667284.9062631428 2156346.2399520874 0 2156346.2399520874 -2096579.2584381104 0 0 0 0 -451538.182846874 -1032682.8921508789 0 -1032682.8921508789 1450233.0675964355 0 0 0 0 -576479.16282483935 248613.66062927246 0 248613.66062927246 1709317.0283355713 0 0 0 0 -569498.97382616997 -619981.72303771973 0 -619981.72303771973 3721604.113322258 0 0 0 0 -198518.75573521852 409733.66282653809 0 409733.66282653809 1073519.5429992676 0 0 0 0 7122686.8095626533 2695670.6544342041 0 2695670.6544342041 17265882.852706909 0 0 0 0 -82275.599608079283 135874.96339973062 0 135874.96339973062 185040.48121108301 0 0 0 0 -219916.08499906957 119576.46686553955 0 119576.46686553955 691572.9299621582 0 0 0 0 1065303.0459367894 -10306.162799835205 0 -10306.162799835205 23603495.599365234 0 0 0 0 3966655.7538292706 5571615.9135742188 0 5571615.9135742188 29616908.577606201 0 0 0 0 4040203.2961463472 4613627.5907583237 0 4613627.5907583237 30195158.745117188 0 0 0 0 14609479.596823826 6981477.1747589111 0 6981477.1747589111 22447904.055725098 0 0 0 0 11172462.418428794 -663533.42475891113 0 -663533.42475891113 23657348.84595871 0 0 0 0 -5360034.8393452466 9388084.4557800293 0 9388084.4557800293 26538561.643686295 0 0 0 0 7348757.6643814966 -295163.27697753906 0 -295163.27697753906 27238843.407348633 0 0 0 0 11640485.32063435 -1303803.4516181946 0 -1303803.4516181946 15647202.785369873 0 0 0 0 -340511.69199213159 -573692.33283460606 0 -573692.33283460606 -16904.116751521826 0 0 0 0 9582210.5803466961 -16018528.586578369 0 -16018528.586578369 24800987.425872803 0 0 0 0 4355662.4917910695 3710436.3464508057 0 3710436.3464508057 4444195.6731262207 0 0 0 0 6534.0852318438992 -64447.547705605626 0 -64447.547705605626 -10991.344562556595 0 0 0 0 4141271.0942391045 -332805.60472488403 0 -332805.60472488403 -4912179.0772705078 0 0 0 0 -586150.7674895972 22313.709167480469 0 22313.709167480469 1234005.7154998779 0 0 0 0 -16088.058273764695 -26079.822257754393 0 -26079.822257754393 -1817.5296662896872 0 0 0 0 -21482121.991743997 -25182693.383392334 0 -25182693.383392334 1055512.6701202393 0 0 0 0 13178177.230606567 -27994472.18780899 0 -27994472.18780899 -4065164.4465026855 0 0 0 0 -1792195.6811853501 16756.028167944402 0 16756.028167944402 7361425.8152423799 0 0 0 0 12717934.43908909 -6076662.5575714111 0 -6076662.5575714111 8794295.6401367188 0 0 0 0 13794664.993764222 -12070773.516601562 0 -12070773.516601562 28107450.593292236 0 0 0 0 -16163360.450822279 9588653.2095413208 0 9588653.2095413208 7113780.2452392578 0 0 0 0 11193087.49133262 1037323.4977874756 0 1037323.4977874756 18317098.795532227 0 0 0 0 8351393.2868607044 7445862.258026123 0 7445862.258026123 6542523.8794250488 0 0 0 0 -1706829.1092088991 -584272.07126677036 0 -584272.07126677036 7992472.44662112 0 0 0 0 -34488564.486699417 -20926985.91583252 0 -20926985.91583252 12125082.466201782 0 0 0 0 1873832.7544288635 -68342173.927436829 0 -68342173.927436829 148127057.08862305 0 0 0 0 -5874864.1424524039 -8060044.9812049866 0 -8060044.9812049866 -3180062.866394043 0 0 0 0 -35646069.084421158 4855725.2398071289 0 4855725.2398071289 38460776.068206787 0 0 0 0 -41181811.217759132 -20889243.025497437 0 -20889243.025497437 48533812.024642944 0 0 0 0 -44861395.273314178 -50039037.34024334 0 -50039037.34024334 29902410.295516968 0 0 0 0 18753149.073265076 69852575.292228699 0 69852575.292228699 -61356951.112228394 0 0 0 0 -29888822.454280853 -16777184.519866943 0 -16777184.519866943 47087704.095146179 0 0 0 0 51829.015406176914 751634.12869347632 0 751634.12869347632 849131.78578216583 0 0 0 0 -33754943.505933762 -26133823.668960571 0 -26133823.668960571 42740686.467910767 0 0 0 0 -14627679.126970291 -15939854.33682251 0 -15939854.33682251 43366037.555648804 0 0 0 0 16264399.158100128 1827505.4843597412 0 1827505.4843597412 15077465.123168945 0 0 0 0 -2662935.7583370209 10728296.903762817 0 10728296.903762817 49955668.374389648 0 0 0 0 12003232.72061348 17245876.028717041 0 17245876.028717041 -30345306.143463135 0 0 0 0 -8782580.8212505579 -43527370.475559235 0 -43527370.475559235 -14077443.644378662 0 0 0 0 55888372.362830162 -15053718.138549805 0 -15053718.138549805 21070310.816070557 0 0 0 0 478563.38741978304 2593179.8067717142 0 2593179.8067717142 2716487.457591176 0 0 0 0 -55441601.411130905 22721512.817199707 0 22721512.817199707 45305032.583496094 0 0 0 0 17178037.050363541 15493071.992095947 0 15493071.992095947 8567277.5333862305 0 0 0 0 -9618713.5989618301 2358702.0888977051 0 2358702.0888977051 51273494.183050156 0 0 0 0 -34079249.225355148 -1229702.3644714355 0 -1229702.3644714355 18677647.452392578 0 0 0 0 -6650929.783205986 25010112.813430786 0 25010112.813430786 14686951.074462891 0 0 0 0 13438526.104471207 71154064.374572754 0 71154064.374572754 45140716.782440186 0 0 0 0 -9362438.6734294891 46274137.766387939 0 46274137.766387939 26643840.127334595 0 0 0 0 33403102.069425583 78215153.345550537 0 78215153.345550537 29909547.108642578 0 0 0 0 -10996942.903755188 81676916.397521973 0 81676916.397521973 136261974.52827072 0 0 0 0 34509748.868667305 18040716.506169319 0 18040716.506169319 40730113.760437012 0 0 0 0 -18781147.336385727 26239110.096954346 0 26239110.096954346 117038891.7988205 0 0 0 0 4844564.9167032242 -5683626.6691589355 0 -5683626.6691589355 -68299726.104949951 0 0 0 0 -225120.44006189052 373163.00229329616 0 373163.00229329616 1464344.2671837434 0 0 0 0 22788502.539795876 16910138.288787842 0 16910138.288787842 -142643756.97296143 0 0 0 0 4197864.6275653839 -12299663.771255493 0 -12299663.771255493 1373813.6021842957 0 0 0 0 -5962899.3114700317 20215984.161468506 0 20215984.161468506 -28572925.867416382 0 0 0 0 -65880093.72385025 133080671.17816162 0 133080671.17816162 32208008.529754639 0 0 0 0 16724594.998004913 11346228.566650391 0 11346228.566650391 12971592.632286072 0 0 0 0 36094193.508499146 59120514.3595438 0 59120514.3595438 -39564407.89642334 0 0 0 0 82812911.303016663 -90397261.9112854 0 -90397261.9112854 -20933302.860340118 0 0 0 0 -505494.79402733454 379717.22693816572 0 379717.22693816572 838461.12741738558 0 0 0 0 151303.10487882921 1208688.1002408965 0 1208688.1002408965 322076.54523010552 0 0 0 0 -5774038.2952804565 -7685460.0827331543 0 -7685460.0827331543 -16255913.116699219 0 0 0 0 3242492.3133214926 3841857.2590828426 0 3841857.2590828426 3118927.0985424668 0 0 0 0 23221774.022880077 8559522.2015724182 0 8559522.2015724182 -6323905.0031433105 0 0 0 0 -449323.88641128852 1967793.1137813609 0 1967793.1137813609 5772674.1326575577 0 0 0 0 9627690.1984844208 -2936206.5426635742 0 -2936206.5426635742 5690904.0451507568 0 0 0 0 -4938092.540807724 6727591.5856781006 0 6727591.5856781006 -2482140.3298339844 0 0 0 0 2057893.1834001541 17753672.453552246 0 17753672.453552246 -28903354.958900452 0 0 0 0 2563601.1829900742 5265241.8541259766 0 5265241.8541259766 -5191142.2302246094 0 0 0 0 5772571.6430683136 -858847.98742675781 0 -858847.98742675781 -4686592.4432296753 0 0 0 0 6269274.3245182037 2383222.4033355713 0 2383222.4033355713 5543052.7347564697 0 0 0 0 3824023.4002771378 -2572699.9323997498 0 -2572699.9323997498 7576318.5074157715 0 0 0 0 1638116.5047860146 -228988.8567276001 0 -228988.8567276001 13736187.769805908 0 0 0 0 1136916.4322109222 -1976318.7430114746 0 -1976318.7430114746 13067599.328334808 0 0 0 0 1308087.4884957075 -810712.30963039398 0 -810712.30963039398 15223741.671783447 0 0 0 0 7803323.1370923519 5887810.2619247437 0 5887810.2619247437 8953729.9497680664 0 0 0 0 -961920.96811294556 520064.32179260254 0 520064.32179260254 5710630.8196258545 0 0 0 0 9995203.1015338898 -1677068.3475341797 0 -1677068.3475341797 8145774.7110128403 0 0 0 0 11069737.000579834 3903743.1156768799 0 3903743.1156768799 13314625.049663544 0 0 0 0 12392944.837454557 -1909336.9607315063 0 -1909336.9607315063 10147246.977203369 0 0 0 0 190741.14023464872 662851.75613319129 0 662851.75613319129 583359.19203687273 0 0 0 0 13926166.583851337 -492493.20809173584 0 -492493.20809173584 5918058.1674499512 0 0 0 0 -504669.50882293843 2281705.2652834337 0 2281705.2652834337 5504500.9514322132 0 0 0 0 -21007273.072973818 -3034001.8375396729 0 -3034001.8375396729 6984226.7393341064 0 0 0 0 -31121809.561338902 -7072811.0696640015 0 -7072811.0696640015 37901285.768920898 0 0 0 0 -19099143.866739333 23626476.499176025 0 23626476.499176025 43531635.576553345 0 0 0 0 50996602.719152026 -39072750.240509033 0 -39072750.240509033 -73550658.325927734 0 0 0 0 35662599.158036269 43987420.10369873 0 43987420.10369873 4652338.0657348633 0 0 0 0 20908392.486565441 56155786.372528076 0 56155786.372528076 68849501.149047852 0 0 0 0 -19194998.418211661 -17850560.149040222 0 -17850560.149040222 -43183066.784698486 0 0 0 0 -49291172.915897176 -17247237.551750183 0 -17247237.551750183 86898571.58392334 0 0 0 0 -1233990.6401262244 1077374.1417893767 0 1077374.1417893767 2996554.5285871252 0 0 0 0 -3491524.4801445007 6239455.536239624 0 6239455.536239624 -4413657.4519958496 0 0 0 0 -606770.88372735167 1725370.7943204492 0 1725370.7943204492 2584875.4404304475 0 0 0 0 -720554.80493831635 1394533.5023345947 0 1394533.5023345947 1214852.1585731506 0 0 0 0 88503.633816347283 1301070.8997306004 0 1301070.8997306004 3276431.2870188057 0 0 0 0 46231370.378572904 53912229.123283386 0 53912229.123283386 36192538.134063721 0 0 0 0 -88157.884100771407 618459.95003745705 0 618459.95003745705 1476761.3926159348 0 0 0 0 11725440.319441974 -1497893.7773284912 0 -1497893.7773284912 3511331.6701850891 0 0 0 0 -757224.18520537158 201963.47792407125 0 201963.47792407125 1072824.8754733205 0 0 0 0 4976066.8148920611 4596707.2220611572 0 4596707.2220611572 6263617.1215591431 0 0 0 0 113100661.52716567 43039801.841125488 0 43039801.841125488 -17367258.411712646 0 0 0 0 117176.84492182422 309906.8180053914 0 309906.8180053914 223157.18280673027 0 0 0 0 1414629.2141118348 -16805295.668968201 0 -16805295.668968201 13775536.995483398 0 0 0 0 15528484.533232898 -9555330.1839294434 0 -9555330.1839294434 4353126.7940368652 0 0 0 0 -2734510.2251473255 -3033061.1234474182 0 -3033061.1234474182 6084832.0947875977 0 0 0 0 -2766003.1382466685 2294727.9477405548 0 2294727.9477405548 4544121.0723876953 0 0 0 0 -2532945.9021957219 -2887677.7304840088 0 -2887677.7304840088 2601686.0374755859 0 0 0 0 331418.39974076592 1088072.517307261 0 1088072.517307261 789645.3322750926 0 0 0 0 -4091174.2690791078 1311821.3216362 0 1311821.3216362 8080657.3584594727 0 0 0 0 -3540559.9670649357 -867102.95112609863 0 -867102.95112609863 8351386.7957458496 0 0 0 0 -3825889.6923646182 1367039.619934082 0 1367039.619934082 5381587.3644104004 0 0 0 0 -2832850.8588145822 908383.48275756836 0 908383.48275756836 5480316.3920593262 0 0 0 0 -3442036.2043865919 -526794.27745437622 0 -526794.27745437622 3276499.6929321289 0 0 0 0 20707783.826359749 25715676.197387695 0 25715676.197387695 -11144776.651062012 0 0 0 0 -5266138.0482099876 6933332.8480052948 0 6933332.8480052948 11237288.768798828 0 0 0 0 -38083846.144513071 9559791.0497055054 0 9559791.0497055054 53692848.759063721 0 0 0 0 140262.72689805413 582264.12487355247 0 582264.12487355247 440586.80822943151 0 0 0 0 24471348.557302721 10539023.91506958 0 10539023.91506958 -3352318.9627075195 0 0 0 0 9270090.0057650208 26792003.665771484 0 26792003.665771484 -5583248.3686981201 0 0 0 0 14344311.691426009 15429233.65222168 0 15429233.65222168 -14778214.2396698 0 0 0 0 20835868.233052909 19462320.463851929 0 19462320.463851929 -12444567.881790161 0 0 0 0 -2292781.0943164229 10034074.216873169 0 10034074.216873169 6971880.8825683594 0 0 0 0 397025.62177535391 1899268.4489139989 0 1899268.4489139989 1474917.1978851557 0 0 0 0 7603619.6299004555 5800952.4708786011 0 5800952.4708786011 -232201.09714508057 0 0 0 0 -3220304.0048629045 4160325.3649597168 0 4160325.3649597168 6893270.9087524414 0 0 0 0 2088218.8567601833 4287679.8338096291 0 4287679.8338096291 5985637.0876918808 0 0 0 0 4017404.631509304 3621616.6828613281 0 3621616.6828613281 4869635.7899627686 0 0 0 0 1136232.08599554 1861918.060425669 0 1861918.060425669 788723.20168489218 0 0 0 0 -1198795.6026091704 440173.73592177313 0 440173.73592177313 2363216.5064546913 0 0 0 0 4530147.545488894 10071066.063339233 0 10071066.063339233 5373150.2707519531 0 0 0 0 -1880088.0667436123 685412.42720794678 0 685412.42720794678 1599202.5120773315 0 0 0 0 -1531393.0943174958 1702938.8059558868 0 1702938.8059558868 2879367.4575500488 0 0 0 0 -2967164.8409585245 2271755.5964050293 0 2271755.5964050293 3195665.8865966797 0 0 0 0 -3040485.7508182228 2153940.8086700439 0 2153940.8086700439 4711668.7769775391 0 0 0 0 -4214638.9579891562 1153598.5633850098 0 1153598.5633850098 5271875.2276306152 0 0 0 0 -3481425.1769800782 1432017.986907959 0 1432017.986907959 4276328.9735107422 0 0 0 0 -5281334.9537022263 -93256.182312011719 0 -93256.182312011719 4035567.3847045898 0 0 0 0 -61327.010197717384 153111.76296555623 0 153111.76296555623 211053.70416171849 0 0 0 0 -4123497.7210455239 1024965.5495147705 0 1024965.5495147705 8193050.1734771729 0 0 0 0 -3844464.3373038024 2696023.5334014893 0 2696023.5334014893 6058105.0566940308 0 0 0 0 -3323214.2850729376 1929491.5526580811 0 1929491.5526580811 5675432.6263504028 0 0 0 0 -3584210.4105483517 3164635.4776687622 0 3164635.4776687622 3484389.439453125 0 0 0 0 -4448537.2514939159 3037835.7047805786 0 3037835.7047805786 7119918.4103088379 0 0 0 0 -3806261.7346935682 3878305.6115341187 0 3878305.6115341187 3031786.2390441895 0 0 0 0 -4623999.8801190369 877411.71483230591 0 877411.71483230591 6588279.8526000977 0 0 0 0 -4206942.7941952106 4967341.2494392395 0 4967341.2494392395 14896044.027526855 0 0 0 0 -5657870.8135278374 2155037.9319152832 0 2155037.9319152832 9448443.9811019897 0 0 0 0 -5760794.1125394367 -1457745.4787368774 0 -1457745.4787368774 16944680.331253052 0 0 0 0 -23379111.185227364 -5011028.3651733398 0 -5011028.3651733398 16525638.461151123 0 0 0 0 -7253650.0281791352 6872275.4074935913 0 6872275.4074935913 24562947.063705444 0 0 0 0 719044.00408632308 9524911.6091346741 0 9524911.6091346741 22225181.283721924 0 0 0 0 11964.302230594883 188736.88423278928 0 188736.88423278928 817916.29347188585 0 0 0 0 -2593239.5553955473 6942304.2140235901 0 6942304.2140235901 21366391.887786865 0 0 0 0 -812627.85377595387 6513667.0574607849 0 6513667.0574607849 20388985.592285156 0 0 0 0 -3218592.659782052 2847739.6068115234 0 2847739.6068115234 15296849.690683365 0 0 0 0 771946.17068304494 2500463.6062011719 0 2500463.6062011719 16000061.012313843 0 0 0 0 -269056.94279293716 2383280.6122207642 0 2383280.6122207642 20914506.23777771 0 0 0 0 -6987.5749542698832 5987248.7874056688 0 5987248.7874056688 25193386.703460693 0 0 0 0 13110.706889160136 5832643.4477920532 0 5832643.4477920532 16230423.77154541 0 0 0 0 3172.8224731506807 4513.0266920290887 0 4513.0266920290887 4443.7812451869249 0 0 0 0 888774.01878661197 4619391.3850631714 0 4619391.3850631714 14243544.19859314 0 0 0 0 -897224.33809783543 1972352.7756099701 0 1972352.7756099701 6846745.7724304199 0 0 0 0 648006.32846767455 5597297.138168335 0 5597297.138168335 14739213.499221802 0 0 0 0 1997.061579997121 2314.2102469466627 0 2314.2102469466627 1024.2269281893969 0 0 0 0 2993586.975384688 6169666.2685699463 0 6169666.2685699463 4953819.6172180176 0 0 0 0 2339.1766712307817 2217952.1826019287 0 2217952.1826019287 5092706.4995880127 0 0 0 0 1393336.728066097 2430371.5836029053 0 2430371.5836029053 4895185.6424407959 0 0 0 0 -15041917.508253649 14502524.876113892 0 14502524.876113892 95434013.522491455 0 0 0 0 7436712.8176735342 42477944.400863647 0 42477944.400863647 -3479618.1118774414 0 0 0 0 -15111376.377267495 18473559.894622803 0 18473559.894622803 172565531.16973877 0 0 0 0 -3494344.8235197365 14285412.603607178 0 14285412.603607178 95016465.905639648 0 0 0 0 41496843.300436854 1937070.2599487305 0 1937070.2599487305 -66243935.612976074 0 0 0 0 26750879.436511159 86611071.732055664 0 86611071.732055664 283143085.91668701 0 0 0 0 24514837.16730994 22154056.986801147 0 22154056.986801147 93062111.578796387 0 0 0 0 100528057.85018098 -6885239.1183166504 0 -6885239.1183166504 167000078.41665649 0 0 0 0 18668230.711263537 5849659.154296875 0 5849659.154296875 166568444.34458923 0 0 0 0 135883570.60585046 69487487.739135742 0 69487487.739135742 134372398.07641602 0 0 0 0 68604187.310684085 78657867.804779053 0 78657867.804779053 134812935.34214783 0 0 0 0 13319001.328104258 11678453.585021973 0 11678453.585021973 86995647.25112915 0 0 0 0 8157113.8551113009 72286692.731796265 0 72286692.731796265 51816258.225143433 0 0 0 0 1894622.6205639243 -529672.18208312988 0 -529672.18208312988 86136722.846214294 0 0 0 0 -388906.6604589285 121153.91319001466 0 121153.91319001466 715953.2029819265 0 0 0 0 47609960.729054123 -100012026.87988281 0 -100012026.87988281 136798832.07169724 0 0 0 0 -46547184.082777679 26197988.254341125 0 26197988.254341125 -8388647.5616149902 0 0 0 0 -21118142.561798304 120565282.64627171 0 120565282.64627171 -91027785.144088745 0 0 0 0 3014725.7477725446 571141.39241027832 0 571141.39241027832 -62457156.012924194 0 0 0 0 -2534.878521394061 42405033.220264256 0 42405033.220264256 1319650.9286499023 0 0 0 0 51892844.853414513 -144803693.78674316 0 -144803693.78674316 253408382.76982093 0 0 0 0 -31700.613091353302 44128431.443292007 0 44128431.443292007 -89943748.197311401 0 0 0 0 -209399.42847567506 25282.292856149375 0 25282.292856149375 457346.91684839129 0 0 0 0 343167.78495480079 -22687105.97745787 0 -22687105.97745787 251651677.30477905 0 0 0 0 48491844.695738211 -68538129.98841095 0 -68538129.98841095 193888553.2015686 0 0 0 0 31166.564563569955 61285.164591170847 0 61285.164591170847 583220.93995933048 0 0 0 0 -35599832.730671406 -12421042.673500061 0 -12421042.673500061 173122495.58093262 0 0 0 0 23052074.774453111 -70266105.257141113 0 -70266105.257141113 142422241.27103424 0 0 0 0 81571283.293886438 -85970754.85153389 0 -85970754.85153389 138480636.98733521 0 0 0 0 18238048.499163639 -35371309.422079086 0 -35371309.422079086 102918691.47872925 0 0 0 0 22366784.793229103 -10697452.830581665 0 -10697452.830581665 36880067.592851639 0 0 0 0 22956.828434973955 6127377.1834602356 0 6127377.1834602356 30898080.17074585 0 0 0 0 -8242624.8530294299 -11830321.393997192 0 -11830321.393997192 85821847.936645508 0 0 0 0 19861549.383478701 -44510974.645004272 0 -44510974.645004272 81530951.156761169 0 0 0 0 7050359.9046150446 -29403427.44380188 0 -29403427.44380188 70619743.196807861 0 0 0 0 1426898.6733336449 -35239139.900817871 0 -35239139.900817871 97925524.008361816 0 0 0 0 23340795.195288301 -52782289.021713257 0 -52782289.021713257 87450062.287139893 0 0 0 0 25901516.418295473 -47891243.370807648 0 -47891243.370807648 96267510.449279785 0 0 0 0 9055658.1345393062 -44107832.961036682 0 -44107832.961036682 90986517.453430176 0 0 0 0 59167721.064658687 -70142889.5287323 0 -70142889.5287323 100551359.6219759 0 0 0 0 -99099387.573570967 -54922194.020050049 0 -54922194.020050049 9469597.6026878357 0 0 0 0 188727.25106641377 51302.373015381396 0 51302.373015381396 24316.559032402933 0 0 0 0 -17687942.276018798 138756508.1965332 0 138756508.1965332 255451770.50188923 0 0 0 0 -54893887.303401113 72711630.180698395 0 72711630.180698395 35511841.746765137 0 0 0 0 -128025319.4066776 -22651792.797561646 0 -22651792.797561646 158806925.74172974 0 0 0 0 -68012769.282789409 94242018.202270508 0 94242018.202270508 253269309.89126587 0 0 0 0 -734838.19077412831 52960.692028567195 0 52960.692028567195 908702.03516399115 0 0 0 0 27806764.760478914 -63819060.155715942 0 -63819060.155715942 98300086.244370461 0 0 0 0 31803292.927673638 -54300681.866228104 0 -54300681.866228104 80581061.289215088 0 0 0 0 8668470.6636294127 -42122103.219390869 0 -42122103.219390869 87528425.7603302 0 0 0 0 17855776.416860938 -38893443.286895752 0 -38893443.286895752 64664602.714002088 0 0 0 0 1093369.0907882452 -35751557.99571228 0 -35751557.99571228 102790211.63130188 0 0 0 0 3665868.2724837065 -33658122.852081299 0 -33658122.852081299 74939950.385467529 0 0 0 0 13664937.07360208 -53089183.753982544 0 -53089183.753982544 92656471.107345581 0 0 0 0 8377327.4333310723 -42589801.318359375 0 -42589801.318359375 73565228.461547852 0 0 0 0 17032174.19469142 -33556211.600753784 0 -33556211.600753784 69457844.225616455 0 0 0 0 9671088.0145075321 -34796580.485076904 0 -34796580.485076904 76006648.635139465 0 0 0 0 4195878.0382950604 -31056236.174488068 0 -31056236.174488068 73451717.000610352 0 0 0 0 6109054.4731027484 -43312975.659637451 0 -43312975.659637451 87037489.420318604 0 0 0 0 10298510.548580408 -44076491.943725586 0 -44076491.943725586 82106019.988166809 0 0 0 0 356338.95029771328 -33919698.714981079 0 -33919698.714981079 87425652.035293579 0 0 0 0 489165.75188302994 -26511727.154785156 0 -26511727.154785156 72799461.88343811 0 0 0 0 5405879.6748070717 -36353436.35710144 0 -36353436.35710144 70856398.24407959 0 0 0 0 3422930.1919568777 -18528187.813430786 0 -18528187.813430786 52640623.456085205 0 0 0 0 7031174.4088404179 -29595478.42755127 0 -29595478.42755127 48786293.527313232 0 0 0 0 4961890.3693742752 -33132412.231658936 0 -33132412.231658936 65990813.809814453 0 0 0 0 7500357.9383275509 -9726702.6862182617 0 -9726702.6862182617 27120551.672729492 0 0 0 0 -846378.21187591553 -1673048.8192443848 0 -1673048.8192443848 19452515.83203125 0 0 0 0 -2162988.2083748579 -9874449.7149505615 0 -9874449.7149505615 68684904.417257309 0 0 0 0 9645672.1814126968 -12824541.813064575 0 -12824541.813064575 23667084.093994141 0 0 0 0 3568676.3510433435 -4182881.3497161865 0 -4182881.3497161865 20547896.641723633 0 0 0 0 -13376031.999445438 2834340.8835754395 0 2834340.8835754395 15229889.947265625 0 0 0 0 -10918.133794374211 972240.70516765304 0 972240.70516765304 1639271.3774366975 0 0 0 0 -4111468.1744989157 7824771.7157554626 0 7824771.7157554626 12296020.103088379 0 0 0 0 -6954995.0446987152 7248343.6337661743 0 7248343.6337661743 8646658.0469360352 0 0 0 0 6553257.192296505 -5178199.8193054199 0 -5178199.8193054199 9780685.6266365051 0 0 0 0 11460166.218921661 -22468491.558929443 0 -22468491.558929443 25095075.955718994 0 0 0 0 23091121.516723633 -10270850.546478271 0 -10270850.546478271 -8497417.6095581055 0 0 0 0 28780610.699420452 -33524106.200317383 0 -33524106.200317383 19898852.498168945 0 0 0 0 140669.42576862129 379259.58765015937 0 379259.58765015937 129620.77687066793 0 0 0 0 -19902444.75949651 12277502.417459488 0 12277502.417459488 23956015.414093018 0 0 0 0 9035627.776700139 -16737675.352142334 0 -16737675.352142334 26147323.191467285 0 0 0 0 15336313.528448105 -41385656.259994507 0 -41385656.259994507 47014577.281112671 0 0 0 0 9113106.2860598564 -27760270.488372803 0 -27760270.488372803 67024883.699401855 0 0 0 0 5700669.0742236376 -34103066.539825439 0 -34103066.539825439 69420393.520996094 0 0 0 0 18155903.529838085 -30633281.278619766 0 -30633281.278619766 46406211.596832275 0 0 0 0 13280894.839761496 -17811364.891910553 0 -17811364.891910553 567967.15864562988 0 0 0 0 -3226365.0951910019 -23165346.848602295 0 -23165346.848602295 52544141.683868408 0 0 0 0 18548621.35215354 -4834460.1864395142 0 -4834460.1864395142 -14284693.18711853 0 0 0 0 1488047.0930116558 1931281.1497910656 0 1931281.1497910656 1286751.5528194532 0 0 0 0 980381.82732184418 812894.43795065582 0 812894.43795065582 233770.47938691825 0 0 0 0 -33955.110064327717 386313.85011005402 0 386313.85011005402 -28751.162216186523 0 0 0 0 6494447.5650272369 5578047.5801086426 0 5578047.5801086426 4414097.0227336884 0 0 0 0 3035590.3699464798 743921.37232780457 0 743921.37232780457 4717329.7229156494 0 0 0 0 1923820.299277341 2097452.8107099459 0 2097452.8107099459 854016.13230408169 0 0 0 0 1579411.602189064 2405350.0213851929 0 2405350.0213851929 8374783.3454380035 0 0 0 0 605245.74403467705 -174025.21858661622 0 -174025.21858661622 -946986.60511972755 0 0 0 0 14580862.215668499 14885373.963724136 0 14885373.963724136 -7494724.6000671387 0 0 0 0 -888874.52579629421 -16250762.597442627 0 -16250762.597442627 29055044.043212891 0 0 0 0 37148255.898217916 -43837154.393203735 0 -43837154.393203735 50666186.253097534 0 0 0 0 25535818.052665293 -13398472.213151932 0 -13398472.213151932 40132320.049163818 0 0 0 0 20495140.065152645 -16017804.122161865 0 -16017804.122161865 26053753.210456848 0 0 0 0 27422412.292625666 -42882135.814788818 0 -42882135.814788818 62313004.360115051 0 0 0 0 12251101.644976139 -40288951.743835449 0 -40288951.743835449 64565084.024520874 0 0 0 0 56185580.088552952 -84600446.346481323 0 -84600446.346481323 99287419.309116364 0 0 0 0 16236600.406228781 -38258559.019805908 0 -38258559.019805908 83405603.87612915 0 0 0 0 42077908.46103704 -46120772.57624054 0 -46120772.57624054 84067094.679412842 0 0 0 0 48902937.992542028 -53109992.295913696 0 -53109992.295913696 54781906.076522827 0 0 0 0 56148044.092137694 -107157478.49280167 0 -107157478.49280167 138514892.71789551 0 0 0 0 44374077.945773363 -82928066.003929138 0 -82928066.003929138 89681612.160888672 0 0 0 0 35138087.438527107 -66063602.185829163 0 -66063602.185829163 -93164622.378479004 0 0 0 0 -4350246.1256976128 -34341036.570831299 0 -34341036.570831299 219940240.39788818 0 0 0 0 57168.390271768207 9124.6100488603115 0 9124.6100488603115 69595.96150290966 0 0 0 0 -37456973.860205054 -3294169.5372009277 0 -3294169.5372009277 54229378.718536377 0 0 0 0 32200694.758005977 -108913673.90390015 0 -108913673.90390015 57697509.316711426 0 0 0 0 -17515279.561888386 -7774224.558694005 0 -7774224.558694005 123155550.33917236 0 0 0 0 -16865468.690646145 -36381792.492585897 0 -36381792.492585897 80505238.959716797 0 0 0 0 22062399.255992413 -39048420.508468628 0 -39048420.508468628 147042771.35021973 0 0 0 0 29445016.336949319 -2851334.3232059479 0 -2851334.3232059479 198685154.28994751 0 0 0 0 -46952416.087678671 53623326.522022247 0 53623326.522022247 428836214.77745056 0 0 0 0 40304260.340130806 143782168.89587784 0 143782168.89587784 372713501.58950043 0 0 0 0 -30059442.669257551 47213418.211776733 0 47213418.211776733 139581017.99111938 0 0 0 0 -24302656.151480198 75972198.542442322 0 75972198.542442322 282368823.32080841 0 0 0 0 -16619896.154719591 27228439.079711914 0 27228439.079711914 92765071.847122192 0 0 0 0 -20795611.550825089 107370894.85747528 0 107370894.85747528 456535132.61790466 0 0 0 0 -24130.928713935311 182029.58558380604 0 182029.58558380604 135660.56389219966 0 0 0 0 -13317.509820378968 284058.25308612734 0 284058.25308612734 198223.2309065368 0 0 0 0 1998513.9252143502 -5329127.8347454071 0 -5329127.8347454071 126817962.72361755 0 0 0 0 -11988202.7024858 4682059.1007919312 0 4682059.1007919312 163317053.41072083 0 0 0 0 -15533200.414428234 11681869.284378052 0 11681869.284378052 124514711.31914711 0 0 0 0 5810779.392554462 -963300.3448600769 0 -963300.3448600769 77659539.698242188 0 0 0 0 -3195696.6606707573 10898710.255065918 0 10898710.255065918 64447364.801330566 0 0 0 0 -49737245.723961115 -13399354.072357178 0 -13399354.072357178 156997328.51791382 0 0 0 0 -29280848.629788637 -9781824.5589294434 0 -9781824.5589294434 100310326.16612244 0 0 0 0 -25976066.691305041 -1619023.3173675537 0 -1619023.3173675537 78819720.162750244 0 0 0 0 30237.759555670142 -83152.057017467916 0 -83152.057017467916 276226.48956019431 0 0 0 0 -4999132.3251254559 -8318882.7135009766 0 -8318882.7135009766 -10842699.994689941 0 0 0 0 7075985.2870348692 -26020062.697998047 0 -26020062.697998047 77455568.467559814 0 0 0 0 -17679.593640170177 -19017.832444816828 0 -19017.832444816828 77254.962241016328 0 0 0 0 -35813116.332550645 -42442267.138183594 0 -42442267.138183594 48953342.455291748 0 0 0 0 -4893472.3358345628 -22325067.075016022 0 -22325067.075016022 86707108.563690186 0 0 0 0 883409.21258780221 -261830.76765492558 0 -261830.76765492558 -89914.939197905362 0 0 0 0 -880426.44456252595 -230363.34575648233 0 -230363.34575648233 758848.81205835193 0 0 0 0 9682579.6302980185 -23451016.715682983 0 -23451016.715682983 64649143.270842604 0 0 0 0 6714389.8865386248 -26790620.724411011 0 -26790620.724411011 80966912.858062744 0 0 0 0 -12362675.979951501 -7908231.6195068359 0 -7908231.6195068359 -2373092.7094573975 0 0 0 0 3804128.1080874205 -22338439.307640076 0 -22338439.307640076 -48546194.013542175 0 0 0 0 -58004558.415400743 -71943818.426445007 0 -71943818.426445007 -72167194.14352417 0 0 0 0 -74460583.313751981 -85898779.204620361 0 -85898779.204620361 -72537699.814300537 0 0 0 0 -85216565.569749475 -55511289.628082275 0 -55511289.628082275 -66298607.130065918 0 0 0 0 333715.49279023503 20403.358674362302 0 20403.358674362302 -67232.993199057877 0 0 0 0 -85591934.729386419 -73184630.118743896 0 -73184630.118743896 -71130077.613540649 0 0 0 0 1456781.2755178586 2115433.9712791443 0 2115433.9712791443 150225904.74755859 0 0 0 0 14857157.801608384 7332131.9045715332 0 7332131.9045715332 80518405.356460571 0 0 0 0 -6298973.5122858882 14919110.577423096 0 14919110.577423096 129246874.04356384 0 0 0 0 33912537.345032603 -706619.83660125732 0 -706619.83660125732 126132990.53082275 0 0 0 0 -1487102.3602103591 110267457.96643066 0 110267457.96643066 182820983.73723602 0 0 0 0 26508780.109487176 115234741.12564087 0 115234741.12564087 -103817602.16025162 0 0 0 0 55073650.335738778 86169217.5623703 0 86169217.5623703 -88907851.347564697 0 0 0 0 -23360820.242071569 42532158.791862488 0 42532158.791862488 111083596.50531006 0 0 0 0 8512.5243896624888 114209.70815061033 0 114209.70815061033 80763.332175600342 0 0 0 0 9671014.6733513325 -20500278.526241302 0 -20500278.526241302 155890207.97465515 0 0 0 0 -102719362.04396361 20653195.348388672 0 20653195.348388672 230858608.16717529 0 0 0 0 -179422552.91957778 -50403914.117828369 0 -50403914.117828369 80164235.454925537 0 0 0 0 -89646.16817346061 -112791.19614677131 0 -112791.19614677131 1269739.6976562291 0 0 0 0 -161485394.58988392 94527864.201652527 0 94527864.201652527 144336260.27697754 0 0 0 0 -151230159.05499262 25844216.747772217 0 25844216.747772217 -68982555.728393555 0 0 0 0 -15111353.722792268 83141437.54624939 0 83141437.54624939 -45995506.518600464 0 0 0 0 -27023438.545525491 56617811.676101685 0 56617811.676101685 46458837.455341339 0 0 0 0 -83296175.733964503 32070652.574203491 0 32070652.574203491 42283722.014144897 0 0 0 0 -110662.53454399048 87768.667254847474 0 87768.667254847474 1104202.1162094474 0 0 0 0 7841.7090189166638 6852952.8193893433 0 6852952.8193893433 -5051605.1309814453 0 0 0 0 -7598.7061715500622 3517900.4376296997 0 3517900.4376296997 -2723326.1436920166 0 0 0 0 -8715175.2109125238 3746473.9758033752 0 3746473.9758033752 -335751.24877929688 0 0 0 0 -6417303.3912013993 6813837.2721405029 0 6813837.2721405029 -4272004.4985275269 0 0 0 0 -4275317.3247736134 247513.49687957764 0 247513.49687957764 1494556.0461730957 0 0 0 0 -55818648.277716964 -5511643.9901428223 0 -5511643.9901428223 152465572.26752472 0 0 0 0 30134086.448457196 54504509.647064209 0 54504509.647064209 -236674204.63183594 0 0 0 0 -106607295.1687392 -70188382.063049316 0 -70188382.063049316 -56112324.112548828 0 0 0 0 -123069563.99303663 -111266523.11340332 0 -111266523.11340332 -13553866.041015625 0 0 0 0 -27797587.395727098 -224709172.39050293 0 -224709172.39050293 92215231.268890381 0 0 0 0 -102647064.42997462 -51802986.930969238 0 -51802986.930969238 -66342999.738250732 0 0 0 0 -133727107.52328698 -94691612.598602295 0 -94691612.598602295 -24109745.937011719 0 0 0 0 9726.1442226450599 -353190.50271219481 0 -353190.50271219481 877169.4162158072 0 0 0 0 -105218618.54244244 -63938877.539703369 0 -63938877.539703369 -58954297.677124023 0 0 0 0 -127071161.64448789 -58874106.018814087 0 -58874106.018814087 -55073745.769973755 0 0 0 0 -97687955.554624259 -73327709.740715027 0 -73327709.740715027 -48300555.616027832 0 0 0 0 5122.1818099485063 -11209.106703430414 0 -11209.106703430414 29746.433329850435 0 0 0 0 26630567.40493542 46971561.518920898 0 46971561.518920898 153255935.51882935 0 0 0 0 52033795.104168177 136684343.25186157 0 136684343.25186157 336610971.34863281 0 0 0 0 22582.794188854092 51841467.603317261 0 51841467.603317261 139743568.0147171 0 0 0 0 106717.27455984667 170812.54525456578 0 170812.54525456578 335392.85913859308 0 0 0 0 -612371.03948590334 531285.69163322449 0 531285.69163322449 441073.69038391113 0 0 0 0 -6860285.7519016126 50151421.919769287 0 50151421.919769287 158740017.62406921 0 0 0 0 88069404.601069689 17396318.038974762 0 17396318.038974762 61586782.854446411 0 0 0 0 19874831.216731548 25083109.744140625 0 25083109.744140625 2374191.8173980713 0 0 0 0 120397916.96671319 27852968.880046844 0 27852968.880046844 2320785.8552246094 0 0 0 0 131102078.95804763 -18412568.196258545 0 -18412568.196258545 -4640241.8910484314 0 0 0 0 87485642.520588875 -15318244.216033936 0 -15318244.216033936 -3796028.2077941895 0 0 0 0 140755953.23076606 -9524001.6142196655 0 -9524001.6142196655 73583959.167678833 0 0 0 0 125317531.30778074 75635312.090377808 0 75635312.090377808 135532267.24967957 0 0 0 0 116169949.94855773 62177281.807064056 0 62177281.807064056 32683414.847381592 0 0 0 0 90202400.168995857 16678418.529571533 0 16678418.529571533 71750105.371139526 0 0 0 0 65480762.961736679 97434530.318206787 0 97434530.318206787 100453564.20464325 0 0 0 0 34072341.419206142 65332176.012405396 0 65332176.012405396 89924809.426818848 0 0 0 0 75615183.327166557 51334079.616516113 0 51334079.616516113 135536089.44218445 0 0 0 0 36878663.45527339 94691134.576911926 0 94691134.576911926 180757752.30072021 0 0 0 0 74603726.77216363 77714381.741394043 0 77714381.741394043 -10803179.404785156 0 0 0 0 17586498.457070351 79195332.127471924 0 79195332.127471924 89758878.071380615 0 0 0 0 54537319.612468243 108131881.95701599 0 108131881.95701599 -7687897.2446117401 0 0 0 0 36026067.517101288 149989981.77500916 0 149989981.77500916 -64723414.956436157 0 0 0 0 48328661.680511475 44293253.979293823 0 44293253.979293823 64516809.056346893 0 0 0 0 64936793.670353889 95933105.868118286 0 95933105.868118286 16892703.969581604 0 0 0 0 53656107.081408024 81667451.26424408 0 81667451.26424408 3696504.9980926514 0 0 0 0 51333251.24751997 40234059.599807739 0 40234059.599807739 -44855308.176605225 0 0 0 0 -9569247.0184272528 118497271.87401962 0 118497271.87401962 -16550874.511413574 0 0 0 0 -14759937.395924091 113475070.33323669 0 113475070.33323669 -134741509.76643372 0 0 0 0 -57678374.878781199 72219811.389408112 0 72219811.389408112 -43846469.284637451 0 0 0 0 68542354.087523907 193685559.10302854 0 193685559.10302854 -32726334.963256836 0 0 0 0 -48406155.7795434 76397562.388053894 0 76397562.388053894 -55445913.409606934 0 0 0 0 -64010959.473807335 173716526.84785461 0 173716526.84785461 13499866.42339325 0 0 0 0 -20935294.883266449 224987783.85870361 0 224987783.85870361 74233953.047241211 0 0 0 0 89098396.22926569 -14443456.405315399 0 -14443456.405315399 -76557441.299942017 0 0 0 0 -52859750.461848736 24273664.729545593 0 24273664.729545593 -6968812.3621368408 0 0 0 0 1029986.7847233012 415382.70134600252 0 415382.70134600252 -888631.75827209651 0 0 0 0 -216169947.54636359 181942452.71411133 0 181942452.71411133 -62187945.088134766 0 0 0 0 -143562640.85268831 177113472.99182129 0 177113472.99182129 -114841547.6207428 0 0 0 0 -50194398.3386271 88105366.870048523 0 88105366.870048523 -90326300.011993408 0 0 0 0 -200132146.93370652 93251612.479587555 0 93251612.479587555 -53154580.640808105 0 0 0 0 -7334022.8452401161 45420400.188720703 0 45420400.188720703 -77538561.778179169 0 0 0 0 -15316789.228666782 34532590.057296753 0 34532590.057296753 -36921137.649627686 0 0 0 0 42546737.662260056 23596470.406555176 0 23596470.406555176 -60299934.770462036 0 0 0 0 -66165393.025301933 74797096.969139099 0 74797096.969139099 -65429140.823974609 0 0 0 0 13962969.288769722 38254000.485992432 0 38254000.485992432 -75988306.298622131 0 0 0 0 79871289.690842867 15651914.918327332 0 15651914.918327332 -41382916.273956299 0 0 0 0 -2609391.1406502724 21764325.67540741 0 21764325.67540741 -30141528.615997314 0 0 0 0 65658929.070870876 -29202105.484725952 0 -29202105.484725952 -12346878.064300537 0 0 0 0 73791778.492826462 -9202634.7603759766 0 -9202634.7603759766 -33536710.925888062 0 0 0 0 33710479.408266068 -4141269.9310150146 0 -4141269.9310150146 -12699625.107421875 0 0 0 0 54059590.540691197 11614897.764526367 0 11614897.764526367 -41469031.032989502 0 0 0 0 48938186.40011549 -6177876.8560848236 0 -6177876.8560848236 19058505.808502197 0 0 0 0 90994641.223408699 -30629606.928268433 0 -30629606.928268433 -15769574.476074219 0 0 0 0 94127349.762843609 -23251513.756584167 0 -23251513.756584167 -2745716.5914611816 0 0 0 0 117870715.86515999 -47804354.664535522 0 -47804354.664535522 20293828.43586731 0 0 0 0 150107004.49556541 -35944763.511779785 0 -35944763.511779785 8214444.6936645508 0 0 0 0 74797602.382457018 -4712254.9234848022 0 -4712254.9234848022 46262980.916564941 0 0 0 0 234910501.9055624 -33093751.235153198 0 -33093751.235153198 1115061.0157165527 0 0 0 0 210570953.25875473 -30044258.110595703 0 -30044258.110595703 17292645.603271484 0 0 0 0 162607546.55588484 54368.721694946289 0 54368.721694946289 26003271.03503418 0 0 0 0 130200.66037826208 886126.13429067656 0 886126.13429067656 229605.23126587272 0 0 0 0 -2262080.1795317233 19033190.229613781 0 19033190.229613781 29688325.910522461 0 0 0 0 15949.292605216149 46399.359904281795 0 46399.359904281795 82288.861483925954 0 0 0 0 115368907.93408203 -16219020.043212891 0 -16219020.043212891 30886122.187274933 0 0 0 0 201444882.82674789 18921660.031356812 0 18921660.031356812 -14864492.862083435 0 0 0 0 -537748.69750745315 166741.83020891994 0 166741.83020891994 4406188.041340664 0 0 0 0 98221220.641392469 -18303948.540382385 0 -18303948.540382385 -4441601.0629730225 0 0 0 0 110057162.92655969 -27452595.061759949 0 -27452595.061759949 -11827075.099838257 0 0 0 0 -11676983.61187005 8632733.6837387085 0 8632733.6837387085 2114814.0168304443 0 0 0 0 91612571.53059119 -41688244.943728447 0 -41688244.943728447 -10154801.610534668 0 0 0 0 73634164.491544262 -33538392.211612403 0 -33538392.211612403 -5909199.7595825195 0 0 0 0 91406291.963810444 -31463539.779342651 0 -31463539.779342651 -16379876.562721252 0 0 0 0 97581897.87511301 -40936450.924468994 0 -40936450.924468994 -6651954.4867248535 0 0 0 0 -3601310.3087053299 5742019.1021270752 0 5742019.1021270752 13000374.28650856 0 0 0 0 16020438.517489433 316483.14492797852 0 316483.14492797852 894518.75806427002 0 0 0 0 727715.94456697186 1647028.4326426089 0 1647028.4326426089 893770.21700556017 0 0 0 0 -3051440.7739419937 6119031.3764343262 0 6119031.3764343262 -2014220.4703826904 0 0 0 0 -3418973.7030306682 -2501047.3511967659 0 -2501047.3511967659 19959001.84765625 0 0 0 0 8060224.1021211147 -2980189.0537719727 0 -2980189.0537719727 -6625458.7612323761 0 0 0 0 4833369.9240100384 9602770.9917221069 0 9602770.9917221069 -2519858.1392669678 0 0 0 0 30679587.033358335 -20304143.633079529 0 -20304143.633079529 15281052.504257202 0 0 0 0 9386412.2734388113 12455586.871513367 0 12455586.871513367 3066651.5303344727 0 0 0 0 732892.88691520691 5954801.8988342285 0 5954801.8988342285 1036812.2630081177 0 0 0 0 -41845534.37992835 7471688.9011383057 0 7471688.9011383057 19700729.086624146 0 0 0 0 -856142.62453842163 10576051.774572372 0 10576051.774572372 -1935254.927520752 0 0 0 0 20680180.517990828 19967488.697235107 0 19967488.697235107 -11358624.333366394 0 0 0 0 39146955.479292393 -30518168.45098877 0 -30518168.45098877 29591398.564632416 0 0 0 0 34899016.155065358 -25143545.242525101 0 -25143545.242525101 53676178.709106445 0 0 0 0 85688684.358849049 -35012338.377868652 0 -35012338.377868652 4604047.3703155518 0 0 0 0 6192531.6132001728 -41428443.656108856 0 -41428443.656108856 24910703.733123779 0 0 0 0 -251222.15128249806 -102960.36118799821 0 -102960.36118799821 3745025.6434984803 0 0 0 0 85772165.081194162 -22145301.218269348 0 -22145301.218269348 -12912316.796977997 0 0 0 0 106445115.39956999 -22089259.2082901 0 -22089259.2082901 -31341881.722427368 0 0 0 0 110830425.77472258 29976648.831245422 0 29976648.831245422 72124312.312633514 0 0 0 0 104972550.87915528 -45644610.420227051 0 -45644610.420227051 10241536.76210022 0 0 0 0 -100110.87838129961 -98770.282798645552 0 -98770.282798645552 2883433.8619991243 0 0 0 0 -56965552.345671415 -13732742.266960144 0 -13732742.266960144 107736619.89698029 0 0 0 0 225907831.1631155 91546061.425132751 0 91546061.425132751 -55901009.235305786 0 0 0 0 302113948.7267487 364190348.54853821 0 364190348.54853821 378827893.4006958 0 0 0 0 -769.86588819354074 -22159.239810660016 0 -22159.239810660016 1181991.6993070841 0 0 0 0 110043893.42669809 163246643.21555328 0 163246643.21555328 403006519.40228271 0 0 0 0 129072270.63072836 154286108.55212402 0 154286108.55212402 217712135.39788818 0 0 0 0 83429126.234700203 -76183859.949333191 0 -76183859.949333191 40662236.66173172 0 0 0 0 -57491707.911935642 -8402315.4682331085 0 -8402315.4682331085 50143738.957046509 0 0 0 0 149061071.87331986 -229819364.01141357 0 -229819364.01141357 277155973.14724731 0 0 0 0 147987223.63873529 -23224234.227005005 0 -23224234.227005005 -63026691.593856812 0 0 0 0 85257225.435093284 -132137854.63550186 0 -132137854.63550186 219955083.92156982 0 0 0 0 37089047.792525053 -53149014.513214111 0 -53149014.513214111 293870247.33305359 0 0 0 0 51960871.400718927 -6110681.7455291748 0 -6110681.7455291748 293976860.65933228 0 0 0 0 -19995439.939200163 -115045666.62683868 0 -115045666.62683868 742712460.51289368 0 0 0 0 178328587.00065684 280011788.64797974 0 280011788.64797974 578817483.69514465 0 0 0 0 365494952.98920679 154583207.52375793 0 154583207.52375793 373402202.71775031 0 0 0 0 53320306.771225452 117583403.62459564 0 117583403.62459564 424389190.17895985 0 0 0 0 34342423.310418129 200952599.22894287 0 200952599.22894287 579648733.86665344 0 0 0 0 65911929.402556658 211984121.35116577 0 211984121.35116577 393544041.40452576 0 0 0 0 -32113881.689040661 134142272.90441132 0 134142272.90441132 650575753.7305069 0 0 0 0 66145319.570606709 292222647.87828064 0 292222647.87828064 792376429.22335815 0 0 0 0 169550116.04103184 -6716844.5730857849 0 -6716844.5730857849 742500521.04942322 0 0 0 0 105392874.29246283 121114993.80633926 0 121114993.80633926 550548416.5969696 0 0 0 0 7511983.5335671119 127357624.32954025 0 127357624.32954025 539061880.86102295 0 0 0 0 -32937291.489118099 177000337.13778687 0 177000337.13778687 630274131.47122955 0 0 0 0 -1765028.8469269276 123809289.24874878 0 123809289.24874878 705134470.79145813 0 0 0 0 28754536.822499037 285963518.56164551 0 285963518.56164551 584551980.78129578 0 0 0 0 -3773360.8586678505 142860952.12759399 0 142860952.12759399 767758744.57235718 0 0 0 0 43848826.000862598 76619892.201572418 0 76619892.201572418 553382636.06843567 0 0 0 0 126101677.59996784 -72104338.539207458 0 -72104338.539207458 821625760.07699585 0 0 0 0 -16180876.925429821 104083536.39465332 0 104083536.39465332 694004903.55095673 0 0 0 0 83843452.710939407 73690701.579414368 0 73690701.579414368 429709937.00102234 0 0 0 0 86738059.788538933 102634064.59780121 0 102634064.59780121 370173149.3361969 0 0 0 0 121984817.7192471 -7378243.4116516113 0 -7378243.4116516113 555739249.83540916 0 0 0 0 164696199.94163239 80929007.867542267 0 80929007.867542267 392175989.03921509 0 0 0 0 177013878.14833045 17115379.95098877 0 17115379.95098877 329928729.97869873 0 0 0 0 147782513.32209018 81301306.949821711 0 81301306.949821711 248264163.5463562 0 0 0 0 149263535.24998257 -8013097.9435210228 0 -8013097.9435210228 274454569.85777283 0 0 0 0 129369385.82517838 64649552.743972778 0 64649552.743972778 180292237.55169678 0 0 0 0 125721231.79965949 -9240706.2464447021 0 -9240706.2464447021 129556676.64854431 0 0 0 0 40285842.166728735 127213879.15336609 0 127213879.15336609 349923644.66571045 0 0 0 0 93265570.290229797 86878405.926696777 0 86878405.926696777 265900946.56031132 0 0 0 0 34151705.614160061 102117924.19341278 0 102117924.19341278 281080865.7204895 0 0 0 0 -1777722.2576618195 98311269.416404724 0 98311269.416404724 280719698.88989258 0 0 0 0 56408628.185638905 96032203.933609009 0 96032203.933609009 265474949.6229248 0 0 0 0 58282035.190504551 76916038.516937256 0 76916038.516937256 184170116.04867554 0 0 0 0 115101859.23009539 92346864.58392334 0 92346864.58392334 162762517.78868103 0 0 0 0 160505996.42402458 24208644.470001221 0 24208644.470001221 163439129.26127625 0 0 0 0 91918646.58480525 77600176.138839722 0 77600176.138839722 241459747.40499878 0 0 0 0 92475319.13165307 111586189.17831421 0 111586189.17831421 355673213.49151611 0 0 0 0 165972678.74934912 64833665.038131714 0 64833665.038131714 243542849.14677429 0 0 0 0 151680412.45438528 97483827.41847229 0 97483827.41847229 355824625.86712646 0 0 0 0 160687631.84751797 96739862.291305542 0 96739862.291305542 328399061.97781372 0 0 0 0 228948571.73719859 40041251.702835083 0 40041251.702835083 375228661.02563477 0 0 0 0 165228113.08373976 26575457.525917053 0 26575457.525917053 528064698.24316406 0 0 0 0 181487173.86535764 158878158.76843262 0 158878158.76843262 477271839.38418579 0 0 0 0 120072010.98347235 189400077.74221802 0 189400077.74221802 463920255.17709351 0 0 0 0 17223642.01293993 181840784.37808228 0 181840784.37808228 555823266.14620972 0 0 0 0 68490516.018733501 113301469.57457733 0 113301469.57457733 352980556.09136963 0 0 0 0 -15441767.199853301 124011765.46064377 0 124011765.46064377 416510049.22891235 0 0 0 0 -11514086.703127861 143715586.97386932 0 143715586.97386932 508632020.89569092 0 0 0 0 126447998.49110496 308211735.18838882 0 308211735.18838882 809212460.60354614 0 0 0 0 51402034.163471222 152434221.58364868 0 152434221.58364868 550123375.53398514 0 0 0 0 -78317107.706067562 105516964.46763611 0 105516964.46763611 777979282.72511292 0 0 0 0 342219977.49340653 19775870.746810913 0 19775870.746810913 528292593.87174129 0 0 0 0 378156427.67500281 133111114.73376465 0 133111114.73376465 479254659.12908936 0 0 0 0 780881092.72995496 -24408407.368652344 0 -24408407.368652344 621721181.07149506 0 0 0 0 281251749.1223079 51684142.2473526 0 51684142.2473526 612640906.67828369 0 0 0 0 209185226.68128133 -516935095.76019287 0 -516935095.76019287 556974778.84292603 0 0 0 0 161024523.31880593 -160407916.63400269 0 -160407916.63400269 1289336196.8957825 0 0 0 0 180786933.45768511 411802241.37877655 0 411802241.37877655 1481858991.800293 0 0 0 0 41255106.028475642 432396631.86224365 0 432396631.86224365 829714262.52500916 0 0 0 0 -61955640.095767498 -25146012.363800049 0 -25146012.363800049 681417777.95080566 0 0 0 0 -61345152.324271679 23277762.623603821 0 23277762.623603821 890597443.06095505 0 0 0 0 -46629688.983654499 -9513356.2051849365 0 -9513356.2051849365 639371406.76905823 0 0 0 0 12776955.356197357 -223276802.83082581 0 -223276802.83082581 673922526.26022339 0 0 0 0 -25358749.380567551 -116446283.70343018 0 -116446283.70343018 440096480.48347473 0 0 0 0 -87459410.039226532 -15961087.787872314 0 -15961087.787872314 536134278.24719238 0 0 0 0 -30059392.552917719 -125135032.38145447 0 -125135032.38145447 445753466.15710449 0 0 0 0 -61801539.82221961 -33681192.331113815 0 -33681192.331113815 548335198.82070923 0 0 0 0 -132406738.48040771 72585113.104492188 0 72585113.104492188 485180737.00609398 0 0 0 0 -85625729.177318811 -7136146.0358352661 0 -7136146.0358352661 401232368.82730103 0 0 0 0 -72857816.523962498 84584169.197101593 0 84584169.197101593 396285260.5932312 0 0 0 0 -87439390.401621819 50778270.315124512 0 50778270.315124512 326176536.46389771 0 0 0 0 -128623297.6564374 123934887.22586441 0 123934887.22586441 398525883.67651367 0 0 0 0 -105615901.4230547 8423903.9907913208 0 8423903.9907913208 476613584.63262939 0 0 0 0 -130740228.23159957 91287019.636764526 0 91287019.636764526 529750738.8409729 0 0 0 0 -190956768.20073652 100812187.79701233 0 100812187.79701233 537476025.33236694 0 0 0 0 -168048733.36343002 104895475.9002533 0 104895475.9002533 527752616.5214386 0 0 0 0 -141501984.04833317 86654924.746673584 0 86654924.746673584 524199067.41595459 0 0 0 0 -131995085.64213848 106810009.39599609 0 106810009.39599609 566928777.34227753 0 0 0 0 -107931592.57013512 76701488.473449707 0 76701488.473449707 564443841.22433472 0 0 0 0 -77673296.62648946 94493708.714540958 0 94493708.714540958 565023851.31890869 0 0 0 0 -121895538.93349743 63752235.190216064 0 63752235.190216064 640954530.30783081 0 0 0 0 -124084581.89611435 45878309.065433502 0 45878309.065433502 545450189.17089844 0 0 0 0 125597349.56107226 187149242.97687817 0 187149242.97687817 179882955.31170654 0 0 0 0 133951292.99814415 314370866.35421753 0 314370866.35421753 174555996.53340626 0 0 0 0 -148954494.96014833 176733263.4823761 0 176733263.4823761 516750896.62562561 0 0 0 0 -159669345.9892844 242866017.70577812 0 242866017.70577812 583717552.8911438 0 0 0 0 -189408518.58283138 110431424.78778839 0 110431424.78778839 590588850.18185425 0 0 0 0 -111253530.68318939 386577664.15747833 0 386577664.15747833 878799974.77581787 0 0 0 0 211179236.46722794 498815751.59300232 0 498815751.59300232 470768999.08296204 0 0 0 0 218775487.78421068 310547572.74922609 0 310547572.74922609 -40785516.874450684 0 0 0 0 -200926801.04067087 305832333.7005043 0 305832333.7005043 1595337316.5666809 0 0 0 0 -280117357.39780807 38884475.510757446 0 38884475.510757446 755004747.0110321 0 0 0 0 -131739574.02645588 -28543810.851486206 0 -28543810.851486206 537246894.28871822 0 0 0 0 -172162125.01447964 71857718.507774353 0 71857718.507774353 547051639.87095642 0 0 0 0 -184182349.64101028 54616494.268699646 0 54616494.268699646 530412713.25747681 0 0 0 0 -136141977.03848362 23776000.226921082 0 23776000.226921082 310056514.35794067 0 0 0 0 -141919980.32732487 83652083.936523438 0 83652083.936523438 283224377.19606018 0 0 0 0 -49816448.692959785 39549113.998512268 0 39549113.998512268 168732810.88919067 0 0 0 0 -78337339.008932114 84745319.798858643 0 84745319.798858643 197145623.28322411 0 0 0 0 15853617.720159605 63992947.282643199 0 63992947.282643199 89982037.653182983 0 0 0 0 21824063.428808212 -85161871.272727966 0 -85161871.272727966 216929770.30380249 0 0 0 0 -115734838.89303017 101571684.93940735 0 101571684.93940735 440039261.55169678 0 0 0 0 -112131309.24037838 102158157.44625854 0 102158157.44625854 396844679.88983154 0 0 0 0 -86402043.436638355 147726874.45807648 0 147726874.45807648 546674834.66854858 0 0 0 0 -105062418.63552094 103149166.87513733 0 103149166.87513733 440207973.2431488 0 0 0 0 -154962961.54932165 115170071.53103638 0 115170071.53103638 543252654.49005127 0 0 0 0 -161249989.62299585 98125540.965911865 0 98125540.965911865 500430555.69024658 0 0 0 0 -155391508.12426758 90150078.805664062 0 90150078.805664062 472504452.88711548 0 0 0 0 -179474864.80186558 75199542.958694458 0 75199542.958694458 487230135.05422974 0 0 0 0 -135448708.86415362 54725639.147042751 0 54725639.147042751 344421109.86779785 0 0 0 0 -132991558.42287397 93711316.753417969 0 93711316.753417969 324373754.49087524 0 0 0 0 -169531199.86916733 29368973.833740234 0 29368973.833740234 444507098.25348663 0 0 0 0 -158869173.24450111 102170172.03137207 0 102170172.03137207 227053347.19572449 0 0 0 0 -124458093.15967572 43068590.586017609 0 43068590.586017609 260317590.31781006 0 0 0 0 -93195703.235746861 96494367.138259888 0 96494367.138259888 266737826.18548584 0 0 0 0 -75972431.020273805 57427413.70558548 0 57427413.70558548 224353837.53707886 0 0 0 0 -47917838.904642105 115302911.95452881 0 115302911.95452881 414213401.22718811 0 0 0 0 -53908876.933278561 88864133.415039062 0 88864133.415039062 320782273.18045044 0 0 0 0 -5392154.7041211128 72937754.374931335 0 72937754.374931335 199992900.00820923 0 0 0 0 -64411312.829417229 97485799.983200073 0 97485799.983200073 321441559.56893444 0 0 0 0 -28327764.313806534 77273130.528121948 0 77273130.528121948 200254681.06152248 0 0 0 0 -29196361.678323746 57758388.098388672 0 57758388.098388672 111901352.16607666 0 0 0 0 -91327649.803797722 73261225.325500488 0 73261225.325500488 220737737.70272064 0 0 0 0 -84626590.347194195 74119416.445175171 0 74119416.445175171 148557304.10992432 0 0 0 0 -62977955.949231863 47829998.848770142 0 47829998.848770142 21552543.607940674 0 0 0 0 14167994.549387932 56223929.035491943 0 56223929.035491943 -20021441.976104736 0 0 0 0 -69819323.215922356 54271525.761322021 0 54271525.761322021 111760557.81310177 0 0 0 0 56658871.375723302 113471132.68630409 0 113471132.68630409 -135145483.54446411 0 0 0 0 1889397.7880039215 58332221.094299316 0 58332221.094299316 -18297650.643997192 0 0 0 0 -5735328.7314012051 29746480.27048111 0 29746480.27048111 -123185628.13470459 0 0 0 0 -162649248.39652109 28655919.496688843 0 28655919.496688843 18693362.057342529 0 0 0 0 89794052.689781189 69530016.43927002 0 69530016.43927002 -257269704.10232544 0 0 0 0 -67000462.704556465 5656581.6409606934 0 5656581.6409606934 -132515211.10545349 0 0 0 0 -92610554.203600407 -77203571.42698288 0 -77203571.42698288 -254933388.49475098 0 0 0 0 12315033.412179947 -16860126.303710938 0 -16860126.303710938 -256886724.0557766 0 0 0 0 12036065.136758804 -12120947.289489746 0 -12120947.289489746 -329741429.01455688 0 0 0 0 94062319.455023766 133144380.96029663 0 133144380.96029663 -124836012.73399353 0 0 0 0 -274173927.67833579 102781527.7118187 0 102781527.7118187 -145761834.08062744 0 0 0 0 -306114919.32601023 196713036.74976349 0 196713036.74976349 -120283044.88800049 0 0 0 0 -119717539.00955391 197350718.70385742 0 197350718.70385742 -276725486.81591797 0 0 0 0 -189737931.15257835 187435223.79144287 0 187435223.79144287 -278058591.37651062 0 0 0 0 -716505775.42687225 230469461.34437561 0 230469461.34437561 -179974388.82357025 0 0 0 0 -249835069.21866989 143027281.80978394 0 143027281.80978394 -110929010.25338745 0 0 0 0 -143652777.22328281 21483954.252563477 0 21483954.252563477 -46306533.691724777 0 0 0 0 -375441430.55329609 2792264.1193847656 0 2792264.1193847656 -47186250.611572266 0 0 0 0 -261217631.38815689 85574207.154495239 0 85574207.154495239 44810524.332427979 0 0 0 0 -178371510.81207466 142035094.84265137 0 142035094.84265137 -33930420.383087158 0 0 0 0 -270902112.79745579 115070994.54309082 0 115070994.54309082 -41459658.893280029 0 0 0 0 -162186364.75034618 162887832.30892944 0 162887832.30892944 -116152331.71166992 0 0 0 0 -166507375.99278069 94374704.726623535 0 94374704.726623535 27747009.597229004 0 0 0 0 -138180907.60791254 107721405.73847008 0 107721405.73847008 85778376.759613037 0 0 0 0 -180129654.67596221 133146771.72974968 0 133146771.72974968 77660746.209564209 0 0 0 0 -148542801.74290133 32837485.224227905 0 32837485.224227905 127474146.97650146 0 0 0 0 -142411354.28072739 93583295.553894043 0 93583295.553894043 94076932.184265137 0 0 0 0 -165166739.68334818 56699967.652797699 0 56699967.652797699 51956589.10736084 0 0 0 0 -132764390.9149189 49845539.370437622 0 49845539.370437622 232275293.8495636 0 0 0 0 -115461076.82894063 82513636.416618347 0 82513636.416618347 186683572.57543945 0 0 0 0 -153817213.45547104 53410821.965408325 0 53410821.965408325 175773882.63717651 0 0 0 0 -116178231.32901287 57040472.766891479 0 57040472.766891479 173308372.94784546 0 0 0 0 -115645195.14341164 132099602.70291138 0 132099602.70291138 101494611.7268219 0 0 0 0 -67796227.347257614 89860447.501312256 0 89860447.501312256 53542687.899978638 0 0 0 0 -29683797.281123161 124352034.08345795 0 124352034.08345795 -43305848.926818848 0 0 0 0 -12138184.619672775 62320856.332946777 0 62320856.332946777 36752383.355377197 0 0 0 0 -46385772.548653603 103785057.24126434 0 103785057.24126434 47060339.180864334 0 0 0 0 -10231502.573493809 43289791.390521049 0 43289791.390521049 -188154.84945678711 0 0 0 0 -12718697.250303268 68297828.626098633 0 68297828.626098633 -107471839.3735199 0 0 0 0 -9679603.7050080299 62487124.388134003 0 62487124.388134003 -102864560.44244385 0 0 0 0 -118032391.73547268 155239659.34430695 0 155239659.34430695 -49120173.566772461 0 0 0 0 -40012769.672149658 119695573.31054688 0 119695573.31054688 -95584268.33013916 0 0 0 0 -123951403.14256287 157480107.00049591 0 157480107.00049591 -8079621.8892211914 0 0 0 0 -171139941.51201439 164615934.31802368 0 164615934.31802368 -49983636.95085144 0 0 0 0 -37931147.289498329 130857914.90177917 0 130857914.90177917 -45307139.756164551 0 0 0 0 -76749204.843206406 166513398.89147949 0 166513398.89147949 -154940615.19763184 0 0 0 0 -119977908.91077042 174494261.30758667 0 174494261.30758667 -156413420.16288757 0 0 0 0 497531.5168838501 78611915.011657715 0 78611915.011657715 -223994026.71966553 0 0 0 0 51822601.568759918 56607578.528045654 0 56607578.528045654 -290271557.10522461 0 0 0 0 -91343745.790194511 222225671.60440063 0 222225671.60440063 -428985478.81420898 0 0 0 0 -16414818.695850372 98111860.393188477 0 98111860.393188477 -237852564.65447998 0 0 0 0 47776271.548806667 109917338.04516602 0 109917338.04516602 -430607093.49658203 0 0 0 0 60869194.442895889 91198605.615600586 0 91198605.615600586 -438817682.95495605 0 0 0 0 1651116.0055016307 14858203.018377785 0 14858203.018377785 10407595.059531596 0 0 0 0 12163462.975351334 31935513.406528473 0 31935513.406528473 -41358265.288414001 0 0 0 0 -33344445.775082111 44837119.900283813 0 44837119.900283813 9438794.3415374756 0 0 0 0 -22396088.154067993 25654296.526794434 0 25654296.526794434 -12889554.08505249 0 0 0 0 39955504.194972873 -3467935.6252412796 0 -3467935.6252412796 -68382756.570922852 0 0 0 0 25029149.728579998 48439130.256797791 0 48439130.256797791 -20740083.590515137 0 0 0 0 32802256.875514984 82329115.095214844 0 82329115.095214844 20541412.825653076 0 0 0 0 3836675.9441871643 39064174.094223022 0 39064174.094223022 -3511670.3215484619 0 0 0 0 25500478.377933502 92973524.83177948 0 92973524.83177948 138526961.07987976 0 0 0 0 -17104437.077894211 60485425.539936066 0 60485425.539936066 24237330.280944824 0 0 0 0 7291985.9811782837 44033081.517051697 0 44033081.517051697 -3828319.0642318726 0 0 0 0 -18451509.82089138 30921966.670829773 0 30921966.670829773 41067085.96238327 0 0 0 0 -16494758.868002892 35418948.322792053 0 35418948.322792053 -8374564.2168235779 0 0 0 0 -27718514.811996698 57386169.24798584 0 57386169.24798584 12064138.457138062 0 0 0 0 -20320398.269282341 -268080763.67293549 0 -268080763.67293549 -217772648.2957592 0 0 0 0 113350686.39548242 240024911.11981583 0 240024911.11981583 -159478264.59997559 0 0 0 0 -39974599.628026009 87782182.043212891 0 87782182.043212891 300967774.12316895 0 0 0 0 1709003.9621195591 966826.84576802328 0 966826.84576802328 -14835.062544211745 0 0 0 0 -23222507.90298605 238621653.44476318 0 238621653.44476318 30263228.110687256 0 0 0 0 32713277.579465866 417596880.16140747 0 417596880.16140747 395268445.58761597 0 0 0 0 170729035.35224438 363321104.71224976 0 363321104.71224976 -12748782.697570801 0 0 0 0 69002296.53006421 204158293.68361378 0 204158293.68361378 -177216338.72360229 0 0 0 0 416688550.60817528 617083274.81739807 0 617083274.81739807 -12336569.380767822 0 0 0 0 220782728.52663064 248770209.11698532 0 248770209.11698532 -493551559.7088623 0 0 0 0 614285295.96619558 144175484.58253479 0 144175484.58253479 -1010139443.6815186 0 0 0 0 -574093564.02033854 -405665144.092453 0 -405665144.092453 -453829786.35638428 0 0 0 0 1213138.5605496643 14809489.290420312 0 14809489.290420312 24072828.17714832 0 0 0 0 -250884852.90847826 424811903.87862396 0 424811903.87862396 387922151.58459473 0 0 0 0 -617287007.21308422 -358530723.09185791 0 -358530723.09185791 -229028426.31011963 0 0 0 0 -333980460.36412334 342633783.40548706 0 342633783.40548706 -439246327.91705322 0 0 0 0 -144624298.5398407 268983541.40753174 0 268983541.40753174 -549735606.9069519 0 0 0 0 -1448079.8800529959 1907831.160869889 0 1907831.160869889 4269356.0344577823 0 0 0 0 -9066882.4031333923 82933626.146003723 0 82933626.146003723 94397888.445396423 0 0 0 0 -360611293.76655197 215185308.6212616 0 215185308.6212616 45909431.900108337 0 0 0 0 17445846.471022606 -582176222.78269196 0 -582176222.78269196 -412191582.56634521 0 0 0 0 346524765.89822006 307137730.75327301 0 307137730.75327301 -560180923.91403008 0 0 0 0 349642293.34715271 345690685.06760406 0 345690685.06760406 -284057217.42718315 0 0 0 0 313694593.83530807 72053471.375507355 0 72053471.375507355 -73028567.743865967 0 0 0 0 288731650.47195053 -22262978.225837708 0 -22262978.225837708 -270338770.68452168 0 0 0 0 287445522.07516861 -42385965.618438721 0 -42385965.618438721 -501338546.15179348 0 0 0 0 18794559.243635178 67523576.65448761 0 67523576.65448761 -70005827.783050537 0 0 0 0 364137195.52515411 109151819.25091553 0 109151819.25091553 -13373676.598937988 0 0 0 0 298866644.0959034 -91857060.740188599 0 -91857060.740188599 119895079.72511292 0 0 0 0 319970183.01881027 -63582209.647773743 0 -63582209.647773743 -19768444.549957275 0 0 0 0 335945215.78602409 28762173.627758026 0 28762173.627758026 219011178.56917572 0 0 0 0 904674620.50695133 444212206.16487122 0 444212206.16487122 -148525144.98046875 0 0 0 0 224750296.11213192 367232963.74859571 0 367232963.74859571 -162994670.12478638 0 0 0 0 223553374.66161537 26259139.273284912 0 26259139.273284912 -62014993.083724976 0 0 0 0 -712126649.98595238 746657188.76039124 0 746657188.76039124 127071321.37289429 0 0 0 0 7898455.65508461 369193503.71908569 0 369193503.71908569 -83204944.750411987 0 0 0 0 222031509.71962738 959160686.95954895 0 959160686.95954895 -158769734.02062988 0 0 0 0 403987938.93542004 790815515.44154358 0 790815515.44154358 -95570582.820755005 0 0 0 0 327349691.51114941 748033315.42876434 0 748033315.42876434 -33201779.965042114 0 0 0 0 1306696756.9355354 837916210.90368652 0 837916210.90368652 -46744493.568805695 0 0 0 0 2450903.54078819 1253618.8236146122 0 1253618.8236146122 -1232150.5110057816 0 0 0 0 -54203910.947433829 490172684.02129364 0 490172684.02129364 -24651706.120635986 0 0 0 0 465846422.70516205 -675715271.79527283 0 -675715271.79527283 -1001102592.3539429 0 0 0 0 -245843089.32324219 1365870894.2005005 0 1365870894.2005005 -616613128.07696533 0 0 0 0 -453433661.13681716 1307737027.0663986 0 1307737027.0663986 -45355393.470581055 0 0 0 0 210193949.00129819 1048996597.6069717 0 1048996597.6069717 -717650496.86795044 0 0 0 0 205718551.31855142 1215509207.8646126 0 1215509207.8646126 21338669.282287598 0 0 0 0 -16759738.245532036 186391076.97839355 0 186391076.97839355 -1557799101.7070465 0 0 0 0 170687077.56821537 150811796.5146637 0 150811796.5146637 -127782463.12625122 0 0 0 0 129134659.8170433 27666519.493087769 0 27666519.493087769 -378475081.07174683 0 0 0 0 222503273.51094997 1619263176.8271499 0 1619263176.8271499 317315713.02346802 0 0 0 0 20249357.746423721 -74913774.476196289 0 -74913774.476196289 -229231891.73959351 0 0 0 0 32883664.092554092 14188100.061851501 0 14188100.061851501 -52811504.60735321 0 0 0 0 -20317082.373877048 -2387591.2659797668 0 -2387591.2659797668 -28924670.106185913 0 0 0 0 790442.572286029 8605732.7697265539 0 8605732.7697265539 -1668398.6443108693 0 0 0 0 383154.34558999678 13623687.185248837 0 13623687.185248837 10563275.963739838 0 0 0 0 -61927736.361593246 -59827938.761707306 0 -59827938.761707306 -81165619.701538086 0 0 0 0 298382681.6977067 793156771.01763153 0 793156771.01763153 -566911558.76487732 0 0 0 0 -312127614.42864513 -217126817.54864883 0 -217126817.54864883 594083855.54508972 0 0 0 0 67435237.639218807 61317193.326057434 0 61317193.326057434 97157251.22820282 0 0 0 0 28580100.722384453 91257648.1653862 0 91257648.1653862 190516406.2106781 0 0 0 0 165387.23550423747 -1912957.6898123585 0 -1912957.6898123585 5212616.7599816062 0 0 0 0 -54384821.91153717 59728609.927970886 0 59728609.927970886 -5016863.0361099243 0 0 0 0 -5843974.7280271649 10039240.267053723 0 10039240.267053723 24727165.902219653 0 0 0 0 -240276552.05862808 37594807.376060486 0 37594807.376060486 87256094.347633362 0 0 0 0 -58146051.943436384 81882816.537937164 0 81882816.537937164 15098232.458053589 0 0 0 0 254742427.09855604 224928156.12873077 0 224928156.12873077 80906715.430809021 0 0 0 0 626840718.98700714 389562044.23008728 0 389562044.23008728 105561273.94197845 0 0 0 0 96445730.384749413 344356931.24603271 0 344356931.24603271 270591406.09231567 0 0 0 0 167307624.98728943 285447798.60578918 0 285447798.60578918 293244670.12893677 0 0 0 0 -3089574.8765907288 306188194.12739563 0 306188194.12739563 300876310.76184082 0 0 0 0 232195131.1928215 358272158.58963776 0 358272158.58963776 370453434.60173035 0 0 0 0 76582035.485030651 327909826.43191528 0 327909826.43191528 362631680.6946106 0 0 0 0 488202266.5756588 -28142799.399864197 0 -28142799.399864197 -1300952620.1782303 0 0 0 0 -34980197.015741348 102623692.59651184 0 102623692.59651184 549364066.75762939 0 0 0 0 923141.15438721515 -2559996.5544516072 0 -2559996.5544516072 1127075.8747427529 0 0 0 0 154898850.29775047 298960869.12669373 0 298960869.12669373 342345594.36273193 0 0 0 0 55761005.580551147 301468543.15281677 0 301468543.15281677 874887428.26167297 0 0 0 0 159297735.08001328 274033854.25901794 0 274033854.25901794 483028993.86859131 0 0 0 0 385162170.42080307 175779894.27677155 0 175779894.27677155 292197518.72317505 0 0 0 0 319410596.16524124 483287819.22314453 0 483287819.22314453 670180957.16627502 0 0 0 0 667616621.10713577 396584635.65480042 0 396584635.65480042 265769755.64581299 0 0 0 0 -274466686.79030609 -85216939.407802582 0 -85216939.407802582 -13395719.136230469 0 0 0 0 -22867178.312303722 -11251189.165167343 0 -11251189.165167343 93927070.822129875 0 0 0 0 308504548.00099945 278770244.51470947 0 278770244.51470947 269575845.03727722 0 0 0 0 -254715314.36255932 -117728110.98232222 0 -117728110.98232222 -19134630.381835938 0 0 0 0 340047273.09835625 223213484.65019989 0 223213484.65019989 337376411.57553101 0 0 0 0 -332150742.09295654 -111607073.89148712 0 -111607073.89148712 -4429887.0423049927 0 0 0 0 -545201110.64086151 -538335174.67090988 0 -538335174.67090988 -377881771.98270607 0 0 0 0 -21752858.39132309 112308171.92100143 0 112308171.92100143 -213032151.49723816 0 0 0 0 -339761388.13654423 -70818677.920256615 0 -70818677.920256615 10793065.372695923 0 0 0 0 262047671.36016703 145463735.04834747 0 145463735.04834747 69876171.233886719 0 0 0 0 102582626.57639301 373827833.53295898 0 373827833.53295898 213003238.14376831 0 0 0 0 -247981977.33477783 301514815.46929932 0 301514815.46929932 375260818.15257263 0 0 0 0 -387828740.95009303 304192716.79483032 0 304192716.79483032 430685476.91351318 0 0 0 0 -268619920.28173542 -116079448.45214844 0 -116079448.45214844 89490225.215664864 0 0 0 0 -776529345.9709549 896376.86181640625 0 896376.86181640625 399046953.27856445 0 0 0 0 -491162293.55941772 -664047950.81292725 0 -664047950.81292725 -87585531.996704102 0 0 0 0 -274272541.35762024 -318917168.46469116 0 -318917168.46469116 257341283.55944824 0 0 0 0 -2068542.5797493346 -390670.32512155082 0 -390670.32512155082 2578483.9500308335 0 0 0 0 -21175830.629107192 -15011200.155439466 0 -15011200.155439466 97423065.360322893 0 0 0 0 -999118017.14716816 477575562.29711914 0 477575562.29711914 359356637.0322876 0 0 0 0 -893531267.27392578 347651262.82621765 0 347651262.82621765 513832615.64007568 0 0 0 0 -812874834.96543407 809284451.96139526 0 809284451.96139526 -178215302.23760986 0 0 0 0 -123576454.46543884 -200185811.96031189 0 -200185811.96031189 144478578.15089417 0 0 0 0 -112007181.14367676 129944006.18655396 0 129944006.18655396 -650617373.65948486 0 0 0 0 -234641699.33930206 -211034960.82323456 0 -211034960.82323456 174433016.89476013 0 0 0 0 -243822370.16534424 -221189295.91918945 0 -221189295.91918945 217216055.48373413 0 0 0 0 -290808309.10482025 -328674921.20326996 0 -328674921.20326996 352839034.46078491 0 0 0 0 -240897254.36003113 -208525035.64031219 0 -208525035.64031219 266729059.47523499 0 0 0 0 -235643909.34261322 -292907386.8197937 0 -292907386.8197937 596740024.04073334 0 0 0 0 41079155.268968582 -392885048.80823898 0 -392885048.80823898 344792104.77944946 0 0 0 0 -358322089.52264404 -93884424.822769165 0 -93884424.822769165 121956906.23866272 0 0 0 0 -2684338.5143271806 5200048.6313670017 0 5200048.6313670017 14992896.459862605 0 0 0 0 -120639064.44409561 120805547.86288452 0 120805547.86288452 126320237.13632202 0 0 0 0 273326413.79482388 493909698.44968414 0 493909698.44968414 256914699.76826477 0 0 0 0 740201903.87218666 310418272.09117126 0 310418272.09117126 270170820.66892433 0 0 0 0 127600012.48922682 332185921.9581604 0 332185921.9581604 273107593.15971565 0 0 0 0 -444130188.29928029 560769441.57217026 0 560769441.57217026 621897147.44717407 0 0 0 0 -41159326.746445894 861061725.6239872 0 861061725.6239872 427131845.20999146 0 0 0 0 -390149849.81421423 458289722.78224182 0 458289722.78224182 112338230.94512939 0 0 0 0 -202425016.28978062 -706700204.10238647 0 -706700204.10238647 -899070994.60955048 0 0 0 0 142337685.63874722 162242741.66636658 0 162242741.66636658 190286912.11810303 0 0 0 0 -312151180.85582113 286006438.06112671 0 286006438.06112671 -1046692369.4244995 0 0 0 0 -338889315.99760503 303588869.20659637 0 303588869.20659637 241068230.30096436 0 0 0 0 -348598561.29201412 -872644519.76898193 0 -872644519.76898193 -117033591.76010132 0 0 0 0 154380292.18133783 1104557936.4869537 0 1104557936.4869537 2130392012.1972351 0 0 0 0 607008747.33782673 638221267.89173889 0 638221267.89173889 518837868.62785339 0 0 0 0 2369144355.1452723 1200699451.0793686 0 1200699451.0793686 251077473.05224609 0 0 0 0 -89608513.678512573 -452041693.20471954 0 -452041693.20471954 638875688.81209564 0 0 0 0 -734131.43378944718 2068704.3531169305 0 2068704.3531169305 5119806.2747208178 0 0 0 0 884036596.99626446 1133603174.3945541 0 1133603174.3945541 889759074.83076477 0 0 0 0 118874561.50405884 -997852145.82569885 0 -997852145.82569885 2696348202.2541809 0 0 0 0 161866556.70754433 570053281.27983093 0 570053281.27983093 -487580123.72897339 0 0 0 0 1567624160.6407871 -212949945.04469681 0 -212949945.04469681 -102440643.8104248 0 0 0 0 -509315795.43823242 -33076050.866149902 0 -33076050.866149902 152445824.00848389 0 0 0 0 -1012074591.5233879 -1341146506.9680405 0 -1341146506.9680405 305116407.25401306 0 0 0 0 -1268375808.858386 -776984658.51153564 0 -776984658.51153564 314338673.81591797 0 0 0 0 -16511642.114339776 -21781270.985852793 0 -21781270.985852793 92003060.042967573 0 0 0 0 -1332637300.0885429 -696808894.6822052 0 -696808894.6822052 777487577.91926575 0 0 0 0 -973192737.47050667 -285549572.87365723 0 -285549572.87365723 1008280457.2454529 0 0 0 0 -16589086.06882 -416567142.73883057 0 -416567142.73883057 729264938.29455566 0 0 0 0 -1068573737.198001 -1138929888.8342171 0 -1138929888.8342171 968408207.6809082 0 0 0 0 -407141740.48701763 -551268094.18865967 0 -551268094.18865967 1523842864.7725372 0 0 0 0 -323784996.90766633 -1074565589.4555054 0 -1074565589.4555054 803012707.6652832 0 0 0 0 -438802471.05067444 -41937887.956604004 0 -41937887.956604004 95207493.143722534 0 0 0 0 -390246969.06124115 28655235.028465271 0 28655235.028465271 10288445.82598877 0 0 0 0 -1218770499.593267 -465740432.51499939 0 -465740432.51499939 -2669376838.1478271 0 0 0 0 -1163134848.4056263 -408805364.23330688 0 -408805364.23330688 149234841.15290833 0 0 0 0 -7115671.1436009444 -2630572.6991488934 0 -2630572.6991488934 9244935.2089260966 0 0 0 0 -14171493.452342361 -5055023.1690079514 0 -5055023.1690079514 98800039.408729434 0 0 0 0 -323422679.11567593 -435059237.84194946 0 -435059237.84194946 -157551070.95269775 0 0 0 0 -17510155.949165344 -576105945.6729126 0 -576105945.6729126 -1064687041.8163452 0 0 0 0 91183867.545154274 -97966441.979526997 0 -97966441.979526997 -239772391.13674927 0 0 0 0 412743609.96356392 230348827.89048767 0 230348827.89048767 -8116630.1431045532 0 0 0 0 -274687094.9352417 -11260531.267181396 0 -11260531.267181396 279476794.20227432 0 0 0 0 -81082391.691770554 36096424.775493622 0 36096424.775493622 376379307.08197021 0 0 0 0 -188611622.95651245 -85942827.96534729 0 -85942827.96534729 239553896.42289734 0 0 0 0 -278704186.59828186 -68645788.729515076 0 -68645788.729515076 269106932.844944 0 0 0 0 -204074058.7496109 -22152520.255292892 0 -22152520.255292892 159179952.11872864 0 0 0 0 -308617811.72589493 23368679.215278625 0 23368679.215278625 18830767.25958252 0 0 0 0 -540520526.84560394 125398857.41146851 0 125398857.41146851 96180503.456924438 0 0 0 0 -412098548.71856689 -17781629.19871521 0 -17781629.19871521 200129396.96662903 0 0 0 0 -336053239.08646393 4622702.8910903931 0 4622702.8910903931 135581839.81008911 0 0 0 0 -432825942.59629822 39896827.734916687 0 39896827.734916687 178684657.67010498 0 0 0 0 -320895342.57617188 48600466.412734985 0 48600466.412734985 227305835.02078247 0 0 0 0 -348298579.19509888 136060420.02302551 0 136060420.02302551 87985666.171020508 0 0 0 0 -355069340.03633118 118761683.97025299 0 118761683.97025299 49825651.131072998 0 0 0 0 -328100352.96818829 64420850.106291771 0 64420850.106291771 175158297.9240036 0 0 0 0 -386235937.89304352 62990443.932907104 0 62990443.932907104 193673757.52961731 0 0 0 0 -188227453.96636581 103570083.53144836 0 103570083.53144836 153023255.4938736 0 0 0 0 -148015206.40686321 -74659576.901267052 0 -74659576.901267052 349276563.54099274 0 0 0 0 -25306795.740421295 -45890576.698482513 0 -45890576.698482513 289153414.59411621 0 0 0 0 47792792.903115273 -172419585.14084053 0 -172419585.14084053 344344914.89217377 0 0 0 0 210523780.67839432 18926168.752063751 0 18926168.752063751 448883431.66693115 0 0 0 0 396503884.51651382 166662901.74530411 0 166662901.74530411 338632672.17028046 0 0 0 0 -81872602.869000435 -1715442.5601444244 0 -1715442.5601444244 561442586.22967529 0 0 0 0 824874144.89551926 834971521.48299408 0 834971521.48299408 847325614.22883224 0 0 0 0 241620469.13265228 310882788.64806175 0 310882788.64806175 391534796.6162796 0 0 0 0 1510785911.1785507 482106174.72638321 0 482106174.72638321 8770834.8280067444 0 0 0 0 265531889.57258797 95420559.756214142 0 95420559.756214142 59722462.568939209 0 0 0 0 1785229.5972772778 1762178.6185177304 0 1762178.6185177304 722564.06265736371 0 0 0 0 -11369268.944473267 -297045059.9185257 0 -297045059.9185257 1243886993.8183746 0 0 0 0 33510200.405833244 720135213.86991882 0 720135213.86991882 1568612721.4020119 0 0 0 0 1539988024.5907326 214620688.18268204 0 214620688.18268204 356480012.15171814 0 0 0 0 -97341653.633647919 92486828.327739716 0 92486828.327739716 1338292953.0713615 0 0 0 0 594968092.61837196 -268260252.62643814 0 -268260252.62643814 -430383096.18157196 0 0 0 0 248836.4197691381 -3272000.5299466103 0 -3272000.5299466103 2064821.9484775476 0 0 0 0 -137624208.32466602 187290534.6086998 0 187290534.6086998 403680762.31356812 0 0 0 0 -6692696.8990097046 50122589.533626556 0 50122589.533626556 126286659.90796661 0 0 0 0 -6523044.7896251678 39575211.111698151 0 39575211.111698151 133336368.95474052 0 0 0 0 -11315286.597528458 -116429464.9053421 0 -116429464.9053421 -38383731.932056427 0 0 0 0 59948885.726268768 -885817.01417160034 0 -885817.01417160034 -97099276.906555176 0 0 0 0 -119074265.45795822 -287421773.12643433 0 -287421773.12643433 -309875027.61864758 0 0 0 0 -199079107.498703 -76411429.123100281 0 -76411429.123100281 -18171314.267730713 0 0 0 0 167184110.16173077 -52907346.38321209 0 -52907346.38321209 -75649535.701553345 0 0 0 0 -47243791.596066475 102501250.48796844 0 102501250.48796844 227177100.48705292 0 0 0 0 -37590244.26908493 -264780432.82811737 0 -264780432.82811737 259095723.50482941 0 0 0 0 -345528.90578924865 -2046207.087569464 0 -2046207.087569464 1351251.1250620373 0 0 0 0 -340134028.04938889 -19495529.455848694 0 -19495529.455848694 521958546.21756744 0 0 0 0 125120395.71451795 41694624.554244995 0 41694624.554244995 192153769.75431824 0 0 0 0 122138053.50959611 -30279529.720054626 0 -30279529.720054626 3864099.4462127686 0 0 0 0 55555311.940696716 22284297.743019104 0 22284297.743019104 131325021.71554947 0 0 0 0 -562916.41741703032 -307886.39734296687 0 -307886.39734296687 1672638.8843473718 0 0 0 0 73317795.803274512 72563936.078070641 0 72563936.078070641 53509243.462936401 0 0 0 0 140344416.49676263 191046502.45466232 0 191046502.45466232 321176889.84970093 0 0 0 0 186749459.78547001 309577314.0739212 0 309577314.0739212 388892645.94441128 0 0 0 0 -40050623.967354298 145545444.11952209 0 145545444.11952209 436154007.94371414 0 0 0 0 9246837.8095083237 125986155.86955643 0 125986155.86955643 194898061.35440826 0 0 0 0 -38112130.801961899 98427642.789016724 0 98427642.789016724 78224991.869483948 0 0 0 0 65623111.318969727 -127951670.12350464 0 -127951670.12350464 148700575.01441956 0 0 0 0 -8496293.3666639328 476732394.52208328 0 476732394.52208328 659821554.56439209 0 0 0 0 -66268041.052989006 26259059.660251617 0 26259059.660251617 911904761.19447327 0 0 0 0 161778454.83108711 466937685.219347 0 466937685.219347 510605862.52272797 0 0 0 0 442704.11833453178 -2644079.2157866284 0 -2644079.2157866284 1760884.9567419123 0 0 0 0 466640698.0697031 274824121.53024101 0 274824121.53024101 -111440386.11102676 0 0 0 0 -37216.143677708693 -1253360.3421357684 0 -1253360.3421357684 939586.06783086061 0 0 0 0 221707544.84261084 576378385.03062439 0 576378385.03062439 683368862.2124939 0 0 0 0 47836144.609930515 427997228.1127243 0 427997228.1127243 539963644.61564255 0 0 0 0 96823640.670943737 204268554.96719933 0 204268554.96719933 352723704.61489868 0 0 0 0 459672240.10557985 376453992.40131378 0 376453992.40131378 342936422.50934553 0 0 0 0 237004066.59494525 235334533.71717453 0 235334533.71717453 254009092.2269249 0 0 0 0 236750867.93433821 197738549.06323814 0 197738549.06323814 449202524.50071716 0 0 0 0 303536465.76137161 355745286.44696236 0 355745286.44696236 368639819.73242188 0 0 0 0 229768934.56854934 322311916.05765152 0 322311916.05765152 361274827.74069214 0 0 0 0 371090650.49504316 323120082.04860592 0 323120082.04860592 355970222.22645569 0 0 0 0 253536543.03123355 366812186.35310173 0 366812186.35310173 433296291.75267792 0 0 0 0 244602795.7743125 93514363.875209808 0 93514363.875209808 112144836.96422577 0 0 0 0 -8875392.0578194857 166794286.83293343 0 166794286.83293343 303074597.88522339 0 0 0 0 52013672.92421627 15324639.460811615 0 15324639.460811615 107613819.74778748 0 0 0 0 20305987.448312283 62697619.482725143 0 62697619.482725143 129033141.62348938 0 0 0 0 -93041822.432067871 3834790.8631973267 0 3834790.8631973267 184723674.0580368 0 0 0 0 -45620256.040281296 17737261.529663086 0 17737261.529663086 181944615.202034 0 0 0 0 -203149325.21982956 -896901.14692974091 0 -896901.14692974091 238984237.70960999 0 0 0 0 -295000334.24959183 -267797277.77246094 0 -267797277.77246094 -47654216.038764954 0 0 0 0 -333738920.8427639 -24841210.764198303 0 -24841210.764198303 140778313.99350739 0 0 0 0 -102856288.00644732 -148805828.81454277 0 -148805828.81454277 -111032650.21281433 0 0 0 0 -58182824.305585861 -36836779.94997406 0 -36836779.94997406 81625781.765411377 0 0 0 0 -92111685.629356384 -24161882.154167175 0 -24161882.154167175 114427599.22373962 0 0 0 0 -134480776.21708679 -9708019.1445598602 0 -9708019.1445598602 280783424.1300354 0 0 0 0 29871147.10063982 166525003.89406586 0 166525003.89406586 388213629.16664886 0 0 0 0 211335085.167799 197422850.6921463 0 197422850.6921463 214407865.89875793 0 0 0 0 -36395044.888443947 -156308983.0665741 0 -156308983.0665741 284083449.49142647 0 0 0 0 202386910.19316757 -218913865.55477524 0 -218913865.55477524 796261392.1953125 0 0 0 0 234499002.3558147 319003954.40180206 0 319003954.40180206 476755920.59681702 0 0 0 0 456674136.21691126 410203965.57128716 0 410203965.57128716 472918413.68704224 0 0 0 0 -93089932.723571777 120590064.51911926 0 120590064.51911926 203547232.67485428 0 0 0 0 -73772927.325979233 -213515719.01696777 0 -213515719.01696777 -146496183.79482269 0 0 0 0 -1909367.9007842056 -204501.33863227814 0 -204501.33863227814 2235940.4768618345 0 0 0 0 -339349463.71389771 -179696335.1960907 0 -179696335.1960907 128342763.04026794 0 0 0 0 -207136922.49191284 -91019190.234832764 0 -91019190.234832764 -15639014.769424438 0 0 0 0 -104503496.42523193 -84241558.180160522 0 -84241558.180160522 -18557350.073272705 0 0 0 0 -35701993.995292664 -115262503.2082901 0 -115262503.2082901 -63507513.721710205 0 0 0 0 -284178106.1411171 -159989154.50605774 0 -159989154.50605774 -34365549.122833252 0 0 0 0 -3276069.1459083632 -608619.46521090157 0 -608619.46521090157 4143586.017014809 0 0 0 0 -191169097.47869873 -158308219.20489502 0 -158308219.20489502 -53899791.802902222 0 0 0 0 -100589333.34333038 -153776824.20514679 0 -153776824.20514679 -55021153.028503418 0 0 0 0 -254885502.02200747 -123183638.20386004 0 -123183638.20386004 -8571980.1994628906 0 0 0 0 -69743385.623707771 18714844.583175659 0 18714844.583175659 -67320713.313957214 0 0 0 0 28912871.796860695 21611178.739688873 0 21611178.739688873 26047843.120201111 0 0 0 0 -57010936.30112648 -95753612.068836212 0 -95753612.068836212 53104109.115235329 0 0 0 0 -46140180.483295441 -55285271.217868805 0 -55285271.217868805 150484483.05451202 0 0 0 0 -47070259.500974655 -122855288.09143257 0 -122855288.09143257 118406974.49346924 0 0 0 0 -8381169.6977310181 -87135667.030921936 0 -87135667.030921936 131991985.85155869 0 0 0 0 -89251037.925987244 -149344465.14426422 0 -149344465.14426422 110109316.26196289 0 0 0 0 -80785967.065795898 -87091814.051010132 0 -87091814.051010132 103999008.21111965 0 0 0 0 -139827730.02458763 -85186849.597312927 0 -85186849.597312927 159147325.52589607 0 0 0 0 -164796213.28241634 -119162197.50142765 0 -119162197.50142765 115425312.41699219 0 0 0 0 -62540132.347745895 -172339089.91277313 0 -172339089.91277313 -288250784.65769958 0 0 0 0 -183487971.33306503 -110315832.4047699 0 -110315832.4047699 112305106.01123428 0 0 0 0 -127047417.27943134 -176438371.14217758 0 -176438371.14217758 -46683922.349273682 0 0 0 0 -29170175.174236298 -61743603.251861572 0 -61743603.251861572 -84078559.788085938 0 0 0 0 -21312147.541053772 -69459626.318084717 0 -69459626.318084717 -25691479.841384888 0 0 0 0 2822072.9279059274 -7406750.9920084141 0 -7406750.9920084141 -23412255.033376098 0 0 0 0 -28938761.84777832 -66725903.077781677 0 -66725903.077781677 -23393175.717357635 0 0 0 0 145501496.6747613 -73270529.447828293 0 -73270529.447828293 125671126.84977722 0 0 0 0 -21444534.606938854 -14170011.631640796 0 -14170011.631640796 72168974.855249912 0 0 0 0 -48354851.656712532 -109535118.40876389 0 -109535118.40876389 249151462.64012146 0 0 0 0 -37423882.625320435 -412260078.76815796 0 -412260078.76815796 117104972.66902924 0 0 0 0 -199336435.47894669 -148694418.7997818 0 -148694418.7997818 -129570979.67638397 0 0 0 0 -145794.69279180281 -2720905.0983444043 0 -2720905.0983444043 -6219935.7184427083 0 0 0 0 -139855409.64726257 -100823455.95553589 0 -100823455.95553589 318970786.95303345 0 0 0 0 100711609.25901031 -283741121.08679199 0 -283741121.08679199 128576279.3528595 0 0 0 0 233479284.44254303 -57889155.74646759 0 -57889155.74646759 -447877304.884552 0 0 0 0 -197385064.77355194 10665920.431945801 0 10665920.431945801 124750422.35748291 0 0 0 0 103792614.46801758 -209470332.08609009 0 -209470332.08609009 67913340.877334595 0 0 0 0 -24038585.095142782 -10112387.003506951 0 -10112387.003506951 87331805.446107328 0 0 0 0 387309670.11699343 244767207.78387034 0 244767207.78387034 -42263032.864517212 0 0 0 0 -416396570.96063995 -162677418.53233337 0 -162677418.53233337 166318063.34565735 0 0 0 0 -455613212.93583298 62347334.225601196 0 62347334.225601196 144479310.15503693 0 0 0 0 286203207.84863281 75047152.217849731 0 75047152.217849731 133625264.29775238 0 0 0 0 135577771.35065079 -10059340.179519653 0 -10059340.179519653 86959306.084388733 0 0 0 0 291849842.71913528 -13604944.61794281 0 -13604944.61794281 117717830.19764137 0 0 0 0 280943342.34778595 -31399407.46534729 0 -31399407.46534729 101020868.84822083 0 0 0 0 260118621.44973755 -45655046.372215271 0 -45655046.372215271 130011765.89949036 0 0 0 0 261053902.50384521 -63511690.680130005 0 -63511690.680130005 96007368.756057739 0 0 0 0 195823913.13404465 -71066817.295440674 0 -71066817.295440674 92438509.006088257 0 0 0 0 13330925.970163066 1436446.2790343724 0 1436446.2790343724 22006769.670852747 0 0 0 0 -170817814.90929794 68328451.719179153 0 68328451.719179153 559557235.46615601 0 0 0 0 -55142931.017831802 -14080836.444229126 0 -14080836.444229126 600827907.0840807 0 0 0 0 -23709012.949150085 -98882217.89427948 0 -98882217.89427948 389582391.25300598 0 0 0 0 57438235.405070305 79113739.09469986 0 79113739.09469986 357469453.80471802 0 0 0 0 -24724498.436153412 63815154.354476929 0 63815154.354476929 579100109.0470295 0 0 0 0 -83830131.319429398 -328243433.98089981 0 -328243433.98089981 773944467.23697662 0 0 0 0 418849.74276900035 983750.13060300052 0 983750.13060300052 607480.69725084677 0 0 0 0 -133920727.76706028 318921173.02387619 0 318921173.02387619 1220515286.1074448 0 0 0 0 113728582.81912518 463159245.35689545 0 463159245.35689545 232554784.1483345 0 0 0 0 145756739.46483803 671690458.28783798 0 671690458.28783798 955827167.81015778 0 0 0 0 -37221368.066492081 41246537.744411469 0 41246537.744411469 -81598815.622106552 0 0 0 0 -62606150.874250412 -18583414.580551147 0 -18583414.580551147 -97333790.071746826 0 0 0 0 -20050825.494054195 -29848599.475346945 0 -29848599.475346945 68682390.379129529 0 0 0 0 -978845.33675253019 1749032.9123922735 0 1749032.9123922735 13287596.376449049 0 0 0 0 -218874910.50636864 -9504812.164642334 0 -9504812.164642334 111893866.11095047 0 0 0 0 36635025.09133935 -200019784.18416739 0 -200019784.18416739 -49147076.062255859 0 0 0 0 -15480280.563008942 -35356185.50420551 0 -35356185.50420551 41070909.336690724 0 0 0 0 33855686.35081768 224248507.4572525 0 224248507.4572525 -120321120.20935822 0 0 0 0 -127259831.77108288 15511382.547044754 0 15511382.547044754 736369332.94796753 0 0 0 0 6823562.5194257535 -8376929.5154304206 0 -8376929.5154304206 -10317383.585825488 0 0 0 0 519990028.65990448 150234187.97536469 0 150234187.97536469 1325912476.4667053 0 0 0 0 501434094.39162064 492511132.66463661 0 492511132.66463661 448735351.22887421 0 0 0 0 21978788.255617142 -96415505.143447876 0 -96415505.143447876 61363628.559833527 0 0 0 0 192891141.4285078 -36044906.136785507 0 -36044906.136785507 -67982693.571655273 0 0 0 0 409954966.97172546 333853530.55136108 0 333853530.55136108 207316260.00617218 0 0 0 0 -30755301.791273117 36063711.47013092 0 36063711.47013092 72828314.327568054 0 0 0 0 -6633781.2270278931 394866286.37117004 0 394866286.37117004 638355567.7036972 0 0 0 0 127584008.82434464 191566365.78487015 0 191566365.78487015 171050599.85137558 0 0 0 0 -174390038.49301338 172381613.19446945 0 172381613.19446945 409028105.26309967 0 0 0 0 -185102008.79193532 61442935.462101936 0 61442935.462101936 1062000813.9612656 0 0 0 0 1442604.1239813874 -373046.19155468047 0 -373046.19155468047 555959.00640178099 0 0 0 0 1257935.8802639246 82710060.650653362 0 82710060.650653362 -58187789.248027802 0 0 0 0 73061003.809997559 33252482.569480896 0 33252482.569480896 -48892716.154485703 0 0 0 0 1288357.4875320448 -108451.89938286133 0 -108451.89938286133 -829416.12786771357 0 0 0 0 47633929.132402897 -49304977.912737846 0 -49304977.912737846 -63552415.226165771 0 0 0 0 1504082.8802707195 2503768.4609651566 0 2503768.4609651566 -2101253.7125701904 0 0 0 0 424150.49367864709 -873022.49559144303 0 -873022.49559144303 594646.35154680256 0 0 0 0 65693894.896324158 -19589231.585681915 0 -19589231.585681915 -72433932.378128052 0 0 0 0 63161.608085632324 -742837.18382263184 0 -742837.18382263184 -3748812.0413513184 0 0 0 0 2423019.7715904186 1239601.6208966598 0 1239601.6208966598 597051.08608819172 0 0 0 0 207894.39377784729 1061516.036075592 0 1061516.036075592 -1947655.1821961403 0 0 0 0 -53886277.155712128 19134609.792671204 0 19134609.792671204 -79824693.185501099 0 0 0 0 1662961.4823330534 3152627.9226461677 0 3152627.9226461677 289918.46969593316 0 0 0 0 59811433.725070953 114309271.56868744 0 114309271.56868744 -166913336.42507172 0 0 0 0 -4047969.5493240356 -1169070.3976974487 0 -1169070.3976974487 12682598.243011475 0 0 0 0 276883.66609030403 -1095742.8674143516 0 -1095742.8674143516 569457.08392883092 0 0 0 0 -57686832.698403835 71851751.594955444 0 71851751.594955444 -15251137.752693176 0 0 0 0 23139449.291059494 128669979.42971039 0 128669979.42971039 36810515.786010742 0 0 0 0 -11341821.576847076 5624647.0282440186 0 5624647.0282440186 121863809.9462204 0 0 0 0 139220545.02093744 -15325326.563301086 0 -15325326.563301086 1658197.3079605103 0 0 0 0 80744950.965398312 61506731.628032684 0 61506731.628032684 355003131.63043213 0 0 0 0 88071294.319616318 80191565.406912804 0 80191565.406912804 167814242.89425659 0 0 0 0 869671.15115680418 2189396.3951787716 0 2189396.3951787716 1348947.9540518746 0 0 0 0 -85314530.473812103 -37597592.941108704 0 -37597592.941108704 49972713.074272156 0 0 0 0 -24398882.025227241 -27178886.849467456 0 -27178886.849467456 98925183.770965576 0 0 0 0 -56785596.633253098 137309944.53166199 0 137309944.53166199 46595809.038331985 0 0 0 0 -184137216.55354595 100818041.07717323 0 100818041.07717323 51015446.172073364 0 0 0 0 201119001.54736823 -227335819.06336594 0 -227335819.06336594 -107313684.85050964 0 0 0 0 -63376167.952686787 -124919753.74799347 0 -124919753.74799347 199690738.25112915 0 0 0 0 181773354.67208076 -17921833.559944153 0 -17921833.559944153 141450829.35515594 0 0 0 0 -2206596.2998142242 -210111064.93982887 0 -210111064.93982887 -41806181.87651062 0 0 0 0 -261771554.55002594 -197653382.33796692 0 -197653382.33796692 -20767196.709396362 0 0 0 0 -173630499.70418739 -346651788.85180664 0 -346651788.85180664 -122259408.90459156 0 0 0 0 196264670.3992691 -567485270.0148716 0 -567485270.0148716 151954173.54320526 0 0 0 0 -15488127.269620128 -33473505.826804638 0 -33473505.826804638 47151668.841257848 0 0 0 0 -138112845.31008482 -230926445.75898743 0 -230926445.75898743 -98621002.68800354 0 0 0 0 -166478992.3314743 -230434075.85336304 0 -230434075.85336304 79342698.32673645 0 0 0 0 -209887084.05346107 -254667034.9005661 0 -254667034.9005661 -62166781.622055054 0 0 0 0 -460128766.67913628 240500872.75629044 0 240500872.75629044 509139273.06497955 0 0 0 0 264467332.96554947 288530811.2938385 0 288530811.2938385 512213912.89516449 0 0 0 0 -109724044.41762543 -253922574.08879089 0 -253922574.08879089 498641518.61662292 0 0 0 0 110848946.83118153 321414054.82748604 0 321414054.82748604 829417189.51621246 0 0 0 0 1094635.5752731897 -231587.12806941383 0 -231587.12806941383 -297009.48114373907 0 0 0 0 13983413.297153473 20784860.845878601 0 20784860.845878601 -103473118.1292572 0 0 0 0 48605371.215268135 -30956421.276660919 0 -30956421.276660919 249301673.80574417 0 0 0 0 156073662.93099594 30113475.593833923 0 30113475.593833923 -28552796.359764099 0 0 0 0 129736814.28218842 -3000394.6239051819 0 -3000394.6239051819 -31451282.518848419 0 0 0 0 196023.5473470455 2303776.6855618944 0 2303776.6855618944 3327859.0008848049 0 0 0 0 45106110.062817574 -69190572.681475639 0 -69190572.681475639 55074165.209915161 0 0 0 0 1163102969.9639359 -431712153.62094116 0 -431712153.62094116 8233007.2828063965 0 0 0 0 196966039.70140266 843324452.11875534 0 843324452.11875534 212128074.19762111 0 0 0 0 -16785367.787460878 -30843937.022063117 0 -30843937.022063117 49015458.726778887 0 0 0 0 -37941365.886462569 -293773384.29738235 0 -293773384.29738235 -364623512.9707489 0 0 0 0 70732452.258152008 10515355.803937912 0 10515355.803937912 143808638.84047127 0 0 0 0 -823790.50341486931 -12980685.880001068 0 -12980685.880001068 -179045104.97110748 0 0 0 0 -132907250.25006175 -212768013.6488533 0 -212768013.6488533 -77216978.931758881 0 0 0 0 62864325.675231934 42264948.158037186 0 42264948.158037186 66284356.183333397 0 0 0 0 66183905.516277313 41490010.222906113 0 41490010.222906113 32539667.101501465 0 0 0 0 52348635.641971588 57374331.009796143 0 57374331.009796143 59719080.706104279 0 0 0 0 34693115.218854904 56190894.813099861 0 56190894.813099861 126517596.13819122 0 0 0 0 14768417.122312546 32534712.161010742 0 32534712.161010742 131786102.09243774 0 0 0 0 19091065.700708389 56339411.961933851 0 56339411.961933851 194430095.9221611 0 0 0 0 63765018.164664984 95523375.998890162 0 95523375.998890162 153898848.86672974 0 0 0 0 2683859.0690904493 5962835.1426398531 0 5962835.1426398531 9098910.9260924105 0 0 0 0 133168185.63157749 98589071.21282196 0 98589071.21282196 68101185.134672165 0 0 0 0 -57640170.106416702 -37024129.675683975 0 -37024129.675683975 37801794.424907684 0 0 0 0 54526867.710609436 24002122.008964539 0 24002122.008964539 23687156.096492767 0 0 0 0 -37082001.147521973 3704466.87890625 0 3704466.87890625 -30956179.260147095 0 0 0 0 -35561769.899795532 21518011.863822937 0 21518011.863822937 -24958941.70268631 0 0 0 0 -35869623.78314209 26039746.69619751 0 26039746.69619751 -5401243.782283783 0 0 0 0 -37006588.507720947 -8254334.735168457 0 -8254334.735168457 9027980.0814285278 0 0 0 0 -34337072.77432251 -16829824.505081177 0 -16829824.505081177 -15600983.946266174 0 0 0 0 -35486535.863761902 -19219982.86214447 0 -19219982.86214447 -4906205.2026596069 0 0 0 0 -9657614.235629797 4082193.0630894899 0 4082193.0630894899 57330204.503616333 0 0 0 0 -37364216.676071167 -11313708.344902039 0 -11313708.344902039 33978875.689903259 0 0 0 0 -9554818.4572296143 7086312.650970459 0 7086312.650970459 6576426.9414367676 0 0 0 0 -32573286.498382568 15325249.358360291 0 15325249.358360291 29327380.67591095 0 0 0 0 29475566.165254593 -8599179.9438819885 0 -8599179.9438819885 52022426.173851013 0 0 0 0 27873495.845245361 -14301156.084098816 0 -14301156.084098816 33870008.752044678 0 0 0 0 35505777.018864632 -39446576.591513634 0 -39446576.591513634 51518741.894432068 0 0 0 0 -14815284.215461731 817402.04487609863 0 817402.04487609863 33510435.270767212 0 0 0 0 29063138.85269165 -24182972.634082794 0 -24182972.634082794 33291801.886273801 0 0 0 0 82222991.706218719 48145954.360279083 0 48145954.360279083 -29971891.137779236 0 0 0 0 -71224071.210908413 26506357.33991909 0 26506357.33991909 32582569.93296051 0 0 0 0 98434534.018852234 62724.798351287842 0 62724.798351287842 -38965318.093395233 0 0 0 0 144725087.23933029 9143961.0019950867 0 9143961.0019950867 -39196720.429401398 0 0 0 0 130039604.47388554 -1999478.9284725189 0 -1999478.9284725189 -29194751.445739746 0 0 0 0 134777019.22320414 56554631.646558285 0 56554631.646558285 26452273.274559021 0 0 0 0 1171156.9061302841 1008162.5232911538 0 1008162.5232911538 -1024917.3588806912 0 0 0 0 172070964.31859922 37591153.447860241 0 37591153.447860241 205431381.58823395 0 0 0 0 159204584.91791534 -66704975.21370697 0 -66704975.21370697 30834599.477844238 0 0 0 0 68734626.109329224 -64599865.871356964 0 -64599865.871356964 130929327.23613739 0 0 0 0 258643898.81541872 -113101847.60951996 0 -113101847.60951996 -206901661.46911621 0 0 0 0 118532681.928792 34094054.76756382 0 34094054.76756382 17305466.088344574 0 0 0 0 789663.83019521437 1404282.0633878279 0 1404282.0633878279 -354255.52241186425 0 0 0 0 47434753.806758881 52743454.999710083 0 52743454.999710083 113904191.70193005 0 0 0 0 65203195.795057297 151433.84663009644 0 151433.84663009644 -1485252.0919342041 0 0 0 0 35548157.775836945 4851943.2819752693 0 4851943.2819752693 -14160597.398216248 0 0 0 0 16359876.089485168 13654238.864028931 0 13654238.864028931 -1866857.6336975098 0 0 0 0 33555300.896928787 21864134.498231888 0 21864134.498231888 -25107609.377380371 0 0 0 0 -24033779.847072601 31618003.98097229 0 31618003.98097229 11877116.922382355 0 0 0 0 -16511492.017251968 48008755.635637283 0 48008755.635637283 28239776.634231567 0 0 0 0 29386790.189217567 56309918.492492676 0 56309918.492492676 38469953.840507507 0 0 0 0 11063882.566650391 33195821.791343689 0 33195821.791343689 9852879.1244411469 0 0 0 0 1258267.8648414612 40205755.499347687 0 40205755.499347687 46239574.488430023 0 0 0 0 33408672.776023865 18058224.467615128 0 18058224.467615128 33916566.611968994 0 0 0 0 -5386814.9855155945 26450858.526800156 0 26450858.526800156 19020807.862411499 0 0 0 0 -37027019.264381409 21925925.377227783 0 21925925.377227783 26610972.534255505 0 0 0 0 2026395.1477928162 4661644.8481845856 0 4661644.8481845856 3863299.126663208 0 0 0 0 1188805.0647429088 7409018.9406602094 0 7409018.9406602094 11981991.66590404 0 0 0 0 -59712261.291376114 19625447.917571068 0 19625447.917571068 20415642.642692566 0 0 0 0 -46900781.309261322 38708140.966007233 0 38708140.966007233 15918755.123016357 0 0 0 0 6261546.2510889033 1571184.190719221 0 1571184.190719221 3647532.8634391502 0 0 0 0 31570862.882324219 14012768.082410812 0 14012768.082410812 37244520.466279984 0 0 0 0 13206146.442721296 7528281.0288381018 0 7528281.0288381018 4698811.6938853804 0 0 0 0 -35463809.91727829 25607119.137680054 0 25607119.137680054 2428815.4450759888 0 0 0 0 -19755865.174081802 -93763213.311790943 0 -93763213.311790943 -284770967.85378075 0 0 0 0 8289639.1234416962 -16366318.454654694 0 -16366318.454654694 -251910178.5478797 0 0 0 0 -18620970.119537354 45390635.340853691 0 45390635.340853691 7693170.2816543579 0 0 0 0 12938225.758008759 12849656.919126784 0 12849656.919126784 12173376.381718937 0 0 0 0 26263518.204774857 17665926.103520751 0 17665926.103520751 36174692.885175705 0 0 0 0 2121828.4275826151 5241939.3300745711 0 5241939.3300745711 2923585.736748239 0 0 0 0 10072641.097207442 1810830.5755070797 0 1810830.5755070797 459025.5532979928 0 0 0 0 23395594.135606766 124357280.12174296 0 124357280.12174296 -19911738.468136042 0 0 0 0 11673682.030360643 -582184.17050790158 0 -582184.17050790158 3196215.3109581498 0 0 0 0 23263427.203346252 17607240.715641022 0 17607240.715641022 19941764.309410095 0 0 0 0 43324775.313049316 33782461.633787155 0 33782461.633787155 25254565.856899261 0 0 0 0 45568917.745592117 20561277.923502922 0 20561277.923502922 39097449.964366913 0 0 0 0 64355826.078437805 5074553.2446556091 0 5074553.2446556091 -8071486.2894592285 0 0 0 0 34696567.786750793 27666541.165507317 0 27666541.165507317 14362375.968925476 0 0 0 0 24635617.635688305 -6108807.726393342 0 -6108807.726393342 7732154.2763671875 0 0 0 0 29486232.699599743 34960531.503379345 0 34960531.503379345 52321793.923736572 0 0 0 0 3367922.3919192497 -656219.87541422248 0 -656219.87541422248 -2537790.86635652 0 0 0 0 2981821.0929169655 4793714.9334545135 0 4793714.9334545135 -17223475.157939911 0 0 0 0 2925345.4001423898 5979661.7211219817 0 5979661.7211219817 3164884.0250008777 0 0 0 0 -4339289.7322859764 -18609893.233751297 0 -18609893.233751297 32404667.412281036 0 0 0 0 -36006401.655637026 17333849.986412048 0 17333849.986412048 21037247.260280609 0 0 0 0 6054512.4798030853 -5089595.4826049805 0 -5089595.4826049805 -35342924.270673752 0 0 0 0 -46426110.495398521 -43838109.846694946 0 -43838109.846694946 -5574800.1698093414 0 0 0 0 15651270.58755362 14755070.033361912 0 14755070.033361912 3877957.5303573608 0 0 0 0 -23184041.750859261 636514.03945350647 0 636514.03945350647 12346398.757320404 0 0 0 0 -1139540.7817664873 -967827.05427695252 0 -967827.05427695252 426957.96070424467 0 0 0 0 -23016318.105593443 1762923.3099622726 0 1762923.3099622726 4216498.7083969116 0 0 0 0 -20222408.185881615 54748574.163398743 0 54748574.163398743 -33372220.218444824 0 0 0 0 21220581.337386131 -47809176.866981506 0 -47809176.866981506 52071656.404067755 0 0 0 0 -44941832.433823109 15128068.262238503 0 15128068.262238503 58401781.12538147 0 0 0 0 -2051762.1244955063 33310889.820585251 0 33310889.820585251 80800025.767456055 0 0 0 0 56640864.303035736 14315883.961406708 0 14315883.961406708 8790339.4039382935 0 0 0 0 1198435.6621495718 71821.251398358494 0 71821.251398358494 -1201959.4889688604 0 0 0 0 94619262.134709358 -18838242.270629883 0 -18838242.270629883 -31066560.613128662 0 0 0 0 17164014.02629602 84649676.176469803 0 84649676.176469803 -67192102.948669434 0 0 0 0 -13316366.144508839 13704747.73091507 0 13704747.73091507 18671809.508483887 0 0 0 0 16720675.516214371 -12171259.881492615 0 -12171259.881492615 -65907811.243803799 0 0 0 0 1864241.1295364881 165935.49996952154 0 165935.49996952154 -1974304.5276686847 0 0 0 0 34971090.553151488 23899538.090553284 0 23899538.090553284 -72672930.583385468 0 0 0 0 -83462563.283291578 85230140.952549934 0 85230140.952549934 -39205791.126026154 0 0 0 0 -20760831.947619438 -24599550.116439819 0 -24599550.116439819 44622471.274400711 0 0 0 0 62576857.868885994 40724071.349082947 0 40724071.349082947 -7564041.0237846375 0 0 0 0 117309183.06698132 -37660129.717725754 0 -37660129.717725754 -8578515.1048069 0 0 0 0 1810063.1193434191 1541405.0298482254 0 1541405.0298482254 -1601606.8455526363 0 0 0 0 109548114.24253321 -65147576.660351753 0 -65147576.660351753 -22426903.931259155 0 0 0 0 32889466.317045212 -644292.74452781677 0 -644292.74452781677 123423951.61221313 0 0 0 0 1832407.264497841 3164321.7053495934 0 3164321.7053495934 -377866.14550948143 0 0 0 0 64472705.147537231 9281982.9296760559 0 9281982.9296760559 -12930937.799537659 0 0 0 0 -21227608.231240273 -5973260.7389392853 0 -5973260.7389392853 -38913822.803390503 0 0 0 0 67336434.515468359 8290151.9514493942 0 8290151.9514493942 -57917869.608070374 0 0 0 0 45151517.066981792 -33332838.800941467 0 -33332838.800941467 -26785967.014968872 0 0 0 0 616379.32736107102 185161.03349724598 0 185161.03349724598 -1035856.5315223653 0 0 0 0 -76712182.323253602 105488073.26005316 0 105488073.26005316 -75458588.981765747 0 0 0 0 17709235.041313857 30124122.647745609 0 30124122.647745609 -81859951.089179993 0 0 0 0 -19261907.141321637 1720490.4550895691 0 1720490.4550895691 13409940.05163002 0 0 0 0 -115948592.61259341 8299168.2487735748 0 8299168.2487735748 43531132.134681702 0 0 0 0 3482011.6278091152 6322347.6299041463 0 6322347.6299041463 2134752.5242835656 0 0 0 0 59701109.501059771 62218483.264703751 0 62218483.264703751 -15205560.361089706 0 0 0 0 120073458.22036356 176338054.16583729 0 176338054.16583729 73605630.029338837 0 0 0 0 300377470.60844851 181824254.4051342 0 181824254.4051342 -87625774.140558243 0 0 0 0 30926789.292094946 132975900.46308708 0 132975900.46308708 68365553.365345001 0 0 0 0 -110157978.90394115 -524245.93425369263 0 -524245.93425369263 56638897.860460281 0 0 0 0 30329222.409216881 110471327.64655495 0 110471327.64655495 141034970.62429047 0 0 0 0 178492.61929639615 -728405.13966270164 0 -728405.13966270164 -472032.05981856398 0 0 0 0 -238849738.05377626 -86836101.485832214 0 -86836101.485832214 182430931.65698719 0 0 0 0 -13825081.780957699 -51043347.108170509 0 -51043347.108170509 -78343048.343223572 0 0 0 0 -68723466.908636808 -93382681.484175682 0 -93382681.484175682 -56763810.131362915 0 0 0 0 41191739.581272341 35618818.733657837 0 35618818.733657837 -93575954.071205139 0 0 0 0 105916242.29412675 -353021226.44879913 0 -353021226.44879913 42135953.017130852 0 0 0 0 307271705.46495152 -173630926.52719498 0 -173630926.52719498 -38086598.022415161 0 0 0 0 -63162634.696458817 -38197880.326042175 0 -38197880.326042175 9991824.0573348999 0 0 0 0 -79417046.652377129 4512176.0934753418 0 4512176.0934753418 -10013073.055450439 0 0 0 0 -128537385.42739844 -36495848.164241791 0 -36495848.164241791 19371766.386985779 0 0 0 0 425657.76542766602 -818208.80804762617 0 -818208.80804762617 -118413.15234449878 0 0 0 0 20544171.530054092 -592332.26868915558 0 -592332.26868915558 -14526837.213623047 0 0 0 0 218493587.5783186 -130061563.48114014 0 -130061563.48114014 -21905095.383985519 0 0 0 0 621661625.69982076 -1333888.3979949951 0 -1333888.3979949951 16285891.960198402 0 0 0 0 534656814.04231381 -355091265.63254738 0 -355091265.63254738 25071009.855789185 0 0 0 0 155839052.08042789 -242010939.78259754 0 -242010939.78259754 577756927.60131836 0 0 0 0 302095779.93146372 158130467.01896286 0 158130467.01896286 423956662.1787796 0 0 0 0 1760193.2295755283 862710.71942643076 0 862710.71942643076 219752.86431437731 0 0 0 0 300659124.50093031 -424410043.44164467 0 -424410043.44164467 871131876.32089233 0 0 0 0 391792859.89353275 327573415.45407009 0 327573415.45407009 -111625868.89823151 0 0 0 0 153694769.2002095 363920675.12408829 0 363920675.12408829 468074473.08270121 0 0 0 0 273821011.5248785 122995715.09269428 0 122995715.09269428 -158353653.31028748 0 0 0 0 3498408.701401833 2276946.1316167247 0 2276946.1316167247 2032349.3938648701 0 0 0 0 244682273.17965364 -328293212.30329132 0 -328293212.30329132 351497261.14561081 0 0 0 0 -53801155.727597237 -202686823.06004333 0 -202686823.06004333 207755472.52150345 0 0 0 0 238527042.96103096 -156908789.77898788 0 -156908789.77898788 243635680.48838043 0 0 0 0 9079377.636548996 -108976953.67947006 0 -108976953.67947006 347409779.88280785 0 0 0 0 -76304869.056045055 63750047.533941269 0 63750047.533941269 140396158.90228271 0 0 0 0 37594943.583467484 -87105689.170894623 0 -87105689.170894623 238669620.81022644 0 0 0 0 -126245108.72720432 30417423.378253937 0 30417423.378253937 248128303.94615555 0 0 0 0 -63915205.7771492 -41590376.791469574 0 -41590376.791469574 287242380.39571953 0 0 0 0 -296817004.52521992 61351819.905471802 0 61351819.905471802 245178303.68778038 0 0 0 0 -87328016.564519405 164522361.37445545 0 164522361.37445545 134792765.8948288 0 0 0 0 -50566951.263381958 87193079.905326843 0 87193079.905326843 144813379.33652496 0 0 0 0 -11857686.273521423 135160801.02302551 0 135160801.02302551 114070285.235672 0 0 0 0 -60390632.203101158 110941872.20005989 0 110941872.20005989 112216484.78024292 0 0 0 0 -11489059.885623932 105822854.35214996 0 105822854.35214996 76152138.433738708 0 0 0 0 -49050844.636325836 67651963.798595428 0 67651963.798595428 90004598.741294861 0 0 0 0 98448873.799690247 209867129.15330505 0 209867129.15330505 125575519.60247183 0 0 0 0 1166056.3046723353 469825.67314338125 0 469825.67314338125 -1323742.9012750462 0 0 0 0 -31301917.01020813 -525800532.99797821 0 -525800532.99797821 681367696.89024353 0 0 0 0 27694293.279411316 136274183.50117493 0 136274183.50117493 84815733.774688721 0 0 0 0 -364070991.89921188 68818520.270439148 0 68818520.270439148 63799543.136833191 0 0 0 0 -693027.15909011848 496214.07289800979 0 496214.07289800979 2315458.0547648817 0 0 0 0 -25693697.937351227 177705350.71465874 0 177705350.71465874 137417570.80549622 0 0 0 0 -309581635.53024864 -42603974.651977539 0 -42603974.651977539 -5422838.7027587891 0 0 0 0 761819.15777936764 5260751.03197625 0 5260751.03197625 7092607.2482655197 0 0 0 0 -227386398.81027985 7456445.8512535095 0 7456445.8512535095 19264723.235498428 0 0 0 0 -202261428.93766212 142085833.05033875 0 142085833.05033875 94089407.202386856 0 0 0 0 -543513.12851715088 2466337.8358688354 0 2466337.8358688354 17314075.195831299 0 0 0 0 -284937.1330550909 3348872.5580978394 0 3348872.5580978394 14387454.615463257 0 0 0 0 -1363405.7625823915 2074714.5397417545 0 2074714.5397417545 17138869.214736938 0 0 0 0 -22063469.731598854 144710192.61972046 0 144710192.61972046 271573031.54706955 0 0 0 0 -39188007.520730972 -137426866.66412354 0 -137426866.66412354 434141188.04602432 0 0 0 0 -71933710.943368912 46848005.017417908 0 46848005.017417908 66308404.486009598 0 0 0 0 -334447704.92696381 136393834.17694092 0 136393834.17694092 216724961.99986649 0 0 0 0 -416333791.41639996 114731120.49967957 0 114731120.49967957 127900003.66842651 0 0 0 0 -49693550.377423286 71653280.254226685 0 71653280.254226685 83462197.740135193 0 0 0 0 -248116103.28757906 264275274.68382645 0 264275274.68382645 -109916771.17591858 0 0 0 0 109310527.75914764 63028709.038211823 0 63028709.038211823 43588497.618346214 0 0 0 0 214591761.26910067 -22987678.48197937 0 -22987678.48197937 61684725.20401001 0 0 0 0 -22881519.723773956 -53466732.880233765 0 -53466732.880233765 -24909932.411079407 0 0 0 0 66614806.909522057 36417405.486484528 0 36417405.486484528 -34175389.348227739 0 0 0 0 712032.40901979757 -256051.2787324246 0 -256051.2787324246 -1186468.5418927372 0 0 0 0 -455876386.77961946 217640872.90215254 0 217640872.90215254 -120375647.83667755 0 0 0 0 1237809.6023961641 4557211.772462368 0 4557211.772462368 6309150.9966870695 0 0 0 0 6634254.8742771149 -8536116.4301338196 0 -8536116.4301338196 21554047.021713257 0 0 0 0 21688894.981036186 -17740169.620876312 0 -17740169.620876312 27844678.312965393 0 0 0 0 7333417.299487114 -7896339.1096801758 0 -7896339.1096801758 21786286.672050476 0 0 0 0 -455851385.99846935 216962681.49216819 0 216962681.49216819 -200806744.23880005 0 0 0 0 -470598848.56538963 599340068.58407593 0 599340068.58407593 -144469847.2690196 0 0 0 0 -3255753.9051189423 957065.88941955566 0 957065.88941955566 17875408.940704346 0 0 0 0 -6181621.4386005402 132242.92698669434 0 132242.92698669434 21585394.214296341 0 0 0 0 -1118954.9574184418 -1794753.8534469604 0 -1794753.8534469604 21004164.71585083 0 0 0 0 7354137.5721063614 -6220441.8994178772 0 -6220441.8994178772 19158694.464981079 0 0 0 0 2189820.2091722488 -774446.45068359375 0 -774446.45068359375 14644677.612030029 0 0 0 0 -8218483.2340831757 -6214005.8165740967 0 -6214005.8165740967 35332824.828559875 0 0 0 0 4621375.3226513863 -10566608.924098969 0 -10566608.924098969 27557488.71282959 0 0 0 0 -1795122.2612900734 -3360807.8688678741 0 -3360807.8688678741 24236287.591033936 0 0 0 0 -2493915.7485256195 -4599146.8161087036 0 -4599146.8161087036 22925722.854194641 0 0 0 0 -11847249.991859436 971140.80423736572 0 971140.80423736572 27613900.582740784 0 0 0 0 -9338142.9824485779 5645520.7431793213 0 5645520.7431793213 21261881.237342834 0 0 0 0 -4293458.4865541458 2148103.7005805969 0 2148103.7005805969 20989146.410324097 0 0 0 0 -8038981.4802929163 3905376.3723068237 0 3905376.3723068237 22907021.142730713 0 0 0 0 -12949412.027278662 7455834.6304421425 0 7455834.6304421425 24365483.198532104 0 0 0 0 -14341774.094007492 12396388.921791077 0 12396388.921791077 17128986.181770325 0 0 0 0 -23593567.885169983 7962629.5049667358 0 7962629.5049667358 33473755.235679626 0 0 0 0 -6966826.6138124466 -2393296.9708633423 0 -2393296.9708633423 29543486.578765869 0 0 0 0 -4260106.9165410995 -5678746.6517715454 0 -5678746.6517715454 33274520.708572388 0 0 0 0 -15553366.485553741 -4349361.8385772705 0 -4349361.8385772705 46605902.582824707 0 0 0 0 -33705198.05604744 12971663.44525528 0 12971663.44525528 36263634.477378845 0 0 0 0 -26898002.205843925 17200460.055080414 0 17200460.055080414 37292906.835906982 0 0 0 0 1814528.8495452502 12330899.694168996 0 12330899.694168996 22467818.079131082 0 0 0 0 -36646122.079818726 32363899.988941193 0 32363899.988941193 24289539.428062439 0 0 0 0 -219700368.6632418 222854433.95724869 0 222854433.95724869 -75621307.726425171 0 0 0 0 1757843.1746671088 4014877.6590574002 0 4014877.6590574002 4855586.7296151593 0 0 0 0 21815110.057999611 -23876659.079963684 0 -23876659.079963684 44389512.496078491 0 0 0 0 18542960.982801437 -12649370.796661377 0 -12649370.796661377 49204693.079841614 0 0 0 0 -2919389.7465591431 -13471034.601028442 0 -13471034.601028442 46701669.11857605 0 0 0 0 15242747.342963219 -20008220.277072906 0 -20008220.277072906 48520216.394710541 0 0 0 0 -17398808.808710098 36755054.81526947 0 36755054.81526947 50107674.474533081 0 0 0 0 -19412546.587391376 -4277341.7619094849 0 -4277341.7619094849 76115928.451431274 0 0 0 0 77236427.851431847 -74679367.583366394 0 -74679367.583366394 108333164.22354889 0 0 0 0 -8932292.5119905472 15633421.134346008 0 15633421.134346008 94214749.603286743 0 0 0 0 -6594298.6009159088 40568163.031162262 0 40568163.031162262 161167135.05201721 0 0 0 0 40615903.915351868 33799426.150222778 0 33799426.150222778 133751191.85802364 0 0 0 0 2607286.2909784042 2957175.0367498808 0 2957175.0367498808 1636615.1730898842 0 0 0 0 -162764079.15631866 92197004.786766052 0 92197004.786766052 666267873.39290047 0 0 0 0 60403233.574913025 -187945217.13261414 0 -187945217.13261414 402576198.33912659 0 0 0 0 -1149905765.3839207 721704428.30150223 0 721704428.30150223 -61089669.056900024 0 0 0 0 32234484.081705093 858737231.27307892 0 858737231.27307892 -216365955.87817574 0 0 0 0 1803142.9492907517 -477556.39418879338 0 -477556.39418879338 -2410588.8139959276 0 0 0 0 -388276473.61561465 -227588566.36371255 0 -227588566.36371255 -81386738.517578125 0 0 0 0 1265162363.5632374 -268086850.52100754 0 -268086850.52100754 -461666031.1517334 0 0 0 0 302583627.74765086 -688239882.43341064 0 -688239882.43341064 -252798335.6460495 0 0 0 0 2359589589.1114426 1943691538.2416687 0 1943691538.2416687 2339124956.3936157 0 0 0 0 1834425.8642655518 -278619.03322559409 0 -278619.03322559409 -1932844.0219629183 0 0 0 0 99284591.231846958 -533136238.0147934 0 -533136238.0147934 -368067900.07254028 0 0 0 0 -161644175.02260017 -647188782.90675163 0 -647188782.90675163 591533984.20420837 0 0 0 0 -657075812.71028244 -520153627.80997467 0 -520153627.80997467 193261822.165802 0 0 0 0 -616163058.01666141 -592379220.0854187 0 -592379220.0854187 -545947621.82080078 0 0 0 0 -40312449.388555765 448955203.95140839 0 448955203.95140839 -668997390.55609131 0 0 0 0 -100036958.12238348 476025625.02085114 0 476025625.02085114 204998007.09973717 0 0 0 0 -1660611635.4141941 -2427182350.4030838 0 -2427182350.4030838 -583519485.66111755 0 0 0 0 184037485.5416708 924569589.33318329 0 924569589.33318329 772368078.14915466 0 0 0 0 978022248.42353392 -220995461.14776897 0 -220995461.14776897 312392724.17657471 0 0 0 0 4747782.7827102952 -1789125.9116854593 0 -1789125.9116854593 5931816.1753980778 0 0 0 0 176836759.03368282 484737221.75875092 0 484737221.75875092 1414420910.0517082 0 0 0 0 -344142132.88289642 -512473729.29650116 0 -512473729.29650116 1109417064.8973846 0 0 0 0 273324322.59174633 23754058.660529137 0 23754058.660529137 266414817.5269928 0 0 0 0 581847135.18498135 203305702.20233154 0 203305702.20233154 201830171.0766449 0 0 0 0 -63669012.539207578 49143898.876177788 0 49143898.876177788 779337225.7463913 0 0 0 0 197633561.68911648 290634750.69226074 0 290634750.69226074 676603106.58168602 0 0 0 0 1341895921.8671615 724709108.79423523 0 724709108.79423523 406758105.00757599 0 0 0 0 507789101.53467655 15228894.656612396 0 15228894.656612396 20959978.95939827 0 0 0 0 427317454.5076108 -106400322.84051514 0 -106400322.84051514 -84510886.190910339 0 0 0 0 778300022.72952902 -74386259.233467102 0 -74386259.233467102 -115643609.97698212 0 0 0 0 309203983.73740757 -240859317.22389221 0 -240859317.22389221 -111449820.58693695 0 0 0 0 329162249.65636539 92659086.150924683 0 92659086.150924683 65275547.089233398 0 0 0 0 301734545.60902596 -23307094.440406799 0 -23307094.440406799 37077983.004608154 0 0 0 0 209088089.56427574 -49384542.261421204 0 -49384542.261421204 48145313.04850769 0 0 0 0 223835588.79201508 62028889.971717834 0 62028889.971717834 70539919.805875778 0 0 0 0 208222044.03770542 -123195250.30347824 0 -123195250.30347824 -105749595.44382286 0 0 0 0 196519628.62687135 -121339223.33191299 0 -121339223.33191299 -81675728.494041443 0 0 0 0 237019178.33448267 -257722201.49910355 0 -257722201.49910355 -41098949.568675876 0 0 0 0 295008757.09150392 -165328677.31972861 0 -165328677.31972861 -31456257.090057373 0 0 0 0 282363167.16643679 -253379030.81214523 0 -253379030.81214523 -77570276.15851593 0 0 0 0 26632704.823514938 -191043734.52688599 0 -191043734.52688599 -17068011.142848969 0 0 0 0 51671210.404767692 -27356530.489402294 0 -27356530.489402294 -11266917.690200806 0 0 0 0 281772813.321522 -33635986.700365067 0 -33635986.700365067 -36192910.666915894 0 0 0 0 -182781481.93191409 -42814541.257221222 0 -42814541.257221222 5916586.8701477051 0 0 0 0 115908778.03962994 -76820081.265796661 0 -76820081.265796661 9483719.066619873 0 0 0 0 -256605348.53081584 -379946429.24309158 0 -379946429.24309158 32804103.447044373 0 0 0 0 248873562.65864992 -332090157.23261642 0 -332090157.23261642 6377135.4307250977 0 0 0 0 317253136.69069248 -258239883.72053528 0 -258239883.72053528 -76992495.699354172 0 0 0 0 
</DataArray>
<DataArray type="Float64" Name="cross_section_updated" format="ascii">
1 1 1 1 1 0.04963256181005872 1 1 1 1 1 1 1 0.05406385129920302 1 1 1 1 0.060242031322921767 1 1 0.053255466035842774 1 1 1 1 0.072093466963722014 1 1 1 1 0.047996394380214566 1 1 1 1 1 1 1 1 1 1 1 1 1 0.05040751976924536 1 1 0.049937683719580635 1 1 1 1 1 0.053289053409541827 1 1 1 1 1 1 1 0.07089231385754359 1 1 1 1 0.048897587965858899 1 1 1 1 1 1 1 1 1 0.047828649232303733 1 1 0.049367438562195776 1 1 0.051241384721449658 1 1 1 1 0.055454051606996291 1 1 1 1 1 1 1 0.049908213414743406 0.049988150023940768 0.050141176637695961 1 1 0.049824108622310792 1 1 1 1 1 0.049998177974383558 1 1 1 1 1 1 1 1 1 1 1 1 1 0.050020806951266567 1 1 1 0.054246496321227258 1 1 1 1 1 1 0.051812182755746859 1 1 1 1 1 1 1 1 1 1 1 1 1 1 1 1 1 1 1 1 1 1 1 1 1 0.049850368757383176 1 1 1 0.051413440213349634 1 1 0.0510798175989053 1 1 1 1 1 1 1 1 1 1 1 0.051506417117563347 1 1 1 1 1 1 1 1 0.053613725672295595 1 1 1 1 1 1 1 1 0.05415734558474368 1 1 1 1 1 1 1 1 1 0.050485838775199222 1 1 1 1 1 1 1 1 1 1 1 1 1 1 1 1 1 1 1 1 1 1 1 0.049997176864304868 1 1 1 0.069304037987939368 1 0.049929647695313766 1 0.062596910517280613 1 1 0.052543315459498856 1 1 1 0.055386976913832202 1 0.048027027760169115 1 0.049017656631060162 1 0.062346479193733963 0.049001944641526872 1 0.049441580165343391 1 1 0.049286126665107691 1 0.050675325816084631 1 1 1 0.055668489674563684 1 0.054570246755426807 0.050256868286861253 1 1 0.050475090425028214 1 1 1 0.053143244168070758 1 0.050328724917225481 0.051399893366591842 0.051300123577995863 1 0.050193971815154663 1 1 1 0.05003683750804408 1 0.052000802886700989 0.052829347129508 0.049466697220058253 1 1 0.051892771457188409 0.052811847027334644 1 1 1 1 0.054881237860160817 1 0.049557156433651224 1 1 0.053280656704614765 1 1 1 0.050327856881368864 1 0.051783992694570471 0.051254955544971822 0.050628501354083172 1 1 1 0.049490722456516194 1 0.052393936781313072 0.055333053581586612 0.049181021665983989 0.051493226573675777 1 1 1 0.055413610386251005 0.050000051827018013 1 1 0.051706307208464253 0.054472045329317785 0.049374281021088672 1 0.049062763731489545 1 1 1 1 0.050005868816916592 1 1 1 1 1 1 1 0.050880898414097347 1 1 1 1 1 1 0.052747669240028425 0.050000950189065627 1 1 1 0.050437230686884049 1 1 1 0.050050406548919783 1 0.049450945892012745 1 0.047013756195163195 0.060527493987120332 1 1 1 1 0.049237918851052262 1 1 0.05973489851672175 1 1 1 1 0.050022457689511544 1 0.049989162361992634 1 1 1 1 1 0.05471604138695544 0.055158901234405276 1 1 1 1 1 1 1 1 0.050552015473826692 1 1 1 0.049214125647508405 1 1 0.059146033508615595 1 0.049993471166297848 1 1 1 1 1 1 1 1 1 1 1 0.059073139045145252 1 0.051878985274483633 1 0.057762576205644664 1 1 1 0.051460117049813583 1 0.050012426100645602 1 0.05193374748879917 1 1 1 1 1 1 0.05585340054296075 1 0.057330471241510576 1 1 1 0.056071820032547126 1 1 1 0.062328957546887755 1 0.052724797275896448 0.053038858958872004 1 1 1 1 0.061910818189264305 1 1 1 1 0.055323264074005847 0.052921139179799556 1 1 0.048895700857974136 1 0.054772486260501643 1 0.049759513321201043 0.049916918312976434 1 1 1 0.050093561505908005 1 1 1 1 0.057083407667219727 1 1 1 1 1 1 1 1 1 1 1 0.050002883386453319 1 1 1 1 0.053100938129527632 1 1 1 0.053816723137167552 1 0.053075202969978912 0.055406079055971828 0.049998138196823229 1 1 1 0.055806931406136462 0.067149397731968402 1 0.068205182489043073 1 1 0.049545524764084942 1 1 1 1 0.069497340236485849 1 1 1 1 1 1 1 1 1 1 1 0.070674620190017828 0.069679706301591898 1 1 0.053780061766147753 1 1 1 0.050017296133242004 1 1 1 1 1 1 0.075777369948904369 1 1 1 0.044014307770108077 1 1 1 0.059335259051585126 1 1 1 1 1 1 1 1 1 1 1 0.075883080017744867 1 1 1 0.075774460875812064 1 1 1 1 1 1 1 0.050367763309694648 1 1 1 1 1 0.05100624039206416 1 1 1 1 1 1 1 1 1 1 1 1 1 1 1 1 1 1 1 0.049636318145831554 1 1 1 1 0.04993688756671405 1 1 0.050031204139463187 1 1 1 1 1 1 1 0.050202176282359331 1 1 1 1 1 1 1 1 0.049996281837931811 1 0.050592628241967585 1 1 0.050171850813913031 1 1 1 0.049983049633989259 1 1 0.049314692173809696 1 1 1 0.054456621015185572 1 0.05738626125649253 1 1 0.050002501385054479 1 0.045965299499516485 1 1 1 1 1 1 1 1 1 1 1 1 1 1 1 1 1 1 1 1 1 1 0.050187550096411501 1 0.049720388615222343 1 0.049905692654914638 1 1 1 1 1 1 1 1 1 1 1 1 1 1 1 0.050094088532914957 1 1 1 1 1 1 1 1 1 0.050093461563496547 1 1 1 1 1 1 1 1 1 1 1 1 1 1 1 1 1 1 1 1 1 1 1 1 1 1 1 1 1 0.049995831112568619 1 1 0.050000124642171899 1 1 1 0.049612830001624968 0.052552649207504375 1 0.051998748800706721 1 1 1 1 1 0.050089824590299856 1 1 1 1 1 0.05055642294015817 1 1 1 1 1 1 1 1 1 1 1 1 1 1 1 1 1 1 1 1 1 1 1 1 1 1 1 1 1 1 1 1 1 1 1 1 1 1 1 1 1 1 1 1 1 1 1 1 1 0.050106019321640577 1 1 1 1 1 1 1 1 1 1 1 1 1 1 1 0.051371981132642151 1 1 1 1 0.050515286003328323 1 1 1 1 1 1 1 1 1 1 1 1 1 1 1 1 1 1 1 1 1 1 1 1 1 1 1 0.060040228867083559 1 1 0.05297104694234351 1 0.053768132108082456 0.050460932786669743 0.041826928801772342 0.070956990380013144 1 1 0.050027924401096421 1 1 1 1 1 1 1 1 1 1 1 1 1 1 1 1 1 0.053820406848848298 1 1 0.045850018127389987 1 0.052189147747077454 1 1 1 1 0.059050925512051412 1 0.04964743683177867 1 1 1 1 0.050232403907912393 1 1 1 0.05700036330058858 1 1 1 1 1 0.050005052151060325 1 0.050226314562531696 1 1 0.05316608991554627 0.055856566136272684 1 0.048768337553239227 1 1 1 1 1 1 1 1 1 1 1 0.073333216642794574 1 1 1 0.07293901855785126 1 1 1 0.052228986345728985 1 1 0.071642563251981248 0.049697475281638204 0.049902961376537901 1 1 1 1 1 1 1 1 1 1 1 0.050051508388668016 1 1 1 1 1 1 1 1 0.070987783228913554 0.0656602947198969 0.070261794838096234 1 1 1 1 1 1 1 1 0.062645225460414997 0.050064450962845869 1 1 1 0.048730440724534127 1 1 0.051357606366154739 1 1 1 1 1 1 1 1 1 1 1 0.050445093359215605 1 1 1 1 1 1 1 1 0.050415510711089934 1 1 1 1 1 1 1 1 1 1 0.049929490121588038 1 0.083607305502849949 0.043381804102873803 0.051628998955077984 1 1 1 1 1 1 1 0.076841771653750474 0.062426202313587746 1 0.05223255719998094 1 1 1 1 1 0.050399873239192101 1 0.049950687119790657 0.051653747983198772 1 1 1 0.051128551492436933 1 0.050551452349559198 1 1 1 1 0.050061695910986248 1 1 1 1 1 1 1 1 1 1 1 1 1 1 1 1 1 0.049313121120959723 1 1 1 0.051307736007668109 1 1 1 1 1 0.049791152000829002 1 1 1 1 1 1 0.050944466089710747 1 0.050360209468623206 1 1 1 1 1 1 1 1 0.051340906598620686 1 1 1 0.077875201769978378 1 1 1 1 1 1 1 1 1 1 1 1 1 1 1 1 1 1 1 1 1 1 1 1 1 0.052402518866917713 0.059845689833026801 0.057000665047207882 1 1 1 1 0.056967908328963826 1 1 1 1 0.055941314438232428 1 1 1 1 1 1 1 0.050231245733115409 1 1 1 1 1 1 1 1 0.050549131906082949 1 1 1 1 1 1 1 1 1 1 1 1 0.051512708083758012 1 1 1 1 1 1 0.049751365675339845 1 1 1 1 1 1 1 1 0.066354956516647787 1 1 1 0.054406494617291787 1 1 1 1 1 1 1 1 1 1 1 1 0.050317886172967528 1 1 1 1 1 1 1 1 1 1 1 1 1 1 1 1 1 1 1 1 1 1 1 1 1 1 1 1 1 1 1 1 1 1 1 1 1 1 1 1 1 1 1 1 1 1 1 0.050337939576964572 1 1 1 1 1 1 1 1 1 1 1 1 1 1 1 1 1 1 1 1 1 1 1 1 0.050272191837952424 1 1 1 1 1 1 1 1 1 1 0.049948870428597941 1 1 0.050756401790515465 1 1 1 1 1 1 1 1 1 0.049801988682580789 1 0.04962661297441625 1 1 1 1 0.05112986096545788 1 1 0.050007926476188777 1 0.050133506206758063 1 1 1 1 1 0.05098036487580547 1 1 1 1 1 1 1 1 0.048731071073759513 1 1 1 1 1 1 1 1 1 1 1 1 1 1 0.051546362504529257 1 0.050476632421077555 0.050090319662286373 1 1 1 1 1 0.050040847033097205 1 1 1 1 1 1 1 1 1 1 1 1 1 1 1 0.051719644856040664 1 1 1 1 1 1 1 1 1 1 1 1 1 1 1 1 0.050849726681535062 1 1 1 1 1 0.055467005327595451 0.049938766640073476 1 1 0.05438277694182575 1 1 1 1 1 1 1 1 1 1 0.051758845459269273 1 1 1 1 1 1 1 1 1 0.051262954505327168 1 0.078136975357298882 1 1 1 1 1 0.048984271842681601 1 1 1 1 0.081479863785346357 1 1 1 0.046382462092720358 1 1 1 0.077298112386260429 1 1 0.052220226465235185 1 1 1 1 1 1 1 1 1 1 1 1 1 1 1 1 0.050610662318458913 1 1 1 1 1 1 1 0.049017797421104972 1 1 1 1 1 1 1 1 1 1 1 1 1 1 1 1 1 1 1 1 1 1 1 1 1 1 1 0.061795320505798265 1 1 1 1 0.050730008718242868 1 1 1 0.062702106031520627 1 1 1 1 1 1 1 1 1 0.063465768997915159 1 0.049998199277806847 1 1 1 1 1 1 1 1 1 1 1 1 1 1 1 1 1 1 0.049989751408428568 0.058184802764695384 1 1 1 0.050023619170196675 1 1 0.054980088293936941 1 1 0.051118878021153981 1 1 1 0.05064727437860124 1 1 0.050450409641121997 1 1 1 1 1 1 1 1 1 1 1 1 1 1 1 1 1 1 1 1 0.051497001060136313 1 0.052137969899335723 1 1 1 1 1 1 1 1 1 1 1 0.055495535987115582 1 0.057653501165480028 1 1 1 0.10713441347870545 1 1 1 1 1 0.049827849217623364 1 1 1 1 1 1 0.039853307862715848 1 1 1 1 1 1 1 1 1 1 1 0.038283147688288242 1 1 1 1 1 1 1 1 0.10419147620917718 1 1 1 0.085686903269794154 1 1 0.036667854537755742 1 1 1 1 1 0.061324948306722707 1 1 1 1 1 1 1 1 1 0.050209777466640348 1 1 0.074409328842851716 1 0.0631340696527488 1 0.05806454617314346 0.061680694349888397 0.051331106571096075 1 0.049977679223695219 1 1 1 1 1 1 0.080045930949441263 1 1 1 1 1 1 0.05056990218605658 1 1 1 1 1 1 1 0.074062631272238999 1 1 1 1 0.067782592681246687 1 1 1 1 1 0.074612219812787983 1 0.050004461302235598 1 1 1 1 1 1 1 1 1 1 0.051537193994060169 1 1 1 1 1 1 1 0.055644575928700285 1 1 1 1 1 1 1 0.050002813755946056 1 0.052278562370345935 1 1 1 1 1 1 1 1 0.060193319330213581 1 1 1 0.066039559917407301 0.050065418147321974 1 1 1 1 1 0.058277672413305136 0.050115630878232661 1 0.056895895422512735 1 1 0.047125580573065054 1 1 0.055425825377185919 1 1 1 1 1 1 1 1 0.062569635525417069 1 1 1 1 1 0.077845075653895965 1 1 1 1 0.073521805512874752 1 1 0.070271170044756567 1 1 1 1 1 1 1 1 1 1 1 1 1 1 1 1 1 1 1 1 1 1 1 1 1 1 1 1 1 1 1 1 1 1 1 1 1 1 1 1 1 0.05017694368300183 1 1 0.050226825373238353 1 1 1 1 1 0.050749802512620755 1 1 1 1 0.050488966532371581 1 1 1 1 1 1 1 1 1 1 1 1 1 1 1 1 1 1 1 1 1 1 1 1 0.050752964498754362 1 1 1 0.050352978708008901 1 1 1 1 1 1 0.05006680521920083 1 1 1 1 1 1 1 1 1 1 1 0.073759774943046724 1 0.057608190831983021 0.049891097878317296 1 1 0.056912354586566426 1 1 1 1 1 1 1 1 1 1 1 0.068690214201960059 1 1 0.052448192898961271 1 1 1 1 1 1 1 1 1 1 1 1 1 1 1 0.063925716558448004 1 1 1 1 1 1 1 0.049889004829290137 1 0.050627173088763008 1 1 1 1 0.061470339027317591 1 0.050652292186868259 1 1 1 1 1 1 1 1 1 0.049051283695659288 1 1 1 1 1 1 1 1 1 1 1 1 1 1 1 1 1 0.05624699736135913 1 1 1 1 1 1 1 1 1 1 1 1 1 1 1 1 1 1 1 1 1 1 1 1 1 0.049903267024935263 0.04982452054428483 1 1 1 1 1 1 1 1 1 1 1 0.050067886620191078 1 1 1 1 0.049763541887431553 1 1 1 1 0.049792303418345549 1 1 1 1 1 1 1 1 0.047266005358733008 1 1 1 1 1 1 1 1 1 0.049083007918096951 1 1 1 1 1 1 1 1 1 1 1 1 1 1 1 1 1 1 1 1 0.058256683079790983 1 1 1 1 1 1 1 1 1 1 1 1 1 1 0.075047462873153808 1 0.050103304175004207 1 1 1 1 1 1 1 1 0.074408544876957389 1 1 0.050170109394205027 1 1 1 1 1 1 1 1 1 1 1 1 1 1 1 1 1 1 1 1 1 1 1 1 1 1 1 1 1 1 1 1 1 1 1 1 0.050328656589341332 1 1 0.050058087194965378 1 1 1 1 0.056346012741670302 1 0.045869861272988852 1 1 0.046579616071503412 1 0.051131553644946343 1 1 1 1 1 0.050497241526439293 1 1 1 1 1 1 1 1 1 1 1 1 0.050151256326329795 1 1 1 0.057625204496045745 1 1 1 1 1 1 1 1 1 0.054191185339882847 1 1 1 1 0.053504806697758957 0.055107520245076709 1 1 1 1 1 1 1 1 0.050074731079649215 1 1 1 1 1 0.064394095174264324 1 1 1 0.06335672547467476 1 1 1 0.056131386079961362 1 1 1 1 0.075435375115746883 1 1 1 1 1 1 1 1 1 1 1 1 1 1 0.058170659457712645 1 1 1 1 1 1 0.057098101543188368 1 0.062055607504029359 0.050002749788861003 1 0.077655576195769724 1 0.050254582870299255 1 1 1 1 0.050240555769785478 1 1 1 1 0.050548463772767463 1 1 1 1 1 1 1 1 1 0.050516929826094042 1 1 1 1 1 1 1 1 1 1 1 1 1 1 0.051151241944601092 1 1 1 0.050270772213781734 1 1 1 0.050721053018107115 1 0.049988408698462661 1 1 1 1 1 1 1 1 1 1 1 1 1 1 1 1 0.050792975899954199 1 1 1 1 1 1 0.052527489252424592 1 1 1 1 1 1 1 1 1 1 1 1 1 1 1 1 1 1 0.055933311569753508 1 1 1 1 1 1 1 1 1 1 1 1 1 1 1 1 1 1 1 1 1 1 1 1 1 1 1 1 1 1 1 1 1 1 0.049106347116289542 1 1 1 1 0.049822883955693328 1 1 1 1 1 1 1 0.055246635090433982 1 1 1 1 1 1 1 1 1 0.04856067386251553 1 1 0.059094174140023145 1 1 1 1 1 0.049940437672740465 1 1 1 0.050387835791888561 1 1 0.054155391694804551 1 1 1 1 1 1 1 1 1 1 1 1 1 1 1 1 1 1 1 1 0.046818679136813909 1 1 1 1 1 1 1 1 1 1 0.058860840996830886 0.043707516631171756 1 0.055649883482208708 1 1 1 1 1 0.056040668380969869 1 1 1 1 0.055459354726422959 1 1 1 1 1 0.049909538982464093 1 0.049963688211918572 1 1 0.047586338410899202 1 1 1 1 1 1 1 1 0.049218402694290314 1 1 1 1 1 1 0.049903174305077819 1 1 1 1 1 1 0.049823958624445303 1 1 1 1 0.048049806704890383 1 1 0.053283495856622759 1 0.048288438383163837 1 1 0.050101521909617371 1 1 1 1 1 1 0.051905548219910905 1 1 1 1 0.050131911496180348 1 1 1 1 1 1 1 1 0.061432375553769979 0.046546416875164739 1 1 1 1 1 1 1 1 0.056025632830956275 1 1 1 1 1 1 0.052792962256046169 1 1 1 1 1 1 1 0.049017223972664198 1 1 1 0.052089381383280356 1 1 1 1 1 1 1 1 1 1 1 1 0.055788622988747767 1 1 1 1 0.056592009674461326 1 1 0.048896672195187833 1 1 1 1 0.053507513842814783 1 1 1 0.050060379994423101 0.055508807509536066 1 1 1 0.050283224802871333 1 1 1 0.057872460588848505 1 1 1 1 1 1 1 1 1 0.058091356951440042 1 1 1 0.049998327020322281 1 1 1 1 1 1 1 1 1 1 1 1 0.056757027143954725 1 0.050021779612499241 1 1 0.052857842231545604 1 1 0.051788566945905799 1 1 1 1 1 1 1 0.049994462936633476 1 1 1 1 1 0.050037891555663502 1 0.051492675690532376 1 1 1 0.052615480084001104 0.049428557555787317 1 0.052952845016699363 0.056867114656411359 1 0.053404374521081786 1 1 1 1 1 1 0.050519724559656323 1 0.065145911624719915 1 1 1 1 1 1 1 1 1 1 1 1 1 0.05006813607622293 1 1 0.05522794636445811 1 0.051643226275501795 1 1 0.062237153735633058 1 1 1 0.052509826663908306 0.047217089057811884 1 1 0.063783240967157789 1 1 1 1 1 1 1 1 1 1 1 1 1 1 1 1 1 1 1 1 1 1 1 0.052143704188915244 0.050119439972647589 1 0.048994364001546956 1 0.050143613174689045 1 1 0.050002313433587089 0.059081027933321775 1 1 0.049997669309825576 1 1 0.051159567109583942 1 1 0.058941614858904111 1 0.051111447048733501 1 1 1 1 0.050081206221963971 1 1 1 1 0.050683414696093658 1 0.052038510618530362 0.054651871985192224 1 0.054870673990918217 1 1 0.051299889507681246 0.051454660200317769 1 1 1 0.050127586525366571 1 1 1 1 0.054783614274478858 0.050376527702022909 1 1 1 1 1 0.051086502580860338 1 1 1 1 1 1 1 1 1 1 1 0.051116365805526448 1 0.054021238001304338 1 0.055802834151651028 1 1 0.050002932776692446 1 0.054459473245323332 1 1 1 1 1 1 1 1 0.050734113850166428 1 1 0.0530058222586135 1 1 1 1 0.050300184026767281 1 1 1 1 1 1 1 1 1 1 1 1 0.05164262294911677 1 1 1 1 1 1 1 1 1 1 1 0.04980982758529081 1 1 1 1 1 1 0.051809144863878692 1 0.051762654322515513 1 1 0.04982137140619225 1 1 1 1 1 1 1 1 1 1 1 1 1 1 1 1 1 0.05003320583755743 0.051921916423159492 1 1 1 0.049550640981980004 1 1 0.050838030631609188 1 1 1 1 1 1 1 1 1 1 1 1 1 1 1 1 1 1 1 1 1 1 1 1 1 0.049920076457424564 0.047321698517179205 1 1 1 1 1 1 1 1 1 1 1 0.044194660083534405 1 1 1 1 1 1 1 1 1 1 1 1 1 1 1 1 1 1 1 1 1 1 1 1 1 1 1 1 1 1 1 1 1 0.050009417722433377 1 1 1 1 1 0.049873276755903112 1 1 0.050390921657299415 1 1 0.046886641101313881 0.073544649072939144 1 1 1 1 1 1 1 1 1 1 1 1 1 0.072668042491481219 1 1 0.050133833777237458 1 1 1 1 1 1 0.050010492768575984 1 1 0.070488547419465059 1 1 1 1 1 1 1 1 1 1 1 1 1 0.059583643275169712 1 1 1 1 1 1 1 0.050100165263523316 1 1 1 1 1 1 1 1 1 1 1 1 0.053568070557161673 1 1 0.051758925693282991 1 1 1 1 1 1 1 1 1 1 1 1 1 1 1 1 1 1 1 1 0.057395930956070554 1 1 0.054431872949112572 1 0.056148901454769307 1 1 1 0.049344353806777194 1 1 0.049458329370144737 1 0.051638448744980386 1 1 1 0.051030555247490887 1 1 1 1 0.049992450658510719 1 1 1 1 1 1 1 0.049997100336508803 1 1 1 0.04932895938426364 1 1 1 1 1 1 1 1 1 1 1 1 0.0524332009247696 1 1 1 1 1 1 1 1 0.049195208460616466 1 1 1 1 1 1 1 1 1 1 1 0.049780329211482233 1 1 1 1 1 1 1 1 1 1 1 1 1 1 1 1 1 1 1 0.04759034986510819 0.050561142627635169 1 1 1 0.050211479218640095 1 1 1 1 1 1 1 1 1 1 1 1 0.050318803731317217 1 1 1 1 1 1 1 1 1 0.050891508846068224 1 1 1 1 1 1 1 1 1 1 1 1 1 1 1 1 0.049577004831394787 1 0.050188340876648786 1 1 1 1 1 0.049879580601090039 1 1 1 1 0.04997767863343857 1 1 1 0.049987354947639256 1 1 1 0.050361199833999198 1 1 1 1 1 1 1 1 1 0.050030538255227894 1 1 1 0.050027396617191737 1 1 0.050021390779206698 1 1 1 1 1 1 0.050013708875919854 1 1 1 1 1 1 1 1 0.049980653888564999 1 1 1 0.050007298562962529 1 1 1 1 1 1 1 1 1 1 1 1 1 1 1 1 1 1 1 1 1 1 1 1 1 1 1 0.050326645905255277 1 1 1 1 1 1 1 0.05011401166701112 1 1 1 1 1 1 1 1 1 1 1 1 1 1 1 1 1 1 1 1 1 1 1 1 1 0.050941416423497712 1 0.050317998641437829 1 1 1 1 1 1 0.051503040705698624 1 1 1 0.050567997540760509 1 1 0.051647997988261488 1 1 1 1 1 1 1 1 1 1 1 1 0.061240470174244284 1 1 1 1 1 0.06024500621459801 1 1 1 1 1 1 1 1 1 1 1 1 1 0.050879622923638734 1 1 1 0.05053957332735437 1 1 1 1 1 1 1 1 1 1 1 1 0.051561489400383596 0.058873164933577818 1 1 1 1 0.061923211328178421 1 1 1 1 1 1 1 1 1 0.050185790016827339 0.044149817940233572 1 1 1 1 1 0.042145603470234827 1 1 1 1 1 0.049954869861229191 1 1 1 1 1 0.049995108589487282 1 0.059663116884983866 1 1 1 1 0.049079225818279566 1 0.052892394967426759 1 0.058262360553752862 0.04998078260151384 1 1 1 1 1 1 1 0.050061518186899932 0.049831158811910581 1 1 1 1 1 1 0.050000804428704117 0.050302887713370562 0.049981444433856555 1 0.053512803138417948 0.053868188606756878 1 1 1 0.051905966692215554 1 1 1 1 1 0.054322036940155798 0.049875891309705718 0.050000094288290352 1 0.057463056021270262 1 1 1 0.049958365580119457 1 0.047808320661058515 0.05030893686715085 1 1 1 1 1 1 1 0.049458255808112687 0.052349291860105986 1 1 0.050767642734667918 0.049066180811559092 0.05562775682938529 1 1 1 1 1 1 1 1 1 1 1 1 1 1 1 1 1 1 1 1 1 1 1 1 1 1 1 1 1 1 1 1 1 1 1 1 1 1 1 1 0.050044573279404599 1 1 1 1 1 1 1 1 1 1 0.050658850554842941 1 1 1 1 1 1 0.051926339980142892 1 1 0.053002557420971624 1 1 1 1 1 1 1 1 1 1 1 1 1 0.053694637107283331 1 0.058868651721563012 1 1 1 1 0.049697882123399158 1 1 1 0.050050696549755656 1 1 0.048262351193464705 1 1 1 0.050000776716653331 1 1 0.057722670487215577 1 1 1 1 1 0.056457120795723938 1 1 1 1 1 1 1 0.05276264061479867 1 1 1 1 1 1 1 0.050089115345062961 1 1 0.051379583331734133 1 1 1 1 0.05049131648117202 1 0.050815539931728729 1 1 1 1 1 0.051448327598281371 1 1 1 1 0.050596775380971883 1 1 1 1 1 1 0.051744499849220929 0.048957767203900784 1 1 1 1 1 0.054340911484307919 1 1 0.058809431356083172 1 1 1 1 1 1 1 1 1 1 0.049636925359320051 1 1 1 1 1 1 1 1 1 1 1 1 1 1 1 1 1 1 0.049840805592959558 1 1 1 1 1 1 0.049986907703510129 1 1 1 1 1 1 1 0.060883053231447194 0.050051707869609635 1 1 1 1 0.050023328027769758 1 1 1 1 1 1 1 0.055294466386845445 1 1 0.050128176163913116 1 0.049641499405239542 0.053458984966314779 0.047762386203048166 1 1 1 1 1 1 0.050255318017467285 1 1 1 1 1 0.050002994298950526 1 1 1 1 0.049023144401180122 1 1 1 0.054033592025146293 1 1 1 0.053332498138670081 1 1 1 1 1 1 1 1 1 1 1 1 1 1 1 1 1 1 1 1 1 1 1 1 1 0.061660536567219995 1 1 1 1 1 1 1 0.052549607114657948 1 0.063427108081390293 1 1 1 1 1 1 0.052745325266344456 1 1 0.050972388469236421 1 1 1 0.049933552034141737 1 1 0.057763858540724425 1 1 1 1 1 0.047005218220340608 1 1 1 0.049120556196604895 0.053382111640199154 1 1 1 1 1 1 1 1 1 1 1 1 0.051290640608888313 1 1 1 1 1 1 1 1 1 0.053081494342096656 1 1 1 1 1 0.049994835903706174 0.050522083623839864 1 1 1 1 1 1 1 1 1 0.050114345069408185 1 1 1 1 1 1 1 1 0.051376120396790619 1 1 1 1 1 1 1 1 1 1 1 1 1 1 1 1 1 1 0.049512859829669346 1 1 1 1 0.048841819213932984 1 0.050770427408507193 1 0.05137695327509148 1 1 1 1 1 1 1 1 1 1 1 1 1 1 1 1 1 0.052739455513184701 1 1 1 1 1 0.049424063971924878 1 1 1 0.052695597698585617 0.049181772913635624 1 1 1 1 1 0.050387816004806144 1 1 1 1 0.050491979885227661 1 1 1 1 1 1 1 1 0.050871608742854256 1 1 1 1 1 1 1 0.050588959943474496 1 1 1 1 1 1 1 1 1 0.050034434816662504 1 1 1 1 1 1 1 1 1 1 1 1 1 1 1 1 1 1 0.050145595909392132 1 1 1 1 1 1 1 1 1 1 1 1 1 0.049779003094838771 1 1 1 1 1 1 0.050091316732288692 1 1 0.04997335532560248 1 1 0.050204818698051552 1 1 1 1 1 1 1 1 1 1 1 1 1 1 1 1 1 1 1 1 1 1 1 1 1 1 0.05004105563987106 1 0.044879842446870918 1 0.050001337569185442 0.056680995934358575 1 1 1 0.045466459419173343 1 1 1 1 1 1 1 1 1 0.050451225982991177 0.049340989269836454 1 0.069190195506502711 1 1 1 1 1 1 1 1 1 1 1 1 1 1 0.049994695622577183 1 0.060437175543782161 0.053390299863804981 1 0.0571375282490207 1 1 1 1 1 1 1 1 1 0.068038857738880743 0.049544483567698243 1 1 1 1 1 1 1 1 1 1 1 1 1 1 1 1 1 1 1 1 1 1 0.051520739481401664 1 1 1 1 1 0.049721225749776249 1 1 1 1 1 0.049073721869851115 1 1 1 0.054658337100658948 1 1 1 1 1 1 1 1 1 0.050087669812429868 1 1 1 1 0.06834792084616248 1 1 1 1 1 1 0.067193389653354321 1 1 1 1 1 1 1 0.050210444362281378 1 1 1 1 0.064256540640181964 1 1 1 1 1 1 1 1 1 1 0.050053557447959945 1 1 1 1 0.055270480738559967 1 1 1 0.05485932573156848 1 1 1 1 1 0.050267520369471116 1 1 1 1 1 1 1 1 1 1 1 1 1 1 0.050870622188416842 0.06005133313550988 1 1 0.057519929758187968 1 1 1 1 1 1 1 0.050400744080913905 1 1 1 1 1 1 0.050574270934191194 1 1 1 1 1 1 1 1 1 1 1 1 1 1 1 1 1 1 1 1 1 1 1 0.051330558325469872 1 1 1 1 1 1 1 1 0.050457367387671669 1 1 1 1 0.051319067559062764 1 1 1 1 1 0.051581237404043224 1 0.050011450348011008 1 0.053410197231089952 1 1 1 1 1 1 1 0.050016968073516743 1 1 1 0.048288799788503638 1 1 1 1 1 0.050320194325868227 1 1 1 1 1 0.050036704734366784 1 0.050000393622890021 1 1 0.049979231582098257 1 0.051952956578092305 1 1 1 1 1 0.050390028053985583 1 1 1 0.050797811565979858 1 1 1 1 1 1 1 1 1 1 0.05004799075525497 1 1 1 1 1 1 1 1 1 1 1 1 1 1 1 1 1 1 1 1 1 1 0.050129983225363925 1 1 1 1 1 1 1 1 1 1 1 1 1 1 1 1 1 1 0.050261492190899926 1 1 1 0.050228169382064855 1 1 1 1 1 1 0.047970237933352519 1 1 1 0.048771226974460721 0.051907977926753848 1 0.048059925599520367 1 0.051349408765606036 0.048290063289601712 1 0.04771541130728317 1 1 0.049996907374888273 1 1 0.050156785345251489 0.049976227994483612 1 1 1 1 1 1 1 1 0.049991697142128519 1 0.049998522894194146 1 1 1 1 1 1 1 1 1 1 1 1 1 1 1 1 1 1 1 1 1 1 0.054016470753485882 1 1 1 1 1 1 1 1 0.054585814295892217 1 1 0.050049416967837719 1 1 0.055077187494926502 0.050062754076916682 1 1 0.050025223482650538 1 1 1 1 1 1 1 1 1 1 1 1 1 1 1 1 1 1 1 1 1 1 1 1 1 1 1 1 1 1 1 1 1 1 1 1 1 1 1 0.049335644648443838 1 0.048661780600598378 1 1 1 1 1 1 1 1 1 1 1 1 1 1 1 1 1 1 1 1 1 1 1 1 1 1 1 1 1 1 1 1 1 1 1 1 1 1 1 1 0.050028989803368437 1 1 0.049918269661039856 1 1 1 1 1 0.050356382536365166 1 0.050311809403441099 1 1 0.052103464241865322 1 1 1 1 1 1 0.053430504643714377 1 1 1 1 1 1 1 1 1 1 1 0.049886027378012614 1 1 0.060833743900534219 0.049696305134660133 1 0.050706613165843316 1 1 0.056169645981727176 1 1 1 1 0.050004348748442895 1 1 1 1 1 1 1 1 1 0.050007613383818442 1 0.065813584658721433 1 1 1 1 1 1 1 0.049822777130617737 1 0.065943368344959563 1 1 1 1 1 1 1 1 1 0.050737444341321138 1 0.067550543163353224 1 1 1 1 1 1 1 1 1 1 0.052309397183478226 1 1 1 0.063831743569512767 1 1 0.04999769986735008 1 1 0.049657431879905657 1 1 1 1 0.049798878667630463 1 1 1 0.050113501965762856 1 1 1 1 1 1 1 1 1 1 1 1 1 1 0.049932329848775048 1 1 1 1 1 1 0.049521231792144293 1 0.050482323838453441 1 0.05165455055298334 1 1 1 0.049895327082171176 1 1 1 1 1 1 1 1 0.051888440786294801 1 1 1 1 1 0.049984403569885462 1 1 0.052441477610173919 1 1 1 1 1 1 1 1 1 0.051327664047645868 1 1 1 0.050557906869427988 1 1 1 1 1 1 0.051751326593220605 1 1 1 1 1 1 1 1 1 1 1 1 1 1 1 1 1 1 1 1 1 1 1 1 1 1 1 1 1 1 1 0.049836162805697228 1 1 1 1 1 0.049713180179187751 1 1 0.051651208624243515 0.050313397034233154 1 1 1 1 0.048924921917009326 1 1 1 1 1 0.051749486540794046 1 1 1 1 1 1 1 1 1 1 1 1 1 1 1 1 0.04984527599464196 1 1 1 1 1 1 1 1 0.050084717935793721 0.05023763380234611 1 1 1 1 1 1 0.050300529863701191 1 1 1 1 0.049917073825077894 1 1 1 1 1 1 1 1 1 1 1 1 1 1 1 1 1 1 1 1 1 1 1 1 0.050196020343299938 1 1 0.050205133532244657 1 1 1 1 1 1 1 1 1 1 1 1 1 1 1 1 1 1 1 1 1 1 1 1 1 1 1 0.050021143434674564 1 0.050138284249572063 1 1 1 1 1 0.050281315008974363 1 1 1 1 1 1 1 1 1 1 1 1 1 1 1 1 1 1 1 1 0.049918846711760292 0.050478728165547687 1 0.049990346690253755 1 1 1 1 1 1 1 1 1 1 1 1 1 1 1 1 0.050011795149118361 1 1 1 0.050007547820249874 1 1 1 1 1 1 1 1 1 1 1 1 1 0.050143030759402324 1 1 1 1 1 1 1 1 1 1 1 1 1 1 1 1 1 1 1 1 1 1 0.049558013324772839 1 1 1 1 1 1 1 1 1 1 1 1 1 0.053313349062212773 1 0.052749064038180429 1 1 0.04830957762226628 0.061261604433943295 1 1 1 1 1 1 1 1 1 1 1 1 1 1 1 1 1 1 1 1 0.05307127093031741 1 1 0.074423519944631825 1 1 1 0.050282741739213266 1 1 1 1 1 1 0.070358587645839188 1 1 1 0.049613615531444964 1 1 1 1 1 1 1 1 0.04999339304400683 1 1 0.043849499879687143 1 1 0.058976895860831817 1 0.059822620751536847 1 1 1 1 0.047358317956104456 0.048504248134833637 1 1 0.053049491640421047 0.048389862017024478 1 1 0.046339150966841658 1 1 1 1 0.051971534109899374 1 1 0.048122153812603388 0.055704576421348011 1 0.049981590032443825 1 1 1 1 1 1 1 1 1 1 1 1 1 1 1 1 1 1 1 1 0.052135545924617221 1 1 1 1 0.050717326762617206 1 1 1 1 0.050282902061313361 0.053175536201725819 1 1 1 1 1 1 1 1 1 1 1 1 0.0510634142790789 1 1 1 0.060723476694948375 1 1 1 1 1 1 1 0.057814993544026083 1 1 1 0.052709400369401277 1 1 0.050686291475870102 0.052194864677974545 1 1 1 0.054805352780506161 1 1 1 0.050725812535345673 1 1 1 1 1 1 1 1 1 1 1 1 1 1 1 1 1 1 0.049939348102045485 1 1 1 1 1 1 1 1 1 1 1 1 1 1 1 1 1 1 0.050107540769370032 0.049795885772150023 1 1 1 1 1 0.049654076292872676 0.050304977484513506 1 0.049565147747372744 1 1 1 1 1 1 1 1 1 0.050914306571642372 1 1 1 0.050187905180345091 1 1 1 1 1 1 1 1 1 1 1 1 1 1 0.052167284245276946 1 1 1 1 1 1 1 0.048876062695197023 1 1 0.049502533778025694 1 1 1 1 1 1 0.059732936532114513 1 1 1 1 0.060680442626925249 1 1 1 1 1 1 0.051934912786374895 1 1 1 1 1 1 1 1 0.050069628222414377 0.05854927000848182 1 1 1 0.049326157978769977 0.05492954319731562 1 1 1 1 1 0.049786122782811998 1 1 1 1 1 1 0.052002045408379591 1 1 1 1 0.049735305537982187 1 1 1 1 1 0.05064164526822186 1 1 1 1 0.053176464468782714 1 1 1 1 1 1 1 1 1 1 1 1 1 1 1 1 1 1 1 1 1 1 1 1 1 0.050219492008110087 1 1 1 1 0.047445472743945317 1 0.057758690824019479 1 0.044505869815462458 1 1 0.060329081962092752 1 1 0.053688558035080387 1 1 0.049443107235850714 1 1 1 1 1 1 0.061442062902320467 1 1 0.055893930478878959 1 0.050321180153786046 0.052218168166783999 0.053877913356698531 1 1 0.045981587337354593 1 0.049485819088359848 0.04869362507873895 1 1 1 0.050773468592135294 1 0.050032224794087268 1 1 1 1 1 1 0.051814420521464774 1 1 1 0.049962187801771057 1 1 1 1 1 1 1 0.053467842805916863 1 1 1 0.048167907564701996 1 0.07234608565821804 0.070463675254561736 1 1 1 1 1 1 1 0.050296471593243103 1 1 1 1 1 1 1 1 0.050103956146701253 0.049430389105039357 1 1 1 1 0.04781701670064227 1 1 0.048014295240034754 1 1 1 0.049999980791706797 1 1 1 0.048903327196922884 0.050454480309917754 1 1 1 1 0.050099094915564926 1 1 1 1 1 0.049315133695708509 0.049111355542046278 1 1 1 1 1 1 1 1 1 1 1 1 1 1 1 1 1 1 1 1 1 1 1 1 1 1 1 1 1 1 1 0.050259514075466027 1 1 1 0.04993477639233139 1 1 1 1 1 1 1 1 1 1 1 1 1 1 1 0.049939266746041898 1 0.050226347983487067 0.049586137225170995 1 1 0.049813879209614054 1 1 1 1 1 1 1 1 1 1 1 1 1 1 1 1 1 1 1 1 1 1 1 0.050564815105212012 1 1 0.049025383231896515 0.049942203720874448 1 1 1 1 1 1 1 0.049300915821833595 1 1 1 0.050842277870126157 1 1 1 1 0.050163496057630375 0.050055400075692522 1 1 1 1 1 1 1 0.048497552357335286 1 1 1 1 0.049258192904179189 1 1 1 1 0.049838511728006532 1 1 1 1 1 1 1 1 1 1 1 1 1 1 1 1 1 1 1 0.050640715095926984 1 1 1 1 1 1 1 1 1 1 1 1 1 1 1 1 0.05195390370370899 1 1 1 0.050679548897299906 1 1 1 1 1 1 1 1 1 0.049824305023198651 1 1 1 1 1 1 1 1 1 1 1 1 1 1 1 1 1 1 1 1 1 0.049690721117515775 1 1 1 1 1 1 1 1 1 1 1 1 1 1 1 1 1 0.049090429011522316 1 1 1 1 1 0.050015760381924408 1 1 1 1 1 1 1 1 1 1 1 1 1 1 1 1 1 1 1 1 1 1 1 1 1 1 1 0.050135622156712356 1 1 0.058750302145417696 1 1 1 0.0590468140748973 1 1 1 1 1 1 1 1 1 1 1 1 1 1 1 0.067920343942759656 1 0.045975133770065221 1 1 1 1 1 1 1 1 1 0.064326937953759433 1 1 1 1 1 1 1 1 1 0.05230928036998949 0.059058034180903815 1 1 1 1 1 1 1 1 1 1 1 1 1 1 1 1 1 1 1 1 1 1 1 1 1 1 1 1 1 1 1 1 1 1 1 1 1 1 1 1 1 1 1 1 1 1 1 1 1 1 1 1 1 1 1 1 1 1 1 1 1 1 1 1 1 1 1 1 1 1 1 0.052635840054440719 1 1 1 1 1 1 0.056752498099226792 1 1 1 1 1 1 1 1 1 0.052961011600562963 1 0.056425938414775556 1 1 1 1 1 1 1 1 1 1 1 1 1 1 1 1 1 1 1 1 1 1 1 1 1 1 1 1 1 1 1 1 1 1 0.050436954663254659 1 1 1 0.049822592677817357 0.049621854741485935 1 1 1 1 1 1 1 1 1 1 1 1 1 1 1 1 1 1 1 1 1 1 0.050000268108099426 0.048790991170302951 1 1 1 1 1 1 1 1 0.048792639416313482 1 1 1 1 1 1 0.048520118653723632 1 1 1 1 1 0.050271340906873747 1 1 1 1 0.050085186663153695 1 1 1 0.068001323635089539 1 1 1 0.064081369293763263 1 1 0.058313266011184528 1 1 1 1 1 1 1 1 1 1 1 1 1 0.049939385536352979 1 1 1 1 1 1 1 1 0.050824192817798181 1 1 1 1 1 1 1 1 1 1 1 0.054276937602705577 1 1 1 0.051503524275419453 1 1 1 1 0.049456307971922076 1 1 1 1 1 1 1 1 0.04783747686996203 1 0.059179580333422542 1 1 0.046862453572491483 1 1 1 1 1 0.058373612349046686 1 1 1 1 1 1 1 1 1 1 1 1 0.050945141019958978 1 1 1 1 1 1 1 1 1 0.048858155024310894 1 1 1 1 1 1 0.052506132720795552 1 1 1 1 1 1 1 0.051355848558135568 1 1 1 1 1 0.05230098957809453 1 1 1 1 1 1 1 1 1 1 1 1 1 1 1 1 1 1 1 1 1 1 1 1 1 1 1 1 1 1 1 1 1 1 1 1 1 1 1 1 1 1 1 1 1 1 1 0.052523545913237629 1 0.05644454668903752 1 1 1 1 1 1 1 1 1 1 1 1 1 1 0.049598422209733609 1 1 1 1 1 1 1 1 1 1 1 1 1 1 1 0.050604422400830629 1 1 0.051789531967178302 1 0.053235784937406647 1 1 1 1 1 0.055121970544985778 1 1 1 1 1 1 1 1 1 1 1 1 1 1 1 1 1 1 1 1 0.058863040412254278 1 1 1 1 1 1 1 1 1 1 1 0.060116235789484031 1 0.050037817203014603 1 1 0.060966541927424171 1 0.042623624515057357 1 1 1 1 1 1 1 0.050147758499433877 1 0.072098879738344959 1 1 1 1 0.077078613736103321 1 1 1 1 0.050100114791663673 0.055359746423780949 1 1 0.063437447339071223 1 1 1 1 1 1 1 1 1 1 1 1 1 1 1 1 0.051804238853087575 1 1 1 1 1 1 1 1 1 1 1 1 1 1 0.0552645297638873 1 0.050098193727693745 1 1 1 1 1 1 1 0.071486974776277343 1 0.079899654953620822 1 1 1 1 1 1 1 1 1 0.050152597592047078 0.067899865391091746 1 1 1 0.067262224254235323 1 1 1 1 0.041764580327220711 1 0.056733889985415266 1 1 0.051789456699347654 1 0.02666367215613142 0.040101916984581272 0.048476259371162428 1 1 0.049981831734107071 1 1 1 0.035448968996611104 0.060493034443415528 0.059068347928283894 1 1 1 1 1 1 1 1 1 1 1 0.056231285052452847 1 1 1 1 1 1 0.072323476898847605 1 1 1 0.049550060900093257 1 1 1 1 1 1 1 1 0.053632925676137339 1 1 1 0.051218100686563739 1 1 1 1 1 1 1 1 1 1 1 1 1 1 1 1 1 1 1 1 1 1 1 1 1 1 1 1 1 1 1 1 1 1 1 1 1 1 1 1 1 1 1 1 1 1 1 1 1 1 1 1 1 1 1 1 1 1 1 1 0.049960981699865833 1 1 1 1 1 0.049359052587617705 1 1 1 1 0.049720761206884692 1 1 1 0.044937716745596101 1 1 1 1 1 1 1 1 1 1 1 1 1 1 1 1 1 1 1 1 1 1 1 1 1 1 1 1 1 1 1 1 1 1 1 1 1 1 1 1 0.050278312711896839 1 1 0.050746256992704679 1 1 1 1 1 1 1 0.049986230708713886 1 1 1 1 1 1 1 1 1 1 1 0.049954800979597869 1 1 0.050003672954540515 1 0.049393105548163938 1 1 1 0.051037716837886535 1 1 1 1 1 1 1 1 0.050070987805861569 1 1 1 1 0.050042547531945224 1 1 1 1 0.051598695739160115 1 0.049404949527794423 1 1 1 1 1 1 1 1 1 1 1 1 0.051448822854794032 1 0.051610550218656057 1 1 1 1 1 1 1 1 1 1 1 1 1 0.049867007055641288 1 1 1 1 1 1 1 1 1 0.049753055675066334 1 1 1 0.049886048619425097 1 1 1 1 1 1 1 1 1 1 1 1 1 1 1 1 1 1 1 1 1 1 1 1 1 1 1 1 1 1 1 1 1 1 1 0.049933123243912816 1 1 0.050013316866196957 1 1 1 1 0.050160370722274222 1 1 1 1 1 1 1 1 1 1 1 1 1 1 1 0.050241379319094219 1 1 1 1 1 1 1 1 1 0.050527721224555101 1 0.050168629241969818 1 1 1 1 1 1 1 0.05007234597043695 1 1 1 1 1 1 1 1 1 1 1 1 1 1 0.053417477239836239 1 1 1 1 1 1 1 1 1 1 1 0.059217591289618177 1 1 1 1 1 1 1 1 1 1 1 1 1 1 1 1 1 1 1 1 1 1 1 0.049769123672580975 1 0.05016482642469175 1 1 1 1 1 1 0.049836493318583586 1 0.05357387898233347 1 1 1 0.047777971916582639 1 1 1 0.060998662103676812 1 1 1 0.045679955057340259 1 1 0.056989492471124281 1 1 1 1 1 1 1 0.052391240822894564 1 1 1 1 1 1 1 0.063347074818549509 1 1 1 1 1 1 1 1 1 1 1 1 1 0.051348986736884997 1 1 1 1 1 1 1 1 0.06010258287357706 1 1 1 1 1 1 1 1 1 1 1 1 1 1 1 1 1 1 1 1 0.063079404884101159 1 1 1 1 1 1 1 1 1 1 1 1 1 1 1 1 1 1 1 1 1 1 1 1 1 1 1 1 1 1 1 1 1 1 1 1 1 1 1 1 1 1 1 1 1 1 1 1 1 1 0.050670447289571909 1 0.053366768488001343 1 1 1 0.049570059749590764 1 1 0.050014518608301403 0.054608032527592852 1 0.05178462226600198 1 1 1 1 1 1 1 1 1 1 1 1 1 1 1 1 1 1 1 1 1 1 1 1 1 1 1 1 1 1 1 1 1 1 1 0.050199351758562584 1 1 1 1 0.038506344391632905 1 1 5.5511151231257827e-17 1 1 1 0.089035930012330247 1 1 1 1 0.051101727129319402 1 0.049987344416507727 0.052200730484264407 1 1 1 1 0.072257445613489374 1 1 1 0.010552777454764337 1 1 1 0.049886399257615774 1 1 1 1 1 1 0.050003481898305974 1 1 1 1 1 1 1 1 1 1 1 1 1 1 1 1 1 1 1 1 0.050470560827503591 1 1 1 1 1 1 1 1 1 1 1 1 1 1 1 1 1 1 0.050222096043102238 1 1 0.050597681631569913 1 1 0.052839775369318748 1 1 1 1 1 1 1 1 1 1 1 0.050888692095057309 1 1 1 1 0.051417601648352643 1 1 1 1 0.049416279354269711 1 1 1 0.050397856892329403 1 1 1 1 1 1 1 1 1 1 1 1 1 1 1 1 1 1 1 1 1 1 1 1 1 0.050084938779862788 1 1 1 1 1 1 1 1 0.050397907114959381 1 1 1 0.050685956622241637 1 1 1 1 1 1 1 1 1 1 1 1 1 1 1 1 1 1 1 1 1 1 1 1 0.046821944378756281 1 1 1 0.049631046679435506 1 1 1 1 1 1 1 1 0.04687966995073925 1 1 0.058160831117905681 1 1 1 1 0.052999952729952539 1 1 1 1 1 1 1 0.048610187790079411 1 0.056677458047926219 1 1 0.059057939838525045 1 1 0.047855702571974121 0.049977646766432099 1 1 1 1 1 1 1 1 1 1 1 1 1 1 1 1 1 1 1 1 1 0.050004229379847526 1 1 1 1 0.04939881716116605 1 1 1 1 1 1 1 1 1 1 1 1 1 0.048528026304862609 1 1 0.050058359346428702 1 1 1 1 1 1 1 1 1 1 1 1 1 1 1 1 1 1 1 1 1 1 1 1 1 1 1 1 1 1 1 1 1 1 1 1 1 1 1 1 1 1 1 1 1 1 1 1 1 1 1 1 1 1 1 1 1 1 1 1 1 1 1 1 1 1 1 1 1 1 1 1 1 1 1 1 1 1 1 1 1 1 1 1 1 1 1 1 1 1 1 1 1 1 1 1 1 1 1 1 1 1 1 1 1 1 1 1 1 1 1 1 1 1 1 1 1 1 1 1 1 1 1 1 1 1 1 1 0.052281367225504811 1 1 1 1 1 1 1 0.049719197751540656 1 1 1 1 1 1 1 1 1 0.048429056825385647 1 0.053466496053493823 1 1 1 0.051907754153973439 1 1 0.05403479888934673 1 1 1 1 1 1 1 1 1 1 1 1 1 1 1 1 1 1 1 1 1 1 1 1 1 1 1 1 1 1 1 1 1 1 1 1 1 0.052047246828276758 1 1 0.049777841148410079 0.05800405803690311 1 1 0.049628984422180049 1 1 0.052782571659529924 1 1 1 0.05368328278826312 1 1 1 1 1 1 1 1 1 0.055321614051425577 1 1 1 1 1 1 0.051337929384626009 1 1 1 1 1 1 1 1 1 1 1 1 1 1 1 1 1 1 1 1 1 1 1 1 1 1 1 1 1 1 1 0.048366011268126792 1 1 1 1 1 1 1 1 1 1 1 1 1 1 1 1 1 1 1 1 1 1 1 1 1 1 1 1 1 1 1 1 1 1 1 1 1 1 1 1 1 1 1 1 1 1 0.056773899436115681 1 0.058364590759177132 1 1 1 1 0.050052775980944798 1 1 1 1 0.06383961846347902 1 1 1 1 0.04977467748192399 1 1 1 1 1 1 1 1 0.062164511124045772 1 1 0.050544674994123268 1 0.049490848906779177 1 1 1 1 0.046549104605708533 1 1 0.065866693144026572 0.044298219869542882 1 1 1 1 1 1 0.050094250935618714 1 1 1 1 1 1 1 1 1 1 0.066296279143817749 0.049856018877865518 1 1 1 1 1 0.050153858969155335 1 1 0.065132823019940014 1 1 1 1 0.057676903899746619 1 1 0.051631157387127653 1 1 1 1 1 1 1 1 1 1 1 1 1 1 1 1 1 1 1 1 1 1 1 1 1 1 1 1 1 0.059989580031890109 1 0.054154937803859715 1 1 1 1 1 1 1 1 1 1 1 1 1 0.049977196244961324 1 1 1 1 0.052311132805234806 0.050075425786726691 1 1 1 1 1 1 1 1 1 1 1 1 1 1 1 1 1 1 1 1 1 1 1 1 1 1 1 1 1 1 1 1 1 1 1 1 1 1 1 1 1 1 0.04995362154312364 1 1 1 0.049976425298162278 1 1 1 1 1 1 1 1 1 1 1 1 1 1 1 1 1 1 1 1 0.053363091603474425 1 1 0.052859589430049578 1 1 1 1 1 1 1 1 1 0.053110573412847063 1 1 1 1 1 0.057685703994577876 1 1 1 1 1 0.050007495821814373 1 0.049999966080761418 1 1 1 1 1 1 1 1 1 1 1 1 1 0.048474871503953 1 1 1 0.049676765718421008 0.055810894587480439 1 1 1 1 1 1 1 1 0.057478391299647331 1 1 0.05372803511731819 1 1 0.049914939768188629 0.051678911424742333 1 1 1 1 1 0.051838667332361706 1 1 1 1 1 1 1 0.050805480257398242 1 1 0.051528013134215636 0.052895015751741853 1 1 1 1 1 1 0.049861867726670853 0.050070203700908436 1 1 1 0.049969215556312702 1 1 1 1 1 1 1 0.04991042772543984 1 1 1 1 1 1 1 1 1 1 1 1 1 1 1 1 1 1 1 1 1 1 1 1 1 1 0.088683904033854039 1 1 1 1 1 1 1 0.049518007893719046 1 1 1 1 1 1 1 1 1 1 1 0.078927169158547278 1 1 1 1 1 1 1 1 0.04789484465213676 1 1 1 1 1 1 1 1 1 1 1 1 1 1 1 1 0.051506009084844914 1 1 1 0.048867417346297654 1 1 1 1 1 0.055288465548704528 1 1 1 1 1 1 1 1 1 1 1 1 1 1 0.051834571735646325 1 1 1 1 0.055188169314948778 1 1 0.05776868000176557 1 1 1 1 1 0.049857935973641479 1 1 1 1 1 1 1 1 1 1 1 1 1 1 0.049464962770458344 1 0.040372461827255637 1 1 1 0.060764387945959647 1 0.070680210337086796 1 0.035233367366510046 1 1 1 1 1 1 0.049948941667205524 0.093613500891280121 1 1 1 1 1 1 0.09077203466906808 1 0.049070530242305357 1 1 1 1 1 1 1 1 1 1 1 1 1 1 1 1 1 0.040423351869612524 1 1 1 0.049933793628441289 0.04383971410040749 1 1 1 1 1 0.046416835025869352 1 1 0.049918885609774963 0.048778041537272665 1 1 1 1 1 1 1 1 1 1 1 1 1 1 1 1 1 1 1 1 1 1 1 1 1 1 1 1 1 1 1 1 1 1 1 1 1 1 1 1 1 1 1 1 0.063656963884203027 1 1 0.046867208366232371 0.049466405245431611 0.049459347715881202 1 1 1 1 1 1 0.049833153611498301 1 1 1 1 1 1 1 1 1 0.049842933952706614 1 1 1 0.06246397591101692 1 1 1 1 1 1 1 1 1 1 1 1 1 1 1 1 1 1 1 1 0.059000166390051331 1 1 1 1 0.05326271421714289 1 1 1 1 1 1 1 1 1 1 1 1 1 1 1 1 1 1 1 1 1 1 1 1 1 1 1 1 1 1 1 1 1 1 0.052815694216120659 1 0.051168979791340552 1 1 1 1 1 1 1 1 0.052952017558877386 1 1 1 0.058411296926354425 1 0.05178303776753683 1 1 1 1 1 1 1 1 0.067091490147423966 1 1 1 1 0.055365970702616792 1 1 1 1 0.06359823084575339 1 1 1 1 1 1 1 0.064424700693653844 1 1 1 1 0.056422072558134223 1 1 1 1 1 1 1 1 1 1 1 1 1 1 1 1 1 1 1 1 1 1 1 1 1 1 1 1 1 1 1 1 1 1 1 1 1 1 1 1 1 1 1 1 1 1 0.051398627307624428 1 1 1 1 0.05367834142003574 0.056964933482178529 1 1 0.058176653323663417 0.052075331227408775 1 1 1 1 1 1 1 1 1 1 1 1 1 1 1 1 1 1 1 0.051168602932962819 1 1 1 0.053026542767814523 0.052053735437050636 1 1 1 1 1 1 1 1 1 1 1 1 1 1 1 1 1 1 1 1 1 1 1 1 1 1 1 0.051143925959820591 1 1 1 1 1 1 1 0.051904001368431332 1 1 1 1 1 1 1 1 1 1 1 1 1 1 1 0.052871006954328829 1 1 1 1 1 1 1 1 0.051059772486291739 1 0.050601591109855334 0.052706731005500038 1 1 1 1 1 1 1 1 1 1 1 1 0.049027427305839109 1 1 1 1 1 1 1 1 1 1 1 1 1 1 1 1 1 1 0.043009019823976508 1 1 1 0.041602910632823606 1 1 1 1 1 1 1 1 0.047084856623052486 1 1 1 1 1 1 1 1 1 1 1 1 1 1 1 0.049987841727979439 1 1 1 0.050313185798547433 1 1 1 1 1 1 1 1 1 1 1 1 1 1 1 1 1 1 1 1 1 1 1 1 1 1 1 1 1 1 1 1 1 0.051947538375781505 1 0.050804877780770842 1 1 1 1 1 1 1 1 0.049741462869419696 1 1 1 1 1 1 1 1 1 0.052962634559078181 1 1 0.047052600502629646 1 1 1 1 1 0.048464212311923535 1 1 1 1 0.050077043535362201 1 1 1 1 0.044430341064334876 1 1 1 0.044668124037711095 1 0.064476489746731355 1 1 0.065241772674647841 1 1 1 1 1 1 1 1 1 1 1 1 1 1 0.049688002769280988 1 1 0.052505110140695754 1 0.04950594363888268 1 1 1 0.056899540576680077 1 1 0.054519104833677411 1 1 1 1 0.065768227494523393 1 0.048075065292191216 1 1 1 1 1 1 0.049375606884873517 1 0.0503504273896761 1 1 1 1 1 0.04969167028674662 1 1 1 1 0.066938146507779142 1 1 1 1 1 1 0.04859415057570951 1 1 1 1 1 1 1 1 1 1 1 1 1 1 1 1 1 1 1 1 1 1 1 1 1 1 1 1 1 1 1 1 1 0.050256364907998348 0.049986625546997385 1 1 1 1 1 1 1 1 1 1 0.046074909995031207 1 1 0.06793444998628112 0.047019074434520462 1 0.049971652836535804 1 1 1 1 1 1 1 0.044598905649553419 1 1 1 1 1 1 1 1 1 1 1 1 0.055196732394883978 1 1 1 1 0.051734939243488431 1 1 1 1 1 1 1 1 1 1 1 1 0.055594713931209551 1 1 1 1 1 1 1 1 1 1 1 1 1 1 1 1 1 0.054136737965953613 1 1 1 1 1 0.051057334366897911 1 1 1 0.055965100221490829 1 1 1 1 1 1 0.054620377937112607 1 0.056656049285186957 1 1 1 0.053278820614966131 1 1 1 1 1 1 1 1 1 0.05925334003687454 1 1 0.049930400353491868 1 1 1 1 1 1 1 0.051832527544643278 1 1 1 1 1 1 1 1 1 1 1 1 1 0.049026046868842474 1 1 0.05162979315385325 1 1 1 1 1 1 0.050019126063043776 1 1 1 1 1 1 0.061280082950012166 1 1 1 1 1 1 1 0.066043267912737 1 1 1 1 1 1 1 1 1 1 1 1 1 1 1 1 1 1 1 1 1 1 0.052018068245078312 1 1 1 1 1 1 1 1 1 1 0.043404391733053008 1 1 1 1 0.040440595416727787 0.06046575091431948 1 1 1 1 0.05827138895547572 1 1 1 1 1 1 1 1 1 0.056129875219200986 1 1 1 1 1 1 1 1 1 1 1 0.054760830259294346 1 1 1 0.049235711287179774 1 1 1 0.051591563441512535 1 1 1 1 1 1 1 1 1 1 1 1 0.046710916342028189 1 1 1 1 1 0.04997310637165682 1 1 0.04997355194598601 1 1 1 1 1 1 1 1 1 1 1 1 1 1 0.051619181832098064 1 1 1 1 1 1 1 0.053168956932724457 1 1 1 0.051591262925317301 1 1 1 1 1 0.050014286066645777 1 1 1 1 1 1 1 1 1 0.050013840492316587 1 1 1 1 1 1 1 1 0.04837059799766831 1 1 1 1 1 0.050587137177348612 1 1 1 1 1 1 1 0.050192392330395429 1 1 1 1 1 1 1 1 1 1 1 1 1 1 1 1 1 1 1 1 1 1 1 1 1 1 1 1 1 1 1 1 1 1 1 1 1 1 1 1 1 1 1 1 1 1 1 1 0.0531772498290215 1 1 1 1 1 1 1 0.05353329073031203 1 1 1 1 1 1 1 1 1 1 1 1 1 1 1 1 1 1 1 1 1 1 0.055405876780543248 0.049512614133773475 1 1 0.059599911542598728 0.045780426810904114 1 1 1 1 1 1 1 0.04888935686348115 1 1 1 1 1 1 1 1 1 1 1 1 1 1 0.056100382046858459 1 1 1 1 1 1 1 1 0.052953465562281636 1 1 0.050632771243265318 1 1 1 0.050979409229579109 1 1 1 1 1 1 1 1 1 1 1 1 1 1 1 1 1 1 1 1 1 1 1 1 1 1 1 1 0.05582145432708116 1 1 1 1 1 1 1 1 0.049677635968343889 1 1 1 1 1 1 0.066026944231766305 0.048142165450135319 1 1 1 1 0.049140582688128598 1 1 0.059918779295763211 1 1 0.059053427267211807 1 1 1 1 1 1 0.050380582283761917 1 1 1 1 1 1 1 1 0.050616485100291382 1 1 1 1 1 1 1 1 1 1 1 0.051424267774977217 1 1 0.050808759761611755 1 1 1 1 1 1 1 0.052112278263987177 1 1 1 0.05074615688437753 1 0.050699486024079816 1 0.051306904621870153 1 1 1 1 1 1 1 1 1 1 1 1 1 1 1 1 1 0.055480341124518953 1 0.049997601710859971 1 1 1 1 1 1 1 1 1 1 0.053756192937662914 1 1 1 1 1 1 1 0.05035434170322646 1 1 1 0.04998395192145532 1 0.05155518533340521 0.049163975118419148 1 1 0.042440743565771148 1 1 1 1 0.056467609404601694 1 1 1 0.048344565019331445 1 1 1 0.050412058117222089 1 0.052113956382615526 0.066422853707622215 1 1 1 1 1 1 0.05114440830461018 1 1 1 1 1 1 1 1 0.067135733766347419 0.049998271736810436 0.05577951297695375 1 0.076987203396174111 1 1 0.04451711897763861 0.050000725456446821 1 1 0.044804728629402754 1 1 1 1 1 1 1 1 1 1 1 0.050176110474886335 1 1 1 1 1 1 1 1 1 1 1 1 1 0.058445348862592464 0.062836624963163806 1 1 1 1 0.060977584792162129 1 1 1 0.050998578168432555 1 1 1 1 1 0.058776289726326911 0.050006030920230718 1 1 1 0.047479644231273863 1 1 1 1 1 1 1 1 1 1 1 1 1 1 1 0.050288903083507711 1 1 1 0.053728835841114021 1 1 1 0.050173228406422757 1 1 1 1 1 1 0.05879541986044784 1 1 1 1 1 0.058005612230542236 1 1 1 1 1 1 1 1 0.054220167861532532 1 1 1 1 1 1 1 1 1 0.050441417495744038 1 1 1 1 0.060089426192788342 1 0.049705103716726623 1 1 0.060826251706178343 1 0.049730976443998952 1 1 1 1 1 1 0.050690213514547625 1 0.049939467747464494 0.069765669466565455 1 1 1 1 1 1 1 1 0.044015218979100844 1 0.049862230736822027 1 0.049999739201890367 1 0.069134126275644386 1 1 1 1 1 1 1 1 1 1 1 0.050270112290476586 1 1 1 0.050647326655206673 1 1 1 1 1 1 1 1 0.050377214364730055 1 1 1 1 1 1 1 1 1 0.050115898129272057 1 1 1 1 0.049715710329484339 1 1 0.04919185130992583 1 1 1 1 1 1 1 1 1 0.049290990475394418 1 1 1 0.048955664202491228 1 1 1 1 1 1 1 1 1 1 1 1 1 1 1 1 1 1 1 0.049994530263612433 1 1 1 1 1 1 1 1 1 1 0.050528350209037995 1 1 1 1 1 1 1 1 1 1 1 1 1 1 1 1 1 1 1 1 1 1 1 1 1 1 1 1 1 1 1 1 1 1 1 1 1 1 1 1 1 1 1 1 1 0.073380199326056106 0.049648844852263431 1 1 1 1 1 1 1 1 1 1 1 1 1 0.087812963189276894 0.043228862172258492 1 1 1 0.046879029714137335 1 1 0.059948930310171282 1 1 1 0.064480251625638474 1 1 1 0.075789584811668434 1 1 1 1 1 1 1 1 0.048073941584954656 1 1 0.052938959820998388 1 0.064620781697755481 0.053104595924573179 1 1 1 1 1 1 0.066880659618742802 1 0.047087857785067487 0.052438069181042511 0.050458207886679672 1 1 0.057240182498281736 1 1 0.061361488576798497 0.062215951580329582 1 1 1 1 1 1 1 1 1 1 1 1 1 1 1 1 1 1 1 1 1 0.050528610674190746 1 1 1 1 1 1 1 1 1 0.052206608633476065 1 1 1 1 1 1 1 0.04806901547701585 0.050472269373089212 1 1 1 1 1 1 1 1 1 1 1 1 1 1 1 1 1 1 1 1 1 1 1 0.051883903368030067 1 0.049945279586206218 1 1 1 1 1 1 1 0.05149201528204847 1 1 1 0.054608347168912018 0.04923045190794921 1 1 0.049559698119242018 1 1 1 1 0.055279373807862381 1 1 1 0.054673900648510444 1 1 1 0.084562856197037795 1 1 1 1 1 1 1 1 1 0.089933382526117378 0.044189528100069396 1 1 1 1 1 0.058973072123125934 1 1 0.044572019318061283 0.069616978153156137 0.089794861060302406 1 1 1 1 1 0.048187223625046141 1 1 1 1 1 1 1 1 1 0.049203734858617891 1 0.049661807729253334 1 1 1 1 1 1 1 1 1 1 1 1 1 1 1 1 1 1 1 1 1 1 1 1 0.049506401202541454 1 1 1 1 0.047132602443968795 0.048543326455787697 1 1 1 0.048133535244768509 1 1 1 1 1 1 1 1 1 1 1 1 1 1 1 1 0.06911277089020737 1 1 1 0.050040966407395332 1 1 0.037591582334472615 1 1 1 1 1 1 1 1 1 1 1 1 1 0.047667063537198302 1 1 0.067154530069551244 1 1 1 0.041626948548520969 1 0.07906774008200565 1 0.050072476153191756 1 0.052915867591891708 0.06591156948054358 0.050019575200102348 1 1 1 1 1 1 1 1 0.049866120071871224 1 1 1 1 1 1 1 1 0.060213661777838837 1 1 0.051929478926026874 1 1 1 1 1 1 1 1 1 1 1 1 1 1 1 1 1 1 1 1 1 0.049296042901880562 1 1 1 1 1 1 1 1 1 1 0.049527974200168232 1 0.049475383722145799 1 1 0.050905106702053407 1 0.050172589640157625 1 0.050007221112458325 1 1 0.05006150629366235 1 0.061252434183975399 1 1 0.048824950121430226 1 1 1 0.049897586068250788 1 1 1 1 1 1 1 1 1 1 1 1 1 1 1 1 1 1 1 1 1 1 1 1 1 1 1 1 1 1 1 1 1 1 1 1 1 1 1 1 1 1 1 1 1 1 1 1 1 1 1 1 1 1 1 1 1 1 1 1 1 0.05445166243188064 1 1 0.067777937351306841 1 1 1 1 1 1 0.049582337893124828 0.057616146400641 1 1 1 1 1 1 1 1 1 1 1 1 1 1 1 1 1 1 0.063822257932381554 1 1 1 0.050247176444962155 1 1 1 1 1 1 1 1 1 1 1 1 1 1 1 1 0.04987354736726856 1 1 1 1 1 1 1 0.064072841351098253 1 1 1 1 1 1 1 1 0.06021377460255746 1 0.050289200984876804 1 1 1 1 1 1 1 1 1 1 1 1 1 1 1 1 0.049989556175392788 1 1 1 1 1 1 1 0.04996061177778887 1 1 1 1 0.050009303773546857 1 1 1 1 1 1 1 0.050025776999173405 1 1 0.052888930950421284 0.050145211709823639 1 1 0.048520384935391958 1 1 1 1 1 1 0.049914043868943173 1 1 1 1 1 1 1 1 1 0.050120897993453997 1 1 0.050015992993671807 1 1 0.050004671917083202 1 1 0.053840216075582009 1 1 1 1 1 0.054647879698614996 1 1 1 1 1 1 1 1 0.050082178575515203 1 1 1 1 1 1 1 0.050192649100384103 1 1 1 1 1 1 1 1 1 1 1 1 0.049825587900853979 1 1 1 1 1 1 1 0.050058063221743998 0.049989985566412494 1 0.055007224864404833 1 0.054058626563911971 1 1 1 1 1 1 1 1 1 1 1 1 1 1 1 0.050006883880235331 1 0.053780714424505299 1 1 1 1 1 1 1 1 0.048845815040884553 1 0.051527353559832595 1 0.052268718704278308 1 0.049815242891632472 1 0.049979092719588177 1 1 0.050099108080603957 1 1 1 1 1 0.050351174246842087 1 1 1 1 1 1 1 1 0.049939680946913492 1 1 1 1 1 0.049818241225790767 1 1 0.055024307939335951 1 0.049383431939451175 0.051698629115037732 1 1 1 1 1 1 1 1 0.049999885917539656 1 1 1 1 1 1 1 1 1 1 1 1 1 0.049979952320655129 1 1 1 1 1 1 1 0.049999409029888711 1 1 1 0.049999407061456461 1 1 1 1 1 1 1 1 1 1 1 1 1 1 1 1 1 0.050130800622308777 1 1 1 1 1 1 1 0.050061910007186315 1 1 0.050019994551173959 1 1 1 1 1 1 1 1 1 1 1 1 1 1 1 0.050095468264366387 1 1 1 1 0.049971805095448546 1 1 1 1 1 1 1 1 1 1 1 1 1 1 1 1 1 1 1 1 1 1 1 1 1 0.051064332934510764 1 1 1 1 1 1 0.050020507609775083 1 1 1 1 1 1 1 1 1 0.052535952616568904 0.050664261868264039 1 1 1 0.051238096401243001 1 0.049986371536336276 1 1 1 1 1 1 1 1 1 1 1 1 1 1 1 0.050042638893817278 1 1 1 1 1 1 1 1 1 1 1 1 0.050007231482315055 0.050030367727953357 1 1 1 1 1 1 1 1 0.050064175947974188 1 1 0.050000904060800391 1 1 0.050753317170490024 0.049635175962951701 1 1 1 1 1 1 1 0.050240514502024908 1 1 1 1 1 1 1 1 1 0.050023136245638283 1 1 1 0.051003124538929606 1 1 1 1 1 0.050817534362881694 1 1 1 1 1 1 1 1 1 1 1 1 0.050774803979831695 1 1 1 0.050026183762132137 1 1 1 0.050013304264116321 1 1 1 1 1 1 1 1 1 1 1 1 1 1 1 1 1 1 1 1 1 1 1 1 1 1 1 1 1 1 1 1 0.049856431552849814 1 1 1 1 1 1 1 1 1 1 1 1 1 1 1 1 1 1 1 1 1 1 1 1 0.050105450454485757 1 0.050006789002028713 1 1 0.053470917735168218 1 1 1 1 1 1 1 1 1 0.05035660947080934 1 1 1 1 1 1 1 1 1 1 1 1 1 1 0.052971715890098858 1 1 1 1 0.052289938157414777 1 1 1 0.050937214646724821 1 1 1 1 1 1 1 1 1 1 1 1 1 1 1 1 1 1 1 1 1 1 1 1 1 1 1 1 1 1 1 1 1 1 1 1 1 1 1 1 1 1 1 1 1 1 1 1 1 1 1 1 1 1 1 1 1 1 1 1 1 1 1 1 1 1 1 1 1 1 1 1 1 1 1 1 1 1 1 1 1 1 1 1 1 1 1 1 1 1 1 1 1 1 1 1 1 1 1 1 1 1 1 1 1 1 1 1 1 1 1 1 1 1 1 1 1 1 1 1 1 1 1 1 1 1 1 1 1 1 1 1 1 1 1 1 1 1 1 1 1 1 1 1 1 1 1 1 1 1 1 1 1 1 1 1 1 1 1 1 1 1 1 1 1 1 1 1 1 1 1 1 1 1 1 1 1 1 1 1 1 1 1 1 1 1 1 1 1 0.053505119919692805 1 1 1 1 1 1 1 1 1 1 1 1 1 1 1 1 0.051447503095400832 1 1 1 1 1 1 1 1 0.073821107932535157 1 1 1 1 0.049162720196644569 1 1 1 1 1 1 1 1 1 1 1 1 1 1 1 1 1 1 1 1 1 1 0.051237976833186233 1 1 1 1 1 1 1 1 1 1 1 1 1 0.047682802511590634 0.05233058694814776 1 1 1 1 1 0.04988927260240749 1 0.068322183884729715 1 1 1 1 1 1 1 1 1 1 1 0.050365768326754407 1 1 1 1 1 1 1 0.10950942746851169 1 1 1 1 1 1 1 1 1 1 1 1 1 1 1 0.050589886558962294 0.11450017464422205 1 1 1 1 1 1 1 1 1 1 1 1 0.061216502499769399 1 1 1 1 1 1 1 1 1 1 1 1 1 1 1 1 0.053796851940209278 1 1 1 1 1 1 1 0.11678237054058968 1 1 1 1 1 1 1 1 1 1 0.049641916379861331 0.10988994993341158 1 1 1 1 1 1 1 1 1 1 1 1 1 1 1 1 1 1 1 1 1 1 1 1 1 1 1 1 1 1 0.051889985170115158 1 1 1 1 1 0.051814197935066329 1 1 1 1 1 1 1 1 1 1 0.050776923324876662 1 1 1 1 0.050073278908309739 1 1 1 1 1 1 1 1 1 1 0.051647129284745859 1 0.050609854674556164 1 1 1 1 1 1 1 1 1 1 1 1 1 1 1 1 1 1 1 1 1 1 1 1 1 1 1 1 1 1 1 0.050361105205748213 1 1 1 1 1 0.05095099176471049 1 1 1 1 1 1 1 1 1 1 1 1 1 1 1 1 1 1 0.051058301110856796 1 1 0.098742834330270701 1 1 1 0.050355733130991003 1 1 1 1 1 0.10455256207586172 1 1 1 1 1 1 1 1 1 1 0.060788712954366345 1 1 1 1 1 1 0.050825226998041095 1 1 1 1 1 0.030946487686581106 0.04949359184348999 1 1 0.078267579246192834 1 1 0.050865091537462444 1 1 1 1 1 1 1 1 1 1 0.050960036218389071 1 1 0.050592756603318828 1 1 0.050012898201735274 1 1 0.052419968722158594 1 1 0.051413447411580937 1 1 0.04981724482497947 1 1 1 1 1 1 0.051831661964395939 1 1 1 1 1 1 1 1 1 1 1 0.078414332903563991 1 1 1 1 1 1 1 0.050485103454418964 1 1 1 1 0.051210142211644667 1 1 1 0.076240710107008364 1 1 1 1 1 1 1 1 1 1 1 0.053667678050136738 1 1 1 1 1 1 1 1 1 1 1 1 1 1 1 1 1 1 1 1 1 1 1 1 0.050074513729708434 1 1 1 1 1 0.050236240001073948 1 1 1 1 1 1 1 1 1 1 1 1 1 1 0.054843276028476926 1 1 0.05239987706821992 1 0.063352029303283416 1 1 1 1 0.070150590745353236 1 0.049625951129473822 0.051491191541300899 1 0.055149080020075958 1 1 1 1 1 1 1 0.050015316111068561 1 0.054635766923181076 1 1 1 1 1 1 0.048731405156605456 1 1 1 1 1 1 0.050047638082487661 1 1 1 1 0.050075281089649377 1 1 1 1 1 0.050093639792752213 1 1 0.050852115746846012 1 1 1 1 0.049975008072681328 1 1 1 1 0.054007763538323462 1 1 1 1 1 1 0.049558582348543836 1 1 1 1 1 1 1 1 1 0.050000267314524366 1 1 1 1 1 1 0.051376859183815168 1 1 1 1 0.053901178173986181 1 1 1 1 1 1 1 1 1 1 1 1 1 1 1 1 0.050151341872606794 1 1 1 0.049570897665315458 1 1 0.057633295002246607 1 1 1 1 1 1 1 1 1 1 1 1 1 1 1 1 0.049650050455861294 1 0.056881685970904108 1 1 1 1 1 1 1 1 1 1 1 1 1 1 1 1 1 1 1 1 1 1 1 1 1 1 0.071291218521299382 1 1 0.055963726202666077 1 1 1 1 1 1 1 1 1 1 0.053942037121685958 1 1 1 1 0.049472014153262828 1 1 1 1 0.049821963697401522 1 1 1 1 1 1 1 1 1 0.053561498070586577 1 1 1 1 1 1 1 1 1 1 1 1 1 1 1 1 1 1 1 1 1 1 1 1 1 1 1 1 
</DataArray>
</CellData>
</Piece>
</UnstructuredGrid>
</VTKFile>
